41
Lattice="11.518769465528859 0.0 0.0 0.0 7.679179643685906 0.0 0.0 0.0 30.7875" Properties=species:S:1:pos:R:3:move_mask:L:1:tags:I:1:forces:R:3 surface=Si100 species=CH3F site=bridge_Si_Si orientation=upright height_A=6.5 substrate_atoms=36 calculation_kind="Rigid evaluated approach scan; not NEB" energy=-204.25090419172574 pbc="T T F"
Si       0.00000000       0.00000000      12.00000000  F        6      -0.00000004       0.00000000       0.24903484
Si       3.83958982       0.00000000      12.00000000  F        6      -0.00000000       0.00000000       0.24903482
Si       7.67917964       0.00000000      12.00000000  F        6       0.00000000       0.00000000       0.24903482
Si       0.00000000       3.83958982      12.00000000  F        6      -0.00000004      -0.00000000       0.24903484
Si       3.83958982       3.83958982      12.00000000  F        6      -0.00000000      -0.00000000       0.24903482
Si       7.67917964       3.83958982      12.00000000  F        6       0.00000000      -0.00000000       0.24903482
Si       1.91979491       0.00000000      13.35750000  F        5       0.00000000      -0.00000002      -0.52822352
Si       5.75938473       0.00000000      13.35750000  F        5       0.00000000      -0.00000002      -0.52822353
Si       9.59897455       0.00000000      13.35750000  F        5       0.00000003      -0.00000002      -0.52822354
Si       1.91979491       3.83958982      13.35750000  F        5       0.00000000       0.00000000      -0.52822354
Si       5.75938473       3.83958982      13.35750000  F        5       0.00000000       0.00000000      -0.52822354
Si       9.59897455       3.83958982      13.35750000  F        5       0.00000003       0.00000000      -0.52822356
Si       1.91979491       1.91979491      14.71500000  F        4      -0.00000000       0.00000000       0.14537709
Si       5.75938473       1.91979491      14.71500000  F        4       0.00000000       0.00000000       0.14537709
Si       9.59897455       1.91979491      14.71500000  F        4       0.00000004       0.00000000       0.14537711
Si       1.91979491       5.75938473      14.71500000  F        4      -0.00000000       0.00000002       0.14537707
Si       5.75938473       5.75938473      14.71500000  F        4       0.00000000       0.00000002       0.14537707
Si       9.59897455       5.75938473      14.71500000  F        4       0.00000004       0.00000002       0.14537709
Si       0.00000000       1.91979491      16.07250000  F        3      -0.00000004       0.00000000      -0.14537711
Si       3.83958982       1.91979491      16.07250000  F        3      -0.00000000       0.00000000      -0.14537709
Si       7.67917964       1.91979491      16.07250000  F        3       0.00000000       0.00000000      -0.14537709
Si       0.00000000       5.75938473      16.07250000  F        3      -0.00000004       0.00000002      -0.14537709
Si       3.83958982       5.75938473      16.07250000  F        3      -0.00000000       0.00000002      -0.14537707
Si       7.67917964       5.75938473      16.07250000  F        3       0.00000000       0.00000002      -0.14537707
Si       0.00000000       0.00000000      17.43000000  F        2      -0.00000003      -0.00000002       0.52822354
Si       3.83958982       0.00000000      17.43000000  F        2      -0.00000000      -0.00000002       0.52822353
Si       7.67917964       0.00000000      17.43000000  F        2      -0.00000000      -0.00000002       0.52822352
Si       0.00000000       3.83958982      17.43000000  F        2      -0.00000003       0.00000000       0.52822356
Si       3.83958982       3.83958982      17.43000000  F        2      -0.00000000       0.00000000       0.52822354
Si       7.67917964       3.83958982      17.43000000  F        2      -0.00000000       0.00000000       0.52822354
Si       1.91979491       0.00000000      18.78750000  F        1      -0.00000000       0.00000000      -0.24903482
Si       5.75938473       0.00000000      18.78750000  F        1       0.00000000       0.00000000      -0.24903482
Si       9.59897455       0.00000000      18.78750000  F        1       0.00000004       0.00000000      -0.24903484
Si       1.91979491       3.83958982      18.78750000  F        1      -0.00000000      -0.00000000      -0.24903482
Si       5.75938473       3.83958982      18.78750000  F        1       0.00000000      -0.00000000      -0.24903482
Si       9.59897455       3.83958982      18.78750000  F        1       0.00000004      -0.00000000      -0.24903484
F        7.67917964       3.83958982      25.28750000  T        0       0.00000000      -0.00000000      -0.00285954
C        7.67917964       3.83958982      26.70715213  T        0      -0.00000019       0.00000000       0.00319168
H        8.72594606       3.83958982      27.02687412  T        0      -0.00125386       0.00000000      -0.00011068
H        7.15579643       4.74611614      27.02687412  T        0       0.00062702      -0.00108610      -0.00011073
H        7.15579643       2.93306350      27.02687412  T        0       0.00062702       0.00108610      -0.00011073
41
Lattice="11.518769465528859 0.0 0.0 0.0 7.679179643685906 0.0 0.0 0.0 30.7875" Properties=species:S:1:pos:R:3:move_mask:L:1:tags:I:1:forces:R:3 surface=Si100 species=CH3F site=bridge_Si_Si orientation=upright height_A=5.0 substrate_atoms=36 calculation_kind="Rigid evaluated approach scan; not NEB" energy=-204.25090419172574 pbc="T T F"
Si       0.00000000       0.00000000      12.00000000  F        6      -0.00000004       0.00000000       0.24903484
Si       3.83958982       0.00000000      12.00000000  F        6      -0.00000000       0.00000000       0.24903482
Si       7.67917964       0.00000000      12.00000000  F        6       0.00000000       0.00000000       0.24903482
Si       0.00000000       3.83958982      12.00000000  F        6      -0.00000004      -0.00000000       0.24903484
Si       3.83958982       3.83958982      12.00000000  F        6      -0.00000000      -0.00000000       0.24903482
Si       7.67917964       3.83958982      12.00000000  F        6       0.00000000      -0.00000000       0.24903482
Si       1.91979491       0.00000000      13.35750000  F        5       0.00000000      -0.00000002      -0.52822352
Si       5.75938473       0.00000000      13.35750000  F        5       0.00000000      -0.00000002      -0.52822353
Si       9.59897455       0.00000000      13.35750000  F        5       0.00000003      -0.00000002      -0.52822354
Si       1.91979491       3.83958982      13.35750000  F        5       0.00000000       0.00000000      -0.52822354
Si       5.75938473       3.83958982      13.35750000  F        5       0.00000000       0.00000000      -0.52822354
Si       9.59897455       3.83958982      13.35750000  F        5       0.00000003       0.00000000      -0.52822356
Si       1.91979491       1.91979491      14.71500000  F        4      -0.00000000       0.00000000       0.14537709
Si       5.75938473       1.91979491      14.71500000  F        4       0.00000000       0.00000000       0.14537709
Si       9.59897455       1.91979491      14.71500000  F        4       0.00000004       0.00000000       0.14537711
Si       1.91979491       5.75938473      14.71500000  F        4      -0.00000000       0.00000002       0.14537707
Si       5.75938473       5.75938473      14.71500000  F        4       0.00000000       0.00000002       0.14537707
Si       9.59897455       5.75938473      14.71500000  F        4       0.00000004       0.00000002       0.14537709
Si       0.00000000       1.91979491      16.07250000  F        3      -0.00000004       0.00000000      -0.14537711
Si       3.83958982       1.91979491      16.07250000  F        3      -0.00000000       0.00000000      -0.14537709
Si       7.67917964       1.91979491      16.07250000  F        3       0.00000000       0.00000000      -0.14537709
Si       0.00000000       5.75938473      16.07250000  F        3      -0.00000004       0.00000002      -0.14537709
Si       3.83958982       5.75938473      16.07250000  F        3      -0.00000000       0.00000002      -0.14537707
Si       7.67917964       5.75938473      16.07250000  F        3       0.00000000       0.00000002      -0.14537707
Si       0.00000000       0.00000000      17.43000000  F        2      -0.00000003      -0.00000002       0.52822354
Si       3.83958982       0.00000000      17.43000000  F        2      -0.00000000      -0.00000002       0.52822353
Si       7.67917964       0.00000000      17.43000000  F        2      -0.00000000      -0.00000002       0.52822352
Si       0.00000000       3.83958982      17.43000000  F        2      -0.00000003       0.00000000       0.52822356
Si       3.83958982       3.83958982      17.43000000  F        2      -0.00000000       0.00000000       0.52822354
Si       7.67917964       3.83958982      17.43000000  F        2      -0.00000000       0.00000000       0.52822354
Si       1.91979491       0.00000000      18.78750000  F        1      -0.00000000       0.00000000      -0.24903482
Si       5.75938473       0.00000000      18.78750000  F        1       0.00000000       0.00000000      -0.24903482
Si       9.59897455       0.00000000      18.78750000  F        1       0.00000004       0.00000000      -0.24903484
Si       1.91979491       3.83958982      18.78750000  F        1      -0.00000000      -0.00000000      -0.24903482
Si       5.75938473       3.83958982      18.78750000  F        1       0.00000000      -0.00000000      -0.24903482
Si       9.59897455       3.83958982      18.78750000  F        1       0.00000004      -0.00000000      -0.24903484
F        7.67917964       3.83958982      23.78750000  T        0       0.00000000      -0.00000000      -0.00285954
C        7.67917964       3.83958982      25.20715213  T        0      -0.00000019       0.00000000       0.00319168
H        8.72594606       3.83958982      25.52687412  T        0      -0.00125386       0.00000000      -0.00011068
H        7.15579643       4.74611614      25.52687412  T        0       0.00062702      -0.00108610      -0.00011073
H        7.15579643       2.93306350      25.52687412  T        0       0.00062702       0.00108610      -0.00011073
41
Lattice="11.518769465528859 0.0 0.0 0.0 7.679179643685906 0.0 0.0 0.0 30.7875" Properties=species:S:1:pos:R:3:move_mask:L:1:tags:I:1:forces:R:3 surface=Si100 species=CH3F site=bridge_Si_Si orientation=upright height_A=4.0 substrate_atoms=36 calculation_kind="Rigid evaluated approach scan; not NEB" energy=-204.2854072269363 pbc="T T F"
Si       0.00000000       0.00000000      12.00000000  F        6       0.00002422       0.00000000       0.24954860
Si       3.83958982       0.00000000      12.00000000  F        6      -0.00002426       0.00000000       0.24954858
Si       7.67917964       0.00000000      12.00000000  F        6       0.00000000       0.00000000       0.24975038
Si       0.00000000       3.83958982      12.00000000  F        6       0.00015527      -0.00000000       0.24908229
Si       3.83958982       3.83958982      12.00000000  F        6      -0.00015531      -0.00000000       0.24908227
Si       7.67917964       3.83958982      12.00000000  F        6       0.00000000      -0.00000000       0.24898898
Si       1.91979491       0.00000000      13.35750000  F        5       0.00000000      -0.00000002      -0.52717837
Si       5.75938473       0.00000000      13.35750000  F        5       0.00024154      -0.00000002      -0.52756654
Si       9.59897455       0.00000000      13.35750000  F        5      -0.00024150      -0.00000002      -0.52756655
Si       1.91979491       3.83958982      13.35750000  F        5       0.00000000       0.00000000      -0.52720540
Si       5.75938473       3.83958982      13.35750000  F        5       0.00018823       0.00000000      -0.52638983
Si       9.59897455       3.83958982      13.35750000  F        5      -0.00018820       0.00000000      -0.52638984
Si       1.91979491       1.91979491      14.71500000  F        4      -0.00000000      -0.00056114       0.14762055
Si       5.75938473       1.91979491      14.71500000  F        4       0.00232536      -0.00242086       0.14339224
Si       9.59897455       1.91979491      14.71500000  F        4      -0.00232530      -0.00241796       0.14339801
Si       1.91979491       5.75938473      14.71500000  F        4      -0.00000000       0.00056117       0.14762053
Si       5.75938473       5.75938473      14.71500000  F        4       0.00232536       0.00242088       0.14339222
Si       9.59897455       5.75938473      14.71500000  F        4      -0.00232530       0.00241798       0.14339799
Si       0.00000000       1.91979491      16.07250000  F        3      -0.00092922       0.00393795      -0.14149116
Si       3.83958982       1.91979491      16.07250000  F        3       0.00092862       0.00393910      -0.14148936
Si       7.67917964       1.91979491      16.07250000  F        3       0.00000048       0.00528716      -0.14635291
Si       0.00000000       5.75938473      16.07250000  F        3      -0.00092922      -0.00393793      -0.14149115
Si       3.83958982       5.75938473      16.07250000  F        3       0.00092862      -0.00393908      -0.14148934
Si       7.67917964       5.75938473      16.07250000  F        3       0.00000048      -0.00528713      -0.14635290
Si       0.00000000       0.00000000      17.43000000  F        2       0.00038806      -0.00000002       0.52588222
Si       3.83958982       0.00000000      17.43000000  F        2      -0.00038878      -0.00000002       0.52588311
Si       7.67917964       0.00000000      17.43000000  F        2       0.00000048      -0.00000002       0.52619323
Si       0.00000000       3.83958982      17.43000000  F        2       0.00207579       0.00000000       0.53308879
Si       3.83958982       3.83958982      17.43000000  F        2      -0.00206900       0.00000000       0.53309372
Si       7.67917964       3.83958982      17.43000000  F        2      -0.00000609       0.00000000       0.52764671
Si       1.91979491       0.00000000      18.78750000  F        1      -0.00000000       0.00000000      -0.24914838
Si       5.75938473       0.00000000      18.78750000  F        1      -0.00043240       0.00000000      -0.24983271
Si       9.59897455       0.00000000      18.78750000  F        1       0.00043247       0.00000000      -0.24983618
Si       1.91979491       3.83958982      18.78750000  F        1       0.00000712      -0.00000000      -0.25341739
Si       5.75938473       3.83958982      18.78750000  F        1       0.03313894      -0.00000000      -0.20498937
Si       9.59897455       3.83958982      18.78750000  F        1      -0.03316439      -0.00000000      -0.20545351
F        7.67917964       3.83958982      22.78750000  T        0       0.00243340       0.00000000      -0.08292903
C        7.67917964       3.83958982      24.20715213  T        0       0.00049984      -0.00000000      -0.06750668
H        8.72594606       3.83958982      24.52687412  T        0      -0.00200219      -0.00000000       0.01367086
H        7.15579643       4.74611614      24.52687412  T        0      -0.00045656      -0.00396084       0.01689765
H        7.15579643       2.93306350      24.52687412  T        0      -0.00045656       0.00396084       0.01689765
41
Lattice="11.518769465528859 0.0 0.0 0.0 7.679179643685906 0.0 0.0 0.0 30.7875" Properties=species:S:1:pos:R:3:move_mask:L:1:tags:I:1:forces:R:3 surface=Si100 species=CH3F site=bridge_Si_Si orientation=upright height_A=3.25 substrate_atoms=36 calculation_kind="Rigid evaluated approach scan; not NEB" energy=-204.37406078298994 pbc="T T F"
Si       0.00000000       0.00000000      12.00000000  F        6       0.00028608       0.00000000       0.25007355
Si       3.83958982       0.00000000      12.00000000  F        6      -0.00028611       0.00000000       0.25007353
Si       7.67917964       0.00000000      12.00000000  F        6       0.00000000       0.00000000       0.25057036
Si       0.00000000       3.83958982      12.00000000  F        6       0.00059807      -0.00000000       0.24818759
Si       3.83958982       3.83958982      12.00000000  F        6      -0.00059811      -0.00000000       0.24818758
Si       7.67917964       3.83958982      12.00000000  F        6       0.00000000      -0.00000000       0.24763648
Si       1.91979491       0.00000000      13.35750000  F        5       0.00000000      -0.00000002      -0.52646509
Si       5.75938473       0.00000000      13.35750000  F        5       0.00041440      -0.00000002      -0.52768026
Si       9.59897455       0.00000000      13.35750000  F        5      -0.00041437      -0.00000002      -0.52768028
Si       1.91979491       3.83958982      13.35750000  F        5       0.00000000       0.00000000      -0.52405273
Si       5.75938473       3.83958982      13.35750000  F        5      -0.00077790       0.00000000      -0.52534065
Si       9.59897455       3.83958982      13.35750000  F        5       0.00077794       0.00000000      -0.52534066
Si       1.91979491       1.91979491      14.71500000  F        4      -0.00000000      -0.00266929       0.14929773
Si       5.75938473       1.91979491      14.71500000  F        4       0.00424207      -0.00386573       0.14979548
Si       9.59897455       1.91979491      14.71500000  F        4      -0.00424210      -0.00386319       0.14980329
Si       1.91979491       5.75938473      14.71500000  F        4      -0.00000000       0.00266932       0.14929772
Si       5.75938473       5.75938473      14.71500000  F        4       0.00424207       0.00386575       0.14979546
Si       9.59897455       5.75938473      14.71500000  F        4      -0.00424210       0.00386321       0.14980328
Si       0.00000000       1.91979491      16.07250000  F        3      -0.00314471       0.01597907      -0.13663914
Si       3.83958982       1.91979491      16.07250000  F        3       0.00314018       0.01598113      -0.13664085
Si       7.67917964       1.91979491      16.07250000  F        3       0.00000238       0.01400136      -0.15199862
Si       0.00000000       5.75938473      16.07250000  F        3      -0.00314471      -0.01597904      -0.13663913
Si       3.83958982       5.75938473      16.07250000  F        3       0.00314018      -0.01598110      -0.13664084
Si       7.67917964       5.75938473      16.07250000  F        3       0.00000238      -0.01400134      -0.15199860
Si       0.00000000       0.00000000      17.43000000  F        2       0.00305751      -0.00000002       0.51431294
Si       3.83958982       0.00000000      17.43000000  F        2      -0.00306518      -0.00000002       0.51431225
Si       7.67917964       0.00000000      17.43000000  F        2       0.00000586      -0.00000002       0.51099671
Si       0.00000000       3.83958982      17.43000000  F        2      -0.02643205       0.00000000       0.54729573
Si       3.83958982       3.83958982      17.43000000  F        2       0.02636754       0.00000000       0.54728558
Si       7.67917964       3.83958982      17.43000000  F        2       0.00007366       0.00000000       0.48172672
Si       1.91979491       0.00000000      18.78750000  F        1      -0.00000000       0.00000000      -0.24619492
Si       5.75938473       0.00000000      18.78750000  F        1      -0.00061178       0.00000000      -0.23993836
Si       9.59897455       0.00000000      18.78750000  F        1       0.00061337       0.00000000      -0.23994994
Si       1.91979491       3.83958982      18.78750000  F        1       0.00003263      -0.00000000      -0.25967817
Si       5.75938473       3.83958982      18.78750000  F        1      -0.00065728      -0.00000000      -0.20751161
Si       9.59897455       3.83958982      18.78750000  F        1      -0.00001474      -0.00000000      -0.20727540
F        7.67917964       3.83958982      22.03750000  T        0       0.00304434       0.00000000      -0.04695134
C        7.67917964       3.83958982      23.45715213  T        0       0.00137995       0.00000000      -0.04793256
H        8.72594606       3.83958982      23.77687412  T        0       0.01218196       0.00000000      -0.00390869
H        7.15579643       4.74611614      23.77687412  T        0      -0.00798571       0.00647261      -0.00099706
H        7.15579643       2.93306350      23.77687412  T        0      -0.00798571      -0.00647261      -0.00099706
41
Lattice="11.518769465528859 0.0 0.0 0.0 7.679179643685906 0.0 0.0 0.0 30.7875" Properties=species:S:1:pos:R:3:move_mask:L:1:tags:I:1:forces:R:3 surface=Si100 species=CH3F site=bridge_Si_Si orientation=upright height_A=2.75 substrate_atoms=36 calculation_kind="Rigid evaluated approach scan; not NEB" energy=-204.43357679152334 pbc="T T F"
Si       0.00000000       0.00000000      12.00000000  F        6       0.00008089       0.00000000       0.24867101
Si       3.83958982       0.00000000      12.00000000  F        6      -0.00018389       0.00000000       0.24874240
Si       7.67917964       0.00000000      12.00000000  F        6       0.00010304       0.00000000       0.24841640
Si       0.00000000       3.83958982      12.00000000  F        6       0.00006775      -0.00000000       0.24795386
Si       3.83958982       3.83958982      12.00000000  F        6      -0.00020917      -0.00000000       0.24786658
Si       7.67917964       3.83958982      12.00000000  F        6       0.00014139      -0.00000000       0.24709043
Si       1.91979491       0.00000000      13.35750000  F        5       0.00021978      -0.00000002      -0.52776034
Si       5.75938473       0.00000000      13.35750000  F        5      -0.00067798      -0.00000002      -0.52753807
Si       9.59897455       0.00000000      13.35750000  F        5       0.00045893      -0.00000002      -0.52731516
Si       1.91979491       3.83958982      13.35750000  F        5      -0.00006734       0.00000000      -0.52402722
Si       5.75938473       3.83958982      13.35750000  F        5      -0.00072634       0.00000000      -0.52299800
Si       9.59897455       3.83958982      13.35750000  F        5       0.00079036       0.00000000      -0.52260089
Si       1.91979491       1.91979491      14.71500000  F        4      -0.00003714      -0.00000291       0.15162005
Si       5.75938473       1.91979491      14.71500000  F        4       0.00877930       0.00199174       0.16152488
Si       9.59897455       1.91979491      14.71500000  F        4      -0.00864634       0.00308680       0.16310984
Si       1.91979491       5.75938473      14.71500000  F        4      -0.00003714       0.00000293       0.15162004
Si       5.75938473       5.75938473      14.71500000  F        4       0.00877930      -0.00199171       0.16152487
Si       9.59897455       5.75938473      14.71500000  F        4      -0.00864634      -0.00308678       0.16310983
Si       0.00000000       1.91979491      16.07250000  F        3      -0.00797979       0.02094671      -0.13101824
Si       3.83958982       1.91979491      16.07250000  F        3       0.00745090       0.02120944      -0.12939823
Si       7.67917964       1.91979491      16.07250000  F        3      -0.00025919       0.02177148      -0.14288189
Si       0.00000000       5.75938473      16.07250000  F        3      -0.00797979      -0.02094668      -0.13101823
Si       3.83958982       5.75938473      16.07250000  F        3       0.00745090      -0.02120942      -0.12939821
Si       7.67917964       5.75938473      16.07250000  F        3      -0.00025919      -0.02177146      -0.14288188
Si       0.00000000       0.00000000      17.43000000  F        2       0.00668340      -0.00000002       0.51608839
Si       3.83958982       0.00000000      17.43000000  F        2      -0.00635459      -0.00000002       0.51652674
Si       7.67917964       0.00000000      17.43000000  F        2      -0.00029367      -0.00000002       0.49734263
Si       0.00000000       3.83958982      17.43000000  F        2      -0.04480793       0.00000000       0.52621146
Si       3.83958982       3.83958982      17.43000000  F        2       0.03824556       0.00000000       0.52298856
Si       7.67917964       3.83958982      17.43000000  F        2       0.00460199       0.00000000       0.48410630
Si       1.91979491       0.00000000      18.78750000  F        1      -0.00037412       0.00000000      -0.25417781
Si       5.75938473       0.00000000      18.78750000  F        1      -0.00134314       0.00000000      -0.24559920
Si       9.59897455       0.00000000      18.78750000  F        1       0.00138943       0.00000000      -0.24286371
Si       1.91979491       3.83958982      18.78750000  F        1       0.00186864      -0.00000000      -0.26104008
Si       5.75938473       3.83958982      18.78750000  F        1      -0.07184383      -0.00000000      -0.20886873
Si       9.59897455       3.83958982      18.78750000  F        1       0.07325342      -0.00000000      -0.22653571
F        7.67917964       3.83958982      21.53750000  T        0      -0.01004284       0.00000000      -0.11298945
C        7.67917964       3.83958982      22.95715213  T        0       0.00504780       0.00000000       0.01002534
H        8.72594606       3.83958982      23.27687412  T        0       0.00970662      -0.00000000       0.02468795
H        7.15579643       4.74611614      23.27687412  T        0      -0.00217482       0.02687229      -0.01415827
H        7.15579643       2.93306350      23.27687412  T        0      -0.00217482      -0.02687229      -0.01415827
41
Lattice="11.518769465528859 0.0 0.0 0.0 7.679179643685906 0.0 0.0 0.0 30.7875" Properties=species:S:1:pos:R:3:move_mask:L:1:tags:I:1:forces:R:3 surface=Si100 species=CH3F site=bridge_Si_Si orientation=upright height_A=2.25 substrate_atoms=36 calculation_kind="Rigid evaluated approach scan; not NEB" energy=-204.4703436805141 pbc="T T F"
Si       0.00000000       0.00000000      12.00000000  F        6       0.00025384       0.00000000       0.24715408
Si       3.83958982       0.00000000      12.00000000  F        6      -0.00003524       0.00000000       0.24687659
Si       7.67917964       0.00000000      12.00000000  F        6      -0.00021822       0.00000000       0.24516694
Si       0.00000000       3.83958982      12.00000000  F        6      -0.00052421      -0.00000000       0.24783386
Si       3.83958982       3.83958982      12.00000000  F        6       0.00090585      -0.00000000       0.24808430
Si       7.67917964       3.83958982      12.00000000  F        6      -0.00038157      -0.00000000       0.24714170
Si       1.91979491       0.00000000      13.35750000  F        5      -0.00038996      -0.00000002      -0.52958925
Si       5.75938473       0.00000000      13.35750000  F        5      -0.00202725      -0.00000002      -0.52605155
Si       9.59897455       0.00000000      13.35750000  F        5       0.00241167      -0.00000002      -0.52676853
Si       1.91979491       3.83958982      13.35750000  F        5       0.00000895       0.00000000      -0.52644302
Si       5.75938473       3.83958982      13.35750000  F        5       0.00476269       0.00000000      -0.51009539
Si       9.59897455       3.83958982      13.35750000  F        5      -0.00475594       0.00000000      -0.51061766
Si       1.91979491       1.91979491      14.71500000  F        4      -0.00054354       0.00571731       0.15538341
Si       5.75938473       1.91979491      14.71500000  F        4       0.01668415       0.01390970       0.17444861
Si       9.59897455       1.91979491      14.71500000  F        4      -0.01677948       0.01085936       0.16994402
Si       1.91979491       5.75938473      14.71500000  F        4      -0.00054354      -0.00571729       0.15538340
Si       5.75938473       5.75938473      14.71500000  F        4       0.01668415      -0.01390968       0.17444859
Si       9.59897455       5.75938473      14.71500000  F        4      -0.01677948      -0.01085934       0.16994401
Si       0.00000000       1.91979491      16.07250000  F        3      -0.01078205       0.02396534      -0.12155321
Si       3.83958982       1.91979491      16.07250000  F        3       0.01517875       0.02652225      -0.12168354
Si       7.67917964       1.91979491      16.07250000  F        3      -0.00033142       0.01810936      -0.15287227
Si       0.00000000       5.75938473      16.07250000  F        3      -0.01078205      -0.02396532      -0.12155319
Si       3.83958982       5.75938473      16.07250000  F        3       0.01517875      -0.02652223      -0.12168352
Si       7.67917964       5.75938473      16.07250000  F        3      -0.00033142      -0.01810934      -0.15287226
Si       0.00000000       0.00000000      17.43000000  F        2       0.01003177      -0.00000002       0.52834111
Si       3.83958982       0.00000000      17.43000000  F        2      -0.01030905      -0.00000002       0.52790159
Si       7.67917964       0.00000000      17.43000000  F        2       0.00040924      -0.00000002       0.48594350
Si       0.00000000       3.83958982      17.43000000  F        2       0.01038517       0.00000000       0.42134464
Si       3.83958982       3.83958982      17.43000000  F        2       0.00466681       0.00000000       0.43858561
Si       7.67917964       3.83958982      17.43000000  F        2      -0.00402183       0.00000000       0.36258187
Si       1.91979491       0.00000000      18.78750000  F        1       0.00091590       0.00000000      -0.27294544
Si       5.75938473       0.00000000      18.78750000  F        1       0.00734130       0.00000000      -0.23606524
Si       9.59897455       0.00000000      18.78750000  F        1      -0.00617580       0.00000000      -0.23811909
Si       1.91979491       3.83958982      18.78750000  F        1      -0.00203210      -0.00000000      -0.23915469
Si       5.75938473       3.83958982      18.78750000  F        1      -0.12275882      -0.00000000      -0.16082935
Si       9.59897455       3.83958982      18.78750000  F        1       0.12119532      -0.00000000      -0.12045222
F        7.67917964       3.83958982      21.03750000  T        0      -0.00557953      -0.00000000      -0.00152858
C        7.67917964       3.83958982      22.45715213  T        0      -0.02324148       0.00000000       0.22469771
H        8.72594606       3.83958982      22.77687412  T        0       0.03029642      -0.00000000      -0.14959306
H        7.15579643       4.74611614      22.77687412  T        0      -0.00899336       0.02163802      -0.06536725
H        7.15579643       2.93306350      22.77687412  T        0      -0.00899336      -0.02163802      -0.06536725
41
Lattice="11.518769465528859 0.0 0.0 0.0 7.679179643685906 0.0 0.0 0.0 30.7875" Properties=species:S:1:pos:R:3:move_mask:L:1:tags:I:1:forces:R:3 surface=Si100 species=CH3F site=bridge_Si_Si orientation=upright height_A=1.9 substrate_atoms=36 calculation_kind="Rigid evaluated approach scan; not NEB" energy=-204.4320802557238 pbc="T T F"
Si       0.00000000       0.00000000      12.00000000  F        6       0.00072873       0.00000000       0.24697494
Si       3.83958982       0.00000000      12.00000000  F        6      -0.00057272       0.00000000       0.24691917
Si       7.67917964       0.00000000      12.00000000  F        6      -0.00015637       0.00000000       0.24487878
Si       0.00000000       3.83958982      12.00000000  F        6      -0.00053183      -0.00000000       0.24720540
Si       3.83958982       3.83958982      12.00000000  F        6       0.00069847      -0.00000000       0.24731786
Si       7.67917964       3.83958982      12.00000000  F        6      -0.00016668      -0.00000000       0.24722029
Si       1.91979491       0.00000000      13.35750000  F        5      -0.00021609      -0.00000002      -0.52832245
Si       5.75938473       0.00000000      13.35750000  F        5      -0.00275814      -0.00000002      -0.52639163
Si       9.59897455       0.00000000      13.35750000  F        5       0.00297578      -0.00000002      -0.52650123
Si       1.91979491       3.83958982      13.35750000  F        5       0.00005625       0.00000000      -0.52732481
Si       5.75938473       3.83958982      13.35750000  F        5       0.01114646       0.00000000      -0.50027396
Si       9.59897455       3.83958982      13.35750000  F        5      -0.01119341       0.00000000      -0.50071157
Si       1.91979491       1.91979491      14.71500000  F        4      -0.00041150       0.00772094       0.15469594
Si       5.75938473       1.91979491      14.71500000  F        4       0.02442176       0.01368352       0.17582864
Si       9.59897455       1.91979491      14.71500000  F        4      -0.02306858       0.01256423       0.17379723
Si       1.91979491       5.75938473      14.71500000  F        4      -0.00041150      -0.00772092       0.15469593
Si       5.75938473       5.75938473      14.71500000  F        4       0.02442176      -0.01368350       0.17582862
Si       9.59897455       5.75938473      14.71500000  F        4      -0.02306858      -0.01256420       0.17379722
Si       0.00000000       1.91979491      16.07250000  F        3      -0.01172179       0.02967291      -0.11881815
Si       3.83958982       1.91979491      16.07250000  F        3       0.01202911       0.02404215      -0.12186998
Si       7.67917964       1.91979491      16.07250000  F        3      -0.00289951       0.00623288      -0.17742537
Si       0.00000000       5.75938473      16.07250000  F        3      -0.01172179      -0.02967289      -0.11881814
Si       3.83958982       5.75938473      16.07250000  F        3       0.01202911      -0.02404213      -0.12186996
Si       7.67917964       5.75938473      16.07250000  F        3      -0.00289951      -0.00623286      -0.17742536
Si       0.00000000       0.00000000      17.43000000  F        2       0.01000367      -0.00000002       0.53470219
Si       3.83958982       0.00000000      17.43000000  F        2      -0.01023570      -0.00000002       0.53661715
Si       7.67917964       0.00000000      17.43000000  F        2       0.00053672      -0.00000002       0.46069402
Si       0.00000000       3.83958982      17.43000000  F        2       0.06927776       0.00000000       0.32771354
Si       3.83958982       3.83958982      17.43000000  F        2      -0.06980297       0.00000000       0.32914795
Si       7.67917964       3.83958982      17.43000000  F        2      -0.00705671       0.00000000       0.37289092
Si       1.91979491       0.00000000      18.78750000  F        1      -0.00016006       0.00000000      -0.28049424
Si       5.75938473       0.00000000      18.78750000  F        1       0.03114589       0.00000000      -0.20824200
Si       9.59897455       0.00000000      18.78750000  F        1      -0.03069323       0.00000000      -0.20802673
Si       1.91979491       3.83958982      18.78750000  F        1      -0.00464671      -0.00000000      -0.20172299
Si       5.75938473       3.83958982      18.78750000  F        1      -0.19982193      -0.00000000      -0.19302637
Si       9.59897455       3.83958982      18.78750000  F        1       0.26781360      -0.00000000      -0.27324832
F        7.67917964       3.83958982      20.68750000  T        0       0.00999550      -0.00000000       0.20137851
C        7.67917964       3.83958982      22.10715213  T        0      -0.02919028       0.00000000       0.54978314
H        8.72594606       3.83958982      22.42687412  T        0       0.02463413      -0.00000000      -0.16579944
H        7.15579643       4.74611614      22.42687412  T        0      -0.02925455      -0.00291048      -0.16288737
H        7.15579643       2.93306350      22.42687412  T        0      -0.02925455       0.00291048      -0.16288737
41
Lattice="11.518769465528859 0.0 0.0 0.0 7.679179643685906 0.0 0.0 0.0 30.7875" Properties=species:S:1:pos:R:3:move_mask:L:1:tags:I:1:forces:R:3 surface=Si100 species=CH3F site=bridge_Si_Si orientation=upright height_A=1.6 substrate_atoms=36 calculation_kind="Rigid evaluated approach scan; not NEB" energy=-204.3442744028519 pbc="T T F"
Si       0.00000000       0.00000000      12.00000000  F        6       0.00167105       0.00000000       0.24633855
Si       3.83958982       0.00000000      12.00000000  F        6      -0.00142192       0.00000000       0.24654337
Si       7.67917964       0.00000000      12.00000000  F        6      -0.00025027       0.00000000       0.24102968
Si       0.00000000       3.83958982      12.00000000  F        6       0.00011794      -0.00000000       0.24588145
Si       3.83958982       3.83958982      12.00000000  F        6       0.00004524      -0.00000000       0.24578854
Si       7.67917964       3.83958982      12.00000000  F        6      -0.00016294      -0.00000000       0.24549167
Si       1.91979491       0.00000000      13.35750000  F        5       0.00010831      -0.00000002      -0.52658988
Si       5.75938473       0.00000000      13.35750000  F        5      -0.00426156      -0.00000002      -0.52543263
Si       9.59897455       0.00000000      13.35750000  F        5       0.00416662      -0.00000002      -0.52570032
Si       1.91979491       3.83958982      13.35750000  F        5      -0.00019524       0.00000000      -0.52691175
Si       5.75938473       3.83958982      13.35750000  F        5       0.01143841       0.00000000      -0.49930977
Si       9.59897455       3.83958982      13.35750000  F        5      -0.01123354       0.00000000      -0.49987926
Si       1.91979491       1.91979491      14.71500000  F        4       0.00003980       0.00937410       0.15328679
Si       5.75938473       1.91979491      14.71500000  F        4       0.02961772       0.01179058       0.18959067
Si       9.59897455       1.91979491      14.71500000  F        4      -0.02864692       0.01185211       0.18752348
Si       1.91979491       5.75938473      14.71500000  F        4       0.00003980      -0.00937408       0.15328677
Si       5.75938473       5.75938473      14.71500000  F        4       0.02961772      -0.01179056       0.18959066
Si       9.59897455       5.75938473      14.71500000  F        4      -0.02864692      -0.01185208       0.18752347
Si       0.00000000       1.91979491      16.07250000  F        3      -0.01553979       0.02573117      -0.12527235
Si       3.83958982       1.91979491      16.07250000  F        3       0.01538209       0.02182858      -0.12755820
Si       7.67917964       1.91979491      16.07250000  F        3      -0.00154030      -0.01032129      -0.22255793
Si       0.00000000       5.75938473      16.07250000  F        3      -0.01553979      -0.02573115      -0.12527234
Si       3.83958982       5.75938473      16.07250000  F        3       0.01538209      -0.02182856      -0.12755819
Si       7.67917964       5.75938473      16.07250000  F        3      -0.00154030       0.01032131      -0.22255791
Si       0.00000000       0.00000000      17.43000000  F        2       0.00610777      -0.00000002       0.54128345
Si       3.83958982       0.00000000      17.43000000  F        2      -0.00721391      -0.00000002       0.54107031
Si       7.67917964       0.00000000      17.43000000  F        2       0.00895504      -0.00000002       0.43697603
Si       0.00000000       3.83958982      17.43000000  F        2       0.11842178       0.00000000       0.26199778
Si       3.83958982       3.83958982      17.43000000  F        2      -0.12712179       0.00000000       0.25422216
Si       7.67917964       3.83958982      17.43000000  F        2      -0.00154340       0.00000000       0.20616384
Si       1.91979491       0.00000000      18.78750000  F        1      -0.00538451       0.00000000      -0.27978744
Si       5.75938473       0.00000000      18.78750000  F        1       0.03385374       0.00000000      -0.19298340
Si       9.59897455       0.00000000      18.78750000  F        1      -0.04364439       0.00000000      -0.19094323
Si       1.91979491       3.83958982      18.78750000  F        1      -0.00097345      -0.00000000      -0.14593109
Si       5.75938473       3.83958982      18.78750000  F        1      -0.09308040      -0.00000000      -0.10774911
Si       9.59897455       3.83958982      18.78750000  F        1       0.09753752      -0.00000000      -0.11260907
F        7.67917964       3.83958982      20.38750000  T        0       0.01563340      -0.00000000      -0.02736624
C        7.67917964       3.83958982      21.80715213  T        0      -0.01578919       0.00000000       1.01175454
H        8.72594606       3.83958982      22.12687412  T        0      -0.00369313      -0.00000000      -0.20306277
H        7.15579643       4.74611614      22.12687412  T        0       0.00964381       0.00311087      -0.23515516
H        7.15579643       2.93306350      22.12687412  T        0       0.00964381      -0.00311087      -0.23515516
41
Lattice="11.518769465528859 0.0 0.0 0.0 7.679179643685906 0.0 0.0 0.0 30.7875" Properties=species:S:1:pos:R:3:move_mask:L:1:tags:I:1:forces:R:3 surface=Si100 species=CH3F site=bridge_Si_Si orientation=upright height_A=1.3 substrate_atoms=36 calculation_kind="Rigid evaluated approach scan; not NEB" energy=-204.209836655401 pbc="T T F"
Si       0.00000000       0.00000000      12.00000000  F        6       0.00206072       0.00000000       0.24780023
Si       3.83958982       0.00000000      12.00000000  F        6      -0.00153943       0.00000000       0.24843884
Si       7.67917964       0.00000000      12.00000000  F        6      -0.00052513       0.00000000       0.23381432
Si       0.00000000       3.83958982      12.00000000  F        6       0.00201519      -0.00000000       0.24397248
Si       3.83958982       3.83958982      12.00000000  F        6      -0.00159555      -0.00000000       0.24381772
Si       7.67917964       3.83958982      12.00000000  F        6      -0.00041976      -0.00000000       0.24258205
Si       1.91979491       0.00000000      13.35750000  F        5       0.00021078      -0.00000002      -0.52349549
Si       5.75938473       0.00000000      13.35750000  F        5      -0.00598978      -0.00000002      -0.52404584
Si       9.59897455       0.00000000      13.35750000  F        5       0.00580364      -0.00000002      -0.52472844
Si       1.91979491       3.83958982      13.35750000  F        5      -0.00064088       0.00000000      -0.52686800
Si       5.75938473       3.83958982      13.35750000  F        5       0.00295554       0.00000000      -0.50966378
Si       9.59897455       3.83958982      13.35750000  F        5      -0.00233891       0.00000000      -0.50974987
Si       1.91979491       1.91979491      14.71500000  F        4       0.00069493       0.00369436       0.14964946
Si       5.75938473       1.91979491      14.71500000  F        4       0.02701819       0.00023064       0.20673878
Si       9.59897455       1.91979491      14.71500000  F        4      -0.02753283       0.00182686       0.20476517
Si       1.91979491       5.75938473      14.71500000  F        4       0.00069493      -0.00369434       0.14964944
Si       5.75938473       5.75938473      14.71500000  F        4       0.02701819      -0.00023061       0.20673877
Si       9.59897455       5.75938473      14.71500000  F        4      -0.02753283      -0.00182683       0.20476516
Si       0.00000000       1.91979491      16.07250000  F        3      -0.01988303       0.02020456      -0.13612454
Si       3.83958982       1.91979491      16.07250000  F        3       0.01919803       0.02376632      -0.13518737
Si       7.67917964       1.91979491      16.07250000  F        3       0.00377231       0.00805384      -0.23749417
Si       0.00000000       5.75938473      16.07250000  F        3      -0.01988303      -0.02020454      -0.13612453
Si       3.83958982       5.75938473      16.07250000  F        3       0.01919803      -0.02376630      -0.13518735
Si       7.67917964       5.75938473      16.07250000  F        3       0.00377231      -0.00805382      -0.23749416
Si       0.00000000       0.00000000      17.43000000  F        2      -0.00043217      -0.00000002       0.53133012
Si       3.83958982       0.00000000      17.43000000  F        2      -0.00330152      -0.00000002       0.52712188
Si       7.67917964       0.00000000      17.43000000  F        2       0.02470416      -0.00000002       0.41240935
Si       0.00000000       3.83958982      17.43000000  F        2       0.16840176       0.00000000       0.26104511
Si       3.83958982       3.83958982      17.43000000  F        2      -0.17584567       0.00000000       0.25400332
Si       7.67917964       3.83958982      17.43000000  F        2      -0.00063501       0.00000000      -0.12795021
Si       1.91979491       0.00000000      18.78750000  F        1      -0.01426264       0.00000000      -0.26587232
Si       5.75938473       0.00000000      18.78750000  F        1       0.01456205       0.00000000      -0.14187389
Si       9.59897455       0.00000000      18.78750000  F        1      -0.03076196       0.00000000      -0.16579176
Si       1.91979491       3.83958982      18.78750000  F        1       0.00432265      -0.00000000      -0.09670832
Si       5.75938473       3.83958982      18.78750000  F        1       0.07908968      -0.00000000      -0.18873375
Si       9.59897455       3.83958982      18.78750000  F        1      -0.09563047      -0.00000000      -0.20614841
F        7.67917964       3.83958982      20.08750000  T        0       0.01693179       0.00000000      -0.29390601
C        7.67917964       3.83958982      21.50715213  T        0      -0.03266261       0.00000000       1.85254152
H        8.72594606       3.83958982      21.82687412  T        0      -0.02959729      -0.00000000      -0.21018331
H        7.15579643       4.74611614      21.82687412  T        0       0.03429281       0.05022959      -0.29392610
H        7.15579643       2.93306350      21.82687412  T        0       0.03429281      -0.05022959      -0.29392610
