38
Lattice="11.518769465528859 0.0 0.0 3.839589821842953 6.650364651656328 0.0 0.0 0.0 32.62128289467409" Properties=species:S:1:pos:R:3:move_mask:L:1:tags:I:1:forces:R:3 surface=Si111 species=F2 height_A=6.5 substrate_atoms=36 calculation_kind="Rigid approach energy evaluation; not NEB or TS" energy=-169.9802628524594 pbc="T T F"
Si       1.91979491       1.10839411      12.00000000  F        6      -0.00000000       0.00000000       0.17150952
Si       5.75938473       1.10839411      12.00000000  F        6       0.00000000       0.00000000       0.17150952
Si       9.59897455       1.10839411      12.00000000  F        6       0.00000000       0.00000000       0.17150952
Si       3.83958982       4.43357643      12.00000000  F        6       0.00000000      -0.00000000       0.17150952
Si       7.67917964       4.43357643      12.00000000  F        6       0.00000000      -0.00000000       0.17150952
Si      11.51876947       4.43357643      12.00000000  F        6      -0.00000000      -0.00000000       0.17150952
Si       1.91979491       1.10839411      14.35125897  F        5       0.00000000       0.00000000      -0.37518449
Si       5.75938473       1.10839411      14.35125897  F        5       0.00000000       0.00000000      -0.37518449
Si       9.59897455       1.10839411      14.35125897  F        5      -0.00000000       0.00000000      -0.37518449
Si       3.83958982       4.43357643      14.35125897  F        5      -0.00000000      -0.00000000      -0.37518449
Si       7.67917964       4.43357643      14.35125897  F        5      -0.00000000      -0.00000000      -0.37518449
Si      11.51876947       4.43357643      14.35125897  F        5      -0.00000000      -0.00000000      -0.37518449
Si      -0.00000000       2.21678822      15.13501196  F        4      -0.00000000      -0.00000000      -0.14263620
Si       3.83958982       2.21678822      15.13501196  F        4      -0.00000000      -0.00000000      -0.14263620
Si       7.67917964       2.21678822      15.13501196  F        4      -0.00000000       0.00000000      -0.14263620
Si       1.91979491       5.54197054      15.13501196  F        4       0.00000000       0.00000000      -0.14263620
Si       5.75938473       5.54197054      15.13501196  F        4       0.00000000       0.00000000      -0.14263620
Si       9.59897455       5.54197054      15.13501196  F        4       0.00000000       0.00000000      -0.14263620
Si      -0.00000000       2.21678822      17.48627093  F        3       0.00000000       0.00000000       0.14263620
Si       3.83958982       2.21678822      17.48627093  F        3       0.00000000       0.00000000       0.14263620
Si       7.67917964       2.21678822      17.48627093  F        3      -0.00000000       0.00000000       0.14263620
Si       1.91979491       5.54197054      17.48627093  F        3       0.00000000       0.00000000       0.14263620
Si       5.75938473       5.54197054      17.48627093  F        3       0.00000000       0.00000000       0.14263620
Si       9.59897455       5.54197054      17.48627093  F        3       0.00000000       0.00000000       0.14263620
Si       0.00000000       0.00000000      18.27002392  F        2      -0.00000000      -0.00000000       0.37518449
Si       3.83958982       0.00000000      18.27002392  F        2      -0.00000000      -0.00000000       0.37518449
Si       7.67917964       0.00000000      18.27002392  F        2       0.00000000      -0.00000000       0.37518449
Si       1.91979491       3.32518233      18.27002392  F        2       0.00000000      -0.00000000       0.37518449
Si       5.75938473       3.32518233      18.27002392  F        2       0.00000000      -0.00000000       0.37518449
Si       9.59897455       3.32518233      18.27002392  F        2       0.00000000      -0.00000000       0.37518449
Si       0.00000000       0.00000000      20.62128289  F        1       0.00000000      -0.00000000      -0.17150952
Si       3.83958982       0.00000000      20.62128289  F        1       0.00000000      -0.00000000      -0.17150952
Si       7.67917964       0.00000000      20.62128289  F        1      -0.00000000      -0.00000000      -0.17150952
Si       1.91979491       3.32518233      20.62128289  F        1      -0.00000000       0.00000000      -0.17150952
Si       5.75938473       3.32518233      20.62128289  F        1       0.00000000       0.00000000      -0.17150952
Si       9.59897455       3.32518233      20.62128289  F        1      -0.00000000       0.00000000      -0.17150952
F        5.75938473       3.32518233      27.12128289  F        0       0.00000000       0.00000000       0.00152114
F        5.75938473       3.32518233      28.60185863  F        0       0.00000000       0.00000000      -0.00152114
38
Lattice="11.518769465528859 0.0 0.0 3.839589821842953 6.650364651656328 0.0 0.0 0.0 32.62128289467409" Properties=species:S:1:pos:R:3:move_mask:L:1:tags:I:1:forces:R:3 surface=Si111 species=F2 height_A=5.0 substrate_atoms=36 calculation_kind="Rigid approach energy evaluation; not NEB or TS" energy=-169.9802628524594 pbc="T T F"
Si       1.91979491       1.10839411      12.00000000  F        6       0.00000000       0.00000000       0.17150952
Si       5.75938473       1.10839411      12.00000000  F        6      -0.00000000       0.00000000       0.17150952
Si       9.59897455       1.10839411      12.00000000  F        6      -0.00000000       0.00000000       0.17150952
Si       3.83958982       4.43357643      12.00000000  F        6      -0.00000000      -0.00000000       0.17150952
Si       7.67917964       4.43357643      12.00000000  F        6      -0.00000000      -0.00000000       0.17150952
Si      11.51876947       4.43357643      12.00000000  F        6       0.00000000      -0.00000000       0.17150952
Si       1.91979491       1.10839411      14.35125897  F        5       0.00000000       0.00000000      -0.37518449
Si       5.75938473       1.10839411      14.35125897  F        5      -0.00000000       0.00000000      -0.37518449
Si       9.59897455       1.10839411      14.35125897  F        5       0.00000000       0.00000000      -0.37518449
Si       3.83958982       4.43357643      14.35125897  F        5       0.00000000      -0.00000000      -0.37518449
Si       7.67917964       4.43357643      14.35125897  F        5      -0.00000000      -0.00000000      -0.37518449
Si      11.51876947       4.43357643      14.35125897  F        5      -0.00000000      -0.00000000      -0.37518449
Si      -0.00000000       2.21678822      15.13501196  F        4      -0.00000000       0.00000000      -0.14263620
Si       3.83958982       2.21678822      15.13501196  F        4      -0.00000000      -0.00000000      -0.14263620
Si       7.67917964       2.21678822      15.13501196  F        4      -0.00000000       0.00000000      -0.14263620
Si       1.91979491       5.54197054      15.13501196  F        4      -0.00000000       0.00000000      -0.14263620
Si       5.75938473       5.54197054      15.13501196  F        4       0.00000000       0.00000000      -0.14263620
Si       9.59897455       5.54197054      15.13501196  F        4      -0.00000000       0.00000000      -0.14263620
Si      -0.00000000       2.21678822      17.48627093  F        3       0.00000000       0.00000000       0.14263620
Si       3.83958982       2.21678822      17.48627093  F        3      -0.00000000       0.00000000       0.14263620
Si       7.67917964       2.21678822      17.48627093  F        3      -0.00000000       0.00000000       0.14263620
Si       1.91979491       5.54197054      17.48627093  F        3       0.00000000       0.00000000       0.14263620
Si       5.75938473       5.54197054      17.48627093  F        3       0.00000000       0.00000000       0.14263620
Si       9.59897455       5.54197054      17.48627093  F        3       0.00000000       0.00000000       0.14263620
Si       0.00000000       0.00000000      18.27002392  F        2      -0.00000000      -0.00000000       0.37518449
Si       3.83958982       0.00000000      18.27002392  F        2      -0.00000000      -0.00000000       0.37518449
Si       7.67917964       0.00000000      18.27002392  F        2       0.00000000      -0.00000000       0.37518449
Si       1.91979491       3.32518233      18.27002392  F        2      -0.00000000      -0.00000000       0.37518449
Si       5.75938473       3.32518233      18.27002392  F        2       0.00000000       0.00000000       0.37518449
Si       9.59897455       3.32518233      18.27002392  F        2      -0.00000000      -0.00000000       0.37518449
Si       0.00000000       0.00000000      20.62128289  F        1      -0.00000000       0.00000000      -0.17150952
Si       3.83958982       0.00000000      20.62128289  F        1      -0.00000000      -0.00000000      -0.17150952
Si       7.67917964       0.00000000      20.62128289  F        1       0.00000000      -0.00000000      -0.17150952
Si       1.91979491       3.32518233      20.62128289  F        1      -0.00000000      -0.00000000      -0.17150952
Si       5.75938473       3.32518233      20.62128289  F        1       0.00000000      -0.00000000      -0.17150952
Si       9.59897455       3.32518233      20.62128289  F        1       0.00000000       0.00000000      -0.17150952
F        5.75938473       3.32518233      25.62128289  F        0       0.00000000       0.00000000       0.00152114
F        5.75938473       3.32518233      27.10185863  F        0       0.00000000       0.00000000      -0.00152114
38
Lattice="11.518769465528859 0.0 0.0 3.839589821842953 6.650364651656328 0.0 0.0 0.0 32.62128289467409" Properties=species:S:1:pos:R:3:move_mask:L:1:tags:I:1:forces:R:3 surface=Si111 species=F2 height_A=4.0 substrate_atoms=36 calculation_kind="Rigid approach energy evaluation; not NEB or TS" energy=-170.1235177296787 pbc="T T F"
Si       1.91979491       1.10839411      12.00000000  F        6      -0.00007382       0.00005146       0.17202567
Si       5.75938473       1.10839411      12.00000000  F        6       0.00000907      -0.00005787       0.17133045
Si       9.59897455       1.10839411      12.00000000  F        6       0.00006475      -0.00003290       0.17174130
Si       3.83958982       4.43357643      12.00000000  F        6      -0.00005659       0.00002383       0.17127319
Si       7.67917964       4.43357643      12.00000000  F        6       0.00005465       0.00002108       0.17133045
Si      11.51876947       4.43357643      12.00000000  F        6       0.00000194      -0.00000561       0.17145155
Si       1.91979491       1.10839411      14.35125897  F        5       0.00117377      -0.00072976      -0.37261558
Si       5.75938473       1.10839411      14.35125897  F        5      -0.00031836       0.00060169      -0.37296820
Si       9.59897455       1.10839411      14.35125897  F        5      -0.00085536       0.00057248      -0.37322597
Si       3.83958982       4.43357643      14.35125897  F        5       0.00060790      -0.00029889      -0.37327130
Si       7.67917964       4.43357643      14.35125897  F        5      -0.00072068      -0.00000180      -0.37304015
Si      11.51876947       4.43357643      14.35125897  F        5       0.00011280      -0.00014376      -0.37352300
Si      -0.00000000       2.21678822      15.13501196  F        4       0.00028853      -0.00042344      -0.14165951
Si       3.83958982       2.21678822      15.13501196  F        4      -0.00362691      -0.00253164      -0.13703629
Si       7.67917964       2.21678822      15.13501196  F        4       0.00333827      -0.00195849      -0.13720052
Si       1.91979491       5.54197054      15.13501196  F        4      -0.00088655       0.00076871      -0.14243066
Si       5.75938473       5.54197054      15.13501196  F        4       0.00036235       0.00441643      -0.13689458
Si       9.59897455       5.54197054      15.13501196  F        4       0.00052410      -0.00027145      -0.14324235
Si      -0.00000000       2.21678822      17.48627093  F        3      -0.00083641       0.00148377       0.14344251
Si       3.83958982       2.21678822      17.48627093  F        3       0.02079113       0.01186817       0.15284250
Si       7.67917964       2.21678822      17.48627093  F        3      -0.01996363       0.01116956       0.15335973
Si       1.91979491       5.54197054      17.48627093  F        3      -0.00229705       0.00032534       0.14184134
Si       5.75938473       5.54197054      17.48627093  F        3       0.00001489      -0.02388053       0.15293311
Si       9.59897455       5.54197054      17.48627093  F        3       0.00228321      -0.00096177       0.14043582
Si       0.00000000       0.00000000      18.27002392  F        2      -0.00133350       0.00706743       0.38072315
Si       3.83958982       0.00000000      18.27002392  F        2      -0.00431565       0.00228963       0.39097533
Si       7.67917964       0.00000000      18.27002392  F        2       0.00565249      -0.00456143       0.38022029
Si       1.91979491       3.32518233      18.27002392  F        2      -0.01098780       0.00004627       0.38512316
Si       5.75938473       3.32518233      18.27002392  F        2       0.00006154       0.00016649       0.35251932
Si       9.59897455       3.32518233      18.27002392  F        2       0.01092625      -0.00501031       0.38492312
Si       0.00000000       0.00000000      20.62128289  F        1      -0.02076060       0.03047118      -0.18434616
Si       3.83958982       0.00000000      20.62128289  F        1       0.00396409      -0.00246522      -0.20222313
Si       7.67917964       0.00000000      20.62128289  F        1       0.01680211      -0.03281309      -0.18419741
Si       1.91979491       3.32518233      20.62128289  F        1      -0.03817700       0.00355645      -0.18401246
Si       5.75938473       3.32518233      20.62128289  F        1       0.00014771       0.00009127       0.33382390
Si       9.59897455       3.32518233      20.62128289  F        1       0.03802832       0.00115673      -0.18394054
F        5.75938473       3.32518233      24.62128289  F        0       0.00000000       0.00000000      -0.62502138
F        5.75938473       3.32518233      26.10185863  F        0       0.00000000       0.00000000       0.11853327
38
Lattice="11.518769465528859 0.0 0.0 3.839589821842953 6.650364651656328 0.0 0.0 0.0 32.62128289467409" Properties=species:S:1:pos:R:3:move_mask:L:1:tags:I:1:forces:R:3 surface=Si111 species=F2 height_A=3.25 substrate_atoms=36 calculation_kind="Rigid approach energy evaluation; not NEB or TS" energy=-170.61951980872945 pbc="T T F"
Si       1.91979491       1.10839411      12.00000000  F        6      -0.00017656       0.00009932       0.17231077
Si       5.75938473       1.10839411      12.00000000  F        6       0.00001006      -0.00014719       0.17057075
Si       9.59897455       1.10839411      12.00000000  F        6       0.00016651      -0.00006981       0.17182092
Si       3.83958982       4.43357643      12.00000000  F        6      -0.00016237       0.00009636       0.17053032
Si       7.67917964       4.43357643      12.00000000  F        6       0.00013249       0.00006488       0.17057075
Si      11.51876947       4.43357643      12.00000000  F        6       0.00002988      -0.00004357       0.17127377
Si       1.91979491       1.10839411      14.35125897  F        5       0.00042680      -0.00036845      -0.37511385
Si       5.75938473       1.10839411      14.35125897  F        5      -0.00049401       0.00318170      -0.36969158
Si       9.59897455       1.10839411      14.35125897  F        5       0.00006742       0.00024558      -0.37540365
Si       3.83958982       4.43357643      14.35125897  F        5       0.00283988      -0.00151757      -0.37056002
Si       7.67917964       4.43357643      14.35125897  F        5      -0.00310319      -0.00110486      -0.36985343
Si      11.51876947       4.43357643      14.35125897  F        5       0.00026336      -0.00043656      -0.37535077
Si      -0.00000000       2.21678822      15.13501196  F        4       0.00019435      -0.00049870      -0.14151438
Si       3.83958982       2.21678822      15.13501196  F        4       0.00067270      -0.00028567      -0.12993347
Si       7.67917964       2.21678822      15.13501196  F        4      -0.00086735       0.00031630      -0.13037994
Si       1.91979491       5.54197054      15.13501196  F        4      -0.00122277       0.00109246      -0.14258287
Si       5.75938473       5.54197054      15.13501196  F        4       0.00047052      -0.00037438      -0.12973533
Si       9.59897455       5.54197054      15.13501196  F        4       0.00075212      -0.00024977      -0.14315548
Si      -0.00000000       2.21678822      17.48627093  F        3      -0.00090706       0.00236054       0.14084080
Si       3.83958982       2.21678822      17.48627093  F        3       0.03947014       0.02466202       0.17942701
Si       7.67917964       2.21678822      17.48627093  F        3      -0.03859342       0.02260897       0.17965291
Si       1.91979491       5.54197054      17.48627093  F        3       0.00407959      -0.00419220       0.13994183
Si       5.75938473       5.54197054      17.48627093  F        3      -0.00130802      -0.04669493       0.17945754
Si       9.59897455       5.54197054      17.48627093  F        3      -0.00277144       0.00127305       0.13932606
Si       0.00000000       0.00000000      18.27002392  F        2       0.01563479      -0.02020447       0.40194830
Si       3.83958982       0.00000000      18.27002392  F        2      -0.00492670       0.00270274       0.41388596
Si       7.67917964       0.00000000      18.27002392  F        2      -0.01069800       0.02350383       0.40161707
Si       1.91979491       3.32518233      18.27002392  F        2       0.02017831      -0.00047224       0.41914775
Si       5.75938473       3.32518233      18.27002392  F        2      -0.00023404       0.00027682       0.21001598
Si       9.59897455       3.32518233      18.27002392  F        2      -0.01994441      -0.00581243       0.41898401
Si       0.00000000       0.00000000      20.62128289  F        1      -0.05108315       0.08524073      -0.20049555
Si       3.83958982       0.00000000      20.62128289  F        1      -0.00027825      -0.00001976      -0.21914901
Si       7.67917964       0.00000000      20.62128289  F        1       0.05138802      -0.08515271      -0.19991458
Si       1.91979491       3.32518233      20.62128289  F        1      -0.10467903       0.00468861      -0.20928842
Si       5.75938473       3.32518233      20.62128289  F        1       0.00014575       0.00009626       0.51174773
Si       9.59897455       3.32518233      20.62128289  F        1       0.10452708      -0.00486492      -0.20900790
F        5.75938473       3.32518233      23.87128289  F        0       0.00000000       0.00000000      -1.64443660
F        5.75938473       3.32518233      25.35185863  F        0       0.00000000       0.00000000       0.97249660
38
Lattice="11.518769465528859 0.0 0.0 3.839589821842953 6.650364651656328 0.0 0.0 0.0 32.62128289467409" Properties=species:S:1:pos:R:3:move_mask:L:1:tags:I:1:forces:R:3 surface=Si111 species=F2 height_A=2.75 substrate_atoms=36 calculation_kind="Rigid approach energy evaluation; not NEB or TS" energy=-170.91105002986646 pbc="T T F"
Si       1.91979491       1.10839411      12.00000000  F        6      -0.00022704       0.00014747       0.17326245
Si       5.75938473       1.10839411      12.00000000  F        6       0.00004828      -0.00019645       0.16958719
Si       9.59897455       1.10839411      12.00000000  F        6       0.00017877      -0.00009097       0.17221147
Si       3.83958982       4.43357643      12.00000000  F        6      -0.00021175       0.00010586       0.16946753
Si       7.67917964       4.43357643      12.00000000  F        6       0.00019427       0.00005641       0.16958719
Si      11.51876947       4.43357643      12.00000000  F        6       0.00001748      -0.00002233       0.17105685
Si       1.91979491       1.10839411      14.35125897  F        5       0.00102202      -0.00081668      -0.37522781
Si       5.75938473       1.10839411      14.35125897  F        5      -0.00133278       0.00344824      -0.36892677
Si       9.59897455       1.10839411      14.35125897  F        5       0.00031083       0.00040982      -0.37585952
Si       3.83958982       4.43357643      14.35125897  F        5       0.00344644      -0.00176319      -0.37118693
Si       7.67917964       4.43357643      14.35125897  F        5      -0.00387120      -0.00044372      -0.36926311
Si      11.51876947       4.43357643      14.35125897  F        5       0.00042465      -0.00083445      -0.37520191
Si      -0.00000000       2.21678822      15.13501196  F        4      -0.00003237      -0.00063944      -0.13492154
Si       3.83958982       2.21678822      15.13501196  F        4       0.00574564       0.00192055      -0.12365403
Si       7.67917964       2.21678822      15.13501196  F        4      -0.00571396       0.00277826      -0.12724759
Si       1.91979491       5.54197054      15.13501196  F        4      -0.00377425       0.00283719      -0.13805623
Si       5.75938473       5.54197054      15.13501196  F        4       0.00094353      -0.00578254      -0.12322404
Si       9.59897455       5.54197054      15.13501196  F        4       0.00282900      -0.00111262      -0.13745638
Si      -0.00000000       2.21678822      17.48627093  F        3      -0.00119315       0.00530505       0.13539058
Si       3.83958982       2.21678822      17.48627093  F        3       0.13881266       0.08929128       0.23642441
Si       7.67917964       2.21678822      17.48627093  F        3      -0.13769305       0.08150558       0.23876219
Si       1.91979491       5.54197054      17.48627093  F        3       0.00625726      -0.00828644       0.12909101
Si       5.75938473       5.54197054      17.48627093  F        3      -0.00601411      -0.16595654       0.23582013
Si       9.59897455       5.54197054      17.48627093  F        3      -0.00020959      -0.00185574       0.12195188
Si       0.00000000       0.00000000      18.27002392  F        2       0.02160798      -0.03771827       0.48148267
Si       3.83958982       0.00000000      18.27002392  F        2       0.00304382      -0.00200627       0.53988108
Si       7.67917964       0.00000000      18.27002392  F        2      -0.02464043       0.03572344       0.47978291
Si       1.91979491       3.32518233      18.27002392  F        2       0.03137182       0.00705902       0.51965395
Si       5.75938473       3.32518233      18.27002392  F        2      -0.00281715       0.00187492      -0.34496611
Si       9.59897455       3.32518233      18.27002392  F        2      -0.02855002      -0.00494247       0.51877907
Si       0.00000000       0.00000000      20.62128289  F        1      -0.11607756       0.19183497      -0.33578988
Si       3.83958982       0.00000000      20.62128289  F        1      -0.00788761       0.00381339      -0.45083231
Si       7.67917964       0.00000000      20.62128289  F        1       0.12404375      -0.18725733      -0.33386178
Si       1.91979491       3.32518233      20.62128289  F        1      -0.23312569       0.00984471      -0.35575120
Si       5.75938473       3.32518233      20.62128289  F        1       0.00110967       0.00009828       0.72072817
Si       9.59897455       3.32518233      20.62128289  F        1       0.23193296      -0.01831483      -0.35483345
F        5.75938473       3.32518233      23.37128289  F        0       0.00003096      -0.00001422      -3.14797413
F        5.75938473       3.32518233      24.85185863  F        0      -0.00000008       0.00000004       2.96131400
38
Lattice="11.518769465528859 0.0 0.0 3.839589821842953 6.650364651656328 0.0 0.0 0.0 32.62128289467409" Properties=species:S:1:pos:R:3:move_mask:L:1:tags:I:1:forces:R:3 surface=Si111 species=F2 height_A=2.25 substrate_atoms=36 calculation_kind="Rigid approach energy evaluation; not NEB or TS" energy=-170.90717700674986 pbc="T T F"
Si       1.91979491       1.10839411      12.00000000  F        6      -0.00002462       0.00012489       0.17430413
Si       5.75938473       1.10839411      12.00000000  F        6       0.00010939      -0.00008685       0.16806602
Si       9.59897455       1.10839411      12.00000000  F        6      -0.00008477      -0.00003207       0.17251112
Si       3.83958982       4.43357643      12.00000000  F        6      -0.00001498      -0.00010203       0.16753482
Si       7.67917964       4.43357643      12.00000000  F        6       0.00012990      -0.00005131       0.16806602
Si      11.51876947       4.43357643      12.00000000  F        6      -0.00011492       0.00014736       0.17056356
Si       1.91979491       1.10839411      14.35125897  F        5       0.00398816      -0.00263921      -0.37210648
Si       5.75938473       1.10839411      14.35125897  F        5      -0.00230487      -0.01230676      -0.38429248
Si       9.59897455       1.10839411      14.35125897  F        5      -0.00168439       0.00134874      -0.37131791
Si       3.83958982       4.43357643      14.35125897  F        5      -0.00948505       0.00581284      -0.38778973
Si       7.67917964       4.43357643      14.35125897  F        5       0.00917069       0.00834278      -0.38478431
Si      11.51876947       4.43357643      14.35125897  F        5       0.00031535      -0.00055833      -0.36736233
Si      -0.00000000       2.21678822      15.13501196  F        4      -0.00006599      -0.00092649      -0.11493808
Si       3.83958982       2.21678822      15.13501196  F        4      -0.00891598      -0.00849497      -0.13931361
Si       7.67917964       2.21678822      15.13501196  F        4       0.00897404      -0.00605713      -0.15016627
Si       1.91979491       5.54197054      15.13501196  F        4      -0.01014251       0.00682037      -0.12757115
Si       5.75938473       5.54197054      15.13501196  F        4       0.00266822       0.01210211      -0.13851004
Si       9.59897455       5.54197054      15.13501196  F        4       0.00748080      -0.00344307      -0.12822266
Si      -0.00000000       2.21678822      17.48627093  F        3      -0.00318251       0.01138043       0.11237225
Si       3.83958982       2.21678822      17.48627093  F        3       0.34589068       0.21881217       0.34100207
Si       7.67917964       2.21678822      17.48627093  F        3      -0.34274145       0.20100246       0.34960601
Si       1.91979491       5.54197054      17.48627093  F        3      -0.00277399      -0.00776963       0.09569276
Si       5.75938473       5.54197054      17.48627093  F        3      -0.01229761      -0.41140192       0.33960266
Si       9.59897455       5.54197054      17.48627093  F        3       0.01565599      -0.01202787       0.07382008
Si       0.00000000       0.00000000      18.27002392  F        2       0.00335889      -0.01880646       0.64403380
Si       3.83958982       0.00000000      18.27002392  F        2       0.01824818      -0.01127608       0.79190754
Si       7.67917964       0.00000000      18.27002392  F        2      -0.02135713       0.01044152       0.63913708
Si       1.91979491       3.32518233      18.27002392  F        2      -0.00500059       0.01967209       0.69381895
Si       5.75938473       3.32518233      18.27002392  F        2      -0.00791025       0.00531500      -0.68108475
Si       9.59897455       3.32518233      18.27002392  F        2       0.01300732      -0.00550106       0.69133115
Si       0.00000000       0.00000000      20.62128289  F        1      -0.08035312       0.12332884      -0.42081365
Si       3.83958982       0.00000000      20.62128289  F        1      -0.02470680       0.01249649      -0.53567009
Si       7.67917964       0.00000000      20.62128289  F        1       0.10411153      -0.10986417      -0.41642321
Si       1.91979491       3.32518233      20.62128289  F        1      -0.17397629       0.02250402      -0.44254602
Si       5.75938473       3.32518233      20.62128289  F        1       0.00214816       0.00049177       0.59505504
Si       9.59897455       3.32518233      20.62128289  F        1       0.17178733      -0.04873500      -0.44046749
F        5.75938473       3.32518233      22.87128289  F        0       0.00009336      -0.00006358      -9.92546390
F        5.75938473       3.32518233      24.35185863  F        0      -0.00000016       0.00000009       9.54041909
38
Lattice="11.518769465528859 0.0 0.0 3.839589821842953 6.650364651656328 0.0 0.0 0.0 32.62128289467409" Properties=species:S:1:pos:R:3:move_mask:L:1:tags:I:1:forces:R:3 surface=Si111 species=F2 height_A=1.9 substrate_atoms=36 calculation_kind="Rigid approach energy evaluation; not NEB or TS" energy=-171.1812774681381 pbc="T T F"
Si       1.91979491       1.10839411      12.00000000  F        6       0.00003447       0.00011750       0.17532414
Si       5.75938473       1.10839411      12.00000000  F        6       0.00011223      -0.00016163       0.16780021
Si       9.59897455       1.10839411      12.00000000  F        6      -0.00014670      -0.00001533       0.17291819
Si       3.83958982       4.43357643      12.00000000  F        6      -0.00003097      -0.00011951       0.16713533
Si       7.67917964       4.43357643      12.00000000  F        6       0.00019610      -0.00001638       0.16780021
Si      11.51876947       4.43357643      12.00000000  F        6      -0.00016512       0.00019536       0.17036319
Si       1.91979491       1.10839411      14.35125897  F        5       0.00414818      -0.00298200      -0.36265530
Si       5.75938473       1.10839411      14.35125897  F        5      -0.00378081      -0.00172907      -0.35546772
Si       9.59897455       1.10839411      14.35125897  F        5      -0.00037438       0.00108019      -0.36463839
Si       3.83958982       4.43357643      14.35125897  F        5       0.00029283       0.00041798      -0.36074110
Si       7.67917964       4.43357643      14.35125897  F        5      -0.00093198       0.00445000      -0.35628078
Si      11.51876947       4.43357643      14.35125897  F        5       0.00063878      -0.00123285      -0.36238531
Si      -0.00000000       2.21678822      15.13501196  F        4       0.00126566      -0.00340892      -0.10759972
Si       3.83958982       2.21678822      15.13501196  F        4      -0.00092342      -0.00665879      -0.13830584
Si       7.67917964       2.21678822      15.13501196  F        4      -0.00033296      -0.00103885      -0.15045610
Si       1.91979491       5.54197054      15.13501196  F        4      -0.00925550       0.00802185      -0.12471642
Si       5.75938473       5.54197054      15.13501196  F        4       0.00498814       0.00431203      -0.13733818
Si       9.59897455       5.54197054      15.13501196  F        4       0.00429271      -0.00124731      -0.12670429
Si      -0.00000000       2.21678822      17.48627093  F        3      -0.00197091       0.01112835       0.09026645
Si       3.83958982       2.21678822      17.48627093  F        3       0.32439304       0.21195738       0.35151208
Si       7.67917964       2.21678822      17.48627093  F        3      -0.32284425       0.19073133       0.36995893
Si       1.91979491       5.54197054      17.48627093  F        3       0.00720741      -0.01377122       0.07701625
Si       5.75938473       5.54197054      17.48627093  F        3      -0.01582414      -0.39009203       0.34984053
Si       9.59897455       5.54197054      17.48627093  F        3       0.00930360      -0.00948450       0.04914144
Si       0.00000000       0.00000000      18.27002392  F        2       0.02452919      -0.07147935       0.65822444
Si       3.83958982       0.00000000      18.27002392  F        2       0.03446638      -0.02069804       0.83344404
Si       7.67917964       0.00000000      18.27002392  F        2      -0.05879463       0.05979372       0.65437645
Si       1.91979491       3.32518233      18.27002392  F        2       0.04588970       0.03080905       0.71672224
Si       5.75938473       3.32518233      18.27002392  F        2      -0.00754609       0.00516556      -0.97582140
Si       9.59897455       3.32518233      18.27002392  F        2      -0.03821628      -0.00366346       0.71454521
Si       0.00000000       0.00000000      20.62128289  F        1      -0.07612070       0.08274950      -0.35470166
Si       3.83958982       0.00000000      20.62128289  F        1      -0.00612407       0.00195389      -0.40263689
Si       7.67917964       0.00000000      20.62128289  F        1       0.08143659      -0.07899336      -0.34985169
Si       1.91979491       3.32518233      20.62128289  F        1      -0.15353852       0.04920930      -0.38016201
Si       5.75938473       3.32518233      20.62128289  F        1       0.00377083      -0.00066065       2.23637904
Si       9.59897455       3.32518233      20.62128289  F        1       0.15014039      -0.05483131      -0.37789594
F        5.75938473       3.32518233      22.52128289  F        0      -0.00018472       0.00019153     -14.28808861
F        5.75938473       3.32518233      24.00185863  F        0      -0.00000007       0.00000004      11.95367899
38
Lattice="11.518769465528859 0.0 0.0 3.839589821842953 6.650364651656328 0.0 0.0 0.0 32.62128289467409" Properties=species:S:1:pos:R:3:move_mask:L:1:tags:I:1:forces:R:3 surface=Si111 species=F2 height_A=1.6 substrate_atoms=36 calculation_kind="Rigid approach energy evaluation; not NEB or TS" energy=-171.98866034343845 pbc="T T F"
Si       1.91979491       1.10839411      12.00000000  F        6      -0.00006921       0.00016757       0.17575151
Si       5.75938473       1.10839411      12.00000000  F        6       0.00013320      -0.00021484       0.16729736
Si       9.59897455       1.10839411      12.00000000  F        6      -0.00006399      -0.00004274       0.17304024
Si       3.83958982       4.43357643      12.00000000  F        6      -0.00011448      -0.00006152       0.16661223
Si       7.67917964       4.43357643      12.00000000  F        6       0.00025266      -0.00000793       0.16729736
Si      11.51876947       4.43357643      12.00000000  F        6      -0.00013818       0.00015947       0.17013135
Si       1.91979491       1.10839411      14.35125897  F        5       0.00337143      -0.00279944      -0.35840592
Si       5.75938473       1.10839411      14.35125897  F        5      -0.00460526       0.02298448      -0.31889489
Si       9.59897455       1.10839411      14.35125897  F        5       0.00122539       0.00039146      -0.36312230
Si       3.83958982       4.43357643      14.35125897  F        5       0.02214369      -0.01193172      -0.32584137
Si       7.67917964       4.43357643      14.35125897  F        5      -0.02301676      -0.00703690      -0.32012676
Si      11.51876947       4.43357643      14.35125897  F        5       0.00087189      -0.00160232      -0.36348856
Si      -0.00000000       2.21678822      15.13501196  F        4       0.00139383      -0.00419106      -0.10336991
Si       3.83958982       2.21678822      15.13501196  F        4       0.02429699       0.00703123      -0.13967798
Si       7.67917964       2.21678822      15.13501196  F        4      -0.02566182       0.01319891      -0.15374270
Si       1.91979491       5.54197054      15.13501196  F        4      -0.00827830       0.00816581      -0.12345049
Si       5.75938473       5.54197054      15.13501196  F        4       0.00549824      -0.02423352      -0.13848378
Si       9.59897455       5.54197054      15.13501196  F        4       0.00280842      -0.00000449      -0.12578060
Si      -0.00000000       2.21678822      17.48627093  F        3      -0.00057999       0.01045770       0.06719615
Si       3.83958982       2.21678822      17.48627093  F        3       0.22489679       0.16856257       0.21941205
Si       7.67917964       2.21678822      17.48627093  F        3      -0.22516238       0.13551072       0.24986514
Si       1.91979491       5.54197054      17.48627093  F        3       0.01847871      -0.02043096       0.06004232
Si       5.75938473       5.54197054      17.48627093  F        3      -0.02713459      -0.28267826       0.21753857
Si       9.59897455       5.54197054      17.48627093  F        3       0.00949106      -0.01070368       0.02526870
Si       0.00000000       0.00000000      18.27002392  F        2      -0.02738107      -0.00001217       0.58259343
Si       3.83958982       0.00000000      18.27002392  F        2       0.05724228      -0.03389792       0.69339583
Si       7.67917964       0.00000000      18.27002392  F        2      -0.02984981      -0.02221342       0.58084142
Si       1.91979491       3.32518233      18.27002392  F        2      -0.05122665       0.04480920       0.67292595
Si       5.75938473       3.32518233      18.27002392  F        2      -0.00926397       0.00620705      -1.22059651
Si       9.59897455       3.32518233      18.27002392  F        2       0.06054543       0.00518525       0.67166707
Si       0.00000000       0.00000000      20.62128289  F        1      -0.04213816      -0.01164979      -0.25790308
Si       3.83958982       0.00000000      20.62128289  F        1       0.01421113      -0.00969771      -0.20788636
Si       7.67917964       0.00000000      20.62128289  F        1       0.02799042       0.00449153      -0.25296658
Si       1.91979491       3.32518233      20.62128289  F        1      -0.05538981       0.06728825      -0.30276816
Si       5.75938473       3.32518233      20.62128289  F        1       0.00477024      -0.00133139       1.80542443
Si       9.59897455       3.32518233      20.62128289  F        1       0.05108678      -0.05046499      -0.30051543
F        5.75938473       3.32518233      22.22128289  F        0      -0.00062543       0.00058900     -11.74929710
F        5.75938473       3.32518233      23.70185863  F        0      -0.00000875       0.00000659      10.26001735
38
Lattice="11.518769465528859 0.0 0.0 3.839589821842953 6.650364651656328 0.0 0.0 0.0 32.62128289467409" Properties=species:S:1:pos:R:3:move_mask:L:1:tags:I:1:forces:R:3 surface=Si111 species=F2 height_A=1.3 substrate_atoms=36 calculation_kind="Rigid approach energy evaluation; not NEB or TS" energy=-169.0395073464451 pbc="T T F"
Si       1.91979491       1.10839411      12.00000000  F        6       0.00002678       0.00013552       0.17514301
Si       5.75938473       1.10839411      12.00000000  F        6       0.00015491       0.00002932       0.16490528
Si       9.59897455       1.10839411      12.00000000  F        6      -0.00018168       0.00000065       0.17261463
Si       3.83958982       4.43357643      12.00000000  F        6       0.00011192      -0.00021559       0.16400389
Si       7.67917964       4.43357643      12.00000000  F        6       0.00005206      -0.00014881       0.16490528
Si      11.51876947       4.43357643      12.00000000  F        6      -0.00016398       0.00019892       0.16982365
Si       1.91979491       1.10839411      14.35125897  F        5       0.00288261      -0.00283751      -0.35443166
Si       5.75938473       1.10839411      14.35125897  F        5      -0.00569526       0.00719376      -0.32386462
Si       9.59897455       1.10839411      14.35125897  F        5       0.00280640      -0.00056786      -0.35954949
Si       3.83958982       4.43357643      14.35125897  F        5       0.00916652      -0.00411905      -0.33311838
Si       7.67917964       4.43357643      14.35125897  F        5      -0.01024838       0.00201130      -0.32559764
Si      11.51876947       4.43357643      14.35125897  F        5       0.00108499      -0.00167884      -0.35899230
Si      -0.00000000       2.21678822      15.13501196  F        4       0.00204032      -0.00594087      -0.09489842
Si       3.83958982       2.21678822      15.13501196  F        4       0.01101264      -0.00276790      -0.15123083
Si       7.67917964       2.21678822      15.13501196  F        4      -0.01301444       0.00540547      -0.16881081
Si       1.91979491       5.54197054      15.13501196  F        4      -0.00835805       0.00958841      -0.12065385
Si       5.75938473       5.54197054      15.13501196  F        4       0.00701664      -0.00764131      -0.14970945
Si       9.59897455       5.54197054      15.13501196  F        4       0.00135144       0.00132817      -0.12461778
Si      -0.00000000       2.21678822      17.48627093  F        3       0.00093985       0.00954851       0.05293783
Si       3.83958982       2.21678822      17.48627093  F        3       0.22711702       0.18357111       0.13086329
Si       7.67917964       2.21678822      17.48627093  F        3      -0.22974566       0.13680160       0.16998269
Si       1.91979491       5.54197054      17.48627093  F        3       0.01211396      -0.01641687       0.03668451
Si       5.75938473       5.54197054      17.48627093  F        3      -0.04004726      -0.29139721       0.13068293
Si       9.59897455       5.54197054      17.48627093  F        3       0.02983589      -0.02097733      -0.01680495
Si       0.00000000       0.00000000      18.27002392  F        2      -0.03693566       0.02226920       0.60861299
Si       3.83958982       0.00000000      18.27002392  F        2       0.06234902      -0.03712648       0.72400016
Si       7.67917964       0.00000000      18.27002392  F        2      -0.02564726      -0.04222938       0.61015207
Si       1.91979491       3.32518233      18.27002392  F        2      -0.08683123       0.04735035       0.75429958
Si       5.75938473       3.32518233      18.27002392  F        2      -0.01110221       0.00755906      -3.11489260
Si       9.59897455       3.32518233      18.27002392  F        2       0.09799025       0.00237894       0.75458204
Si       0.00000000       0.00000000      20.62128289  F        1      -0.04562216      -0.00800500      -0.25850667
Si       3.83958982       0.00000000      20.62128289  F        1      -0.00658088       0.00130118      -0.13378460
Si       7.67917964       0.00000000      20.62128289  F        1       0.05400786       0.01337284      -0.25351725
Si       1.91979491       3.32518233      20.62128289  F        1      -0.04747016       0.05996374      -0.33211163
Si       5.75938473       3.32518233      20.62128289  F        1       0.00560611      -0.00083770     -22.40099805
Si       9.59897455       3.32518233      20.62128289  F        1       0.04192281      -0.06863095      -0.32991163
F        5.75938473       3.32518233      21.92128289  F        0      -0.00176105       0.00137058       9.40726255
F        5.75938473       3.32518233      23.40185863  F        0      -0.00018468       0.00016004      15.31454624
