41
Lattice="11.518769465528859 0.0 0.0 0.0 7.679179643685906 0.0 0.0 0.0 30.7875" Properties=species:S:1:pos:R:3:move_mask:L:1:tags:I:1:forces:R:3 surface=Si100 species=CH3F site=hollow orientation=parallel height_A=6.5 substrate_atoms=36 calculation_kind="Rigid evaluated approach scan; not NEB" energy=-204.25090419172574 pbc="T T F"
Si       0.00000000       0.00000000      12.00000000  F        6      -0.00000004       0.00000000       0.24903484
Si       3.83958982       0.00000000      12.00000000  F        6      -0.00000000       0.00000000       0.24903482
Si       7.67917964       0.00000000      12.00000000  F        6       0.00000000       0.00000000       0.24903482
Si       0.00000000       3.83958982      12.00000000  F        6      -0.00000004      -0.00000000       0.24903484
Si       3.83958982       3.83958982      12.00000000  F        6      -0.00000000      -0.00000000       0.24903482
Si       7.67917964       3.83958982      12.00000000  F        6       0.00000000      -0.00000000       0.24903482
Si       1.91979491       0.00000000      13.35750000  F        5       0.00000000      -0.00000002      -0.52822352
Si       5.75938473       0.00000000      13.35750000  F        5       0.00000000      -0.00000002      -0.52822353
Si       9.59897455       0.00000000      13.35750000  F        5       0.00000003      -0.00000002      -0.52822354
Si       1.91979491       3.83958982      13.35750000  F        5       0.00000000       0.00000000      -0.52822354
Si       5.75938473       3.83958982      13.35750000  F        5       0.00000000       0.00000000      -0.52822354
Si       9.59897455       3.83958982      13.35750000  F        5       0.00000003       0.00000000      -0.52822356
Si       1.91979491       1.91979491      14.71500000  F        4      -0.00000000       0.00000000       0.14537709
Si       5.75938473       1.91979491      14.71500000  F        4       0.00000000       0.00000000       0.14537709
Si       9.59897455       1.91979491      14.71500000  F        4       0.00000004       0.00000000       0.14537711
Si       1.91979491       5.75938473      14.71500000  F        4      -0.00000000       0.00000002       0.14537707
Si       5.75938473       5.75938473      14.71500000  F        4       0.00000000       0.00000002       0.14537707
Si       9.59897455       5.75938473      14.71500000  F        4       0.00000004       0.00000002       0.14537709
Si       0.00000000       1.91979491      16.07250000  F        3      -0.00000004       0.00000000      -0.14537711
Si       3.83958982       1.91979491      16.07250000  F        3      -0.00000000       0.00000000      -0.14537709
Si       7.67917964       1.91979491      16.07250000  F        3       0.00000000       0.00000000      -0.14537709
Si       0.00000000       5.75938473      16.07250000  F        3      -0.00000004       0.00000002      -0.14537709
Si       3.83958982       5.75938473      16.07250000  F        3      -0.00000000       0.00000002      -0.14537707
Si       7.67917964       5.75938473      16.07250000  F        3       0.00000000       0.00000002      -0.14537707
Si       0.00000000       0.00000000      17.43000000  F        2      -0.00000003      -0.00000002       0.52822354
Si       3.83958982       0.00000000      17.43000000  F        2      -0.00000000      -0.00000002       0.52822353
Si       7.67917964       0.00000000      17.43000000  F        2      -0.00000000      -0.00000002       0.52822352
Si       0.00000000       3.83958982      17.43000000  F        2      -0.00000003       0.00000000       0.52822356
Si       3.83958982       3.83958982      17.43000000  F        2      -0.00000000       0.00000000       0.52822354
Si       7.67917964       3.83958982      17.43000000  F        2      -0.00000000       0.00000000       0.52822354
Si       1.91979491       0.00000000      18.78750000  F        1      -0.00000000       0.00000000      -0.24903482
Si       5.75938473       0.00000000      18.78750000  F        1       0.00000000       0.00000000      -0.24903482
Si       9.59897455       0.00000000      18.78750000  F        1       0.00000004       0.00000000      -0.24903484
Si       1.91979491       3.83958982      18.78750000  F        1      -0.00000000      -0.00000000      -0.24903482
Si       5.75938473       3.83958982      18.78750000  F        1       0.00000000      -0.00000000      -0.24903482
Si       9.59897455       3.83958982      18.78750000  F        1       0.00000004      -0.00000000      -0.24903484
F        6.35162474       1.91979491      26.33426642  T        0      -0.00285954      -0.00000000      -0.00000000
C        7.77127687       1.91979491      26.33426642  T        0       0.00319168      -0.00000000       0.00000019
H        8.09099886       1.91979491      25.28750000  T        0      -0.00011068       0.00000000       0.00125386
H        8.09099886       2.82632123      26.85764963  T        0      -0.00011073      -0.00108610      -0.00062702
H        8.09099886       1.01326859      26.85764963  T        0      -0.00011073       0.00108610      -0.00062702
41
Lattice="11.518769465528859 0.0 0.0 0.0 7.679179643685906 0.0 0.0 0.0 30.7875" Properties=species:S:1:pos:R:3:move_mask:L:1:tags:I:1:forces:R:3 surface=Si100 species=CH3F site=hollow orientation=parallel height_A=5.0 substrate_atoms=36 calculation_kind="Rigid evaluated approach scan; not NEB" energy=-204.25090419172574 pbc="T T F"
Si       0.00000000       0.00000000      12.00000000  F        6      -0.00000004       0.00000000       0.24903484
Si       3.83958982       0.00000000      12.00000000  F        6      -0.00000000       0.00000000       0.24903482
Si       7.67917964       0.00000000      12.00000000  F        6       0.00000000       0.00000000       0.24903482
Si       0.00000000       3.83958982      12.00000000  F        6      -0.00000004      -0.00000000       0.24903484
Si       3.83958982       3.83958982      12.00000000  F        6      -0.00000000      -0.00000000       0.24903482
Si       7.67917964       3.83958982      12.00000000  F        6       0.00000000      -0.00000000       0.24903482
Si       1.91979491       0.00000000      13.35750000  F        5       0.00000000      -0.00000002      -0.52822352
Si       5.75938473       0.00000000      13.35750000  F        5       0.00000000      -0.00000002      -0.52822353
Si       9.59897455       0.00000000      13.35750000  F        5       0.00000003      -0.00000002      -0.52822354
Si       1.91979491       3.83958982      13.35750000  F        5       0.00000000       0.00000000      -0.52822354
Si       5.75938473       3.83958982      13.35750000  F        5       0.00000000       0.00000000      -0.52822354
Si       9.59897455       3.83958982      13.35750000  F        5       0.00000003       0.00000000      -0.52822356
Si       1.91979491       1.91979491      14.71500000  F        4      -0.00000000       0.00000000       0.14537709
Si       5.75938473       1.91979491      14.71500000  F        4       0.00000000       0.00000000       0.14537709
Si       9.59897455       1.91979491      14.71500000  F        4       0.00000004       0.00000000       0.14537711
Si       1.91979491       5.75938473      14.71500000  F        4      -0.00000000       0.00000002       0.14537707
Si       5.75938473       5.75938473      14.71500000  F        4       0.00000000       0.00000002       0.14537707
Si       9.59897455       5.75938473      14.71500000  F        4       0.00000004       0.00000002       0.14537709
Si       0.00000000       1.91979491      16.07250000  F        3      -0.00000004       0.00000000      -0.14537711
Si       3.83958982       1.91979491      16.07250000  F        3      -0.00000000       0.00000000      -0.14537709
Si       7.67917964       1.91979491      16.07250000  F        3       0.00000000       0.00000000      -0.14537709
Si       0.00000000       5.75938473      16.07250000  F        3      -0.00000004       0.00000002      -0.14537709
Si       3.83958982       5.75938473      16.07250000  F        3      -0.00000000       0.00000002      -0.14537707
Si       7.67917964       5.75938473      16.07250000  F        3       0.00000000       0.00000002      -0.14537707
Si       0.00000000       0.00000000      17.43000000  F        2      -0.00000003      -0.00000002       0.52822354
Si       3.83958982       0.00000000      17.43000000  F        2      -0.00000000      -0.00000002       0.52822353
Si       7.67917964       0.00000000      17.43000000  F        2      -0.00000000      -0.00000002       0.52822352
Si       0.00000000       3.83958982      17.43000000  F        2      -0.00000003       0.00000000       0.52822356
Si       3.83958982       3.83958982      17.43000000  F        2      -0.00000000       0.00000000       0.52822354
Si       7.67917964       3.83958982      17.43000000  F        2      -0.00000000       0.00000000       0.52822354
Si       1.91979491       0.00000000      18.78750000  F        1      -0.00000000       0.00000000      -0.24903482
Si       5.75938473       0.00000000      18.78750000  F        1       0.00000000       0.00000000      -0.24903482
Si       9.59897455       0.00000000      18.78750000  F        1       0.00000004       0.00000000      -0.24903484
Si       1.91979491       3.83958982      18.78750000  F        1      -0.00000000      -0.00000000      -0.24903482
Si       5.75938473       3.83958982      18.78750000  F        1       0.00000000      -0.00000000      -0.24903482
Si       9.59897455       3.83958982      18.78750000  F        1       0.00000004      -0.00000000      -0.24903484
F        6.35162474       1.91979491      24.83426642  T        0      -0.00285954      -0.00000000      -0.00000000
C        7.77127687       1.91979491      24.83426642  T        0       0.00319168      -0.00000000       0.00000019
H        8.09099886       1.91979491      23.78750000  T        0      -0.00011068       0.00000000       0.00125386
H        8.09099886       2.82632123      25.35764963  T        0      -0.00011073      -0.00108610      -0.00062702
H        8.09099886       1.01326859      25.35764963  T        0      -0.00011073       0.00108610      -0.00062702
41
Lattice="11.518769465528859 0.0 0.0 0.0 7.679179643685906 0.0 0.0 0.0 30.7875" Properties=species:S:1:pos:R:3:move_mask:L:1:tags:I:1:forces:R:3 surface=Si100 species=CH3F site=hollow orientation=parallel height_A=4.0 substrate_atoms=36 calculation_kind="Rigid evaluated approach scan; not NEB" energy=-204.25028844742442 pbc="T T F"
Si       0.00000000       0.00000000      12.00000000  F        6      -0.00011210       0.00000168       0.24903877
Si       3.83958982       0.00000000      12.00000000  F        6      -0.00000000       0.00000000       0.24902471
Si       7.67917964       0.00000000      12.00000000  F        6       0.00011207      -0.00000050       0.24904669
Si       0.00000000       3.83958982      12.00000000  F        6      -0.00011210      -0.00000168       0.24903877
Si       3.83958982       3.83958982      12.00000000  F        6      -0.00000000      -0.00000000       0.24902471
Si       7.67917964       3.83958982      12.00000000  F        6       0.00011207       0.00000050       0.24904669
Si       1.91979491       0.00000000      13.35750000  F        5       0.00009506       0.00000901      -0.52821255
Si       5.75938473       0.00000000      13.35750000  F        5      -0.00006885       0.00000400      -0.52815085
Si       9.59897455       0.00000000      13.35750000  F        5      -0.00002618      -0.00005114      -0.52786440
Si       1.91979491       3.83958982      13.35750000  F        5       0.00009506      -0.00000903      -0.52821257
Si       5.75938473       3.83958982      13.35750000  F        5      -0.00006885      -0.00000402      -0.52815086
Si       9.59897455       3.83958982      13.35750000  F        5      -0.00002618       0.00005112      -0.52786442
Si       1.91979491       1.91979491      14.71500000  F        4      -0.00015234       0.00000000       0.14533560
Si       5.75938473       1.91979491      14.71500000  F        4       0.00011498       0.00000000       0.14535643
Si       9.59897455       1.91979491      14.71500000  F        4       0.00015956       0.00000000       0.14463482
Si       1.91979491       5.75938473      14.71500000  F        4      -0.00032204       0.00000002       0.14545393
Si       5.75938473       5.75938473      14.71500000  F        4       0.00023224       0.00000002       0.14543426
Si       9.59897455       5.75938473      14.71500000  F        4       0.00051381       0.00000002       0.14847841
Si       0.00000000       1.91979491      16.07250000  F        3       0.00077525       0.00000000      -0.14727441
Si       3.83958982       1.91979491      16.07250000  F        3       0.00003734       0.00000000      -0.14522149
Si       7.67917964       1.91979491      16.07250000  F        3      -0.00154891       0.00000000      -0.14672498
Si       0.00000000       5.75938473      16.07250000  F        3      -0.00273760       0.00000002      -0.14474476
Si       3.83958982       5.75938473      16.07250000  F        3       0.00004257       0.00000002      -0.14520684
Si       7.67917964       5.75938473      16.07250000  F        3      -0.00016291       0.00000002      -0.14912116
Si       0.00000000       0.00000000      17.43000000  F        2      -0.00291324      -0.00165317       0.52896814
Si       3.83958982       0.00000000      17.43000000  F        2      -0.00004542       0.00000021       0.52911409
Si       7.67917964       0.00000000      17.43000000  F        2      -0.00169177       0.00091460       0.52735717
Si       0.00000000       3.83958982      17.43000000  F        2      -0.00291324       0.00165315       0.52896815
Si       3.83958982       3.83958982      17.43000000  F        2      -0.00004542      -0.00000023       0.52911410
Si       7.67917964       3.83958982      17.43000000  F        2      -0.00169177      -0.00091462       0.52735718
Si       1.91979491       0.00000000      18.78750000  F        1       0.00172066       0.00026018      -0.24947467
Si       5.75938473       0.00000000      18.78750000  F        1      -0.00008212       0.00015951      -0.24922073
Si       9.59897455       0.00000000      18.78750000  F        1       0.00680671       0.00566256      -0.25127990
Si       1.91979491       3.83958982      18.78750000  F        1       0.00172066      -0.00026018      -0.24947467
Si       5.75938473       3.83958982      18.78750000  F        1      -0.00008212      -0.00015951      -0.24922073
Si       9.59897455       3.83958982      18.78750000  F        1       0.00680671      -0.00566256      -0.25127990
F        6.35162474       1.91979491      23.83426642  T        0      -0.00481550       0.00000000       0.00013835
C        7.77127687       1.91979491      23.83426642  T        0       0.00876068      -0.00000000       0.00163743
H        8.09099886       1.91979491      22.78750000  T        0      -0.00505004       0.00000000       0.00500990
H        8.09099886       2.82632123      24.35764963  T        0      -0.00171837      -0.00028634       0.00006077
H        8.09099886       1.01326859      24.35764963  T        0      -0.00171837       0.00028634       0.00006077
41
Lattice="11.518769465528859 0.0 0.0 0.0 7.679179643685906 0.0 0.0 0.0 30.7875" Properties=species:S:1:pos:R:3:move_mask:L:1:tags:I:1:forces:R:3 surface=Si100 species=CH3F site=hollow orientation=parallel height_A=3.25 substrate_atoms=36 calculation_kind="Rigid evaluated approach scan; not NEB" energy=-204.26492577377152 pbc="T T F"
Si       0.00000000       0.00000000      12.00000000  F        6      -0.00062877       0.00001830       0.24918865
Si       3.83958982       0.00000000      12.00000000  F        6       0.00020032       0.00000597       0.24900659
Si       7.67917964       0.00000000      12.00000000  F        6       0.00042841      -0.00000245       0.24928576
Si       0.00000000       3.83958982      12.00000000  F        6      -0.00062877      -0.00001830       0.24918865
Si       3.83958982       3.83958982      12.00000000  F        6       0.00020032      -0.00000597       0.24900659
Si       7.67917964       3.83958982      12.00000000  F        6       0.00042841       0.00000245       0.24928576
Si       1.91979491       0.00000000      13.35750000  F        5       0.00025331       0.00008847      -0.52767117
Si       5.75938473       0.00000000      13.35750000  F        5      -0.00033954      -0.00009994      -0.52693432
Si       9.59897455       0.00000000      13.35750000  F        5       0.00008644      -0.00026063      -0.52659597
Si       1.91979491       3.83958982      13.35750000  F        5       0.00025331      -0.00008849      -0.52767118
Si       5.75938473       3.83958982      13.35750000  F        5      -0.00033954       0.00009992      -0.52693434
Si       9.59897455       3.83958982      13.35750000  F        5       0.00008644       0.00026061      -0.52659598
Si       1.91979491       1.91979491      14.71500000  F        4      -0.00077685      -0.00000000       0.14540152
Si       5.75938473       1.91979491      14.71500000  F        4       0.00096578      -0.00000000       0.14145521
Si       9.59897455       1.91979491      14.71500000  F        4      -0.00113769      -0.00000000       0.14600175
Si       1.91979491       5.75938473      14.71500000  F        4      -0.00138951       0.00000002       0.14629145
Si       5.75938473       5.75938473      14.71500000  F        4      -0.00009107       0.00000002       0.14886897
Si       9.59897455       5.75938473      14.71500000  F        4      -0.00076175       0.00000002       0.14225720
Si       0.00000000       1.91979491      16.07250000  F        3       0.00556174       0.00000000      -0.15134222
Si       3.83958982       1.91979491      16.07250000  F        3      -0.00292914       0.00000000      -0.14932305
Si       7.67917964       1.91979491      16.07250000  F        3      -0.00158058      -0.00000000      -0.15071196
Si       0.00000000       5.75938473      16.07250000  F        3      -0.00170106       0.00000002      -0.14402239
Si       3.83958982       5.75938473      16.07250000  F        3       0.00663210       0.00000002      -0.13517020
Si       7.67917964       5.75938473      16.07250000  F        3      -0.00285046       0.00000002      -0.16741732
Si       0.00000000       0.00000000      17.43000000  F        2      -0.00988732      -0.00210473       0.53569073
Si       3.83958982       0.00000000      17.43000000  F        2       0.01175919      -0.00708237       0.54026698
Si       7.67917964       0.00000000      17.43000000  F        2       0.00168594      -0.00153474       0.50856862
Si       0.00000000       3.83958982      17.43000000  F        2      -0.00988732       0.00210471       0.53569074
Si       3.83958982       3.83958982      17.43000000  F        2       0.01175919       0.00708234       0.54026700
Si       7.67917964       3.83958982      17.43000000  F        2       0.00168594       0.00153472       0.50856863
Si       1.91979491       0.00000000      18.78750000  F        1       0.00316851       0.00027525      -0.25448192
Si       5.75938473       0.00000000      18.78750000  F        1      -0.02204333       0.04128920      -0.21377585
Si       9.59897455       0.00000000      18.78750000  F        1       0.00219104       0.05718285      -0.21521210
Si       1.91979491       3.83958982      18.78750000  F        1       0.00316851      -0.00027525      -0.25448192
Si       5.75938473       3.83958982      18.78750000  F        1      -0.02204333      -0.04128920      -0.21377585
Si       9.59897455       3.83958982      18.78750000  F        1       0.00219104      -0.05718285      -0.21521210
F        6.35162474       1.91979491      23.08426642  T        0      -0.01751204       0.00000000      -0.07635135
C        7.77127687       1.91979491      23.08426642  T        0       0.05510610      -0.00000000      -0.03930014
H        8.09099886       1.91979491      22.03750000  T        0       0.01580467      -0.00000000      -0.00693208
H        8.09099886       2.82632123      23.60764963  T        0      -0.01354431       0.00051891       0.00781132
H        8.09099886       1.01326859      23.60764963  T        0      -0.01354431      -0.00051891       0.00781132
41
Lattice="11.518769465528859 0.0 0.0 0.0 7.679179643685906 0.0 0.0 0.0 30.7875" Properties=species:S:1:pos:R:3:move_mask:L:1:tags:I:1:forces:R:3 surface=Si100 species=CH3F site=hollow orientation=parallel height_A=2.75 substrate_atoms=36 calculation_kind="Rigid evaluated approach scan; not NEB" energy=-204.32821381285174 pbc="T T F"
Si       0.00000000       0.00000000      12.00000000  F        6      -0.00064512       0.00001682       0.24904037
Si       3.83958982       0.00000000      12.00000000  F        6       0.00047279       0.00000000       0.24899294
Si       7.67917964       0.00000000      12.00000000  F        6       0.00017230      -0.00001795       0.24940568
Si       0.00000000       3.83958982      12.00000000  F        6      -0.00064512      -0.00001682       0.24904037
Si       3.83958982       3.83958982      12.00000000  F        6       0.00047279      -0.00000000       0.24899294
Si       7.67917964       3.83958982      12.00000000  F        6       0.00017230       0.00001795       0.24940568
Si       1.91979491       0.00000000      13.35750000  F        5       0.00051600       0.00008367      -0.52497810
Si       5.75938473       0.00000000      13.35750000  F        5      -0.00050953      -0.00010400      -0.52398082
Si       9.59897455       0.00000000      13.35750000  F        5      -0.00003248      -0.00034038      -0.52509737
Si       1.91979491       3.83958982      13.35750000  F        5       0.00051600      -0.00008369      -0.52497812
Si       5.75938473       3.83958982      13.35750000  F        5      -0.00050953       0.00010398      -0.52398083
Si       9.59897455       3.83958982      13.35750000  F        5      -0.00003248       0.00034036      -0.52509739
Si       1.91979491       1.91979491      14.71500000  F        4       0.00013042      -0.00000000       0.14863942
Si       5.75938473       1.91979491      14.71500000  F        4       0.00283484      -0.00000000       0.14688306
Si       9.59897455       1.91979491      14.71500000  F        4      -0.00353545      -0.00000000       0.16113898
Si       1.91979491       5.75938473      14.71500000  F        4      -0.00101930       0.00000002       0.14895727
Si       5.75938473       5.75938473      14.71500000  F        4       0.00425818       0.00000002       0.14455018
Si       9.59897455       5.75938473      14.71500000  F        4      -0.00468105       0.00000002       0.13591688
Si       0.00000000       1.91979491      16.07250000  F        3       0.00357168       0.00000000      -0.14874821
Si       3.83958982       1.91979491      16.07250000  F        3      -0.00357970       0.00000000      -0.14650145
Si       7.67917964       1.91979491      16.07250000  F        3       0.00005867      -0.00000000      -0.16252281
Si       0.00000000       5.75938473      16.07250000  F        3       0.00331277       0.00000002      -0.14519073
Si       3.83958982       5.75938473      16.07250000  F        3       0.01072791       0.00000002      -0.12241326
Si       7.67917964       5.75938473      16.07250000  F        3      -0.00924682       0.00000002      -0.14731314
Si       0.00000000       0.00000000      17.43000000  F        2      -0.00918476       0.00203856       0.52938057
Si       3.83958982       0.00000000      17.43000000  F        2       0.02050904      -0.00135856       0.54487034
Si       7.67917964       0.00000000      17.43000000  F        2      -0.00716219      -0.02295511       0.48024203
Si       0.00000000       3.83958982      17.43000000  F        2      -0.00918476      -0.00203859       0.52938058
Si       3.83958982       3.83958982      17.43000000  F        2       0.02050904       0.00135854       0.54487036
Si       7.67917964       3.83958982      17.43000000  F        2      -0.00716219       0.02295509       0.48024204
Si       1.91979491       0.00000000      18.78750000  F        1       0.00090090      -0.00011348      -0.25029645
Si       5.75938473       0.00000000      18.78750000  F        1      -0.00721165       0.07061265      -0.19107510
Si       9.59897455       0.00000000      18.78750000  F        1       0.00662169       0.05716959      -0.23923475
Si       1.91979491       3.83958982      18.78750000  F        1       0.00090090       0.00011348      -0.25029645
Si       5.75938473       3.83958982      18.78750000  F        1      -0.00721165      -0.07061265      -0.19107510
Si       9.59897455       3.83958982      18.78750000  F        1       0.00662169      -0.05716959      -0.23923475
F        6.35162474       1.91979491      22.58426642  T        0       0.09822288       0.00000000      -0.16789197
C        7.77127687       1.91979491      22.58426642  T        0      -0.05421463       0.00000000      -0.05251652
H        8.09099886       1.91979491      21.53750000  T        0      -0.00760456      -0.00000000       0.04046791
H        8.09099886       2.82632123      23.10764963  T        0      -0.02406489       0.02153163       0.03600287
H        8.09099886       1.01326859      23.10764963  T        0      -0.02406489      -0.02153163       0.03600287
41
Lattice="11.518769465528859 0.0 0.0 0.0 7.679179643685906 0.0 0.0 0.0 30.7875" Properties=species:S:1:pos:R:3:move_mask:L:1:tags:I:1:forces:R:3 surface=Si100 species=CH3F site=hollow orientation=parallel height_A=2.25 substrate_atoms=36 calculation_kind="Rigid evaluated approach scan; not NEB" energy=-204.41755089174345 pbc="T T F"
Si       0.00000000       0.00000000      12.00000000  F        6      -0.00108472      -0.00001260       0.24869391
Si       3.83958982       0.00000000      12.00000000  F        6       0.00037101      -0.00001717       0.24815370
Si       7.67917964       0.00000000      12.00000000  F        6       0.00071370      -0.00002854       0.24905447
Si       0.00000000       3.83958982      12.00000000  F        6      -0.00108472       0.00001260       0.24869391
Si       3.83958982       3.83958982      12.00000000  F        6       0.00037101       0.00001717       0.24815370
Si       7.67917964       3.83958982      12.00000000  F        6       0.00071370       0.00002854       0.24905447
Si       1.91979491       0.00000000      13.35750000  F        5       0.00094898       0.00013380      -0.52216473
Si       5.75938473       0.00000000      13.35750000  F        5      -0.00180430       0.00095217      -0.52269119
Si       9.59897455       0.00000000      13.35750000  F        5       0.00012461       0.00027527      -0.52254785
Si       1.91979491       3.83958982      13.35750000  F        5       0.00094898      -0.00013383      -0.52216475
Si       5.75938473       3.83958982      13.35750000  F        5      -0.00180430      -0.00095219      -0.52269120
Si       9.59897455       3.83958982      13.35750000  F        5       0.00012461      -0.00027529      -0.52254787
Si       1.91979491       1.91979491      14.71500000  F        4      -0.00049453      -0.00000000       0.15429533
Si       5.75938473       1.91979491      14.71500000  F        4       0.00540033      -0.00000000       0.17090620
Si       9.59897455       1.91979491      14.71500000  F        4      -0.00577730      -0.00000000       0.17702473
Si       1.91979491       5.75938473      14.71500000  F        4      -0.00211386       0.00000002       0.15383786
Si       5.75938473       5.75938473      14.71500000  F        4       0.00642625       0.00000002       0.17142038
Si       9.59897455       5.75938473      14.71500000  F        4      -0.00254438       0.00000002       0.15722330
Si       0.00000000       1.91979491      16.07250000  F        3      -0.00070488       0.00000000      -0.14814343
Si       3.83958982       1.91979491      16.07250000  F        3       0.00941140       0.00000000      -0.13823729
Si       7.67917964       1.91979491      16.07250000  F        3      -0.00632861      -0.00000000      -0.20028826
Si       0.00000000       5.75938473      16.07250000  F        3      -0.00589695       0.00000002      -0.13630831
Si       3.83958982       5.75938473      16.07250000  F        3       0.02753885       0.00000002      -0.10948859
Si       7.67917964       5.75938473      16.07250000  F        3      -0.02433445       0.00000002      -0.13657667
Si       0.00000000       0.00000000      17.43000000  F        2      -0.00740372      -0.00961215       0.50036758
Si       3.83958982       0.00000000      17.43000000  F        2       0.01098383      -0.01115993       0.51032845
Si       7.67917964       0.00000000      17.43000000  F        2      -0.00285428      -0.03359710       0.45853265
Si       0.00000000       3.83958982      17.43000000  F        2      -0.00740372       0.00961213       0.50036759
Si       3.83958982       3.83958982      17.43000000  F        2       0.01098383       0.01115991       0.51032846
Si       7.67917964       3.83958982      17.43000000  F        2      -0.00285428       0.03359708       0.45853267
Si       1.91979491       0.00000000      18.78750000  F        1       0.00021120       0.00086222      -0.23692573
Si       5.75938473       0.00000000      18.78750000  F        1      -0.01683836       0.07886824      -0.19867318
Si       9.59897455       0.00000000      18.78750000  F        1      -0.02423304       0.12053348      -0.12557408
Si       1.91979491       3.83958982      18.78750000  F        1       0.00021120      -0.00086222      -0.23692573
Si       5.75938473       3.83958982      18.78750000  F        1      -0.01683836      -0.07886824      -0.19867318
Si       9.59897455       3.83958982      18.78750000  F        1      -0.02423304      -0.12053348      -0.12557408
F        6.35162474       1.91979491      22.08426642  T        0       0.11322016       0.00000000      -0.14408142
C        7.77127687       1.91979491      22.08426642  T        0      -0.10461833       0.00000000      -0.13770364
H        8.09099886       1.91979491      21.03750000  T        0       0.02124607      -0.00000000      -0.01711528
H        8.09099886       2.82632123      22.60764963  T        0       0.02565021       0.04664407       0.00506357
H        8.09099886       1.01326859      22.60764963  T        0       0.02565021      -0.04664407       0.00506357
41
Lattice="11.518769465528859 0.0 0.0 0.0 7.679179643685906 0.0 0.0 0.0 30.7875" Properties=species:S:1:pos:R:3:move_mask:L:1:tags:I:1:forces:R:3 surface=Si100 species=CH3F site=hollow orientation=parallel height_A=1.9 substrate_atoms=36 calculation_kind="Rigid evaluated approach scan; not NEB" energy=-204.50898193316056 pbc="T T F"
Si       0.00000000       0.00000000      12.00000000  F        6      -0.00162030       0.00001331       0.24861591
Si       3.83958982       0.00000000      12.00000000  F        6       0.00065288       0.00003043       0.24795036
Si       7.67917964       0.00000000      12.00000000  F        6       0.00093975       0.00027874       0.24992580
Si       0.00000000       3.83958982      12.00000000  F        6      -0.00162030      -0.00001331       0.24861592
Si       3.83958982       3.83958982      12.00000000  F        6       0.00065288      -0.00003043       0.24795036
Si       7.67917964       3.83958982      12.00000000  F        6       0.00093975      -0.00027874       0.24992580
Si       1.91979491       0.00000000      13.35750000  F        5       0.00113404       0.00018158      -0.51884027
Si       5.75938473       0.00000000      13.35750000  F        5      -0.00233068       0.00210812      -0.52180324
Si       9.59897455       0.00000000      13.35750000  F        5      -0.00014198       0.00074280      -0.51929085
Si       1.91979491       3.83958982      13.35750000  F        5       0.00113404      -0.00018160      -0.51884028
Si       5.75938473       3.83958982      13.35750000  F        5      -0.00233068      -0.00210814      -0.52180326
Si       9.59897455       3.83958982      13.35750000  F        5      -0.00014198      -0.00074282      -0.51929086
Si       1.91979491       1.91979491      14.71500000  F        4      -0.00252135      -0.00000000       0.15411808
Si       5.75938473       1.91979491      14.71500000  F        4       0.00948966      -0.00000000       0.17268957
Si       9.59897455       1.91979491      14.71500000  F        4      -0.00857844      -0.00000000       0.17705831
Si       1.91979491       5.75938473      14.71500000  F        4      -0.00436529       0.00000002       0.15348132
Si       5.75938473       5.75938473      14.71500000  F        4       0.00261510       0.00000002       0.19229010
Si       9.59897455       5.75938473      14.71500000  F        4       0.00291436       0.00000002       0.17342211
Si       0.00000000       1.91979491      16.07250000  F        3      -0.00493889       0.00000000      -0.15098903
Si       3.83958982       1.91979491      16.07250000  F        3       0.01671911      -0.00000000      -0.13859905
Si       7.67917964       1.91979491      16.07250000  F        3      -0.00730576      -0.00000000      -0.22469935
Si       0.00000000       5.75938473      16.07250000  F        3      -0.01036987       0.00000002      -0.13719783
Si       3.83958982       5.75938473      16.07250000  F        3       0.03496598       0.00000002      -0.10445349
Si       7.67917964       5.75938473      16.07250000  F        3      -0.02496707       0.00000002      -0.17358455
Si       0.00000000       0.00000000      17.43000000  F        2       0.02155533      -0.02411476       0.47034883
Si       3.83958982       0.00000000      17.43000000  F        2       0.01674144      -0.03670698       0.50217941
Si       7.67917964       0.00000000      17.43000000  F        2      -0.00523477      -0.03935707       0.50668816
Si       0.00000000       3.83958982      17.43000000  F        2       0.02155533       0.02411474       0.47034884
Si       3.83958982       3.83958982      17.43000000  F        2       0.01674144       0.03670696       0.50217942
Si       7.67917964       3.83958982      17.43000000  F        2      -0.00523477       0.03935705       0.50668818
Si       1.91979491       0.00000000      18.78750000  F        1      -0.00120749      -0.00002094      -0.23359550
Si       5.75938473       0.00000000      18.78750000  F        1       0.01038315       0.08103857      -0.21687094
Si       9.59897455       0.00000000      18.78750000  F        1      -0.02896073       0.07182150      -0.17260906
Si       1.91979491       3.83958982      18.78750000  F        1      -0.00120749       0.00002094      -0.23359550
Si       5.75938473       3.83958982      18.78750000  F        1       0.01038315      -0.08103857      -0.21687094
Si       9.59897455       3.83958982      18.78750000  F        1      -0.02896073      -0.07182150      -0.17260906
F        6.35162474       1.91979491      21.73426642  T        0       0.14629510       0.00000000      -0.02095678
C        7.77127687       1.91979491      21.73426642  T        0      -0.21568343       0.00000000      -0.12060576
H        8.09099886       1.91979491      20.68750000  T        0      -0.02102062      -0.00000000       0.04142703
H        8.09099886       2.82632123      22.25764963  T        0       0.03146505       0.07778199      -0.03939895
H        8.09099886       1.01326859      22.25764963  T        0       0.03146505      -0.07778199      -0.03939895
41
Lattice="11.518769465528859 0.0 0.0 0.0 7.679179643685906 0.0 0.0 0.0 30.7875" Properties=species:S:1:pos:R:3:move_mask:L:1:tags:I:1:forces:R:3 surface=Si100 species=CH3F site=hollow orientation=parallel height_A=1.6 substrate_atoms=36 calculation_kind="Rigid evaluated approach scan; not NEB" energy=-204.50420645600244 pbc="T T F"
Si       0.00000000       0.00000000      12.00000000  F        6      -0.00247042       0.00006087       0.24867472
Si       3.83958982       0.00000000      12.00000000  F        6       0.00082693       0.00007486       0.24786528
Si       7.67917964       0.00000000      12.00000000  F        6       0.00160424       0.00032932       0.25058762
Si       0.00000000       3.83958982      12.00000000  F        6      -0.00247042      -0.00006087       0.24867472
Si       3.83958982       3.83958982      12.00000000  F        6       0.00082693      -0.00007486       0.24786528
Si       7.67917964       3.83958982      12.00000000  F        6       0.00160424      -0.00032932       0.25058762
Si       1.91979491       0.00000000      13.35750000  F        5       0.00167862       0.00014041      -0.51577209
Si       5.75938473       0.00000000      13.35750000  F        5      -0.00139821       0.00282742      -0.51786817
Si       9.59897455       0.00000000      13.35750000  F        5      -0.00110500       0.00090674      -0.51527979
Si       1.91979491       3.83958982      13.35750000  F        5       0.00167862      -0.00014043      -0.51577210
Si       5.75938473       3.83958982      13.35750000  F        5      -0.00139821      -0.00282744      -0.51786819
Si       9.59897455       3.83958982      13.35750000  F        5      -0.00110500      -0.00090676      -0.51527980
Si       1.91979491       1.91979491      14.71500000  F        4      -0.00240207      -0.00000000       0.15447828
Si       5.75938473       1.91979491      14.71500000  F        4       0.01709884      -0.00000000       0.18185169
Si       9.59897455       1.91979491      14.71500000  F        4      -0.01413960      -0.00000000       0.17987423
Si       1.91979491       5.75938473      14.71500000  F        4      -0.00454654       0.00000002       0.15314547
Si       5.75938473       5.75938473      14.71500000  F        4      -0.00323557       0.00000002       0.20090131
Si       9.59897455       5.75938473      14.71500000  F        4       0.00884962       0.00000002       0.18931303
Si       0.00000000       1.91979491      16.07250000  F        3      -0.01725563      -0.00000000      -0.15274204
Si       3.83958982       1.91979491      16.07250000  F        3       0.02902664      -0.00000000      -0.13730399
Si       7.67917964       1.91979491      16.07250000  F        3      -0.01774729      -0.00000000      -0.21615245
Si       0.00000000       5.75938473      16.07250000  F        3      -0.02077274       0.00000002      -0.13877485
Si       3.83958982       5.75938473      16.07250000  F        3       0.03818079       0.00000002      -0.10773414
Si       7.67917964       5.75938473      16.07250000  F        3      -0.02965123       0.00000002      -0.21903172
Si       0.00000000       0.00000000      17.43000000  F        2       0.04422406      -0.04267216       0.44242544
Si       3.83958982       0.00000000      17.43000000  F        2       0.00693403      -0.05854992       0.47693243
Si       7.67917964       0.00000000      17.43000000  F        2      -0.01084977      -0.09230489       0.48674878
Si       0.00000000       3.83958982      17.43000000  F        2       0.04422406       0.04267214       0.44242545
Si       3.83958982       3.83958982      17.43000000  F        2       0.00693403       0.05854989       0.47693244
Si       7.67917964       3.83958982      17.43000000  F        2      -0.01084977       0.09230487       0.48674880
Si       1.91979491       0.00000000      18.78750000  F        1       0.00546189      -0.00129747      -0.23008702
Si       5.75938473       0.00000000      18.78750000  F        1       0.00164215       0.01573350      -0.28194914
Si       9.59897455       0.00000000      18.78750000  F        1       0.03233055      -0.03597000      -0.27096650
Si       1.91979491       3.83958982      18.78750000  F        1       0.00546189       0.00129746      -0.23008702
Si       5.75938473       3.83958982      18.78750000  F        1       0.00164215      -0.01573350      -0.28194914
Si       9.59897455       3.83958982      18.78750000  F        1       0.03233055       0.03597000      -0.27096650
F        6.35162474       1.91979491      21.43426642  T        0       0.23556828       0.00000000       0.10315222
C        7.77127687       1.91979491      21.43426642  T        0      -0.33462050       0.00000000       0.19673853
H        8.09099886       1.91979491      20.38750000  T        0      -0.07968787      -0.00000000       0.10730987
H        8.09099886       2.82632123      21.95764963  T        0       0.01878836       0.09381259      -0.06882427
H        8.09099886       1.01326859      21.95764963  T        0       0.01878836      -0.09381259      -0.06882427
41
Lattice="11.518769465528859 0.0 0.0 0.0 7.679179643685906 0.0 0.0 0.0 30.7875" Properties=species:S:1:pos:R:3:move_mask:L:1:tags:I:1:forces:R:3 surface=Si100 species=CH3F site=hollow orientation=parallel height_A=1.3 substrate_atoms=36 calculation_kind="Rigid evaluated approach scan; not NEB" energy=-204.3375098453487 pbc="T T F"
Si       0.00000000       0.00000000      12.00000000  F        6      -0.00301421       0.00005994       0.24994240
Si       3.83958982       0.00000000      12.00000000  F        6       0.00076847       0.00001420       0.24863323
Si       7.67917964       0.00000000      12.00000000  F        6       0.00236228      -0.00134644       0.25008586
Si       0.00000000       3.83958982      12.00000000  F        6      -0.00301421      -0.00005994       0.24994240
Si       3.83958982       3.83958982      12.00000000  F        6       0.00076847      -0.00001420       0.24863323
Si       7.67917964       3.83958982      12.00000000  F        6       0.00236228       0.00134644       0.25008586
Si       1.91979491       0.00000000      13.35750000  F        5       0.00191107       0.00024603      -0.51281482
Si       5.75938473       0.00000000      13.35750000  F        5      -0.00017361       0.00267259      -0.51142052
Si       9.59897455       0.00000000      13.35750000  F        5      -0.00200830       0.00121709      -0.51004924
Si       1.91979491       3.83958982      13.35750000  F        5       0.00191107      -0.00024605      -0.51281483
Si       5.75938473       3.83958982      13.35750000  F        5      -0.00017361      -0.00267261      -0.51142054
Si       9.59897455       3.83958982      13.35750000  F        5      -0.00200830      -0.00121712      -0.51004925
Si       1.91979491       1.91979491      14.71500000  F        4       0.00035890      -0.00000000       0.15555245
Si       5.75938473       1.91979491      14.71500000  F        4       0.01450476      -0.00000000       0.18465174
Si       9.59897455       1.91979491      14.71500000  F        4      -0.01318265      -0.00000000       0.17310680
Si       1.91979491       5.75938473      14.71500000  F        4      -0.00229448       0.00000002       0.15257328
Si       5.75938473       5.75938473      14.71500000  F        4      -0.00590107       0.00000002       0.19475841
Si       9.59897455       5.75938473      14.71500000  F        4       0.00772820       0.00000002       0.19046621
Si       0.00000000       1.91979491      16.07250000  F        3      -0.02105691      -0.00000000      -0.15881213
Si       3.83958982       1.91979491      16.07250000  F        3       0.03012883      -0.00000000      -0.14554236
Si       7.67917964       1.91979491      16.07250000  F        3      -0.02736882      -0.00000000      -0.21359692
Si       0.00000000       5.75938473      16.07250000  F        3      -0.02017446       0.00000002      -0.14954274
Si       3.83958982       5.75938473      16.07250000  F        3       0.03735973       0.00000002      -0.11116087
Si       7.67917964       5.75938473      16.07250000  F        3      -0.03900561       0.00000002      -0.21799779
Si       0.00000000       0.00000000      17.43000000  F        2       0.04861031      -0.05289729       0.43601744
Si       3.83958982       0.00000000      17.43000000  F        2      -0.00614265      -0.08086637       0.43784206
Si       7.67917964       0.00000000      17.43000000  F        2      -0.01781719      -0.14245884       0.43883617
Si       0.00000000       3.83958982      17.43000000  F        2       0.04861031       0.05289727       0.43601745
Si       3.83958982       3.83958982      17.43000000  F        2      -0.00614265       0.08086635       0.43784207
Si       7.67917964       3.83958982      17.43000000  F        2      -0.01781719       0.14245882       0.43883619
Si       1.91979491       0.00000000      18.78750000  F        1       0.01384689      -0.00401021      -0.22690648
Si       5.75938473       0.00000000      18.78750000  F        1      -0.04603241      -0.09653725      -0.40541141
Si       9.59897455       0.00000000      18.78750000  F        1       0.07735527      -0.12870269      -0.34239039
Si       1.91979491       3.83958982      18.78750000  F        1       0.01384689       0.00401021      -0.22690648
Si       5.75938473       3.83958982      18.78750000  F        1      -0.04603241       0.09653725      -0.40541141
Si       9.59897455       3.83958982      18.78750000  F        1       0.07735527       0.12870269      -0.34239039
F        6.35162474       1.91979491      21.13426642  T        0       0.37903592       0.00000000       0.24367888
C        7.77127687       1.91979491      21.13426642  T        0      -0.36973986       0.00000000       0.58259846
H        8.09099886       1.91979491      20.08750000  T        0      -0.13682867      -0.00000000       0.18545130
H        8.09099886       2.82632123      21.65764963  T        0       0.01355218       0.06984203      -0.08545667
H        8.09099886       1.01326859      21.65764963  T        0       0.01355218      -0.06984203      -0.08545667
