38
Lattice="11.518769465528859 0.0 0.0 0.0 7.679179643685906 0.0 0.0 0.0 30.7875" Properties=species:S:1:pos:R:3:move_mask:L:1:tags:I:1:forces:R:3 surface=Si100 species=HF site=hollow orientation=flipped height_A=6.5 substrate_atoms=36 calculation_kind="Rigid evaluated approach scan; not NEB" energy=-187.83852526514107 pbc="T T F"
Si       0.00000000       0.00000000      12.00000000  F        6      -0.00000004       0.00000000       0.24903484
Si       3.83958982       0.00000000      12.00000000  F        6      -0.00000000       0.00000000       0.24903482
Si       7.67917964       0.00000000      12.00000000  F        6       0.00000000       0.00000000       0.24903482
Si       0.00000000       3.83958982      12.00000000  F        6      -0.00000004      -0.00000000       0.24903484
Si       3.83958982       3.83958982      12.00000000  F        6      -0.00000000      -0.00000000       0.24903482
Si       7.67917964       3.83958982      12.00000000  F        6       0.00000000      -0.00000000       0.24903482
Si       1.91979491       0.00000000      13.35750000  F        5       0.00000000      -0.00000002      -0.52822352
Si       5.75938473       0.00000000      13.35750000  F        5       0.00000000      -0.00000002      -0.52822353
Si       9.59897455       0.00000000      13.35750000  F        5       0.00000003      -0.00000002      -0.52822354
Si       1.91979491       3.83958982      13.35750000  F        5       0.00000000       0.00000000      -0.52822354
Si       5.75938473       3.83958982      13.35750000  F        5       0.00000000       0.00000000      -0.52822354
Si       9.59897455       3.83958982      13.35750000  F        5       0.00000003       0.00000000      -0.52822356
Si       1.91979491       1.91979491      14.71500000  F        4      -0.00000000       0.00000000       0.14537709
Si       5.75938473       1.91979491      14.71500000  F        4       0.00000000       0.00000000       0.14537709
Si       9.59897455       1.91979491      14.71500000  F        4       0.00000004       0.00000000       0.14537711
Si       1.91979491       5.75938473      14.71500000  F        4      -0.00000000       0.00000002       0.14537707
Si       5.75938473       5.75938473      14.71500000  F        4       0.00000000       0.00000002       0.14537707
Si       9.59897455       5.75938473      14.71500000  F        4       0.00000004       0.00000002       0.14537709
Si       0.00000000       1.91979491      16.07250000  F        3      -0.00000004       0.00000000      -0.14537711
Si       3.83958982       1.91979491      16.07250000  F        3      -0.00000000       0.00000000      -0.14537709
Si       7.67917964       1.91979491      16.07250000  F        3       0.00000000       0.00000000      -0.14537709
Si       0.00000000       5.75938473      16.07250000  F        3      -0.00000004       0.00000002      -0.14537709
Si       3.83958982       5.75938473      16.07250000  F        3      -0.00000000       0.00000002      -0.14537707
Si       7.67917964       5.75938473      16.07250000  F        3       0.00000000       0.00000002      -0.14537707
Si       0.00000000       0.00000000      17.43000000  F        2      -0.00000003      -0.00000002       0.52822354
Si       3.83958982       0.00000000      17.43000000  F        2      -0.00000000      -0.00000002       0.52822353
Si       7.67917964       0.00000000      17.43000000  F        2      -0.00000000      -0.00000002       0.52822352
Si       0.00000000       3.83958982      17.43000000  F        2      -0.00000003       0.00000000       0.52822356
Si       3.83958982       3.83958982      17.43000000  F        2      -0.00000000       0.00000000       0.52822354
Si       7.67917964       3.83958982      17.43000000  F        2      -0.00000000       0.00000000       0.52822354
Si       1.91979491       0.00000000      18.78750000  F        1      -0.00000000       0.00000000      -0.24903482
Si       5.75938473       0.00000000      18.78750000  F        1       0.00000000       0.00000000      -0.24903482
Si       9.59897455       0.00000000      18.78750000  F        1       0.00000004       0.00000000      -0.24903484
Si       1.91979491       3.83958982      18.78750000  F        1      -0.00000000      -0.00000000      -0.24903482
Si       5.75938473       3.83958982      18.78750000  F        1       0.00000000      -0.00000000      -0.24903482
Si       9.59897455       3.83958982      18.78750000  F        1       0.00000004      -0.00000000      -0.24903484
F        7.67917964       1.91979491      26.24873254  T        0       0.00000000       0.00000000      -0.00058289
H        7.67917964       1.91979491      25.28750000  T        0       0.00000000       0.00000000       0.00058289
38
Lattice="11.518769465528859 0.0 0.0 0.0 7.679179643685906 0.0 0.0 0.0 30.7875" Properties=species:S:1:pos:R:3:move_mask:L:1:tags:I:1:forces:R:3 surface=Si100 species=HF site=hollow orientation=flipped height_A=5.0 substrate_atoms=36 calculation_kind="Rigid evaluated approach scan; not NEB" energy=-187.83852526514107 pbc="T T F"
Si       0.00000000       0.00000000      12.00000000  F        6      -0.00000004       0.00000000       0.24903484
Si       3.83958982       0.00000000      12.00000000  F        6      -0.00000000       0.00000000       0.24903482
Si       7.67917964       0.00000000      12.00000000  F        6       0.00000000       0.00000000       0.24903482
Si       0.00000000       3.83958982      12.00000000  F        6      -0.00000004      -0.00000000       0.24903484
Si       3.83958982       3.83958982      12.00000000  F        6      -0.00000000      -0.00000000       0.24903482
Si       7.67917964       3.83958982      12.00000000  F        6       0.00000000      -0.00000000       0.24903482
Si       1.91979491       0.00000000      13.35750000  F        5       0.00000000      -0.00000002      -0.52822352
Si       5.75938473       0.00000000      13.35750000  F        5       0.00000000      -0.00000002      -0.52822353
Si       9.59897455       0.00000000      13.35750000  F        5       0.00000003      -0.00000002      -0.52822354
Si       1.91979491       3.83958982      13.35750000  F        5       0.00000000       0.00000000      -0.52822354
Si       5.75938473       3.83958982      13.35750000  F        5       0.00000000       0.00000000      -0.52822354
Si       9.59897455       3.83958982      13.35750000  F        5       0.00000003       0.00000000      -0.52822356
Si       1.91979491       1.91979491      14.71500000  F        4      -0.00000000       0.00000000       0.14537709
Si       5.75938473       1.91979491      14.71500000  F        4       0.00000000       0.00000000       0.14537709
Si       9.59897455       1.91979491      14.71500000  F        4       0.00000004       0.00000000       0.14537711
Si       1.91979491       5.75938473      14.71500000  F        4      -0.00000000       0.00000002       0.14537707
Si       5.75938473       5.75938473      14.71500000  F        4       0.00000000       0.00000002       0.14537707
Si       9.59897455       5.75938473      14.71500000  F        4       0.00000004       0.00000002       0.14537709
Si       0.00000000       1.91979491      16.07250000  F        3      -0.00000004       0.00000000      -0.14537711
Si       3.83958982       1.91979491      16.07250000  F        3      -0.00000000       0.00000000      -0.14537709
Si       7.67917964       1.91979491      16.07250000  F        3       0.00000000       0.00000000      -0.14537709
Si       0.00000000       5.75938473      16.07250000  F        3      -0.00000004       0.00000002      -0.14537709
Si       3.83958982       5.75938473      16.07250000  F        3      -0.00000000       0.00000002      -0.14537707
Si       7.67917964       5.75938473      16.07250000  F        3       0.00000000       0.00000002      -0.14537707
Si       0.00000000       0.00000000      17.43000000  F        2      -0.00000003      -0.00000002       0.52822354
Si       3.83958982       0.00000000      17.43000000  F        2      -0.00000000      -0.00000002       0.52822353
Si       7.67917964       0.00000000      17.43000000  F        2      -0.00000000      -0.00000002       0.52822352
Si       0.00000000       3.83958982      17.43000000  F        2      -0.00000003       0.00000000       0.52822356
Si       3.83958982       3.83958982      17.43000000  F        2      -0.00000000       0.00000000       0.52822354
Si       7.67917964       3.83958982      17.43000000  F        2      -0.00000000       0.00000000       0.52822354
Si       1.91979491       0.00000000      18.78750000  F        1      -0.00000000       0.00000000      -0.24903482
Si       5.75938473       0.00000000      18.78750000  F        1       0.00000000       0.00000000      -0.24903482
Si       9.59897455       0.00000000      18.78750000  F        1       0.00000004       0.00000000      -0.24903484
Si       1.91979491       3.83958982      18.78750000  F        1      -0.00000000      -0.00000000      -0.24903482
Si       5.75938473       3.83958982      18.78750000  F        1       0.00000000      -0.00000000      -0.24903482
Si       9.59897455       3.83958982      18.78750000  F        1       0.00000004      -0.00000000      -0.24903484
F        7.67917964       1.91979491      24.74873254  T        0       0.00000000       0.00000000      -0.00058289
H        7.67917964       1.91979491      23.78750000  T        0       0.00000000       0.00000000       0.00058289
38
Lattice="11.518769465528859 0.0 0.0 0.0 7.679179643685906 0.0 0.0 0.0 30.7875" Properties=species:S:1:pos:R:3:move_mask:L:1:tags:I:1:forces:R:3 surface=Si100 species=HF site=hollow orientation=flipped height_A=4.0 substrate_atoms=36 calculation_kind="Rigid evaluated approach scan; not NEB" energy=-187.84063857501323 pbc="T T F"
Si       0.00000000       0.00000000      12.00000000  F        6      -0.00001293      -0.00000016       0.24903763
Si       3.83958982       0.00000000      12.00000000  F        6       0.00001289      -0.00000016       0.24903761
Si       7.67917964       0.00000000      12.00000000  F        6       0.00000000      -0.00000084       0.24903838
Si       0.00000000       3.83958982      12.00000000  F        6      -0.00001293       0.00000016       0.24903763
Si       3.83958982       3.83958982      12.00000000  F        6       0.00001289       0.00000016       0.24903761
Si       7.67917964       3.83958982      12.00000000  F        6       0.00000000       0.00000084       0.24903838
Si       1.91979491       0.00000000      13.35750000  F        5       0.00000000       0.00000313      -0.52820973
Si       5.75938473       0.00000000      13.35750000  F        5      -0.00001687      -0.00000028      -0.52817282
Si       9.59897455       0.00000000      13.35750000  F        5       0.00001690      -0.00000028      -0.52817283
Si       1.91979491       3.83958982      13.35750000  F        5       0.00000000      -0.00000315      -0.52820974
Si       5.75938473       3.83958982      13.35750000  F        5      -0.00001687       0.00000025      -0.52817283
Si       9.59897455       3.83958982      13.35750000  F        5       0.00001690       0.00000025      -0.52817285
Si       1.91979491       1.91979491      14.71500000  F        4      -0.00000000       0.00000000       0.14537356
Si       5.75938473       1.91979491      14.71500000  F        4       0.00000289       0.00000000       0.14528530
Si       9.59897455       1.91979491      14.71500000  F        4      -0.00000285       0.00000000       0.14528532
Si       1.91979491       5.75938473      14.71500000  F        4      -0.00000000       0.00000002       0.14538121
Si       5.75938473       5.75938473      14.71500000  F        4      -0.00004309       0.00000002       0.14588452
Si       9.59897455       5.75938473      14.71500000  F        4       0.00004313       0.00000002       0.14588454
Si       0.00000000       1.91979491      16.07250000  F        3       0.00011773       0.00000000      -0.14568689
Si       3.83958982       1.91979491      16.07250000  F        3      -0.00011777       0.00000000      -0.14568687
Si       7.67917964       1.91979491      16.07250000  F        3       0.00000000       0.00000000      -0.14571922
Si       0.00000000       5.75938473      16.07250000  F        3      -0.00048608       0.00000002      -0.14512807
Si       3.83958982       5.75938473      16.07250000  F        3       0.00048604       0.00000002      -0.14512805
Si       7.67917964       5.75938473      16.07250000  F        3       0.00000000       0.00000002      -0.14671874
Si       0.00000000       0.00000000      17.43000000  F        2       0.00007657      -0.00021803       0.52822949
Si       3.83958982       0.00000000      17.43000000  F        2      -0.00007660      -0.00021803       0.52822948
Si       7.67917964       0.00000000      17.43000000  F        2      -0.00000000       0.00042681       0.52747022
Si       0.00000000       3.83958982      17.43000000  F        2       0.00007657       0.00021800       0.52822951
Si       3.83958982       3.83958982      17.43000000  F        2      -0.00007660       0.00021800       0.52822949
Si       7.67917964       3.83958982      17.43000000  F        2      -0.00000000      -0.00042684       0.52747024
Si       1.91979491       0.00000000      18.78750000  F        1      -0.00000000       0.00005636      -0.24920562
Si       5.75938473       0.00000000      18.78750000  F        1       0.00282011       0.00461653      -0.24109571
Si       9.59897455       0.00000000      18.78750000  F        1      -0.00282007       0.00461653      -0.24109572
Si       1.91979491       3.83958982      18.78750000  F        1      -0.00000000      -0.00005636      -0.24920562
Si       5.75938473       3.83958982      18.78750000  F        1       0.00282011      -0.00461653      -0.24109571
Si       9.59897455       3.83958982      18.78750000  F        1      -0.00282007      -0.00461653      -0.24109572
F        7.67917964       1.91979491      23.74873254  T        0      -0.00000000       0.00000000      -0.00006859
H        7.67917964       1.91979491      22.78750000  T        0       0.00000000       0.00000000      -0.02913879
38
Lattice="11.518769465528859 0.0 0.0 0.0 7.679179643685906 0.0 0.0 0.0 30.7875" Properties=species:S:1:pos:R:3:move_mask:L:1:tags:I:1:forces:R:3 surface=Si100 species=HF site=hollow orientation=flipped height_A=3.25 substrate_atoms=36 calculation_kind="Rigid evaluated approach scan; not NEB" energy=-187.84711537870646 pbc="T T F"
Si       0.00000000       0.00000000      12.00000000  F        6      -0.00041855      -0.00000042       0.24912388
Si       3.83958982       0.00000000      12.00000000  F        6       0.00041851      -0.00000042       0.24912386
Si       7.67917964       0.00000000      12.00000000  F        6       0.00000000      -0.00000177       0.24912134
Si       0.00000000       3.83958982      12.00000000  F        6      -0.00041855       0.00000042       0.24912388
Si       3.83958982       3.83958982      12.00000000  F        6       0.00041851       0.00000042       0.24912386
Si       7.67917964       3.83958982      12.00000000  F        6       0.00000000       0.00000177       0.24912134
Si       1.91979491       0.00000000      13.35750000  F        5       0.00000000       0.00004356      -0.52774153
Si       5.75938473       0.00000000      13.35750000  F        5      -0.00070463       0.00006062      -0.52750141
Si       9.59897455       0.00000000      13.35750000  F        5       0.00070466       0.00006062      -0.52750143
Si       1.91979491       3.83958982      13.35750000  F        5       0.00000000      -0.00004358      -0.52774155
Si       5.75938473       3.83958982      13.35750000  F        5      -0.00070463      -0.00006065      -0.52750143
Si       9.59897455       3.83958982      13.35750000  F        5       0.00070466      -0.00006065      -0.52750144
Si       1.91979491       1.91979491      14.71500000  F        4      -0.00000000      -0.00000000       0.14534279
Si       5.75938473       1.91979491      14.71500000  F        4       0.00097195      -0.00000000       0.14558794
Si       9.59897455       1.91979491      14.71500000  F        4      -0.00097192      -0.00000000       0.14558796
Si       1.91979491       5.75938473      14.71500000  F        4      -0.00000000       0.00000002       0.14538463
Si       5.75938473       5.75938473      14.71500000  F        4       0.00053769       0.00000002       0.14980227
Si       9.59897455       5.75938473      14.71500000  F        4      -0.00053765       0.00000002       0.14980229
Si       0.00000000       1.91979491      16.07250000  F        3       0.00401623       0.00000000      -0.15222436
Si       3.83958982       1.91979491      16.07250000  F        3      -0.00401626       0.00000000      -0.15222434
Si       7.67917964       1.91979491      16.07250000  F        3       0.00000000      -0.00000000      -0.14972043
Si       0.00000000       5.75938473      16.07250000  F        3      -0.00769861       0.00000002      -0.13836198
Si       3.83958982       5.75938473      16.07250000  F        3       0.00769857       0.00000002      -0.13836196
Si       7.67917964       5.75938473      16.07250000  F        3       0.00000000       0.00000002      -0.17358758
Si       0.00000000       0.00000000      17.43000000  F        2       0.00136024      -0.00112498       0.53459282
Si       3.83958982       0.00000000      17.43000000  F        2      -0.00136027      -0.00112498       0.53459280
Si       7.67917964       0.00000000      17.43000000  F        2      -0.00000000       0.00169298       0.50321264
Si       0.00000000       3.83958982      17.43000000  F        2       0.00136024       0.00112496       0.53459283
Si       3.83958982       3.83958982      17.43000000  F        2      -0.00136027       0.00112496       0.53459281
Si       7.67917964       3.83958982      17.43000000  F        2      -0.00000000      -0.00169300       0.50321265
Si       1.91979491       0.00000000      18.78750000  F        1      -0.00000000       0.00084136      -0.25426761
Si       5.75938473       0.00000000      18.78750000  F        1      -0.01712949       0.02528341      -0.24448102
Si       9.59897455       0.00000000      18.78750000  F        1       0.01712952       0.02528341      -0.24448104
Si       1.91979491       3.83958982      18.78750000  F        1      -0.00000000      -0.00084136      -0.25426761
Si       5.75938473       3.83958982      18.78750000  F        1      -0.01712949      -0.02528341      -0.24448102
Si       9.59897455       3.83958982      18.78750000  F        1       0.01712952      -0.02528341      -0.24448104
F        7.67917964       1.91979491      22.99873254  T        0      -0.00000000       0.00000000      -0.06936584
H        7.67917964       1.91979491      22.03750000  T        0       0.00000000      -0.00000000       0.10475201
38
Lattice="11.518769465528859 0.0 0.0 0.0 7.679179643685906 0.0 0.0 0.0 30.7875" Properties=species:S:1:pos:R:3:move_mask:L:1:tags:I:1:forces:R:3 surface=Si100 species=HF site=hollow orientation=flipped height_A=2.75 substrate_atoms=36 calculation_kind="Rigid evaluated approach scan; not NEB" energy=-187.85503718191228 pbc="T T F"
Si       0.00000000       0.00000000      12.00000000  F        6      -0.00036928      -0.00000021       0.24930582
Si       3.83958982       0.00000000      12.00000000  F        6       0.00036924      -0.00000021       0.24930580
Si       7.67917964       0.00000000      12.00000000  F        6       0.00000000      -0.00004386       0.24939103
Si       0.00000000       3.83958982      12.00000000  F        6      -0.00036928       0.00000021       0.24930582
Si       3.83958982       3.83958982      12.00000000  F        6       0.00036924       0.00000021       0.24930580
Si       7.67917964       3.83958982      12.00000000  F        6       0.00000000       0.00004386       0.24939103
Si       1.91979491       0.00000000      13.35750000  F        5       0.00000000      -0.00001445      -0.52580565
Si       5.75938473       0.00000000      13.35750000  F        5      -0.00125542       0.00048759      -0.52691301
Si       9.59897455       0.00000000      13.35750000  F        5       0.00125545       0.00048759      -0.52691303
Si       1.91979491       3.83958982      13.35750000  F        5       0.00000000       0.00001443      -0.52580566
Si       5.75938473       3.83958982      13.35750000  F        5      -0.00125542      -0.00048761      -0.52691303
Si       9.59897455       3.83958982      13.35750000  F        5       0.00125545      -0.00048761      -0.52691304
Si       1.91979491       1.91979491      14.71500000  F        4      -0.00000000      -0.00000000       0.14698652
Si       5.75938473       1.91979491      14.71500000  F        4       0.00292641       0.00000000       0.15298408
Si       9.59897455       1.91979491      14.71500000  F        4      -0.00292637       0.00000000       0.15298410
Si       1.91979491       5.75938473      14.71500000  F        4      -0.00000000       0.00000002       0.14566315
Si       5.75938473       5.75938473      14.71500000  F        4       0.00662983       0.00000002       0.13781511
Si       9.59897455       5.75938473      14.71500000  F        4      -0.00662979       0.00000002       0.13781513
Si       0.00000000       1.91979491      16.07250000  F        3       0.00362812       0.00000000      -0.15161699
Si       3.83958982       1.91979491      16.07250000  F        3      -0.00362815       0.00000000      -0.15161697
Si       7.67917964       1.91979491      16.07250000  F        3       0.00000000      -0.00000000      -0.16123305
Si       0.00000000       5.75938473      16.07250000  F        3      -0.00362898       0.00000002      -0.14041928
Si       3.83958982       5.75938473      16.07250000  F        3       0.00362894       0.00000002      -0.14041926
Si       7.67917964       5.75938473      16.07250000  F        3       0.00000000       0.00000002      -0.16129306
Si       0.00000000       0.00000000      17.43000000  F        2       0.01370395       0.01650463       0.53844531
Si       3.83958982       0.00000000      17.43000000  F        2      -0.01370398       0.01650463       0.53844529
Si       7.67917964       0.00000000      17.43000000  F        2      -0.00000000      -0.05085330       0.43566588
Si       0.00000000       3.83958982      17.43000000  F        2       0.01370395      -0.01650466       0.53844532
Si       3.83958982       3.83958982      17.43000000  F        2      -0.01370398      -0.01650466       0.53844530
Si       7.67917964       3.83958982      17.43000000  F        2      -0.00000000       0.05085328       0.43566589
Si       1.91979491       0.00000000      18.78750000  F        1      -0.00000000       0.00148924      -0.24809291
Si       5.75938473       0.00000000      18.78750000  F        1       0.03532687       0.03857219      -0.19443402
Si       9.59897455       0.00000000      18.78750000  F        1      -0.03532683       0.03857219      -0.19443403
Si       1.91979491       3.83958982      18.78750000  F        1      -0.00000000      -0.00148924      -0.24809291
Si       5.75938473       3.83958982      18.78750000  F        1       0.03532687      -0.03857219      -0.19443402
Si       9.59897455       3.83958982      18.78750000  F        1      -0.03532683      -0.03857219      -0.19443403
F        7.67917964       1.91979491      22.49873254  T        0      -0.00000000       0.00000000      -0.54475470
H        7.67917964       1.91979491      21.53750000  T        0       0.00000000      -0.00000000       0.48917226
38
Lattice="11.518769465528859 0.0 0.0 0.0 7.679179643685906 0.0 0.0 0.0 30.7875" Properties=species:S:1:pos:R:3:move_mask:L:1:tags:I:1:forces:R:3 surface=Si100 species=HF site=hollow orientation=flipped height_A=2.25 substrate_atoms=36 calculation_kind="Rigid evaluated approach scan; not NEB" energy=-187.91375342422086 pbc="T T F"
Si       0.00000000       0.00000000      12.00000000  F        6      -0.00025885       0.00003490       0.24908192
Si       3.83958982       0.00000000      12.00000000  F        6       0.00025881       0.00003490       0.24908190
Si       7.67917964       0.00000000      12.00000000  F        6       0.00000000      -0.00014319       0.24993574
Si       0.00000000       3.83958982      12.00000000  F        6      -0.00025885      -0.00003490       0.24908192
Si       3.83958982       3.83958982      12.00000000  F        6       0.00025881      -0.00003490       0.24908190
Si       7.67917964       3.83958982      12.00000000  F        6       0.00000000       0.00014319       0.24993574
Si       1.91979491       0.00000000      13.35750000  F        5       0.00000000       0.00010988      -0.52372633
Si       5.75938473       0.00000000      13.35750000  F        5      -0.00226028       0.00212804      -0.52615807
Si       9.59897455       0.00000000      13.35750000  F        5       0.00226032       0.00212804      -0.52615809
Si       1.91979491       3.83958982      13.35750000  F        5       0.00000000      -0.00010990      -0.52372634
Si       5.75938473       3.83958982      13.35750000  F        5      -0.00226028      -0.00212807      -0.52615809
Si       9.59897455       3.83958982      13.35750000  F        5       0.00226032      -0.00212807      -0.52615810
Si       1.91979491       1.91979491      14.71500000  F        4      -0.00000000      -0.00000000       0.15146036
Si       5.75938473       1.91979491      14.71500000  F        4       0.00668919       0.00000000       0.16040112
Si       9.59897455       1.91979491      14.71500000  F        4      -0.00668916       0.00000000       0.16040114
Si       1.91979491       5.75938473      14.71500000  F        4      -0.00000000       0.00000002       0.14954680
Si       5.75938473       5.75938473      14.71500000  F        4       0.00842720       0.00000002       0.14983397
Si       9.59897455       5.75938473      14.71500000  F        4      -0.00842716       0.00000002       0.14983399
Si       0.00000000       1.91979491      16.07250000  F        3       0.00214506       0.00000000      -0.15636620
Si       3.83958982       1.91979491      16.07250000  F        3      -0.00214510       0.00000000      -0.15636618
Si       7.67917964       1.91979491      16.07250000  F        3       0.00000000      -0.00000000      -0.18370679
Si       0.00000000       5.75938473      16.07250000  F        3      -0.01663328       0.00000002      -0.12768882
Si       3.83958982       5.75938473      16.07250000  F        3       0.01663324       0.00000002      -0.12768880
Si       7.67917964       5.75938473      16.07250000  F        3       0.00000000       0.00000002      -0.16209556
Si       0.00000000       0.00000000      17.43000000  F        2       0.03359041       0.02662820       0.52756893
Si       3.83958982       0.00000000      17.43000000  F        2      -0.03359044       0.02662820       0.52756891
Si       7.67917964       0.00000000      17.43000000  F        2      -0.00000000      -0.08218390       0.40995425
Si       0.00000000       3.83958982      17.43000000  F        2       0.03359041      -0.02662822       0.52756894
Si       3.83958982       3.83958982      17.43000000  F        2      -0.03359044      -0.02662822       0.52756893
Si       7.67917964       3.83958982      17.43000000  F        2      -0.00000000       0.08218388       0.40995427
Si       1.91979491       0.00000000      18.78750000  F        1      -0.00000000       0.00179829      -0.24293886
Si       5.75938473       0.00000000      18.78750000  F        1       0.08729398       0.05306064      -0.13510974
Si       9.59897455       0.00000000      18.78750000  F        1      -0.08729395       0.05306064      -0.13510976
Si       1.91979491       3.83958982      18.78750000  F        1      -0.00000000      -0.00179829      -0.24293886
Si       5.75938473       3.83958982      18.78750000  F        1       0.08729398      -0.05306064      -0.13510974
Si       9.59897455       3.83958982      18.78750000  F        1      -0.08729395      -0.05306064      -0.13510976
F        7.67917964       1.91979491      21.99873254  T        0      -0.00000000       0.00000000      -0.93074045
H        7.67917964       1.91979491      21.03750000  T        0       0.00000000      -0.00000000       0.67519382
38
Lattice="11.518769465528859 0.0 0.0 0.0 7.679179643685906 0.0 0.0 0.0 30.7875" Properties=species:S:1:pos:R:3:move_mask:L:1:tags:I:1:forces:R:3 surface=Si100 species=HF site=hollow orientation=flipped height_A=1.9 substrate_atoms=36 calculation_kind="Rigid evaluated approach scan; not NEB" energy=-188.02554472267153 pbc="T T F"
Si       0.00000000       0.00000000      12.00000000  F        6      -0.00011201       0.00014872       0.24819846
Si       3.83958982       0.00000000      12.00000000  F        6       0.00011197       0.00014872       0.24819845
Si       7.67917964       0.00000000      12.00000000  F        6       0.00000000       0.00026405       0.25009120
Si       0.00000000       3.83958982      12.00000000  F        6      -0.00011201      -0.00014872       0.24819847
Si       3.83958982       3.83958982      12.00000000  F        6       0.00011198      -0.00014872       0.24819845
Si       7.67917964       3.83958982      12.00000000  F        6       0.00000000      -0.00026405       0.25009120
Si       1.91979491       0.00000000      13.35750000  F        5       0.00000000       0.00015681      -0.52223536
Si       5.75938473       0.00000000      13.35750000  F        5      -0.00270814       0.00332544      -0.52553384
Si       9.59897455       0.00000000      13.35750000  F        5       0.00270817       0.00332544      -0.52553386
Si       1.91979491       3.83958982      13.35750000  F        5       0.00000000      -0.00015683      -0.52223538
Si       5.75938473       3.83958982      13.35750000  F        5      -0.00270814      -0.00332547      -0.52553386
Si       9.59897455       3.83958982      13.35750000  F        5       0.00270817      -0.00332547      -0.52553388
Si       1.91979491       1.91979491      14.71500000  F        4      -0.00000000      -0.00000000       0.15388179
Si       5.75938473       1.91979491      14.71500000  F        4       0.00856902       0.00000000       0.16784697
Si       9.59897455       1.91979491      14.71500000  F        4      -0.00856899       0.00000000       0.16784699
Si       1.91979491       5.75938473      14.71500000  F        4      -0.00000000       0.00000002       0.15342900
Si       5.75938473       5.75938473      14.71500000  F        4       0.00505260       0.00000002       0.17097781
Si       9.59897455       5.75938473      14.71500000  F        4      -0.00505256       0.00000002       0.17097783
Si       0.00000000       1.91979491      16.07250000  F        3      -0.00201561       0.00000000      -0.15754189
Si       3.83958982       1.91979491      16.07250000  F        3       0.00201558       0.00000000      -0.15754187
Si       7.67917964       1.91979491      16.07250000  F        3       0.00000000      -0.00000000      -0.25804649
Si       0.00000000       5.75938473      16.07250000  F        3      -0.02657320       0.00000002      -0.11908043
Si       3.83958982       5.75938473      16.07250000  F        3       0.02657316       0.00000002      -0.11908041
Si       7.67917964       5.75938473      16.07250000  F        3       0.00000000       0.00000002      -0.17535421
Si       0.00000000       0.00000000      17.43000000  F        2       0.04229858       0.02818738       0.51113606
Si       3.83958982       0.00000000      17.43000000  F        2      -0.04229861       0.02818738       0.51113604
Si       7.67917964       0.00000000      17.43000000  F        2      -0.00000000      -0.07789996       0.41804080
Si       0.00000000       3.83958982      17.43000000  F        2       0.04229858      -0.02818740       0.51113607
Si       3.83958982       3.83958982      17.43000000  F        2      -0.04229861      -0.02818740       0.51113605
Si       7.67917964       3.83958982      17.43000000  F        2      -0.00000000       0.07789994       0.41804082
Si       1.91979491       0.00000000      18.78750000  F        1      -0.00000000       0.00090186      -0.24451384
Si       5.75938473       0.00000000      18.78750000  F        1       0.11564886       0.06194317      -0.09987860
Si       9.59897455       0.00000000      18.78750000  F        1      -0.11564883       0.06194317      -0.09987862
Si       1.91979491       3.83958982      18.78750000  F        1      -0.00000000      -0.00090186      -0.24451384
Si       5.75938473       3.83958982      18.78750000  F        1       0.11564886      -0.06194317      -0.09987860
Si       9.59897455       3.83958982      18.78750000  F        1      -0.11564883      -0.06194317      -0.09987862
F        7.67917964       1.91979491      21.64873254  T        0      -0.00000000      -0.00000000      -0.91584947
H        7.67917964       1.91979491      20.68750000  T        0       0.00000000      -0.00000000       0.57908060
38
Lattice="11.518769465528859 0.0 0.0 0.0 7.679179643685906 0.0 0.0 0.0 30.7875" Properties=species:S:1:pos:R:3:move_mask:L:1:tags:I:1:forces:R:3 surface=Si100 species=HF site=hollow orientation=flipped height_A=1.6 substrate_atoms=36 calculation_kind="Rigid evaluated approach scan; not NEB" energy=-188.11017281723514 pbc="T T F"
Si       0.00000000       0.00000000      12.00000000  F        6       0.00001906       0.00028518       0.24756211
Si       3.83958982       0.00000000      12.00000000  F        6      -0.00001910       0.00028518       0.24756209
Si       7.67917964       0.00000000      12.00000000  F        6       0.00000000       0.00055921       0.24969565
Si       0.00000000       3.83958982      12.00000000  F        6       0.00001906      -0.00028518       0.24756211
Si       3.83958982       3.83958982      12.00000000  F        6      -0.00001910      -0.00028518       0.24756209
Si       7.67917964       3.83958982      12.00000000  F        6       0.00000000      -0.00055921       0.24969565
Si       1.91979491       0.00000000      13.35750000  F        5       0.00000000       0.00014559      -0.52121428
Si       5.75938473       0.00000000      13.35750000  F        5      -0.00224639       0.00359791      -0.52343254
Si       9.59897455       0.00000000      13.35750000  F        5       0.00224642       0.00359791      -0.52343256
Si       1.91979491       3.83958982      13.35750000  F        5       0.00000000      -0.00014561      -0.52121429
Si       5.75938473       3.83958982      13.35750000  F        5      -0.00224639      -0.00359793      -0.52343255
Si       9.59897455       3.83958982      13.35750000  F        5       0.00224642      -0.00359793      -0.52343257
Si       1.91979491       1.91979491      14.71500000  F        4      -0.00000000      -0.00000000       0.15528705
Si       5.75938473       1.91979491      14.71500000  F        4       0.01141625       0.00000000       0.17569328
Si       9.59897455       1.91979491      14.71500000  F        4      -0.01141621       0.00000000       0.17569330
Si       1.91979491       5.75938473      14.71500000  F        4      -0.00000000       0.00000002       0.15756759
Si       5.75938473       5.75938473      14.71500000  F        4       0.00414003       0.00000002       0.19031193
Si       9.59897455       5.75938473      14.71500000  F        4      -0.00413999       0.00000002       0.19031195
Si       0.00000000       1.91979491      16.07250000  F        3      -0.00831079       0.00000000      -0.15319352
Si       3.83958982       1.91979491      16.07250000  F        3       0.00831075       0.00000000      -0.15319350
Si       7.67917964       1.91979491      16.07250000  F        3       0.00000000      -0.00000000      -0.25977296
Si       0.00000000       5.75938473      16.07250000  F        3      -0.02687155       0.00000002      -0.11995505
Si       3.83958982       5.75938473      16.07250000  F        3       0.02687152       0.00000002      -0.11995503
Si       7.67917964       5.75938473      16.07250000  F        3       0.00000000       0.00000002      -0.17963408
Si       0.00000000       0.00000000      17.43000000  F        2       0.03459856       0.02069163       0.50180392
Si       3.83958982       0.00000000      17.43000000  F        2      -0.03459859       0.02069163       0.50180391
Si       7.67917964       0.00000000      17.43000000  F        2      -0.00000000      -0.08596431       0.39577654
Si       0.00000000       3.83958982      17.43000000  F        2       0.03459856      -0.02069165       0.50180394
Si       3.83958982       3.83958982      17.43000000  F        2      -0.03459859      -0.02069165       0.50180392
Si       7.67917964       3.83958982      17.43000000  F        2      -0.00000000       0.08596429       0.39577655
Si       1.91979491       0.00000000      18.78750000  F        1      -0.00000000      -0.00061548      -0.25035695
Si       5.75938473       0.00000000      18.78750000  F        1       0.09533069       0.03600195      -0.12982631
Si       9.59897455       0.00000000      18.78750000  F        1      -0.09533065       0.03600195      -0.12982633
Si       1.91979491       3.83958982      18.78750000  F        1      -0.00000000       0.00061548      -0.25035695
Si       5.75938473       3.83958982      18.78750000  F        1       0.09533069      -0.03600195      -0.12982631
Si       9.59897455       3.83958982      18.78750000  F        1      -0.09533065      -0.03600195      -0.12982633
F        7.67917964       1.91979491      21.34873254  T        0      -0.00000000       0.00000000      -0.55963861
H        7.67917964       1.91979491      20.38750000  T        0       0.00000000      -0.00000000       0.36824713
38
Lattice="11.518769465528859 0.0 0.0 0.0 7.679179643685906 0.0 0.0 0.0 30.7875" Properties=species:S:1:pos:R:3:move_mask:L:1:tags:I:1:forces:R:3 surface=Si100 species=HF site=hollow orientation=flipped height_A=1.3 substrate_atoms=36 calculation_kind="Rigid evaluated approach scan; not NEB" energy=-188.12567148415954 pbc="T T F"
Si       0.00000000       0.00000000      12.00000000  F        6       0.00050003       0.00038030       0.24759356
Si       3.83958982       0.00000000      12.00000000  F        6      -0.00050007       0.00038030       0.24759354
Si       7.67917964       0.00000000      12.00000000  F        6       0.00000000      -0.00081520       0.24726636
Si       0.00000000       3.83958982      12.00000000  F        6       0.00050003      -0.00038030       0.24759356
Si       3.83958982       3.83958982      12.00000000  F        6      -0.00050007      -0.00038030       0.24759354
Si       7.67917964       3.83958982      12.00000000  F        6       0.00000000       0.00081520       0.24726636
Si       1.91979491       0.00000000      13.35750000  F        5       0.00000000       0.00035564      -0.52120258
Si       5.75938473       0.00000000      13.35750000  F        5      -0.00113048       0.00262490      -0.51708952
Si       9.59897455       0.00000000      13.35750000  F        5       0.00113051       0.00262490      -0.51708954
Si       1.91979491       3.83958982      13.35750000  F        5       0.00000000      -0.00035566      -0.52120260
Si       5.75938473       3.83958982      13.35750000  F        5      -0.00113048      -0.00262493      -0.51708954
Si       9.59897455       3.83958982      13.35750000  F        5       0.00113051      -0.00262493      -0.51708956
Si       1.91979491       1.91979491      14.71500000  F        4      -0.00000000      -0.00000000       0.15661588
Si       5.75938473       1.91979491      14.71500000  F        4       0.01435548       0.00000000       0.17848230
Si       9.59897455       1.91979491      14.71500000  F        4      -0.01435545       0.00000000       0.17848232
Si       1.91979491       5.75938473      14.71500000  F        4      -0.00000000       0.00000002       0.16207155
Si       5.75938473       5.75938473      14.71500000  F        4       0.00660931       0.00000002       0.20715396
Si       9.59897455       5.75938473      14.71500000  F        4      -0.00660928       0.00000002       0.20715398
Si       0.00000000       1.91979491      16.07250000  F        3      -0.01685713       0.00000000      -0.14617349
Si       3.83958982       1.91979491      16.07250000  F        3       0.01685709       0.00000000      -0.14617347
Si       7.67917964       1.91979491      16.07250000  F        3       0.00000000      -0.00000000      -0.25160517
Si       0.00000000       5.75938473      16.07250000  F        3      -0.02205166       0.00000002      -0.12722606
Si       3.83958982       5.75938473      16.07250000  F        3       0.02205162       0.00000002      -0.12722604
Si       7.67917964       5.75938473      16.07250000  F        3       0.00000000       0.00000002      -0.16428797
Si       0.00000000       0.00000000      17.43000000  F        2       0.02322058      -0.00040723       0.49425583
Si       3.83958982       0.00000000      17.43000000  F        2      -0.02322061      -0.00040723       0.49425581
Si       7.67917964       0.00000000      17.43000000  F        2      -0.00000000      -0.11075770       0.36272648
Si       0.00000000       3.83958982      17.43000000  F        2       0.02322058       0.00040720       0.49425584
Si       3.83958982       3.83958982      17.43000000  F        2      -0.02322061       0.00040720       0.49425582
Si       7.67917964       3.83958982      17.43000000  F        2      -0.00000000       0.11075767       0.36272650
Si       1.91979491       0.00000000      18.78750000  F        1      -0.00000000      -0.00293228      -0.25804686
Si       5.75938473       0.00000000      18.78750000  F        1       0.03606106      -0.01584611      -0.19403687
Si       9.59897455       0.00000000      18.78750000  F        1      -0.03606102      -0.01584611      -0.19403689
Si       1.91979491       3.83958982      18.78750000  F        1      -0.00000000       0.00293227      -0.25804686
Si       5.75938473       3.83958982      18.78750000  F        1       0.03606106       0.01584611      -0.19403687
Si       9.59897455       3.83958982      18.78750000  F        1      -0.03606102       0.01584611      -0.19403689
F        7.67917964       1.91979491      21.04873254  T        0      -0.00000000       0.00000000      -0.25688221
H        7.67917964       1.91979491      20.08750000  T        0       0.00000000      -0.00000000       0.34523579
