41
Lattice="11.518769465528859 0.0 0.0 0.0 7.679179643685906 0.0 0.0 0.0 30.7875" Properties=species:S:1:pos:R:3:move_mask:L:1:tags:I:1:forces:R:3 surface=Si100 species=SiF4 site=bridge_Si_Si orientation=flipped height_A=6.5 substrate_atoms=36 calculation_kind="Rigid evaluated approach scan; not NEB" energy=-208.21619064940802 pbc="T T F"
Si       0.00000000       0.00000000      12.00000000  F        6      -0.00000004       0.00000000       0.24903484
Si       3.83958982       0.00000000      12.00000000  F        6      -0.00000000       0.00000000       0.24903482
Si       7.67917964       0.00000000      12.00000000  F        6       0.00000000       0.00000000       0.24903482
Si       0.00000000       3.83958982      12.00000000  F        6      -0.00000004      -0.00000000       0.24903484
Si       3.83958982       3.83958982      12.00000000  F        6      -0.00000000      -0.00000000       0.24903482
Si       7.67917964       3.83958982      12.00000000  F        6       0.00000000      -0.00000000       0.24903482
Si       1.91979491       0.00000000      13.35750000  F        5       0.00000000      -0.00000002      -0.52822352
Si       5.75938473       0.00000000      13.35750000  F        5       0.00000000      -0.00000002      -0.52822353
Si       9.59897455       0.00000000      13.35750000  F        5       0.00000003      -0.00000002      -0.52822354
Si       1.91979491       3.83958982      13.35750000  F        5       0.00000000       0.00000000      -0.52822354
Si       5.75938473       3.83958982      13.35750000  F        5       0.00000000       0.00000000      -0.52822354
Si       9.59897455       3.83958982      13.35750000  F        5       0.00000003       0.00000000      -0.52822356
Si       1.91979491       1.91979491      14.71500000  F        4      -0.00000000       0.00000000       0.14537709
Si       5.75938473       1.91979491      14.71500000  F        4       0.00000000       0.00000000       0.14537709
Si       9.59897455       1.91979491      14.71500000  F        4       0.00000004       0.00000000       0.14537711
Si       1.91979491       5.75938473      14.71500000  F        4      -0.00000000       0.00000002       0.14537707
Si       5.75938473       5.75938473      14.71500000  F        4       0.00000000       0.00000002       0.14537707
Si       9.59897455       5.75938473      14.71500000  F        4       0.00000004       0.00000002       0.14537709
Si       0.00000000       1.91979491      16.07250000  F        3      -0.00000004       0.00000000      -0.14537711
Si       3.83958982       1.91979491      16.07250000  F        3      -0.00000000       0.00000000      -0.14537709
Si       7.67917964       1.91979491      16.07250000  F        3       0.00000000       0.00000000      -0.14537709
Si       0.00000000       5.75938473      16.07250000  F        3      -0.00000004       0.00000002      -0.14537709
Si       3.83958982       5.75938473      16.07250000  F        3      -0.00000000       0.00000002      -0.14537707
Si       7.67917964       5.75938473      16.07250000  F        3       0.00000000       0.00000002      -0.14537707
Si       0.00000000       0.00000000      17.43000000  F        2      -0.00000003      -0.00000002       0.52822354
Si       3.83958982       0.00000000      17.43000000  F        2      -0.00000000      -0.00000002       0.52822353
Si       7.67917964       0.00000000      17.43000000  F        2      -0.00000000      -0.00000002       0.52822352
Si       0.00000000       3.83958982      17.43000000  F        2      -0.00000003       0.00000000       0.52822356
Si       3.83958982       3.83958982      17.43000000  F        2      -0.00000000       0.00000000       0.52822354
Si       7.67917964       3.83958982      17.43000000  F        2      -0.00000000       0.00000000       0.52822354
Si       1.91979491       0.00000000      18.78750000  F        1      -0.00000000       0.00000000      -0.24903482
Si       5.75938473       0.00000000      18.78750000  F        1       0.00000000       0.00000000      -0.24903482
Si       9.59897455       0.00000000      18.78750000  F        1       0.00000004       0.00000000      -0.24903484
Si       1.91979491       3.83958982      18.78750000  F        1      -0.00000000      -0.00000000      -0.24903482
Si       5.75938473       3.83958982      18.78750000  F        1       0.00000000      -0.00000000      -0.24903482
Si       9.59897455       3.83958982      18.78750000  F        1       0.00000004      -0.00000000      -0.24903484
Si       7.67917964       3.83958982      25.81483395  T        0      -0.00000017       0.00000000       0.00000004
F        7.67917964       3.83958982      27.39683580  T        0       0.00000000       0.00000000       0.00049033
F        6.18765399       3.83958982      25.28750000  T        0      -0.00046224      -0.00000000      -0.00016342
F        8.42494246       5.13128892      25.28750000  T        0       0.00023120       0.00040043      -0.00016348
F        8.42494246       2.54789072      25.28750000  T        0       0.00023120      -0.00040043      -0.00016348
41
Lattice="11.518769465528859 0.0 0.0 0.0 7.679179643685906 0.0 0.0 0.0 30.7875" Properties=species:S:1:pos:R:3:move_mask:L:1:tags:I:1:forces:R:3 surface=Si100 species=SiF4 site=bridge_Si_Si orientation=flipped height_A=5.0 substrate_atoms=36 calculation_kind="Rigid evaluated approach scan; not NEB" energy=-208.21619064940805 pbc="T T F"
Si       0.00000000       0.00000000      12.00000000  F        6      -0.00000004       0.00000000       0.24903484
Si       3.83958982       0.00000000      12.00000000  F        6      -0.00000000       0.00000000       0.24903482
Si       7.67917964       0.00000000      12.00000000  F        6       0.00000000       0.00000000       0.24903482
Si       0.00000000       3.83958982      12.00000000  F        6      -0.00000004      -0.00000000       0.24903484
Si       3.83958982       3.83958982      12.00000000  F        6      -0.00000000      -0.00000000       0.24903482
Si       7.67917964       3.83958982      12.00000000  F        6       0.00000000      -0.00000000       0.24903482
Si       1.91979491       0.00000000      13.35750000  F        5       0.00000000      -0.00000002      -0.52822352
Si       5.75938473       0.00000000      13.35750000  F        5       0.00000000      -0.00000002      -0.52822353
Si       9.59897455       0.00000000      13.35750000  F        5       0.00000003      -0.00000002      -0.52822354
Si       1.91979491       3.83958982      13.35750000  F        5       0.00000000       0.00000000      -0.52822354
Si       5.75938473       3.83958982      13.35750000  F        5       0.00000000       0.00000000      -0.52822354
Si       9.59897455       3.83958982      13.35750000  F        5       0.00000003       0.00000000      -0.52822356
Si       1.91979491       1.91979491      14.71500000  F        4      -0.00000000       0.00000000       0.14537709
Si       5.75938473       1.91979491      14.71500000  F        4       0.00000000       0.00000000       0.14537709
Si       9.59897455       1.91979491      14.71500000  F        4       0.00000004       0.00000000       0.14537711
Si       1.91979491       5.75938473      14.71500000  F        4      -0.00000000       0.00000002       0.14537707
Si       5.75938473       5.75938473      14.71500000  F        4       0.00000000       0.00000002       0.14537707
Si       9.59897455       5.75938473      14.71500000  F        4       0.00000004       0.00000002       0.14537709
Si       0.00000000       1.91979491      16.07250000  F        3      -0.00000004       0.00000000      -0.14537711
Si       3.83958982       1.91979491      16.07250000  F        3      -0.00000000       0.00000000      -0.14537709
Si       7.67917964       1.91979491      16.07250000  F        3       0.00000000       0.00000000      -0.14537709
Si       0.00000000       5.75938473      16.07250000  F        3      -0.00000004       0.00000002      -0.14537709
Si       3.83958982       5.75938473      16.07250000  F        3      -0.00000000       0.00000002      -0.14537707
Si       7.67917964       5.75938473      16.07250000  F        3       0.00000000       0.00000002      -0.14537707
Si       0.00000000       0.00000000      17.43000000  F        2      -0.00000003      -0.00000002       0.52822354
Si       3.83958982       0.00000000      17.43000000  F        2      -0.00000000      -0.00000002       0.52822353
Si       7.67917964       0.00000000      17.43000000  F        2      -0.00000000      -0.00000002       0.52822352
Si       0.00000000       3.83958982      17.43000000  F        2      -0.00000003       0.00000000       0.52822356
Si       3.83958982       3.83958982      17.43000000  F        2      -0.00000000       0.00000000       0.52822354
Si       7.67917964       3.83958982      17.43000000  F        2      -0.00000000       0.00000000       0.52822354
Si       1.91979491       0.00000000      18.78750000  F        1      -0.00000000       0.00000000      -0.24903482
Si       5.75938473       0.00000000      18.78750000  F        1       0.00000000       0.00000000      -0.24903482
Si       9.59897455       0.00000000      18.78750000  F        1       0.00000004       0.00000000      -0.24903484
Si       1.91979491       3.83958982      18.78750000  F        1      -0.00000000      -0.00000000      -0.24903482
Si       5.75938473       3.83958982      18.78750000  F        1       0.00000000      -0.00000000      -0.24903482
Si       9.59897455       3.83958982      18.78750000  F        1       0.00000004      -0.00000000      -0.24903484
Si       7.67917964       3.83958982      24.31483395  T        0      -0.00000017       0.00000000       0.00000004
F        7.67917964       3.83958982      25.89683580  T        0       0.00000000       0.00000000       0.00049033
F        6.18765399       3.83958982      23.78750000  T        0      -0.00046224      -0.00000000      -0.00016342
F        8.42494246       5.13128892      23.78750000  T        0       0.00023120       0.00040043      -0.00016348
F        8.42494246       2.54789072      23.78750000  T        0       0.00023120      -0.00040043      -0.00016348
41
Lattice="11.518769465528859 0.0 0.0 0.0 7.679179643685906 0.0 0.0 0.0 30.7875" Properties=species:S:1:pos:R:3:move_mask:L:1:tags:I:1:forces:R:3 surface=Si100 species=SiF4 site=bridge_Si_Si orientation=flipped height_A=4.0 substrate_atoms=36 calculation_kind="Rigid evaluated approach scan; not NEB" energy=-208.3481128191086 pbc="T T F"
Si       0.00000000       0.00000000      12.00000000  F        6      -0.00000812       0.00000000       0.24953962
Si       3.83958982       0.00000000      12.00000000  F        6      -0.00019433       0.00000000       0.24937200
Si       7.67917964       0.00000000      12.00000000  F        6       0.00020235       0.00000000       0.24990044
Si       0.00000000       3.83958982      12.00000000  F        6       0.00018902      -0.00000000       0.24897455
Si       3.83958982       3.83958982      12.00000000  F        6      -0.00035759      -0.00000000       0.24863678
Si       7.67917964       3.83958982      12.00000000  F        6       0.00016849      -0.00000000       0.24881986
Si       1.91979491       0.00000000      13.35750000  F        5       0.00009066      -0.00000002      -0.52635344
Si       5.75938473       0.00000000      13.35750000  F        5       0.00046470      -0.00000002      -0.52779905
Si       9.59897455       0.00000000      13.35750000  F        5      -0.00055484      -0.00000002      -0.52739172
Si       1.91979491       3.83958982      13.35750000  F        5      -0.00024144       0.00000000      -0.52483248
Si       5.75938473       3.83958982      13.35750000  F        5       0.00036255       0.00000000      -0.52532960
Si       9.59897455       3.83958982      13.35750000  F        5      -0.00011880       0.00000000      -0.52390352
Si       1.91979491       1.91979491      14.71500000  F        4      -0.00030986      -0.00061926       0.14912375
Si       5.75938473       1.91979491      14.71500000  F        4       0.00263977      -0.00092740       0.14856870
Si       9.59897455       1.91979491      14.71500000  F        4      -0.00313823      -0.00243887       0.14360332
Si       1.91979491       5.75938473      14.71500000  F        4      -0.00030986       0.00061928       0.14912374
Si       5.75938473       5.75938473      14.71500000  F        4       0.00263977       0.00092742       0.14856869
Si       9.59897455       5.75938473      14.71500000  F        4      -0.00313823       0.00243890       0.14360331
Si       0.00000000       1.91979491      16.07250000  F        3      -0.00054145       0.00910456      -0.13718721
Si       3.83958982       1.91979491      16.07250000  F        3      -0.00028157       0.01004087      -0.14030266
Si       7.67917964       1.91979491      16.07250000  F        3      -0.00189452       0.01579487      -0.14036071
Si       0.00000000       5.75938473      16.07250000  F        3      -0.00054145      -0.00910454      -0.13718719
Si       3.83958982       5.75938473      16.07250000  F        3      -0.00028157      -0.01004085      -0.14030265
Si       7.67917964       5.75938473      16.07250000  F        3      -0.00189452      -0.01579484      -0.14036070
Si       0.00000000       0.00000000      17.43000000  F        2       0.00025229      -0.00000002       0.52569922
Si       3.83958982       0.00000000      17.43000000  F        2       0.00173328      -0.00000002       0.52576728
Si       7.67917964       0.00000000      17.43000000  F        2       0.00042749      -0.00000002       0.52872817
Si       0.00000000       3.83958982      17.43000000  F        2       0.00156072       0.00000000       0.53459279
Si       3.83958982       3.83958982      17.43000000  F        2       0.00530860       0.00000000       0.53351357
Si       7.67917964       3.83958982      17.43000000  F        2       0.01288423       0.00000000       0.53932514
Si       1.91979491       0.00000000      18.78750000  F        1      -0.00005329       0.00000000      -0.24796856
Si       5.75938473       0.00000000      18.78750000  F        1      -0.00011944       0.00000000      -0.24928621
Si       9.59897455       0.00000000      18.78750000  F        1      -0.00499970       0.00000000      -0.23326695
Si       1.91979491       3.83958982      18.78750000  F        1      -0.00353059      -0.00000000      -0.25303421
Si       5.75938473       3.83958982      18.78750000  F        1       0.00844018      -0.00000000      -0.22678931
Si       9.59897455       3.83958982      18.78750000  F        1      -0.06700781      -0.00000000      -0.13881351
Si       7.67917964       3.83958982      23.31483395  T        0      -0.01807144      -0.00000000      -0.04483044
F        7.67917964       3.83958982      24.89683580  T        0       0.00049198       0.00000000       0.00957305
F        6.18765399       3.83958982      22.78750000  T        0       0.00498044       0.00000000      -0.04723632
F        8.42494246       5.13128892      22.78750000  T        0       0.03237606      -0.01863155      -0.07124878
F        8.42494246       2.54789072      22.78750000  T        0       0.03237606       0.01863155      -0.07124878
41
Lattice="11.518769465528859 0.0 0.0 0.0 7.679179643685906 0.0 0.0 0.0 30.7875" Properties=species:S:1:pos:R:3:move_mask:L:1:tags:I:1:forces:R:3 surface=Si100 species=SiF4 site=bridge_Si_Si orientation=flipped height_A=3.25 substrate_atoms=36 calculation_kind="Rigid evaluated approach scan; not NEB" energy=-208.47175876021493 pbc="T T F"
Si       0.00000000       0.00000000      12.00000000  F        6       0.00106026       0.00000000       0.25066527
Si       3.83958982       0.00000000      12.00000000  F        6      -0.00141467       0.00000000       0.25045621
Si       7.67917964       0.00000000      12.00000000  F        6       0.00035362       0.00000000       0.25083707
Si       0.00000000       3.83958982      12.00000000  F        6       0.00109253      -0.00000000       0.24895693
Si       3.83958982       3.83958982      12.00000000  F        6      -0.00148214      -0.00000000       0.24844343
Si       7.67917964       3.83958982      12.00000000  F        6       0.00038944      -0.00000000       0.24795766
Si       1.91979491       0.00000000      13.35750000  F        5      -0.00029994      -0.00000002      -0.52259245
Si       5.75938473       0.00000000      13.35750000  F        5       0.00146696      -0.00000002      -0.52698507
Si       9.59897455       0.00000000      13.35750000  F        5      -0.00116012      -0.00000002      -0.52500061
Si       1.91979491       3.83958982      13.35750000  F        5      -0.00074711       0.00000000      -0.52055023
Si       5.75938473       3.83958982      13.35750000  F        5      -0.00030467       0.00000000      -0.52488151
Si       9.59897455       3.83958982      13.35750000  F        5       0.00104266       0.00000000      -0.52387272
Si       1.91979491       1.91979491      14.71500000  F        4      -0.00340048      -0.00212426       0.15287390
Si       5.75938473       1.91979491      14.71500000  F        4       0.01034852       0.00195956       0.16179026
Si       9.59897455       1.91979491      14.71500000  F        4      -0.00693751       0.00133534       0.16443879
Si       1.91979491       5.75938473      14.71500000  F        4      -0.00340048       0.00212428       0.15287389
Si       5.75938473       5.75938473      14.71500000  F        4       0.01034852      -0.00195954       0.16179024
Si       9.59897455       5.75938473      14.71500000  F        4      -0.00693751      -0.00133532       0.16443877
Si       0.00000000       1.91979491      16.07250000  F        3      -0.00535074       0.01615498      -0.12327525
Si       3.83958982       1.91979491      16.07250000  F        3       0.00298310       0.02791641      -0.12553240
Si       7.67917964       1.91979491      16.07250000  F        3      -0.00152029       0.02793616      -0.13977939
Si       0.00000000       5.75938473      16.07250000  F        3      -0.00535074      -0.01615496      -0.12327523
Si       3.83958982       5.75938473      16.07250000  F        3       0.00298310      -0.02791639      -0.12553239
Si       7.67917964       5.75938473      16.07250000  F        3      -0.00152029      -0.02793613      -0.13977937
Si       0.00000000       0.00000000      17.43000000  F        2      -0.00520234      -0.00000002       0.51186576
Si       3.83958982       0.00000000      17.43000000  F        2       0.00161901      -0.00000002       0.51964503
Si       7.67917964       0.00000000      17.43000000  F        2       0.00933643      -0.00000002       0.50588198
Si       0.00000000       3.83958982      17.43000000  F        2       0.02203640       0.00000000       0.45060006
Si       3.83958982       3.83958982      17.43000000  F        2      -0.02075377       0.00000000       0.44216262
Si       7.67917964       3.83958982      17.43000000  F        2      -0.01530762       0.00000000       0.52040735
Si       1.91979491       0.00000000      18.78750000  F        1      -0.00491737       0.00000000      -0.24069100
Si       5.75938473       0.00000000      18.78750000  F        1       0.00641784       0.00000000      -0.23772947
Si       9.59897455       0.00000000      18.78750000  F        1      -0.05317785       0.00000000      -0.14036115
Si       1.91979491       3.83958982      18.78750000  F        1       0.00593744      -0.00000000      -0.22880883
Si       5.75938473       3.83958982      18.78750000  F        1       0.14812153      -0.00000000      -0.15757091
Si       9.59897455       3.83958982      18.78750000  F        1      -0.08531836      -0.00000000      -0.25286012
Si       7.67917964       3.83958982      22.56483395  T        0       0.09737281       0.00000000      -0.23486247
F        7.67917964       3.83958982      24.14683580  T        0      -0.03140007      -0.00000000       0.13075311
F        6.18765399       3.83958982      22.03750000  T        0      -0.03392091       0.00000000       0.01301192
F        8.42494246       5.13128892      22.03750000  T        0      -0.01654261       0.10825375      -0.06795484
F        8.42494246       2.54789072      22.03750000  T        0      -0.01654261      -0.10825375      -0.06795484
41
Lattice="11.518769465528859 0.0 0.0 0.0 7.679179643685906 0.0 0.0 0.0 30.7875" Properties=species:S:1:pos:R:3:move_mask:L:1:tags:I:1:forces:R:3 surface=Si100 species=SiF4 site=bridge_Si_Si orientation=flipped height_A=2.75 substrate_atoms=36 calculation_kind="Rigid evaluated approach scan; not NEB" energy=-208.5384030865955 pbc="T T F"
Si       0.00000000       0.00000000      12.00000000  F        6       0.00165661       0.00000000       0.25173974
Si       3.83958982       0.00000000      12.00000000  F        6      -0.00246964       0.00000000       0.25151518
Si       7.67917964       0.00000000      12.00000000  F        6       0.00081353       0.00000000       0.25149933
Si       0.00000000       3.83958982      12.00000000  F        6       0.00125516      -0.00000000       0.24846974
Si       3.83958982       3.83958982      12.00000000  F        6      -0.00238244      -0.00000000       0.24726812
Si       7.67917964       3.83958982      12.00000000  F        6       0.00112869      -0.00000000       0.24681970
Si       1.91979491       0.00000000      13.35750000  F        5      -0.00000727      -0.00000002      -0.52200445
Si       5.75938473       0.00000000      13.35750000  F        5       0.00118264      -0.00000002      -0.52883186
Si       9.59897455       0.00000000      13.35750000  F        5      -0.00122856      -0.00000002      -0.52386241
Si       1.91979491       3.83958982      13.35750000  F        5      -0.00022116       0.00000000      -0.51722103
Si       5.75938473       3.83958982      13.35750000  F        5      -0.00563686       0.00000000      -0.52781978
Si       9.59897455       3.83958982      13.35750000  F        5       0.00523528       0.00000000      -0.52539656
Si       1.91979491       1.91979491      14.71500000  F        4      -0.00405621      -0.00205937       0.15547838
Si       5.75938473       1.91979491      14.71500000  F        4       0.01902529      -0.00758307       0.16275620
Si       9.59897455       1.91979491      14.71500000  F        4      -0.01466727       0.00097573       0.18080547
Si       1.91979491       5.75938473      14.71500000  F        4      -0.00405621       0.00205940       0.15547836
Si       5.75938473       5.75938473      14.71500000  F        4       0.01902529       0.00758310       0.16275619
Si       9.59897455       5.75938473      14.71500000  F        4      -0.01466727      -0.00097571       0.18080546
Si       0.00000000       1.91979491      16.07250000  F        3      -0.00582553       0.02362270      -0.12849274
Si       3.83958982       1.91979491      16.07250000  F        3       0.01035029       0.04987460      -0.11514436
Si       7.67917964       1.91979491      16.07250000  F        3       0.00014748       0.04160207      -0.12835949
Si       0.00000000       5.75938473      16.07250000  F        3      -0.00582553      -0.02362268      -0.12849273
Si       3.83958982       5.75938473      16.07250000  F        3       0.01035029      -0.04987457      -0.11514435
Si       7.67917964       5.75938473      16.07250000  F        3       0.00014748      -0.04160205      -0.12835948
Si       0.00000000       0.00000000      17.43000000  F        2       0.01927132      -0.00000002       0.47731871
Si       3.83958982       0.00000000      17.43000000  F        2       0.01549730      -0.00000002       0.51942041
Si       7.67917964       0.00000000      17.43000000  F        2      -0.03003629      -0.00000002       0.46135445
Si       0.00000000       3.83958982      17.43000000  F        2       0.02768361       0.00000000       0.39891159
Si       3.83958982       3.83958982      17.43000000  F        2      -0.04658628       0.00000000       0.34947732
Si       7.67917964       3.83958982      17.43000000  F        2       0.00496586       0.00000000       0.49725523
Si       1.91979491       0.00000000      18.78750000  F        1      -0.00339940       0.00000000      -0.23847270
Si       5.75938473       0.00000000      18.78750000  F        1       0.08693651       0.00000000      -0.10474732
Si       9.59897455       0.00000000      18.78750000  F        1      -0.04693910       0.00000000      -0.11145434
Si       1.91979491       3.83958982      18.78750000  F        1       0.00073253      -0.00000000      -0.23895388
Si       5.75938473       3.83958982      18.78750000  F        1      -0.02289600      -0.00000000      -0.58150150
Si       9.59897455       3.83958982      18.78750000  F        1      -0.00525448      -0.00000000      -0.29605184
Si       7.67917964       3.83958982      22.06483395  T        0       0.28736852       0.00000000      -0.18525960
F        7.67917964       3.83958982      23.64683580  T        0      -0.06088509      -0.00000000       0.17924107
F        6.18765399       3.83958982      21.53750000  T        0      -0.05263530      -0.00000000       0.35951030
F        8.42494246       5.13128892      21.53750000  T        0      -0.09154889       0.20403438      -0.04615526
F        8.42494246       2.54789072      21.53750000  T        0      -0.09154889      -0.20403438      -0.04615526
41
Lattice="11.518769465528859 0.0 0.0 0.0 7.679179643685906 0.0 0.0 0.0 30.7875" Properties=species:S:1:pos:R:3:move_mask:L:1:tags:I:1:forces:R:3 surface=Si100 species=SiF4 site=bridge_Si_Si orientation=flipped height_A=2.25 substrate_atoms=36 calculation_kind="Rigid evaluated approach scan; not NEB" energy=-207.864013296373 pbc="T T F"
Si       0.00000000       0.00000000      12.00000000  F        6       0.00267337       0.00000000       0.25359166
Si       3.83958982       0.00000000      12.00000000  F        6      -0.00275510       0.00000000       0.25451850
Si       7.67917964       0.00000000      12.00000000  F        6       0.00007066       0.00000000       0.25460868
Si       0.00000000       3.83958982      12.00000000  F        6       0.00156069      -0.00000000       0.24652959
Si       3.83958982       3.83958982      12.00000000  F        6      -0.00308991      -0.00000000       0.24507512
Si       7.67917964       3.83958982      12.00000000  F        6       0.00152510      -0.00000000       0.24415937
Si       1.91979491       0.00000000      13.35750000  F        5      -0.00191341      -0.00000002      -0.52314585
Si       5.75938473       0.00000000      13.35750000  F        5       0.00062155      -0.00000002      -0.53342216
Si       9.59897455       0.00000000      13.35750000  F        5      -0.00013927      -0.00000002      -0.52230132
Si       1.91979491       3.83958982      13.35750000  F        5      -0.00113651       0.00000000      -0.51878919
Si       5.75938473       3.83958982      13.35750000  F        5      -0.00001493       0.00000000      -0.50390986
Si       9.59897455       3.83958982      13.35750000  F        5      -0.00252255       0.00000000      -0.50875178
Si       1.91979491       1.91979491      14.71500000  F        4       0.00464609      -0.00192414       0.16135637
Si       5.75938473       1.91979491      14.71500000  F        4       0.02576485      -0.02352128       0.15867319
Si       9.59897455       1.91979491      14.71500000  F        4      -0.02960808      -0.00022488       0.18218108
Si       1.91979491       5.75938473      14.71500000  F        4       0.00464609       0.00192416       0.16135635
Si       5.75938473       5.75938473      14.71500000  F        4       0.02576485       0.02352130       0.15867317
Si       9.59897455       5.75938473      14.71500000  F        4      -0.02960808       0.00022490       0.18218107
Si       0.00000000       1.91979491      16.07250000  F        3      -0.01046720       0.03117873      -0.13116781
Si       3.83958982       1.91979491      16.07250000  F        3       0.04204864       0.06296705      -0.09235212
Si       7.67917964       1.91979491      16.07250000  F        3      -0.00524501       0.00399296      -0.18099452
Si       0.00000000       5.75938473      16.07250000  F        3      -0.01046720      -0.03117871      -0.13116779
Si       3.83958982       5.75938473      16.07250000  F        3       0.04204864      -0.06296703      -0.09235210
Si       7.67917964       5.75938473      16.07250000  F        3      -0.00524501      -0.00399294      -0.18099451
Si       0.00000000       0.00000000      17.43000000  F        2       0.03924693      -0.00000002       0.44752396
Si       3.83958982       0.00000000      17.43000000  F        2       0.01176377      -0.00000002       0.48531636
Si       7.67917964       0.00000000      17.43000000  F        2      -0.03436626      -0.00000002       0.44145243
Si       0.00000000       3.83958982      17.43000000  F        2       0.13833930       0.00000000       0.31966962
Si       3.83958982       3.83958982      17.43000000  F        2      -0.14463231       0.00000000       0.31281672
Si       7.67917964       3.83958982      17.43000000  F        2       0.06350837       0.00000000       0.43460918
Si       1.91979491       0.00000000      18.78750000  F        1      -0.00739791       0.00000000      -0.24033133
Si       5.75938473       0.00000000      18.78750000  F        1       0.06648499       0.00000000      -0.04540245
Si       9.59897455       0.00000000      18.78750000  F        1       0.05364000       0.00000000      -0.20202026
Si       1.91979491       3.83958982      18.78750000  F        1       0.00099649      -0.00000000      -0.20040885
Si       5.75938473       3.83958982      18.78750000  F        1      -0.40058307      -0.00000000      -1.93925547
Si       9.59897455       3.83958982      18.78750000  F        1       0.31769457      -0.00000000      -0.96280920
Si       7.67917964       3.83958982      21.56483395  T        0       0.95401682       0.00000000       0.24582874
F        7.67917964       3.83958982      23.14683580  T        0      -0.14418647      -0.00000000       0.18976609
F        6.18765399       3.83958982      21.03750000  T        0      -0.40662313       0.00000000       1.29626620
F        8.42494246       5.13128892      21.03750000  T        0      -0.27853018       0.44606756       0.41671156
F        8.42494246       2.54789072      21.03750000  T        0      -0.27853018      -0.44606756       0.41671156
41
Lattice="11.518769465528859 0.0 0.0 0.0 7.679179643685906 0.0 0.0 0.0 30.7875" Properties=species:S:1:pos:R:3:move_mask:L:1:tags:I:1:forces:R:3 surface=Si100 species=SiF4 site=bridge_Si_Si orientation=flipped height_A=1.9 substrate_atoms=36 calculation_kind="Rigid evaluated approach scan; not NEB" energy=-206.6697661811404 pbc="T T F"
Si       0.00000000       0.00000000      12.00000000  F        6       0.00306514       0.00000000       0.25571929
Si       3.83958982       0.00000000      12.00000000  F        6      -0.00340903       0.00000000       0.25621760
Si       7.67917964       0.00000000      12.00000000  F        6       0.00045902       0.00000000       0.25695409
Si       0.00000000       3.83958982      12.00000000  F        6       0.00206834      -0.00000000       0.24586682
Si       3.83958982       3.83958982      12.00000000  F        6      -0.00380314      -0.00000000       0.24396387
Si       7.67917964       3.83958982      12.00000000  F        6       0.00183241      -0.00000000       0.24375936
Si       1.91979491       0.00000000      13.35750000  F        5       0.00005834      -0.00000002      -0.52318544
Si       5.75938473       0.00000000      13.35750000  F        5       0.00049154      -0.00000002      -0.53231921
Si       9.59897455       0.00000000      13.35750000  F        5      -0.00172526      -0.00000002      -0.52360257
Si       1.91979491       3.83958982      13.35750000  F        5       0.00059979       0.00000000      -0.51464626
Si       5.75938473       3.83958982      13.35750000  F        5       0.01002048       0.00000000      -0.48194858
Si       9.59897455       3.83958982      13.35750000  F        5      -0.01143266       0.00000000      -0.48782595
Si       1.91979491       1.91979491      14.71500000  F        4       0.00999238      -0.00395984       0.16157443
Si       5.75938473       1.91979491      14.71500000  F        4       0.02839957      -0.02388980       0.16969794
Si       9.59897455       1.91979491      14.71500000  F        4      -0.03593843      -0.00455042       0.17866699
Si       1.91979491       5.75938473      14.71500000  F        4       0.00999238       0.00395987       0.16157442
Si       5.75938473       5.75938473      14.71500000  F        4       0.02839957       0.02388982       0.16969793
Si       9.59897455       5.75938473      14.71500000  F        4      -0.03593843       0.00455044       0.17866697
Si       0.00000000       1.91979491      16.07250000  F        3      -0.02949174       0.05974341      -0.11289598
Si       3.83958982       1.91979491      16.07250000  F        3       0.04596470       0.03640644      -0.10106206
Si       7.67917964       1.91979491      16.07250000  F        3       0.01555665      -0.06508256      -0.23032551
Si       0.00000000       5.75938473      16.07250000  F        3      -0.02949174      -0.05974339      -0.11289597
Si       3.83958982       5.75938473      16.07250000  F        3       0.04596470      -0.03640641      -0.10106204
Si       7.67917964       5.75938473      16.07250000  F        3       0.01555665       0.06508258      -0.23032549
Si       0.00000000       0.00000000      17.43000000  F        2       0.05997524      -0.00000002       0.42262850
Si       3.83958982       0.00000000      17.43000000  F        2      -0.02369779      -0.00000002       0.45322156
Si       7.67917964       0.00000000      17.43000000  F        2      -0.03401072      -0.00000002       0.35932592
Si       0.00000000       3.83958982      17.43000000  F        2       0.14225388       0.00000000       0.32563448
Si       3.83958982       3.83958982      17.43000000  F        2      -0.30517465       0.00000000       0.31840973
Si       7.67917964       3.83958982      17.43000000  F        2       0.29796523       0.00000000       0.47785760
Si       1.91979491       0.00000000      18.78750000  F        1      -0.01102767       0.00000000      -0.23714995
Si       5.75938473       0.00000000      18.78750000  F        1       0.05160233       0.00000000       0.01565678
Si       9.59897455       0.00000000      18.78750000  F        1       0.11119657       0.00000000      -0.24449307
Si       1.91979491       3.83958982      18.78750000  F        1      -0.00211697      -0.00000000      -0.11810927
Si       5.75938473       3.83958982      18.78750000  F        1      -0.73267398      -0.00000000      -2.41473223
Si       9.59897455       3.83958982      18.78750000  F        1       0.94671535      -0.00000000      -1.78082581
Si       7.67917964       3.83958982      21.21483395  T        0       2.05622007       0.00000000       0.90739391
F        7.67917964       3.83958982      22.79683580  T        0      -0.28898278       0.00000000      -0.00104603
F        6.18765399       3.83958982      20.68750000  T        0      -1.25686226      -0.00000000       1.39406020
F        8.42494246       5.13128892      20.68750000  T        0      -0.53928654       0.89831012       0.77595150
F        8.42494246       2.54789072      20.68750000  T        0      -0.53928654      -0.89831012       0.77595150
41
Lattice="11.518769465528859 0.0 0.0 0.0 7.679179643685906 0.0 0.0 0.0 30.7875" Properties=species:S:1:pos:R:3:move_mask:L:1:tags:I:1:forces:R:3 surface=Si100 species=SiF4 site=bridge_Si_Si orientation=flipped height_A=1.6 substrate_atoms=36 calculation_kind="Rigid evaluated approach scan; not NEB" energy=-205.5159588339583 pbc="T T F"
Si       0.00000000       0.00000000      12.00000000  F        6       0.00296791       0.00000000       0.25886038
Si       3.83958982       0.00000000      12.00000000  F        6      -0.00308711       0.00000000       0.25719259
Si       7.67917964       0.00000000      12.00000000  F        6       0.00071748       0.00000000       0.25473310
Si       0.00000000       3.83958982      12.00000000  F        6       0.00251628      -0.00000000       0.24852178
Si       3.83958982       3.83958982      12.00000000  F        6      -0.00329049      -0.00000000       0.24610120
Si       7.67917964       3.83958982      12.00000000  F        6       0.00126118      -0.00000000       0.24583544
Si       1.91979491       0.00000000      13.35750000  F        5       0.00221379      -0.00000002      -0.52165426
Si       5.75938473       0.00000000      13.35750000  F        5       0.00270234      -0.00000002      -0.52466460
Si       9.59897455       0.00000000      13.35750000  F        5      -0.00329865      -0.00000002      -0.52253319
Si       1.91979491       3.83958982      13.35750000  F        5       0.00625503       0.00000000      -0.50812081
Si       5.75938473       3.83958982      13.35750000  F        5       0.01094896       0.00000000      -0.47890925
Si       9.59897455       3.83958982      13.35750000  F        5      -0.01214211       0.00000000      -0.48227740
Si       1.91979491       1.91979491      14.71500000  F        4       0.00405453      -0.00797249       0.15065336
Si       5.75938473       1.91979491      14.71500000  F        4       0.02638524      -0.02339689       0.16279811
Si       9.59897455       1.91979491      14.71500000  F        4      -0.03488502      -0.01995105       0.16514200
Si       1.91979491       5.75938473      14.71500000  F        4       0.00405453       0.00797252       0.15065334
Si       5.75938473       5.75938473      14.71500000  F        4       0.02638524       0.02339691       0.16279810
Si       9.59897455       5.75938473      14.71500000  F        4      -0.03488502       0.01995107       0.16514199
Si       0.00000000       1.91979491      16.07250000  F        3      -0.03877755       0.07533336      -0.09801348
Si       3.83958982       1.91979491      16.07250000  F        3       0.04872009       0.01716713      -0.11063877
Si       7.67917964       1.91979491      16.07250000  F        3       0.01969038      -0.09347265      -0.26803794
Si       0.00000000       5.75938473      16.07250000  F        3      -0.03877755      -0.07533334      -0.09801347
Si       3.83958982       5.75938473      16.07250000  F        3       0.04872009      -0.01716710      -0.11063876
Si       7.67917964       5.75938473      16.07250000  F        3       0.01969038       0.09347267      -0.26803792
Si       0.00000000       0.00000000      17.43000000  F        2       0.08721107      -0.00000002       0.40029001
Si       3.83958982       0.00000000      17.43000000  F        2      -0.06005168      -0.00000002       0.44328748
Si       7.67917964       0.00000000      17.43000000  F        2      -0.01979975      -0.00000002       0.34224530
Si       0.00000000       3.83958982      17.43000000  F        2       0.11637522       0.00000000       0.36706759
Si       3.83958982       3.83958982      17.43000000  F        2      -0.40122051       0.00000000       0.43791630
Si       7.67917964       3.83958982      17.43000000  F        2       0.46391602       0.00000000       0.48316486
Si       1.91979491       0.00000000      18.78750000  F        1      -0.01175061       0.00000000      -0.22695721
Si       5.75938473       0.00000000      18.78750000  F        1       0.02529593      -0.00000000       0.03189176
Si       9.59897455       0.00000000      18.78750000  F        1       0.16313218      -0.00000000      -0.28968299
Si       1.91979491       3.83958982      18.78750000  F        1      -0.04422337      -0.00000000      -0.08099045
Si       5.75938473       3.83958982      18.78750000  F        1      -1.06161711      -0.00000000      -3.50346029
Si       9.59897455       3.83958982      18.78750000  F        1       1.26283830      -0.00000000      -1.70727298
Si       7.67917964       3.83958982      20.91483395  T        0       3.02618848       0.00000000       1.48329945
F        7.67917964       3.83958982      22.49683580  T        0      -0.46111512       0.00000000      -0.32129902
F        6.18765399       3.83958982      20.38750000  T        0      -2.02299704      -0.00000000       2.37000912
F        8.42494246       5.13128892      20.38750000  T        0      -0.56016098       1.32812933       0.64679976
F        8.42494246       2.54789072      20.38750000  T        0      -0.56016098      -1.32812933       0.64679976
41
Lattice="11.518769465528859 0.0 0.0 0.0 7.679179643685906 0.0 0.0 0.0 30.7875" Properties=species:S:1:pos:R:3:move_mask:L:1:tags:I:1:forces:R:3 surface=Si100 species=SiF4 site=bridge_Si_Si orientation=flipped height_A=1.3 substrate_atoms=36 calculation_kind="Rigid evaluated approach scan; not NEB" energy=-202.13354942925832 pbc="T T F"
Si       0.00000000       0.00000000      12.00000000  F        6       0.00309834       0.00000000       0.26356548
Si       3.83958982       0.00000000      12.00000000  F        6      -0.00321559       0.00000000       0.26015891
Si       7.67917964       0.00000000      12.00000000  F        6       0.00053538       0.00000000       0.25701977
Si       0.00000000       3.83958982      12.00000000  F        6       0.00438379      -0.00000000       0.25089104
Si       3.83958982       3.83958982      12.00000000  F        6      -0.00435208      -0.00000000       0.24905782
Si       7.67917964       3.83958982      12.00000000  F        6       0.00040695      -0.00000000       0.24974578
Si       1.91979491       0.00000000      13.35750000  F        5       0.00094403      -0.00000002      -0.52097907
Si       5.75938473       0.00000000      13.35750000  F        5       0.00685892      -0.00000002      -0.52279663
Si       9.59897455       0.00000000      13.35750000  F        5      -0.00549363      -0.00000002      -0.51932144
Si       1.91979491       3.83958982      13.35750000  F        5       0.01057003       0.00000000      -0.50546760
Si       5.75938473       3.83958982      13.35750000  F        5       0.01259217       0.00000000      -0.48697301
Si       9.59897455       3.83958982      13.35750000  F        5      -0.01480018       0.00000000      -0.48714422
Si       1.91979491       1.91979491      14.71500000  F        4      -0.01162106      -0.01564647       0.13001938
Si       5.75938473       1.91979491      14.71500000  F        4       0.01711987      -0.02663057       0.14926882
Si       9.59897455       1.91979491      14.71500000  F        4      -0.01813785      -0.04019533       0.14289990
Si       1.91979491       5.75938473      14.71500000  F        4      -0.01162106       0.01564650       0.13001937
Si       5.75938473       5.75938473      14.71500000  F        4       0.01711987       0.02663059       0.14926881
Si       9.59897455       5.75938473      14.71500000  F        4      -0.01813785       0.04019535       0.14289988
Si       0.00000000       1.91979491      16.07250000  F        3      -0.03549794       0.06004990      -0.11167673
Si       3.83958982       1.91979491      16.07250000  F        3       0.05055332      -0.02910250      -0.14458213
Si       7.67917964       1.91979491      16.07250000  F        3      -0.00354489      -0.08847529      -0.28422624
Si       0.00000000       5.75938473      16.07250000  F        3      -0.03549794      -0.06004988      -0.11167671
Si       3.83958982       5.75938473      16.07250000  F        3       0.05055332       0.02910252      -0.14458211
Si       7.67917964       5.75938473      16.07250000  F        3      -0.00354489       0.08847531      -0.28422623
Si       0.00000000       0.00000000      17.43000000  F        2       0.11031605      -0.00000002       0.36136623
Si       3.83958982       0.00000000      17.43000000  F        2      -0.03365022      -0.00000002       0.47641526
Si       7.67917964       0.00000000      17.43000000  F        2      -0.03022538      -0.00000002       0.36499236
Si       0.00000000       3.83958982      17.43000000  F        2       0.15126155       0.00000000       0.39866441
Si       3.83958982       3.83958982      17.43000000  F        2      -0.14385907       0.00000000       0.30165099
Si       7.67917964       3.83958982      17.43000000  F        2       0.40103207       0.00000000       0.31336351
Si       1.91979491       0.00000000      18.78750000  F        1      -0.01527070       0.00000000      -0.19375632
Si       5.75938473       0.00000000      18.78750000  F        1      -0.02240264      -0.00000000       0.03722855
Si       9.59897455       0.00000000      18.78750000  F        1       0.27242281      -0.00000000      -0.32771207
Si       1.91979491       3.83958982      18.78750000  F        1      -0.09143767      -0.00000000      -0.01349292
Si       5.75938473       3.83958982      18.78750000  F        1      -7.28167058       0.00000000     -19.73233192
Si       9.59897455       3.83958982      18.78750000  F        1       1.61812432      -0.00000000      -1.45431344
Si       7.67917964       3.83958982      20.61483395  T        0       3.95566326       0.00000000       2.08018459
F        7.67917964       3.83958982      22.19683580  T        0      -0.61050672       0.00000000      -0.45757014
F        6.18765399       3.83958982      20.08750000  T        0       2.47464936      -0.00000000      18.66193303
F        8.42494246       5.13128892      20.08750000  T        0      -0.38185876       1.76946605       0.46610752
F        8.42494246       2.54789072      20.08750000  T        0      -0.38185876      -1.76946605       0.46610752
