9
Lattice="24.0 0.0 0.0 0.0 24.0 0.0 0.0 0.0 24.0" Properties=species:S:1:pos:R:3:move_mask:L:1:forces:R:3 charge_spin="0 1" calculation_kind="Constrained SiF3-NH2 final-cleavage proxy; not a periodic surface" energy=-20293.54988718033 pbc="F F F"
Si       0.00000000       0.00000000       0.00000000  F      -0.33810371      -0.00000014       0.37805685
F        1.50849447       0.00000000      -0.53333333  F      -0.43012202       0.00000010      -0.20582625
F       -0.75424723       1.30639453      -0.53333333  F       0.38390008      -0.92670679      -0.08692989
F       -0.75424723      -1.30639453      -0.53333333  F       0.38390025       0.92670739      -0.08692917
N        0.13536965       0.00000006       1.66278062  T       0.00147866      -0.00000031      -0.00219793
H        1.03437903       0.00000043       2.11798545  T       0.00003270      -0.00000013       0.00285943
H       -0.64809795      -0.00000008       2.29021021  T      -0.00154004       0.00000000       0.00160565
F        3.19661642      -0.00000003       1.68194066  T       0.00440122       0.00000014       0.01140221
H        2.94915441       0.00000011       0.78698347  T      -0.00394692      -0.00000012      -0.01204095
9
Lattice="24.0 0.0 0.0 0.0 24.0 0.0 0.0 0.0 24.0" Properties=species:S:1:pos:R:3:move_mask:L:1:forces:R:3 charge_spin="0 1" calculation_kind="Constrained SiF3-NH2 final-cleavage proxy; not a periodic surface" energy=-20291.151531279087 pbc="F F F"
Si       0.00000000       0.00000000       0.00000000  F       4.18357754       0.04801010      -0.00359297
F        1.50849447       0.00000000      -0.53333333  F      -0.45978737      -0.31154230      -4.19187641
F       -0.75424723       1.30639453      -0.53333333  F       0.28935423      -1.29149532       1.14162064
F       -0.75424723      -1.30639453      -0.53333333  F       0.42765391       1.36500239       1.20387137
N       -0.39008707      -0.32512993       2.95751898  T      -0.34887275      -0.48851669       1.09961808
H       -0.92614300      -0.73706382       3.69283922  T      -0.07437662       0.18881440       0.62116468
H       -0.87391918       0.44738024       2.51181649  T       0.29995513      -0.08293769       0.85839856
F        0.93748819       0.10167420       1.37618130  T      -2.02004719       0.92889607      -1.05177450
H        0.62627914      -0.12801994       3.11681652  T      -2.29745674      -0.35623038       0.32257020
9
Lattice="24.0 0.0 0.0 0.0 24.0 0.0 0.0 0.0 24.0" Properties=species:S:1:pos:R:3:move_mask:L:1:forces:R:3 charge_spin="0 1" calculation_kind="Constrained SiF3-NH2 final-cleavage proxy; not a periodic surface" energy=-20294.135435149074 pbc="F F F"
Si       0.00000000       0.00000000       0.00000000  F       0.00063829       0.00163415      -1.26510620
F        1.50849447       0.00000000      -0.53333333  F      -1.25507665      -0.00035199       0.42130357
F       -0.75424723       1.30639453      -0.53333333  F       0.62733483      -1.08717060       0.42122832
F       -0.75424723      -1.30639453      -0.53333333  F       0.62762326       1.08696592       0.42237085
N        0.00591678       0.01975976       7.12914812  T       0.00005939      -0.00090086       0.00274116
H        0.81812535       0.59999090       7.29913155  T      -0.00249211      -0.00146636      -0.00319029
H       -0.81212754       0.58844562       7.30983701  T       0.00250713      -0.00147925      -0.00321545
F        0.00018166       0.00035355       1.56278614  T      -0.00050235      -0.00097850      -0.00045259
H        0.00109382      -0.20956309       6.14305164  T      -0.00009187       0.00374743       0.00432095
