38
Lattice="11.518769465528859 0.0 0.0 0.0 7.679179643685906 0.0 0.0 0.0 30.7875" Properties=species:S:1:pos:R:3:move_mask:L:1:tags:I:1:forces:R:3 surface=Si100 species=F2 height_A=6.5 substrate_atoms=36 calculation_kind="Rigid approach energy evaluation; not NEB or TS" energy=-183.06452351255993 pbc="T T F"
Si       0.00000000       0.00000000      12.00000000  F        6       0.00000000       0.00000000       0.24903483
Si       3.83958982       0.00000000      12.00000000  F        6       0.00000000      -0.00000000       0.24903483
Si       7.67917964       0.00000000      12.00000000  F        6      -0.00000000       0.00000000       0.24903483
Si       0.00000000       3.83958982      12.00000000  F        6      -0.00000000      -0.00000000       0.24903483
Si       3.83958982       3.83958982      12.00000000  F        6       0.00000000       0.00000000       0.24903483
Si       7.67917964       3.83958982      12.00000000  F        6      -0.00000000      -0.00000000       0.24903483
Si       1.91979491       0.00000000      13.35750000  F        5       0.00000000       0.00000000      -0.52822354
Si       5.75938473       0.00000000      13.35750000  F        5      -0.00000000      -0.00000000      -0.52822354
Si       9.59897455       0.00000000      13.35750000  F        5      -0.00000000      -0.00000000      -0.52822354
Si       1.91979491       3.83958982      13.35750000  F        5       0.00000000       0.00000000      -0.52822354
Si       5.75938473       3.83958982      13.35750000  F        5       0.00000000       0.00000000      -0.52822354
Si       9.59897455       3.83958982      13.35750000  F        5       0.00000000       0.00000000      -0.52822354
Si       1.91979491       1.91979491      14.71500000  F        4      -0.00000000       0.00000000       0.14537709
Si       5.75938473       1.91979491      14.71500000  F        4      -0.00000000      -0.00000000       0.14537709
Si       9.59897455       1.91979491      14.71500000  F        4      -0.00000000       0.00000000       0.14537709
Si       1.91979491       5.75938473      14.71500000  F        4       0.00000000      -0.00000000       0.14537709
Si       5.75938473       5.75938473      14.71500000  F        4      -0.00000000      -0.00000000       0.14537709
Si       9.59897455       5.75938473      14.71500000  F        4      -0.00000000       0.00000000       0.14537709
Si       0.00000000       1.91979491      16.07250000  F        3      -0.00000000      -0.00000000      -0.14537709
Si       3.83958982       1.91979491      16.07250000  F        3      -0.00000000       0.00000000      -0.14537709
Si       7.67917964       1.91979491      16.07250000  F        3       0.00000000       0.00000000      -0.14537709
Si       0.00000000       5.75938473      16.07250000  F        3       0.00000000       0.00000000      -0.14537709
Si       3.83958982       5.75938473      16.07250000  F        3       0.00000000      -0.00000000      -0.14537709
Si       7.67917964       5.75938473      16.07250000  F        3      -0.00000000      -0.00000000      -0.14537709
Si       0.00000000       0.00000000      17.43000000  F        2      -0.00000000       0.00000000       0.52822354
Si       3.83958982       0.00000000      17.43000000  F        2       0.00000000      -0.00000000       0.52822354
Si       7.67917964       0.00000000      17.43000000  F        2       0.00000000      -0.00000000       0.52822354
Si       0.00000000       3.83958982      17.43000000  F        2       0.00000000       0.00000000       0.52822354
Si       3.83958982       3.83958982      17.43000000  F        2       0.00000000      -0.00000000       0.52822354
Si       7.67917964       3.83958982      17.43000000  F        2      -0.00000000      -0.00000000       0.52822354
Si       1.91979491       0.00000000      18.78750000  F        1       0.00000000      -0.00000000      -0.24903483
Si       5.75938473       0.00000000      18.78750000  F        1      -0.00000000       0.00000000      -0.24903483
Si       9.59897455       0.00000000      18.78750000  F        1       0.00000000      -0.00000000      -0.24903483
Si       1.91979491       3.83958982      18.78750000  F        1       0.00000000       0.00000000      -0.24903483
Si       5.75938473       3.83958982      18.78750000  F        1       0.00000000       0.00000000      -0.24903483
Si       9.59897455       3.83958982      18.78750000  F        1      -0.00000000       0.00000000      -0.24903483
F        5.75938473       3.83958982      25.28750000  F        0       0.00000000       0.00000000       0.00152114
F        5.75938473       3.83958982      26.76807573  F        0       0.00000000       0.00000000      -0.00152114
38
Lattice="11.518769465528859 0.0 0.0 0.0 7.679179643685906 0.0 0.0 0.0 30.7875" Properties=species:S:1:pos:R:3:move_mask:L:1:tags:I:1:forces:R:3 surface=Si100 species=F2 height_A=5.0 substrate_atoms=36 calculation_kind="Rigid approach energy evaluation; not NEB or TS" energy=-183.06452351255993 pbc="T T F"
Si       0.00000000       0.00000000      12.00000000  F        6       0.00000000      -0.00000000       0.24903483
Si       3.83958982       0.00000000      12.00000000  F        6      -0.00000000      -0.00000000       0.24903483
Si       7.67917964       0.00000000      12.00000000  F        6      -0.00000000      -0.00000000       0.24903483
Si       0.00000000       3.83958982      12.00000000  F        6      -0.00000000       0.00000000       0.24903483
Si       3.83958982       3.83958982      12.00000000  F        6       0.00000000       0.00000000       0.24903483
Si       7.67917964       3.83958982      12.00000000  F        6      -0.00000000      -0.00000000       0.24903483
Si       1.91979491       0.00000000      13.35750000  F        5       0.00000000      -0.00000000      -0.52822354
Si       5.75938473       0.00000000      13.35750000  F        5       0.00000000       0.00000000      -0.52822354
Si       9.59897455       0.00000000      13.35750000  F        5      -0.00000000       0.00000000      -0.52822354
Si       1.91979491       3.83958982      13.35750000  F        5       0.00000000      -0.00000000      -0.52822354
Si       5.75938473       3.83958982      13.35750000  F        5       0.00000000      -0.00000000      -0.52822354
Si       9.59897455       3.83958982      13.35750000  F        5       0.00000000       0.00000000      -0.52822354
Si       1.91979491       1.91979491      14.71500000  F        4      -0.00000000       0.00000000       0.14537709
Si       5.75938473       1.91979491      14.71500000  F        4       0.00000000      -0.00000000       0.14537709
Si       9.59897455       1.91979491      14.71500000  F        4      -0.00000000       0.00000000       0.14537709
Si       1.91979491       5.75938473      14.71500000  F        4       0.00000000      -0.00000000       0.14537709
Si       5.75938473       5.75938473      14.71500000  F        4      -0.00000000      -0.00000000       0.14537709
Si       9.59897455       5.75938473      14.71500000  F        4       0.00000000       0.00000000       0.14537709
Si       0.00000000       1.91979491      16.07250000  F        3       0.00000000       0.00000000      -0.14537709
Si       3.83958982       1.91979491      16.07250000  F        3      -0.00000000       0.00000000      -0.14537709
Si       7.67917964       1.91979491      16.07250000  F        3       0.00000000      -0.00000000      -0.14537709
Si       0.00000000       5.75938473      16.07250000  F        3      -0.00000000      -0.00000000      -0.14537709
Si       3.83958982       5.75938473      16.07250000  F        3       0.00000000      -0.00000000      -0.14537709
Si       7.67917964       5.75938473      16.07250000  F        3      -0.00000000      -0.00000000      -0.14537709
Si       0.00000000       0.00000000      17.43000000  F        2      -0.00000000       0.00000000       0.52822354
Si       3.83958982       0.00000000      17.43000000  F        2       0.00000000      -0.00000000       0.52822354
Si       7.67917964       0.00000000      17.43000000  F        2      -0.00000000      -0.00000000       0.52822354
Si       0.00000000       3.83958982      17.43000000  F        2       0.00000000      -0.00000000       0.52822354
Si       3.83958982       3.83958982      17.43000000  F        2      -0.00000000       0.00000000       0.52822354
Si       7.67917964       3.83958982      17.43000000  F        2       0.00000000      -0.00000000       0.52822354
Si       1.91979491       0.00000000      18.78750000  F        1       0.00000000       0.00000000      -0.24903483
Si       5.75938473       0.00000000      18.78750000  F        1      -0.00000000       0.00000000      -0.24903483
Si       9.59897455       0.00000000      18.78750000  F        1      -0.00000000       0.00000000      -0.24903483
Si       1.91979491       3.83958982      18.78750000  F        1      -0.00000000      -0.00000000      -0.24903483
Si       5.75938473       3.83958982      18.78750000  F        1      -0.00000000      -0.00000000      -0.24903483
Si       9.59897455       3.83958982      18.78750000  F        1      -0.00000000      -0.00000000      -0.24903483
F        5.75938473       3.83958982      23.78750000  F        0       0.00000000       0.00000000       0.00152114
F        5.75938473       3.83958982      25.26807573  F        0       0.00000000       0.00000000      -0.00152114
38
Lattice="11.518769465528859 0.0 0.0 0.0 7.679179643685906 0.0 0.0 0.0 30.7875" Properties=species:S:1:pos:R:3:move_mask:L:1:tags:I:1:forces:R:3 surface=Si100 species=F2 height_A=4.0 substrate_atoms=36 calculation_kind="Rigid approach energy evaluation; not NEB or TS" energy=-183.25363267457382 pbc="T T F"
Si       0.00000000       0.00000000      12.00000000  F        6      -0.00000000       0.00000000       0.24901865
Si       3.83958982       0.00000000      12.00000000  F        6      -0.00022425      -0.00000000       0.24939584
Si       7.67917964       0.00000000      12.00000000  F        6       0.00022425      -0.00000000       0.24939584
Si       0.00000000       3.83958982      12.00000000  F        6      -0.00000000       0.00000000       0.24880918
Si       3.83958982       3.83958982      12.00000000  F        6      -0.00038171      -0.00000000       0.24866373
Si       7.67917964       3.83958982      12.00000000  F        6       0.00038171      -0.00000000       0.24866373
Si       1.91979491       0.00000000      13.35750000  F        5       0.00072767       0.00000000      -0.52720305
Si       5.75938473       0.00000000      13.35750000  F        5       0.00000000       0.00000000      -0.52748551
Si       9.59897455       0.00000000      13.35750000  F        5      -0.00072767      -0.00000000      -0.52720305
Si       1.91979491       3.83958982      13.35750000  F        5       0.00081587      -0.00000000      -0.52617482
Si       5.75938473       3.83958982      13.35750000  F        5       0.00000000       0.00000000      -0.52449549
Si       9.59897455       3.83958982      13.35750000  F        5      -0.00081587      -0.00000000      -0.52617482
Si       1.91979491       1.91979491      14.71500000  F        4       0.00342598      -0.00081518       0.14849150
Si       5.75938473       1.91979491      14.71500000  F        4       0.00000000       0.00021763       0.15179176
Si       9.59897455       1.91979491      14.71500000  F        4      -0.00342598      -0.00081518       0.14849150
Si       1.91979491       5.75938473      14.71500000  F        4       0.00342598       0.00081518       0.14849150
Si       5.75938473       5.75938473      14.71500000  F        4      -0.00000000      -0.00021763       0.15179176
Si       9.59897455       5.75938473      14.71500000  F        4      -0.00342598       0.00081518       0.14849150
Si       0.00000000       1.91979491      16.07250000  F        3       0.00000000       0.00111744      -0.14445975
Si       3.83958982       1.91979491      16.07250000  F        3       0.00161525       0.00651106      -0.14889242
Si       7.67917964       1.91979491      16.07250000  F        3      -0.00161525       0.00651106      -0.14889242
Si       0.00000000       5.75938473      16.07250000  F        3       0.00000000      -0.00111744      -0.14445975
Si       3.83958982       5.75938473      16.07250000  F        3       0.00161525      -0.00651106      -0.14889242
Si       7.67917964       5.75938473      16.07250000  F        3      -0.00161525      -0.00651106      -0.14889242
Si       0.00000000       0.00000000      17.43000000  F        2       0.00000000      -0.00000000       0.52456590
Si       3.83958982       0.00000000      17.43000000  F        2      -0.00503012       0.00000000       0.51706454
Si       7.67917964       0.00000000      17.43000000  F        2       0.00503012      -0.00000000       0.51706454
Si       0.00000000       3.83958982      17.43000000  F        2      -0.00000000      -0.00000000       0.52983723
Si       3.83958982       3.83958982      17.43000000  F        2       0.01219563      -0.00000000       0.54005301
Si       7.67917964       3.83958982      17.43000000  F        2      -0.01219563      -0.00000000       0.54005301
Si       1.91979491       0.00000000      18.78750000  F        1       0.00005583      -0.00000000      -0.24860632
Si       5.75938473       0.00000000      18.78750000  F        1       0.00000000       0.00000000      -0.24142439
Si       9.59897455       0.00000000      18.78750000  F        1      -0.00005583      -0.00000000      -0.24860632
Si       1.91979491       3.83958982      18.78750000  F        1       0.00877375      -0.00000000      -0.24177444
Si       5.75938473       3.83958982      18.78750000  F        1       0.00000000       0.00000000       0.17766880
Si       9.59897455       3.83958982      18.78750000  F        1      -0.00877375       0.00000000      -0.24177444
F        5.75938473       3.83958982      22.78750000  F        0       0.00000000       0.00000000      -0.52802800
F        5.75938473       3.83958982      24.26807573  F        0       0.00000000       0.00000000       0.05563633
38
Lattice="11.518769465528859 0.0 0.0 0.0 7.679179643685906 0.0 0.0 0.0 30.7875" Properties=species:S:1:pos:R:3:move_mask:L:1:tags:I:1:forces:R:3 surface=Si100 species=F2 height_A=3.25 substrate_atoms=36 calculation_kind="Rigid approach energy evaluation; not NEB or TS" energy=-183.60724626617912 pbc="T T F"
Si       0.00000000       0.00000000      12.00000000  F        6      -0.00000000      -0.00000000       0.24948918
Si       3.83958982       0.00000000      12.00000000  F        6      -0.00111746      -0.00000000       0.24938875
Si       7.67917964       0.00000000      12.00000000  F        6       0.00111746       0.00000000       0.24938875
Si       0.00000000       3.83958982      12.00000000  F        6      -0.00000000      -0.00000000       0.24886160
Si       3.83958982       3.83958982      12.00000000  F        6      -0.00103880       0.00000000       0.24819468
Si       7.67917964       3.83958982      12.00000000  F        6       0.00103880      -0.00000000       0.24819468
Si       1.91979491       0.00000000      13.35750000  F        5       0.00141036       0.00000000      -0.52746078
Si       5.75938473       0.00000000      13.35750000  F        5      -0.00000000      -0.00000000      -0.52893267
Si       9.59897455       0.00000000      13.35750000  F        5      -0.00141036       0.00000000      -0.52746078
Si       1.91979491       3.83958982      13.35750000  F        5       0.00159132      -0.00000000      -0.52297635
Si       5.75938473       3.83958982      13.35750000  F        5      -0.00000000      -0.00000000      -0.52302854
Si       9.59897455       3.83958982      13.35750000  F        5      -0.00159132      -0.00000000      -0.52297635
Si       1.91979491       1.91979491      14.71500000  F        4       0.00275636      -0.00226487       0.14668506
Si       5.75938473       1.91979491      14.71500000  F        4      -0.00000000       0.01167230       0.17988843
Si       9.59897455       1.91979491      14.71500000  F        4      -0.00275636      -0.00226487       0.14668506
Si       1.91979491       5.75938473      14.71500000  F        4       0.00275636       0.00226487       0.14668506
Si       5.75938473       5.75938473      14.71500000  F        4       0.00000000      -0.01167230       0.17988843
Si       9.59897455       5.75938473      14.71500000  F        4      -0.00275636       0.00226487       0.14668506
Si       0.00000000       1.91979491      16.07250000  F        3       0.00000000       0.00393457      -0.14409441
Si       3.83958982       1.91979491      16.07250000  F        3       0.01323126       0.01968321      -0.13898513
Si       7.67917964       1.91979491      16.07250000  F        3      -0.01323126       0.01968321      -0.13898513
Si       0.00000000       5.75938473      16.07250000  F        3       0.00000000      -0.00393457      -0.14409441
Si       3.83958982       5.75938473      16.07250000  F        3       0.01323126      -0.01968321      -0.13898513
Si       7.67917964       5.75938473      16.07250000  F        3      -0.01323126      -0.01968321      -0.13898513
Si       0.00000000       0.00000000      17.43000000  F        2       0.00000000      -0.00000000       0.51995558
Si       3.83958982       0.00000000      17.43000000  F        2       0.00573451       0.00000000       0.51631498
Si       7.67917964       0.00000000      17.43000000  F        2      -0.00573451      -0.00000000       0.51631498
Si       0.00000000       3.83958982      17.43000000  F        2       0.00000000      -0.00000000       0.52441060
Si       3.83958982       3.83958982      17.43000000  F        2      -0.03045257       0.00000000       0.46877198
Si       7.67917964       3.83958982      17.43000000  F        2       0.03045257       0.00000000       0.46877198
Si       1.91979491       0.00000000      18.78750000  F        1       0.00152782       0.00000000      -0.24616272
Si       5.75938473       0.00000000      18.78750000  F        1       0.00000000      -0.00000000      -0.24107025
Si       9.59897455       0.00000000      18.78750000  F        1      -0.00152782       0.00000000      -0.24616272
Si       1.91979491       3.83958982      18.78750000  F        1       0.01210721       0.00000000      -0.24314911
Si       5.75938473       3.83958982      18.78750000  F        1      -0.00000000      -0.00000000       0.07674221
Si       9.59897455       3.83958982      18.78750000  F        1      -0.01210721      -0.00000000      -0.24314911
F        5.75938473       3.83958982      22.03750000  F        0       0.00000000       0.00000000      -1.14686452
F        5.75938473       3.83958982      23.51807573  F        0      -0.00000000       0.00000000       0.83220619
38
Lattice="11.518769465528859 0.0 0.0 0.0 7.679179643685906 0.0 0.0 0.0 30.7875" Properties=species:S:1:pos:R:3:move_mask:L:1:tags:I:1:forces:R:3 surface=Si100 species=F2 height_A=2.75 substrate_atoms=36 calculation_kind="Rigid approach energy evaluation; not NEB or TS" energy=-183.87122667194402 pbc="T T F"
Si       0.00000000       0.00000000      12.00000000  F        6       0.00000000      -0.00000000       0.25128149
Si       3.83958982       0.00000000      12.00000000  F        6      -0.00151710      -0.00000000       0.25045527
Si       7.67917964       0.00000000      12.00000000  F        6       0.00151710       0.00000000       0.25045527
Si       0.00000000       3.83958982      12.00000000  F        6       0.00000000       0.00000000       0.24851354
Si       3.83958982       3.83958982      12.00000000  F        6      -0.00141440       0.00000000       0.24712032
Si       7.67917964       3.83958982      12.00000000  F        6       0.00141440       0.00000000       0.24712032
Si       1.91979491       0.00000000      13.35750000  F        5       0.00153913      -0.00000000      -0.52805633
Si       5.75938473       0.00000000      13.35750000  F        5       0.00000000      -0.00000000      -0.53373454
Si       9.59897455       0.00000000      13.35750000  F        5      -0.00153913       0.00000000      -0.52805633
Si       1.91979491       3.83958982      13.35750000  F        5       0.00180963      -0.00000000      -0.52241886
Si       5.75938473       3.83958982      13.35750000  F        5      -0.00000000      -0.00000000      -0.51556732
Si       9.59897455       3.83958982      13.35750000  F        5      -0.00180963      -0.00000000      -0.52241886
Si       1.91979491       1.91979491      14.71500000  F        4       0.00376118      -0.00420157       0.14677031
Si       5.75938473       1.91979491      14.71500000  F        4       0.00000000       0.00975505       0.18382608
Si       9.59897455       1.91979491      14.71500000  F        4      -0.00376118      -0.00420157       0.14677031
Si       1.91979491       5.75938473      14.71500000  F        4       0.00376118       0.00420157       0.14677031
Si       5.75938473       5.75938473      14.71500000  F        4       0.00000000      -0.00975505       0.18382608
Si       9.59897455       5.75938473      14.71500000  F        4      -0.00376118       0.00420157       0.14677031
Si       0.00000000       1.91979491      16.07250000  F        3      -0.00000000       0.00479101      -0.14488632
Si       3.83958982       1.91979491      16.07250000  F        3       0.03092019       0.05113587      -0.10619469
Si       7.67917964       1.91979491      16.07250000  F        3      -0.03092019       0.05113587      -0.10619469
Si       0.00000000       5.75938473      16.07250000  F        3       0.00000000      -0.00479101      -0.14488632
Si       3.83958982       5.75938473      16.07250000  F        3       0.03092019      -0.05113587      -0.10619469
Si       7.67917964       5.75938473      16.07250000  F        3      -0.03092019      -0.05113587      -0.10619469
Si       0.00000000       0.00000000      17.43000000  F        2      -0.00000000      -0.00000000       0.51336026
Si       3.83958982       0.00000000      17.43000000  F        2       0.03556217      -0.00000000       0.53063040
Si       7.67917964       0.00000000      17.43000000  F        2      -0.03556217       0.00000000       0.53063040
Si       0.00000000       3.83958982      17.43000000  F        2      -0.00000000       0.00000000       0.53404261
Si       3.83958982       3.83958982      17.43000000  F        2      -0.07178372       0.00000000       0.48306720
Si       7.67917964       3.83958982      17.43000000  F        2       0.07178372      -0.00000000       0.48306720
Si       1.91979491       0.00000000      18.78750000  F        1       0.00289587      -0.00000000      -0.24527246
Si       5.75938473       0.00000000      18.78750000  F        1      -0.00000000      -0.00000000      -0.30128611
Si       9.59897455       0.00000000      18.78750000  F        1      -0.00289587       0.00000000      -0.24527246
Si       1.91979491       3.83958982      18.78750000  F        1      -0.07575750      -0.00000000      -0.31683177
Si       5.75938473       3.83958982      18.78750000  F        1      -0.00000000       0.00000000       0.57219230
Si       9.59897455       3.83958982      18.78750000  F        1       0.07575750      -0.00000000      -0.31683177
F        5.75938473       3.83958982      21.53750000  F        0       0.00000000       0.00000000      -3.34426191
F        5.75938473       3.83958982      23.01807573  F        0       0.00000000       0.00000000       2.53789011
38
Lattice="11.518769465528859 0.0 0.0 0.0 7.679179643685906 0.0 0.0 0.0 30.7875" Properties=species:S:1:pos:R:3:move_mask:L:1:tags:I:1:forces:R:3 surface=Si100 species=F2 height_A=2.25 substrate_atoms=36 calculation_kind="Rigid approach energy evaluation; not NEB or TS" energy=-184.15439302847878 pbc="T T F"
Si       0.00000000       0.00000000      12.00000000  F        6      -0.00000000       0.00000000       0.25360394
Si       3.83958982       0.00000000      12.00000000  F        6      -0.00147050       0.00000000       0.25161552
Si       7.67917964       0.00000000      12.00000000  F        6       0.00147050      -0.00000000       0.25161552
Si       0.00000000       3.83958982      12.00000000  F        6      -0.00000000       0.00000000       0.24713652
Si       3.83958982       3.83958982      12.00000000  F        6      -0.00150133      -0.00000000       0.24441663
Si       7.67917964       3.83958982      12.00000000  F        6       0.00150133      -0.00000000       0.24441663
Si       1.91979491       0.00000000      13.35750000  F        5       0.00044922       0.00000000      -0.52798670
Si       5.75938473       0.00000000      13.35750000  F        5       0.00000000       0.00000000      -0.53478534
Si       9.59897455       0.00000000      13.35750000  F        5      -0.00044922       0.00000000      -0.52798670
Si       1.91979491       3.83958982      13.35750000  F        5       0.00303690      -0.00000000      -0.52376076
Si       5.75938473       3.83958982      13.35750000  F        5       0.00000000      -0.00000000      -0.50580735
Si       9.59897455       3.83958982      13.35750000  F        5      -0.00303690      -0.00000000      -0.52376076
Si       1.91979491       1.91979491      14.71500000  F        4       0.00902841      -0.00620432       0.15173257
Si       5.75938473       1.91979491      14.71500000  F        4       0.00000000      -0.03175043       0.14338451
Si       9.59897455       1.91979491      14.71500000  F        4      -0.00902841      -0.00620432       0.15173257
Si       1.91979491       5.75938473      14.71500000  F        4       0.00902841       0.00620432       0.15173257
Si       5.75938473       5.75938473      14.71500000  F        4       0.00000000       0.03175043       0.14338451
Si       9.59897455       5.75938473      14.71500000  F        4      -0.00902841       0.00620432       0.15173257
Si       0.00000000       1.91979491      16.07250000  F        3      -0.00000000       0.01098902      -0.14268699
Si       3.83958982       1.91979491      16.07250000  F        3       0.02466520       0.04652516      -0.11189096
Si       7.67917964       1.91979491      16.07250000  F        3      -0.02466520       0.04652516      -0.11189096
Si       0.00000000       5.75938473      16.07250000  F        3       0.00000000      -0.01098902      -0.14268699
Si       3.83958982       5.75938473      16.07250000  F        3       0.02466520      -0.04652516      -0.11189096
Si       7.67917964       5.75938473      16.07250000  F        3      -0.02466520      -0.04652516      -0.11189096
Si       0.00000000       0.00000000      17.43000000  F        2       0.00000000       0.00000000       0.50733948
Si       3.83958982       0.00000000      17.43000000  F        2       0.03754045      -0.00000000       0.49711158
Si       7.67917964       0.00000000      17.43000000  F        2      -0.03754045       0.00000000       0.49711158
Si       0.00000000       3.83958982      17.43000000  F        2       0.00000000      -0.00000000       0.51183200
Si       3.83958982       3.83958982      17.43000000  F        2      -0.35874395      -0.00000000       0.42016003
Si       7.67917964       3.83958982      17.43000000  F        2       0.35874395       0.00000000       0.42016003
Si       1.91979491       0.00000000      18.78750000  F        1       0.00756307       0.00000000      -0.24647820
Si       5.75938473       0.00000000      18.78750000  F        1      -0.00000000       0.00000000      -0.21031984
Si       9.59897455       0.00000000      18.78750000  F        1      -0.00756307      -0.00000000      -0.24647820
Si       1.91979491       3.83958982      18.78750000  F        1      -0.08222367      -0.00000000      -0.28165356
Si       5.75938473       3.83958982      18.78750000  F        1      -0.00000000      -0.00000000       0.62830754
Si       9.59897455       3.83958982      18.78750000  F        1       0.08222367      -0.00000000      -0.28165356
F        5.75938473       3.83958982      21.03750000  F        0      -0.00000000       0.00000000      -7.58379610
F        5.75938473       3.83958982      22.51807573  F        0       0.00000000       0.00000000       6.85887862
38
Lattice="11.518769465528859 0.0 0.0 0.0 7.679179643685906 0.0 0.0 0.0 30.7875" Properties=species:S:1:pos:R:3:move_mask:L:1:tags:I:1:forces:R:3 surface=Si100 species=F2 height_A=1.9 substrate_atoms=36 calculation_kind="Rigid approach energy evaluation; not NEB or TS" energy=-184.45195299389485 pbc="T T F"
Si       0.00000000       0.00000000      12.00000000  F        6       0.00000000      -0.00000000       0.25393004
Si       3.83958982       0.00000000      12.00000000  F        6      -0.00278616       0.00000000       0.25134648
Si       7.67917964       0.00000000      12.00000000  F        6       0.00278616      -0.00000000       0.25134648
Si       0.00000000       3.83958982      12.00000000  F        6       0.00000000      -0.00000000       0.24631826
Si       3.83958982       3.83958982      12.00000000  F        6      -0.00277323      -0.00000000       0.24280431
Si       7.67917964       3.83958982      12.00000000  F        6       0.00277323       0.00000000       0.24280431
Si       1.91979491       0.00000000      13.35750000  F        5       0.00294909       0.00000000      -0.52746938
Si       5.75938473       0.00000000      13.35750000  F        5       0.00000000       0.00000000      -0.53373018
Si       9.59897455       0.00000000      13.35750000  F        5      -0.00294909       0.00000000      -0.52746938
Si       1.91979491       3.83958982      13.35750000  F        5       0.01000890      -0.00000000      -0.51093893
Si       5.75938473       3.83958982      13.35750000  F        5      -0.00000000      -0.00000000      -0.49176098
Si       9.59897455       3.83958982      13.35750000  F        5      -0.01000890       0.00000000      -0.51093893
Si       1.91979491       1.91979491      14.71500000  F        4       0.00932575      -0.00408492       0.15166445
Si       5.75938473       1.91979491      14.71500000  F        4       0.00000000      -0.03903679       0.14166610
Si       9.59897455       1.91979491      14.71500000  F        4      -0.00932575      -0.00408492       0.15166445
Si       1.91979491       5.75938473      14.71500000  F        4       0.00932575       0.00408492       0.15166445
Si       5.75938473       5.75938473      14.71500000  F        4      -0.00000000       0.03903679       0.14166610
Si       9.59897455       5.75938473      14.71500000  F        4      -0.00932575       0.00408492       0.15166445
Si       0.00000000       1.91979491      16.07250000  F        3       0.00000000       0.02314393      -0.14006000
Si       3.83958982       1.91979491      16.07250000  F        3       0.02319401       0.02487475      -0.12348779
Si       7.67917964       1.91979491      16.07250000  F        3      -0.02319401       0.02487475      -0.12348779
Si       0.00000000       5.75938473      16.07250000  F        3      -0.00000000      -0.02314393      -0.14006000
Si       3.83958982       5.75938473      16.07250000  F        3       0.02319401      -0.02487475      -0.12348779
Si       7.67917964       5.75938473      16.07250000  F        3      -0.02319401      -0.02487475      -0.12348779
Si       0.00000000       0.00000000      17.43000000  F        2      -0.00000000      -0.00000000       0.49453948
Si       3.83958982       0.00000000      17.43000000  F        2       0.03071653       0.00000000       0.49165630
Si       7.67917964       0.00000000      17.43000000  F        2      -0.03071653       0.00000000       0.49165630
Si       0.00000000       3.83958982      17.43000000  F        2      -0.00000000       0.00000000       0.49755054
Si       3.83958982       3.83958982      17.43000000  F        2      -0.43949971       0.00000000       0.39152749
Si       7.67917964       3.83958982      17.43000000  F        2       0.43949971      -0.00000000       0.39152749
Si       1.91979491       0.00000000      18.78750000  F        1       0.01213692       0.00000000      -0.23772137
Si       5.75938473       0.00000000      18.78750000  F        1      -0.00000000      -0.00000000      -0.25378119
Si       9.59897455       0.00000000      18.78750000  F        1      -0.01213692      -0.00000000      -0.23772137
Si       1.91979491       3.83958982      18.78750000  F        1      -0.06937204      -0.00000000      -0.18592531
Si       5.75938473       3.83958982      18.78750000  F        1      -0.00000000      -0.00000000       0.43012710
Si       9.59897455       3.83958982      18.78750000  F        1       0.06937204       0.00000000      -0.18592531
F        5.75938473       3.83958982      20.68750000  F        0       0.00000000       0.00000000     -10.49436669
F        5.75938473       3.83958982      22.16807573  F        0      -0.00000000       0.00000000       9.90469557
38
Lattice="11.518769465528859 0.0 0.0 0.0 7.679179643685906 0.0 0.0 0.0 30.7875" Properties=species:S:1:pos:R:3:move_mask:L:1:tags:I:1:forces:R:3 surface=Si100 species=F2 height_A=1.6 substrate_atoms=36 calculation_kind="Rigid approach energy evaluation; not NEB or TS" energy=-184.3631837767315 pbc="T T F"
Si       0.00000000       0.00000000      12.00000000  F        6      -0.00000000      -0.00000000       0.25390949
Si       3.83958982       0.00000000      12.00000000  F        6      -0.00305099       0.00000000       0.24979130
Si       7.67917964       0.00000000      12.00000000  F        6       0.00305099       0.00000000       0.24979130
Si       0.00000000       3.83958982      12.00000000  F        6      -0.00000000       0.00000000       0.24610332
Si       3.83958982       3.83958982      12.00000000  F        6      -0.00293921       0.00000000       0.24186228
Si       7.67917964       3.83958982      12.00000000  F        6       0.00293921       0.00000000       0.24186228
Si       1.91979491       0.00000000      13.35750000  F        5       0.00330543      -0.00000000      -0.52743961
Si       5.75938473       0.00000000      13.35750000  F        5      -0.00000000      -0.00000000      -0.53464999
Si       9.59897455       0.00000000      13.35750000  F        5      -0.00330543       0.00000000      -0.52743961
Si       1.91979491       3.83958982      13.35750000  F        5       0.01793504      -0.00000000      -0.49639566
Si       5.75938473       3.83958982      13.35750000  F        5       0.00000000      -0.00000000      -0.48209633
Si       9.59897455       3.83958982      13.35750000  F        5      -0.01793504       0.00000000      -0.49639566
Si       1.91979491       1.91979491      14.71500000  F        4       0.00756394      -0.00489588       0.14989782
Si       5.75938473       1.91979491      14.71500000  F        4       0.00000000      -0.03875403       0.12624829
Si       9.59897455       1.91979491      14.71500000  F        4      -0.00756394      -0.00489588       0.14989782
Si       1.91979491       5.75938473      14.71500000  F        4       0.00756394       0.00489588       0.14989782
Si       5.75938473       5.75938473      14.71500000  F        4       0.00000000       0.03875403       0.12624829
Si       9.59897455       5.75938473      14.71500000  F        4      -0.00756394       0.00489588       0.14989782
Si       0.00000000       1.91979491      16.07250000  F        3      -0.00000000       0.03124092      -0.13858645
Si       3.83958982       1.91979491      16.07250000  F        3       0.03767047       0.03760954      -0.11718802
Si       7.67917964       1.91979491      16.07250000  F        3      -0.03767047       0.03760954      -0.11718802
Si       0.00000000       5.75938473      16.07250000  F        3      -0.00000000      -0.03124092      -0.13858645
Si       3.83958982       5.75938473      16.07250000  F        3       0.03767047      -0.03760954      -0.11718802
Si       7.67917964       5.75938473      16.07250000  F        3      -0.03767047      -0.03760954      -0.11718802
Si       0.00000000       0.00000000      17.43000000  F        2       0.00000000      -0.00000000       0.47875919
Si       3.83958982       0.00000000      17.43000000  F        2      -0.04992950      -0.00000000       0.46829384
Si       7.67917964       0.00000000      17.43000000  F        2       0.04992950       0.00000000       0.46829384
Si       0.00000000       3.83958982      17.43000000  F        2      -0.00000000      -0.00000000       0.50961326
Si       3.83958982       3.83958982      17.43000000  F        2      -0.48762026       0.00000000       0.21541593
Si       7.67917964       3.83958982      17.43000000  F        2       0.48762026      -0.00000000       0.21541593
Si       1.91979491       0.00000000      18.78750000  F        1       0.01753775      -0.00000000      -0.23050108
Si       5.75938473       0.00000000      18.78750000  F        1      -0.00000000      -0.00000000      -0.12984066
Si       9.59897455       0.00000000      18.78750000  F        1      -0.01753775      -0.00000000      -0.23050108
Si       1.91979491       3.83958982      18.78750000  F        1      -0.10420728       0.00000000      -0.14003126
Si       5.75938473       3.83958982      18.78750000  F        1       0.00000000      -0.00000000      -3.48682326
Si       9.59897455       3.83958982      18.78750000  F        1       0.10420728       0.00000000      -0.14003126
F        5.75938473       3.83958982      20.38750000  F        0      -0.00000000      -0.00000000      -7.91262757
F        5.75938473       3.83958982      21.86807573  F        0       0.00000000       0.00000000      11.38949819
38
Lattice="11.518769465528859 0.0 0.0 0.0 7.679179643685906 0.0 0.0 0.0 30.7875" Properties=species:S:1:pos:R:3:move_mask:L:1:tags:I:1:forces:R:3 surface=Si100 species=F2 height_A=1.3 substrate_atoms=36 calculation_kind="Rigid approach energy evaluation; not NEB or TS" energy=-179.65117382733345 pbc="T T F"
Si       0.00000000       0.00000000      12.00000000  F        6      -0.00000000      -0.00000000       0.25484716
Si       3.83958982       0.00000000      12.00000000  F        6      -0.00471385      -0.00000000       0.25225615
Si       7.67917964       0.00000000      12.00000000  F        6       0.00471385      -0.00000000       0.25225615
Si       0.00000000       3.83958982      12.00000000  F        6       0.00000000      -0.00000000       0.24588826
Si       3.83958982       3.83958982      12.00000000  F        6      -0.00531840       0.00000000       0.24129664
Si       7.67917964       3.83958982      12.00000000  F        6       0.00531840       0.00000000       0.24129664
Si       1.91979491       0.00000000      13.35750000  F        5       0.00329153       0.00000000      -0.52615912
Si       5.75938473       0.00000000      13.35750000  F        5      -0.00000000       0.00000000      -0.54850322
Si       9.59897455       0.00000000      13.35750000  F        5      -0.00329153       0.00000000      -0.52615912
Si       1.91979491       3.83958982      13.35750000  F        5       0.01652160       0.00000000      -0.50214940
Si       5.75938473       3.83958982      13.35750000  F        5      -0.00000000      -0.00000000      -0.50237769
Si       9.59897455       3.83958982      13.35750000  F        5      -0.01652160      -0.00000000      -0.50214940
Si       1.91979491       1.91979491      14.71500000  F        4      -0.00564515      -0.00482772       0.14616877
Si       5.75938473       1.91979491      14.71500000  F        4       0.00000000      -0.07900874       0.04989000
Si       9.59897455       1.91979491      14.71500000  F        4       0.00564515      -0.00482772       0.14616877
Si       1.91979491       5.75938473      14.71500000  F        4      -0.00564515       0.00482772       0.14616877
Si       5.75938473       5.75938473      14.71500000  F        4      -0.00000000       0.07900874       0.04989000
Si       9.59897455       5.75938473      14.71500000  F        4       0.00564515       0.00482772       0.14616877
Si       0.00000000       1.91979491      16.07250000  F        3      -0.00000000       0.02259489      -0.14345535
Si       3.83958982       1.91979491      16.07250000  F        3      -0.02439700      -0.06627978      -0.23181613
Si       7.67917964       1.91979491      16.07250000  F        3       0.02439700      -0.06627978      -0.23181613
Si       0.00000000       5.75938473      16.07250000  F        3       0.00000000      -0.02259489      -0.14345535
Si       3.83958982       5.75938473      16.07250000  F        3      -0.02439700       0.06627978      -0.23181613
Si       7.67917964       5.75938473      16.07250000  F        3       0.02439700       0.06627978      -0.23181613
Si       0.00000000       0.00000000      17.43000000  F        2      -0.00000000      -0.00000000       0.45643620
Si       3.83958982       0.00000000      17.43000000  F        2      -0.07843456      -0.00000000       0.50597745
Si       7.67917964       0.00000000      17.43000000  F        2       0.07843456       0.00000000       0.50597745
Si       0.00000000       3.83958982      17.43000000  F        2      -0.00000000       0.00000000       0.49530421
Si       3.83958982       3.83958982      17.43000000  F        2      -0.69717283      -0.00000000      -0.33550472
Si       7.67917964       3.83958982      17.43000000  F        2       0.69717283       0.00000000      -0.33550472
Si       1.91979491       0.00000000      18.78750000  F        1       0.01676490       0.00000000      -0.20572487
Si       5.75938473       0.00000000      18.78750000  F        1      -0.00000000      -0.00000000       0.10965378
Si       9.59897455       0.00000000      18.78750000  F        1      -0.01676490      -0.00000000      -0.20572487
Si       1.91979491       3.83958982      18.78750000  F        1      -0.26081204       0.00000000      -0.01901637
Si       5.75938473       3.83958982      18.78750000  F        1       0.00000000       0.00000000     -29.74456692
Si       9.59897455       3.83958982      18.78750000  F        1       0.26081204       0.00000000      -0.01901637
F        5.75938473       3.83958982      20.08750000  F        0      -0.00000000       0.00000000      14.10127821
F        5.75938473       3.83958982      21.56807573  F        0       0.00000000       0.00000000      16.83980864
