28
Lattice="7.6044 0.0 0.0 -3.802199999999998 6.585603580538386 0.0 0.0 -0.0 28.35945" Properties=species:S:1:pos:R:3:move_mask:L:1:spacegroup_kinds:I:1:tags:I:1:forces:R:3 spacegroup="P 63/m" unit_cell=conventional occupancy="_JSON {\"0\": {\"Si\": 1.0}, \"1\": {\"N\": 1.0}, \"2\": {\"N\": 1.0}}" energy=-210.33328843233238 pbc="T T F"
Si       5.18010587       1.14956320      12.00000000  F        0        2       1.71433257       1.23128057       1.44813123
Si      -1.37790587       5.43604038      13.45315000  F        0        2      -0.07773089       0.46666682      -1.50583478
Si       4.01879613       3.91132168      12.00000000  F        0        2      -1.92360808       0.86894036       1.44804711
Si      -0.21659613       2.67428190      13.45315000  F        0        2      -0.36507877      -0.30057371      -1.50589254
Si       2.20769800       1.52471870      12.00000000  F        0        2       0.20862335      -2.10064850       1.44820179
Si       1.59450200       5.06088488      13.45315000  F        0        2       0.44364014      -0.16560437      -1.50586542
N       -1.02370433       2.17482973      12.00000000  F        1        2      -0.59853549      -0.65572339       0.11065544
N        4.82590433       4.41077385      13.45315000  F        1        2       0.47556813      -0.04438601      -0.36872699
N        2.43059437       4.61163476      12.00000000  F        1        2       0.86723752      -0.19036310       0.11060084
N        1.37160563       1.97396882      13.45315000  F        1        2      -0.19953945       0.43394852      -0.36878823
N       -1.40689004       6.38474267      12.00000000  F        1        2      -0.26879770       0.84608230       0.11061521
N        5.20909004       0.20086091      13.45315000  F        1        2      -0.27604702      -0.38955900      -0.36876148
N        3.80216198       2.19517924      12.00000000  F        2        2       0.00086470       0.00049411      -1.73788822
N        0.00003802       4.39042434      13.45315000  F        2        2      -0.00108137      -0.00062939       0.57463032
Si       5.18010587       1.14956320      14.90630000  F        0        1       0.07773089      -0.46666682       1.50583478
Si      -1.37790587       5.43604038      16.35945000  F        0        1      -1.71433257      -1.23128057      -1.44813123
Si       4.01879613       3.91132168      14.90630000  F        0        1       0.36507877       0.30057371       1.50589254
Si      -0.21659613       2.67428190      16.35945000  F        0        1       1.92360808      -0.86894036      -1.44804711
Si       2.20769800       1.52471870      14.90630000  F        0        1      -0.44364014       0.16560437       1.50586542
Si       1.59450200       5.06088488      16.35945000  F        0        1      -0.20862335       2.10064850      -1.44820179
N       -1.02370433       2.17482973      14.90630000  F        1        1      -0.47556813       0.04438601       0.36872699
N        4.82590433       4.41077385      16.35945000  F        1        1       0.59853549       0.65572339      -0.11065544
N        2.43059437       4.61163476      14.90630000  F        1        1       0.19953945      -0.43394852       0.36878823
N        1.37160563       1.97396882      16.35945000  F        1        1      -0.86723752       0.19036310      -0.11060084
N       -1.40689004       6.38474267      14.90630000  F        1        1       0.27604702       0.38955900       0.36876148
N        5.20909004       0.20086091      16.35945000  F        1        1       0.26879770      -0.84608230      -0.11061521
N        3.80216198       2.19517924      14.90630000  F        2        1       0.00108137       0.00062939      -0.57463032
N        0.00003802       4.39042434      16.35945000  F        2        1      -0.00086470      -0.00049411       1.73788822
