38
Lattice="11.518769465528859 0.0 0.0 0.0 7.679179643685906 0.0 0.0 0.0 30.7875" Properties=species:S:1:pos:R:3:move_mask:L:1:tags:I:1:forces:R:3 energy=-186.38690370773188 pbc="T T F"
Si       0.00000000       0.00000000      12.00000000  F        6       0.00214179       0.00000001       0.25883218
Si       3.83958982       0.00000000      12.00000000  F        6       0.00236025       0.00000001       0.24865279
Si       7.67917964       0.00000000      12.00000000  F        6      -0.00471410       0.00000001       0.25668756
Si       0.00000000       3.83958982      12.00000000  F        6       0.00179311      -0.00000001       0.25691265
Si       3.83958982       3.83958982      12.00000000  F        6       0.00385278      -0.00000000       0.26696974
Si       7.67917964       3.83958982      12.00000000  F        6      -0.00491550      -0.00000000       0.25816220
Si       1.91979491       0.00000000      13.35750000  F        5      -0.00632111      -0.00000003      -0.53362037
Si       5.75938473       0.00000000      13.35750000  F        5       0.01109008      -0.00000003      -0.53290390
Si       9.59897455       0.00000000      13.35750000  F        5      -0.00359678      -0.00000003      -0.52295590
Si       1.91979491       3.83958982      13.35750000  F        5      -0.01566768       0.00000000      -0.54082499
Si       5.75938473       3.83958982      13.35750000  F        5       0.03996928      -0.00000001      -0.57046453
Si       9.59897455       3.83958982      13.35750000  F        5      -0.00056610       0.00000001      -0.52267810
Si       1.91979491       1.91979491      14.71500000  F        4      -0.00458783      -0.03836191       0.16633246
Si       5.75938473       1.91979491      14.71500000  F        4      -0.00327489      -0.08870684       0.12467648
Si       9.59897455       1.91979491      14.71500000  F        4       0.00228071      -0.02555609       0.13017346
Si       1.91979491       5.75938473      14.71500000  F        4      -0.00458780       0.03836195       0.16633249
Si       5.75938473       5.75938473      14.71500000  F        4      -0.00327490       0.08870691       0.12467641
Si       9.59897455       5.75938473      14.71500000  F        4       0.00228067       0.02555612       0.13017351
Si       0.00000000       1.91979491      16.07250000  F        3       0.00217211       0.10360417      -0.10030395
Si       3.83958982       1.91979491      16.07250000  F        3       0.02673040      -0.09980433      -0.10063698
Si       7.67917964       1.91979491      16.07250000  F        3      -0.00233783      -0.00699698      -0.16992151
Si       0.00000000       5.75938473      16.07250000  F        3       0.00217210      -0.10360416      -0.10030397
Si       3.83958982       5.75938473      16.07250000  F        3       0.02673061       0.09980465      -0.10063703
Si       7.67917964       5.75938473      16.07250000  F        3      -0.00233807       0.00699699      -0.16992131
Si       0.00000000       0.00000000      17.43000000  F        2       0.00775723      -0.00000002       0.40634589
Si       3.83958982       0.00000000      17.43000000  F        2      -0.09596920      -0.00000029       0.32371251
Si       7.67917964       0.00000000      17.43000000  F        2       0.04782773      -0.00000034       0.40180161
Si       0.00000000       3.83958982      17.43000000  F        2      -0.23426379      -0.00000001       0.06303211
Si       3.88212463       3.83958985      17.39151030  T        2      -0.00284984       0.00000009      -0.00748559
Si       7.67917964       3.83958982      17.43000000  F        2       0.99893212       0.00000037       0.19008907
Si       1.91979491       0.00000000      18.78750000  F        1       0.00840391       0.00000003      -0.09122752
Si       5.75938473       0.00000000      18.78750000  F        1       0.06426460       0.00000165      -0.00213177
Si       9.59897455       0.00000000      18.78750000  F        1       0.00148273       0.00000002      -0.24399802
Si       1.91979491       3.83958982      18.78750000  F        1      -1.04844832       0.00000009       0.85931790
Si       5.79280673       3.83958909      18.68979033  T        1       0.00364770      -0.00000258       0.00209281
Si       9.59897455       3.83958982      18.78750000  F        1       0.18186441       0.00000001      -0.32933250
Cl       6.25639352       3.83958999      20.70957497  T        0      -0.00024125       0.00000059      -0.00101319
H        3.49570185       3.83958980      18.86283203  T        0       0.00020068      -0.00000003       0.00538732
