38
Lattice="11.518769465528859 0.0 0.0 0.0 7.679179643685906 0.0 0.0 0.0 30.7875" Properties=species:S:1:pos:R:3:move_mask:L:1:tags:I:1:forces:R:3 surface=Si100 species=HCl site=hollow orientation=upright height_A=6.5 substrate_atoms=36 calculation_kind="Rigid evaluated approach scan; not NEB" energy=-186.32958991594327 pbc="T T F"
Si       0.00000000       0.00000000      12.00000000  F        6      -0.00000004       0.00000000       0.24903484
Si       3.83958982       0.00000000      12.00000000  F        6      -0.00000000       0.00000000       0.24903482
Si       7.67917964       0.00000000      12.00000000  F        6       0.00000000       0.00000000       0.24903482
Si       0.00000000       3.83958982      12.00000000  F        6      -0.00000004      -0.00000000       0.24903484
Si       3.83958982       3.83958982      12.00000000  F        6      -0.00000000      -0.00000000       0.24903482
Si       7.67917964       3.83958982      12.00000000  F        6       0.00000000      -0.00000000       0.24903482
Si       1.91979491       0.00000000      13.35750000  F        5       0.00000000      -0.00000002      -0.52822352
Si       5.75938473       0.00000000      13.35750000  F        5       0.00000000      -0.00000002      -0.52822353
Si       9.59897455       0.00000000      13.35750000  F        5       0.00000003      -0.00000002      -0.52822354
Si       1.91979491       3.83958982      13.35750000  F        5       0.00000000       0.00000000      -0.52822354
Si       5.75938473       3.83958982      13.35750000  F        5       0.00000000       0.00000000      -0.52822354
Si       9.59897455       3.83958982      13.35750000  F        5       0.00000003       0.00000000      -0.52822356
Si       1.91979491       1.91979491      14.71500000  F        4      -0.00000000       0.00000000       0.14537709
Si       5.75938473       1.91979491      14.71500000  F        4       0.00000000       0.00000000       0.14537709
Si       9.59897455       1.91979491      14.71500000  F        4       0.00000004       0.00000000       0.14537711
Si       1.91979491       5.75938473      14.71500000  F        4      -0.00000000       0.00000002       0.14537707
Si       5.75938473       5.75938473      14.71500000  F        4       0.00000000       0.00000002       0.14537707
Si       9.59897455       5.75938473      14.71500000  F        4       0.00000004       0.00000002       0.14537709
Si       0.00000000       1.91979491      16.07250000  F        3      -0.00000004       0.00000000      -0.14537711
Si       3.83958982       1.91979491      16.07250000  F        3      -0.00000000       0.00000000      -0.14537709
Si       7.67917964       1.91979491      16.07250000  F        3       0.00000000       0.00000000      -0.14537709
Si       0.00000000       5.75938473      16.07250000  F        3      -0.00000004       0.00000002      -0.14537709
Si       3.83958982       5.75938473      16.07250000  F        3      -0.00000000       0.00000002      -0.14537707
Si       7.67917964       5.75938473      16.07250000  F        3       0.00000000       0.00000002      -0.14537707
Si       0.00000000       0.00000000      17.43000000  F        2      -0.00000003      -0.00000002       0.52822354
Si       3.83958982       0.00000000      17.43000000  F        2      -0.00000000      -0.00000002       0.52822353
Si       7.67917964       0.00000000      17.43000000  F        2      -0.00000000      -0.00000002       0.52822352
Si       0.00000000       3.83958982      17.43000000  F        2      -0.00000003       0.00000000       0.52822356
Si       3.83958982       3.83958982      17.43000000  F        2      -0.00000000       0.00000000       0.52822354
Si       7.67917964       3.83958982      17.43000000  F        2      -0.00000000       0.00000000       0.52822354
Si       1.91979491       0.00000000      18.78750000  F        1      -0.00000000       0.00000000      -0.24903482
Si       5.75938473       0.00000000      18.78750000  F        1       0.00000000       0.00000000      -0.24903482
Si       9.59897455       0.00000000      18.78750000  F        1       0.00000004       0.00000000      -0.24903484
Si       1.91979491       3.83958982      18.78750000  F        1      -0.00000000      -0.00000000      -0.24903482
Si       5.75938473       3.83958982      18.78750000  F        1       0.00000000      -0.00000000      -0.24903482
Si       9.59897455       3.83958982      18.78750000  F        1       0.00000004      -0.00000000      -0.24903484
Cl       7.67917964       1.91979491      25.28750000  T        0       0.00000000       0.00000000      -0.00729331
H        7.67917964       1.91979491      26.58928926  T        0       0.00000000       0.00000000       0.00729331
38
Lattice="11.518769465528859 0.0 0.0 0.0 7.679179643685906 0.0 0.0 0.0 30.7875" Properties=species:S:1:pos:R:3:move_mask:L:1:tags:I:1:forces:R:3 surface=Si100 species=HCl site=hollow orientation=upright height_A=5.0 substrate_atoms=36 calculation_kind="Rigid evaluated approach scan; not NEB" energy=-186.32958991594327 pbc="T T F"
Si       0.00000000       0.00000000      12.00000000  F        6      -0.00000004       0.00000000       0.24903484
Si       3.83958982       0.00000000      12.00000000  F        6      -0.00000000       0.00000000       0.24903482
Si       7.67917964       0.00000000      12.00000000  F        6       0.00000000       0.00000000       0.24903482
Si       0.00000000       3.83958982      12.00000000  F        6      -0.00000004      -0.00000000       0.24903484
Si       3.83958982       3.83958982      12.00000000  F        6      -0.00000000      -0.00000000       0.24903482
Si       7.67917964       3.83958982      12.00000000  F        6       0.00000000      -0.00000000       0.24903482
Si       1.91979491       0.00000000      13.35750000  F        5       0.00000000      -0.00000002      -0.52822352
Si       5.75938473       0.00000000      13.35750000  F        5       0.00000000      -0.00000002      -0.52822353
Si       9.59897455       0.00000000      13.35750000  F        5       0.00000003      -0.00000002      -0.52822354
Si       1.91979491       3.83958982      13.35750000  F        5       0.00000000       0.00000000      -0.52822354
Si       5.75938473       3.83958982      13.35750000  F        5       0.00000000       0.00000000      -0.52822354
Si       9.59897455       3.83958982      13.35750000  F        5       0.00000003       0.00000000      -0.52822356
Si       1.91979491       1.91979491      14.71500000  F        4      -0.00000000       0.00000000       0.14537709
Si       5.75938473       1.91979491      14.71500000  F        4       0.00000000       0.00000000       0.14537709
Si       9.59897455       1.91979491      14.71500000  F        4       0.00000004       0.00000000       0.14537711
Si       1.91979491       5.75938473      14.71500000  F        4      -0.00000000       0.00000002       0.14537707
Si       5.75938473       5.75938473      14.71500000  F        4       0.00000000       0.00000002       0.14537707
Si       9.59897455       5.75938473      14.71500000  F        4       0.00000004       0.00000002       0.14537709
Si       0.00000000       1.91979491      16.07250000  F        3      -0.00000004       0.00000000      -0.14537711
Si       3.83958982       1.91979491      16.07250000  F        3      -0.00000000       0.00000000      -0.14537709
Si       7.67917964       1.91979491      16.07250000  F        3       0.00000000       0.00000000      -0.14537709
Si       0.00000000       5.75938473      16.07250000  F        3      -0.00000004       0.00000002      -0.14537709
Si       3.83958982       5.75938473      16.07250000  F        3      -0.00000000       0.00000002      -0.14537707
Si       7.67917964       5.75938473      16.07250000  F        3       0.00000000       0.00000002      -0.14537707
Si       0.00000000       0.00000000      17.43000000  F        2      -0.00000003      -0.00000002       0.52822354
Si       3.83958982       0.00000000      17.43000000  F        2      -0.00000000      -0.00000002       0.52822353
Si       7.67917964       0.00000000      17.43000000  F        2      -0.00000000      -0.00000002       0.52822352
Si       0.00000000       3.83958982      17.43000000  F        2      -0.00000003       0.00000000       0.52822356
Si       3.83958982       3.83958982      17.43000000  F        2      -0.00000000       0.00000000       0.52822354
Si       7.67917964       3.83958982      17.43000000  F        2      -0.00000000       0.00000000       0.52822354
Si       1.91979491       0.00000000      18.78750000  F        1      -0.00000000       0.00000000      -0.24903482
Si       5.75938473       0.00000000      18.78750000  F        1       0.00000000       0.00000000      -0.24903482
Si       9.59897455       0.00000000      18.78750000  F        1       0.00000004       0.00000000      -0.24903484
Si       1.91979491       3.83958982      18.78750000  F        1      -0.00000000      -0.00000000      -0.24903482
Si       5.75938473       3.83958982      18.78750000  F        1       0.00000000      -0.00000000      -0.24903482
Si       9.59897455       3.83958982      18.78750000  F        1       0.00000004      -0.00000000      -0.24903484
Cl       7.67917964       1.91979491      23.78750000  T        0       0.00000000       0.00000000      -0.00729331
H        7.67917964       1.91979491      25.08928926  T        0       0.00000000       0.00000000       0.00729331
38
Lattice="11.518769465528859 0.0 0.0 0.0 7.679179643685906 0.0 0.0 0.0 30.7875" Properties=species:S:1:pos:R:3:move_mask:L:1:tags:I:1:forces:R:3 surface=Si100 species=HCl site=hollow orientation=upright height_A=4.0 substrate_atoms=36 calculation_kind="Rigid evaluated approach scan; not NEB" energy=-186.33568520608875 pbc="T T F"
Si       0.00000000       0.00000000      12.00000000  F        6      -0.00002722       0.00000506       0.24898957
Si       3.83958982       0.00000000      12.00000000  F        6       0.00002718       0.00000506       0.24898955
Si       7.67917964       0.00000000      12.00000000  F        6       0.00000000       0.00000304       0.24901671
Si       0.00000000       3.83958982      12.00000000  F        6      -0.00002722      -0.00000506       0.24898957
Si       3.83958982       3.83958982      12.00000000  F        6       0.00002718      -0.00000506       0.24898955
Si       7.67917964       3.83958982      12.00000000  F        6       0.00000000      -0.00000304       0.24901671
Si       1.91979491       0.00000000      13.35750000  F        5       0.00000000       0.00001703      -0.52820566
Si       5.75938473       0.00000000      13.35750000  F        5       0.00003747      -0.00000604      -0.52801961
Si       9.59897455       0.00000000      13.35750000  F        5      -0.00003743      -0.00000604      -0.52801963
Si       1.91979491       3.83958982      13.35750000  F        5       0.00000000      -0.00001705      -0.52820567
Si       5.75938473       3.83958982      13.35750000  F        5       0.00003747       0.00000602      -0.52801962
Si       9.59897455       3.83958982      13.35750000  F        5      -0.00003743       0.00000602      -0.52801964
Si       1.91979491       1.91979491      14.71500000  F        4      -0.00000000       0.00000000       0.14545020
Si       5.75938473       1.91979491      14.71500000  F        4       0.00013235       0.00000000       0.14571535
Si       9.59897455       1.91979491      14.71500000  F        4      -0.00013231       0.00000000       0.14571537
Si       1.91979491       5.75938473      14.71500000  F        4      -0.00000000       0.00000002       0.14555416
Si       5.75938473       5.75938473      14.71500000  F        4       0.00015809       0.00000002       0.14588916
Si       9.59897455       5.75938473      14.71500000  F        4      -0.00015805       0.00000002       0.14588918
Si       0.00000000       1.91979491      16.07250000  F        3      -0.00014340       0.00000000      -0.14512707
Si       3.83958982       1.91979491      16.07250000  F        3       0.00014336       0.00000000      -0.14512705
Si       7.67917964       1.91979491      16.07250000  F        3       0.00000000       0.00000000      -0.14604651
Si       0.00000000       5.75938473      16.07250000  F        3       0.00014679       0.00000002      -0.14539258
Si       3.83958982       5.75938473      16.07250000  F        3      -0.00014683       0.00000002      -0.14539256
Si       7.67917964       5.75938473      16.07250000  F        3       0.00000000       0.00000002      -0.14452770
Si       0.00000000       0.00000000      17.43000000  F        2       0.00095704       0.00028128       0.52841265
Si       3.83958982       0.00000000      17.43000000  F        2      -0.00095708       0.00028128       0.52841263
Si       7.67917964       0.00000000      17.43000000  F        2      -0.00000000      -0.00136845       0.52702607
Si       0.00000000       3.83958982      17.43000000  F        2       0.00095704      -0.00028130       0.52841266
Si       3.83958982       3.83958982      17.43000000  F        2      -0.00095708      -0.00028130       0.52841264
Si       7.67917964       3.83958982      17.43000000  F        2      -0.00000000       0.00136843       0.52702609
Si       1.91979491       0.00000000      18.78750000  F        1      -0.00000000      -0.00005246      -0.24933141
Si       5.75938473       0.00000000      18.78750000  F        1       0.01163473       0.01028287      -0.22843037
Si       9.59897455       0.00000000      18.78750000  F        1      -0.01163469       0.01028287      -0.22843039
Si       1.91979491       3.83958982      18.78750000  F        1      -0.00000000       0.00005246      -0.24933141
Si       5.75938473       3.83958982      18.78750000  F        1       0.01163473      -0.01028287      -0.22843037
Si       9.59897455       3.83958982      18.78750000  F        1      -0.01163469      -0.01028287      -0.22843039
Cl       7.67917964       1.91979491      22.78750000  T        0       0.00000000       0.00000000      -0.10651714
H        7.67917964       1.91979491      24.08928926  T        0      -0.00000000      -0.00000000       0.02309695
38
Lattice="11.518769465528859 0.0 0.0 0.0 7.679179643685906 0.0 0.0 0.0 30.7875" Properties=species:S:1:pos:R:3:move_mask:L:1:tags:I:1:forces:R:3 surface=Si100 species=HCl site=hollow orientation=upright height_A=3.25 substrate_atoms=36 calculation_kind="Rigid evaluated approach scan; not NEB" energy=-186.4885074302988 pbc="T T F"
Si       0.00000000       0.00000000      12.00000000  F        6      -0.00079391       0.00019041       0.24807284
Si       3.83958982       0.00000000      12.00000000  F        6       0.00079388       0.00019041       0.24807282
Si       7.67917964       0.00000000      12.00000000  F        6       0.00000000       0.00016496       0.24892937
Si       0.00000000       3.83958982      12.00000000  F        6      -0.00079391      -0.00019041       0.24807284
Si       3.83958982       3.83958982      12.00000000  F        6       0.00079388      -0.00019041       0.24807282
Si       7.67917964       3.83958982      12.00000000  F        6       0.00000000      -0.00016496       0.24892937
Si       1.91979491       0.00000000      13.35750000  F        5       0.00000000       0.00028879      -0.52727063
Si       5.75938473       0.00000000      13.35750000  F        5       0.00085769      -0.00060747      -0.52220014
Si       9.59897455       0.00000000      13.35750000  F        5      -0.00085766      -0.00060747      -0.52220016
Si       1.91979491       3.83958982      13.35750000  F        5       0.00000000      -0.00028881      -0.52727064
Si       5.75938473       3.83958982      13.35750000  F        5       0.00085769       0.00060744      -0.52220015
Si       9.59897455       3.83958982      13.35750000  F        5      -0.00085766       0.00060744      -0.52220017
Si       1.91979491       1.91979491      14.71500000  F        4      -0.00000000      -0.00000000       0.14677114
Si       5.75938473       1.91979491      14.71500000  F        4       0.00168447      -0.00000000       0.15371276
Si       9.59897455       1.91979491      14.71500000  F        4      -0.00168443      -0.00000000       0.15371278
Si       1.91979491       5.75938473      14.71500000  F        4      -0.00000000       0.00000002       0.15095828
Si       5.75938473       5.75938473      14.71500000  F        4       0.00196384       0.00000002       0.16956718
Si       9.59897455       5.75938473      14.71500000  F        4      -0.00196380       0.00000002       0.16956720
Si       0.00000000       1.91979491      16.07250000  F        3      -0.00684848       0.00000000      -0.14118865
Si       3.83958982       1.91979491      16.07250000  F        3       0.00684844       0.00000000      -0.14118863
Si       7.67917964       1.91979491      16.07250000  F        3       0.00000000       0.00000000      -0.18255778
Si       0.00000000       5.75938473      16.07250000  F        3      -0.01402791       0.00000002      -0.13298852
Si       3.83958982       5.75938473      16.07250000  F        3       0.01402787       0.00000002      -0.13298850
Si       7.67917964       5.75938473      16.07250000  F        3       0.00000000       0.00000002      -0.13457987
Si       0.00000000       0.00000000      17.43000000  F        2       0.03376559       0.00161300       0.52483255
Si       3.83958982       0.00000000      17.43000000  F        2      -0.03376563       0.00161300       0.52483253
Si       7.67917964       0.00000000      17.43000000  F        2      -0.00000000      -0.04523728       0.48041548
Si       0.00000000       3.83958982      17.43000000  F        2       0.03376559      -0.00161302       0.52483256
Si       3.83958982       3.83958982      17.43000000  F        2      -0.03376563      -0.00161302       0.52483254
Si       7.67917964       3.83958982      17.43000000  F        2      -0.00000000       0.04523726       0.48041550
Si       1.91979491       0.00000000      18.78750000  F        1      -0.00000000      -0.00162611      -0.25791213
Si       5.75938473       0.00000000      18.78750000  F        1       0.07579931       0.04005454      -0.16347250
Si       9.59897455       0.00000000      18.78750000  F        1      -0.07579927       0.04005454      -0.16347252
Si       1.91979491       3.83958982      18.78750000  F        1      -0.00000000       0.00162611      -0.25791213
Si       5.75938473       3.83958982      18.78750000  F        1       0.07579931      -0.04005454      -0.16347250
Si       9.59897455       3.83958982      18.78750000  F        1      -0.07579927      -0.04005454      -0.16347252
Cl       7.67917964       1.91979491      22.03750000  T        0       0.00000000       0.00000000      -0.68025446
H        7.67917964       1.91979491      23.33928926  T        0      -0.00000000      -0.00000000       0.36420206
38
Lattice="11.518769465528859 0.0 0.0 0.0 7.679179643685906 0.0 0.0 0.0 30.7875" Properties=species:S:1:pos:R:3:move_mask:L:1:tags:I:1:forces:R:3 surface=Si100 species=HCl site=hollow orientation=upright height_A=2.75 substrate_atoms=36 calculation_kind="Rigid evaluated approach scan; not NEB" energy=-186.6399989012789 pbc="T T F"
Si       0.00000000       0.00000000      12.00000000  F        6      -0.00086587       0.00049117       0.24741600
Si       3.83958982       0.00000000      12.00000000  F        6       0.00086583       0.00049117       0.24741598
Si       7.67917964       0.00000000      12.00000000  F        6       0.00000000       0.00063331       0.25046103
Si       0.00000000       3.83958982      12.00000000  F        6      -0.00086587      -0.00049117       0.24741600
Si       3.83958982       3.83958982      12.00000000  F        6       0.00086583      -0.00049117       0.24741598
Si       7.67917964       3.83958982      12.00000000  F        6       0.00000000      -0.00063331       0.25046103
Si       1.91979491       0.00000000      13.35750000  F        5       0.00000000       0.00014370      -0.52660303
Si       5.75938473       0.00000000      13.35750000  F        5       0.00064746      -0.00173744      -0.52455663
Si       9.59897455       0.00000000      13.35750000  F        5      -0.00064743      -0.00173744      -0.52455665
Si       1.91979491       3.83958982      13.35750000  F        5       0.00000000      -0.00014372      -0.52660305
Si       5.75938473       3.83958982      13.35750000  F        5       0.00064746       0.00173742      -0.52455665
Si       9.59897455       3.83958982      13.35750000  F        5      -0.00064743       0.00173742      -0.52455667
Si       1.91979491       1.91979491      14.71500000  F        4      -0.00000000       0.00000000       0.14771350
Si       5.75938473       1.91979491      14.71500000  F        4      -0.00270597      -0.00000000       0.15213178
Si       9.59897455       1.91979491      14.71500000  F        4       0.00270601      -0.00000000       0.15213180
Si       1.91979491       5.75938473      14.71500000  F        4      -0.00000000       0.00000002       0.15702893
Si       5.75938473       5.75938473      14.71500000  F        4      -0.00157625       0.00000002       0.18547547
Si       9.59897455       5.75938473      14.71500000  F        4       0.00157629       0.00000002       0.18547550
Si       0.00000000       1.91979491      16.07250000  F        3      -0.00472064       0.00000000      -0.14272924
Si       3.83958982       1.91979491      16.07250000  F        3       0.00472060       0.00000000      -0.14272922
Si       7.67917964       1.91979491      16.07250000  F        3       0.00000000      -0.00000000      -0.23342566
Si       0.00000000       5.75938473      16.07250000  F        3      -0.04027978       0.00000002      -0.09570963
Si       3.83958982       5.75938473      16.07250000  F        3       0.04027975       0.00000002      -0.09570961
Si       7.67917964       5.75938473      16.07250000  F        3       0.00000000       0.00000002      -0.15335110
Si       0.00000000       0.00000000      17.43000000  F        2       0.02285444      -0.00675200       0.53503151
Si       3.83958982       0.00000000      17.43000000  F        2      -0.02285447      -0.00675200       0.53503149
Si       7.67917964       0.00000000      17.43000000  F        2      -0.00000000      -0.07243390       0.46958324
Si       0.00000000       3.83958982      17.43000000  F        2       0.02285444       0.00675198       0.53503152
Si       3.83958982       3.83958982      17.43000000  F        2      -0.02285447       0.00675198       0.53503150
Si       7.67917964       3.83958982      17.43000000  F        2      -0.00000000       0.07243388       0.46958325
Si       1.91979491       0.00000000      18.78750000  F        1      -0.00000000      -0.00450950      -0.27155804
Si       5.75938473       0.00000000      18.78750000  F        1       0.06874338       0.02206043      -0.18910070
Si       9.59897455       0.00000000      18.78750000  F        1      -0.06874334       0.02206043      -0.18910071
Si       1.91979491       3.83958982      18.78750000  F        1      -0.00000000       0.00450950      -0.27155804
Si       5.75938473       3.83958982      18.78750000  F        1       0.06874338      -0.02206043      -0.18910070
Si       9.59897455       3.83958982      18.78750000  F        1      -0.06874334      -0.02206043      -0.18910071
Cl       7.67917964       1.91979491      21.53750000  T        0       0.00000000       0.00000000      -0.63152950
H        7.67917964       1.91979491      22.83928926  T        0      -0.00000000       0.00000000       0.39630001
38
Lattice="11.518769465528859 0.0 0.0 0.0 7.679179643685906 0.0 0.0 0.0 30.7875" Properties=species:S:1:pos:R:3:move_mask:L:1:tags:I:1:forces:R:3 surface=Si100 species=HCl site=hollow orientation=upright height_A=2.25 substrate_atoms=36 calculation_kind="Rigid evaluated approach scan; not NEB" energy=-186.75679146953289 pbc="T T F"
Si       0.00000000       0.00000000      12.00000000  F        6      -0.00112376       0.00091063       0.24712868
Si       3.83958982       0.00000000      12.00000000  F        6       0.00112372       0.00091063       0.24712867
Si       7.67917964       0.00000000      12.00000000  F        6       0.00000000       0.00097662       0.25254736
Si       0.00000000       3.83958982      12.00000000  F        6      -0.00112376      -0.00091063       0.24712868
Si       3.83958982       3.83958982      12.00000000  F        6       0.00112372      -0.00091063       0.24712867
Si       7.67917964       3.83958982      12.00000000  F        6       0.00000000      -0.00097662       0.25254736
Si       1.91979491       0.00000000      13.35750000  F        5       0.00000000       0.00005403      -0.52769200
Si       5.75938473       0.00000000      13.35750000  F        5       0.00035759      -0.00391726      -0.52474309
Si       9.59897455       0.00000000      13.35750000  F        5      -0.00035756      -0.00391726      -0.52474311
Si       1.91979491       3.83958982      13.35750000  F        5       0.00000000      -0.00005406      -0.52769201
Si       5.75938473       3.83958982      13.35750000  F        5       0.00035759       0.00391724      -0.52474310
Si       9.59897455       3.83958982      13.35750000  F        5      -0.00035756       0.00391724      -0.52474312
Si       1.91979491       1.91979491      14.71500000  F        4      -0.00000000       0.00000000       0.15266634
Si       5.75938473       1.91979491      14.71500000  F        4      -0.00204338      -0.00000000       0.14426991
Si       9.59897455       1.91979491      14.71500000  F        4       0.00204342      -0.00000000       0.14426993
Si       1.91979491       5.75938473      14.71500000  F        4      -0.00000000       0.00000002       0.17058762
Si       5.75938473       5.75938473      14.71500000  F        4       0.00512029       0.00000002       0.20994996
Si       9.59897455       5.75938473      14.71500000  F        4      -0.00512026       0.00000002       0.20994998
Si       0.00000000       1.91979491      16.07250000  F        3       0.01263021      -0.00000000      -0.14989477
Si       3.83958982       1.91979491      16.07250000  F        3      -0.01263025      -0.00000000      -0.14989475
Si       7.67917964       1.91979491      16.07250000  F        3       0.00000000      -0.00000000      -0.25177131
Si       0.00000000       5.75938473      16.07250000  F        3      -0.05314096       0.00000002      -0.06512377
Si       3.83958982       5.75938473      16.07250000  F        3       0.05314092       0.00000002      -0.06512375
Si       7.67917964       5.75938473      16.07250000  F        3       0.00000000       0.00000002      -0.17724910
Si       0.00000000       0.00000000      17.43000000  F        2       0.02055557      -0.03402642       0.52901719
Si       3.83958982       0.00000000      17.43000000  F        2      -0.02055561      -0.03402642       0.52901717
Si       7.67917964       0.00000000      17.43000000  F        2      -0.00000000      -0.02131776       0.54455388
Si       0.00000000       3.83958982      17.43000000  F        2       0.02055557       0.03402639       0.52901720
Si       3.83958982       3.83958982      17.43000000  F        2      -0.02055561       0.03402640       0.52901719
Si       7.67917964       3.83958982      17.43000000  F        2      -0.00000000       0.02131774       0.54455390
Si       1.91979491       0.00000000      18.78750000  F        1      -0.00000000      -0.00742667      -0.29526819
Si       5.75938473       0.00000000      18.78750000  F        1       0.03877403       0.04224269      -0.24517306
Si       9.59897455       0.00000000      18.78750000  F        1      -0.03877399       0.04224269      -0.24517308
Si       1.91979491       3.83958982      18.78750000  F        1      -0.00000000       0.00742667      -0.29526819
Si       5.75938473       3.83958982      18.78750000  F        1       0.03877403      -0.04224269      -0.24517306
Si       9.59897455       3.83958982      18.78750000  F        1      -0.03877399      -0.04224269      -0.24517308
Cl       7.67917964       1.91979491      21.03750000  T        0       0.00000000       0.00000000      -0.59627876
H        7.67917964       1.91979491      22.33928926  T        0      -0.00000000       0.00000000       0.45044161
38
Lattice="11.518769465528859 0.0 0.0 0.0 7.679179643685906 0.0 0.0 0.0 30.7875" Properties=species:S:1:pos:R:3:move_mask:L:1:tags:I:1:forces:R:3 surface=Si100 species=HCl site=hollow orientation=upright height_A=1.9 substrate_atoms=36 calculation_kind="Rigid evaluated approach scan; not NEB" energy=-186.76764833903817 pbc="T T F"
Si       0.00000000       0.00000000      12.00000000  F        6      -0.00091399       0.00117897       0.24787961
Si       3.83958982       0.00000000      12.00000000  F        6       0.00091395       0.00117897       0.24787960
Si       7.67917964       0.00000000      12.00000000  F        6       0.00000000       0.00059381       0.25382142
Si       0.00000000       3.83958982      12.00000000  F        6      -0.00091399      -0.00117897       0.24787961
Si       3.83958982       3.83958982      12.00000000  F        6       0.00091395      -0.00117897       0.24787960
Si       7.67917964       3.83958982      12.00000000  F        6       0.00000000      -0.00059381       0.25382142
Si       1.91979491       0.00000000      13.35750000  F        5       0.00000000       0.00061745      -0.52970356
Si       5.75938473       0.00000000      13.35750000  F        5       0.00310516      -0.00541128      -0.51997516
Si       9.59897455       0.00000000      13.35750000  F        5      -0.00310512      -0.00541128      -0.51997518
Si       1.91979491       3.83958982      13.35750000  F        5       0.00000000      -0.00061747      -0.52970357
Si       5.75938473       3.83958982      13.35750000  F        5       0.00310516       0.00541125      -0.51997518
Si       9.59897455       3.83958982      13.35750000  F        5      -0.00310512       0.00541125      -0.51997519
Si       1.91979491       1.91979491      14.71500000  F        4      -0.00000000      -0.00000000       0.15513878
Si       5.75938473       1.91979491      14.71500000  F        4       0.00159636      -0.00000000       0.14393475
Si       9.59897455       1.91979491      14.71500000  F        4      -0.00159632      -0.00000000       0.14393477
Si       1.91979491       5.75938473      14.71500000  F        4      -0.00000000       0.00000002       0.17820888
Si       5.75938473       5.75938473      14.71500000  F        4       0.01802972       0.00000002       0.21827083
Si       9.59897455       5.75938473      14.71500000  F        4      -0.01802968       0.00000002       0.21827085
Si       0.00000000       1.91979491      16.07250000  F        3       0.02456007      -0.00000000      -0.15254688
Si       3.83958982       1.91979491      16.07250000  F        3      -0.02456011      -0.00000000      -0.15254686
Si       7.67917964       1.91979491      16.07250000  F        3       0.00000000      -0.00000000      -0.18427322
Si       0.00000000       5.75938473      16.07250000  F        3      -0.04586566       0.00000002      -0.06066962
Si       3.83958982       5.75938473      16.07250000  F        3       0.04586563       0.00000002      -0.06066960
Si       7.67917964       5.75938473      16.07250000  F        3       0.00000000       0.00000002      -0.18422006
Si       0.00000000       0.00000000      17.43000000  F        2       0.03329083      -0.07188534       0.50442252
Si       3.83958982       0.00000000      17.43000000  F        2      -0.03329086      -0.07188534       0.50442250
Si       7.67917964       0.00000000      17.43000000  F        2      -0.00000000      -0.05602246       0.42256058
Si       0.00000000       3.83958982      17.43000000  F        2       0.03329083       0.07188532       0.50442253
Si       3.83958982       3.83958982      17.43000000  F        2      -0.03329086       0.07188532       0.50442252
Si       7.67917964       3.83958982      17.43000000  F        2      -0.00000000       0.05602244       0.42256059
Si       1.91979491       0.00000000      18.78750000  F        1      -0.00000000      -0.01202388      -0.30267084
Si       5.75938473       0.00000000      18.78750000  F        1      -0.02143366       0.05758538      -0.24477886
Si       9.59897455       0.00000000      18.78750000  F        1       0.02143369       0.05758538      -0.24477888
Si       1.91979491       3.83958982      18.78750000  F        1      -0.00000000       0.01202388      -0.30267084
Si       5.75938473       3.83958982      18.78750000  F        1      -0.02143366      -0.05758538      -0.24477886
Si       9.59897455       3.83958982      18.78750000  F        1       0.02143369      -0.05758538      -0.24477888
Cl       7.67917964       1.91979491      20.68750000  T        0       0.00000000       0.00000000      -0.00254071
H        7.67917964       1.91979491      21.98928926  T        0       0.00000000      -0.00000000       0.10150060
38
Lattice="11.518769465528859 0.0 0.0 0.0 7.679179643685906 0.0 0.0 0.0 30.7875" Properties=species:S:1:pos:R:3:move_mask:L:1:tags:I:1:forces:R:3 surface=Si100 species=HCl site=hollow orientation=upright height_A=1.6 substrate_atoms=36 calculation_kind="Rigid evaluated approach scan; not NEB" energy=-186.67551475420268 pbc="T T F"
Si       0.00000000       0.00000000      12.00000000  F        6      -0.00040602       0.00142851       0.24871693
Si       3.83958982       0.00000000      12.00000000  F        6       0.00040598       0.00142851       0.24871691
Si       7.67917964       0.00000000      12.00000000  F        6       0.00000000      -0.00025573       0.25455078
Si       0.00000000       3.83958982      12.00000000  F        6      -0.00040602      -0.00142851       0.24871693
Si       3.83958982       3.83958982      12.00000000  F        6       0.00040598      -0.00142851       0.24871691
Si       7.67917964       3.83958982      12.00000000  F        6       0.00000000       0.00025573       0.25455078
Si       1.91979491       0.00000000      13.35750000  F        5       0.00000000       0.00168227      -0.53132985
Si       5.75938473       0.00000000      13.35750000  F        5       0.00915314      -0.00485346      -0.51324546
Si       9.59897455       0.00000000      13.35750000  F        5      -0.00915311      -0.00485346      -0.51324548
Si       1.91979491       3.83958982      13.35750000  F        5       0.00000000      -0.00168229      -0.53132986
Si       5.75938473       3.83958982      13.35750000  F        5       0.00915314       0.00485344      -0.51324547
Si       9.59897455       3.83958982      13.35750000  F        5      -0.00915311       0.00485344      -0.51324549
Si       1.91979491       1.91979491      14.71500000  F        4      -0.00000000      -0.00000000       0.15432046
Si       5.75938473       1.91979491      14.71500000  F        4       0.00491035      -0.00000000       0.14667355
Si       9.59897455       1.91979491      14.71500000  F        4      -0.00491032      -0.00000000       0.14667357
Si       1.91979491       5.75938473      14.71500000  F        4      -0.00000000       0.00000002       0.18036798
Si       5.75938473       5.75938473      14.71500000  F        4       0.02861371       0.00000002       0.21222002
Si       9.59897455       5.75938473      14.71500000  F        4      -0.02861367       0.00000002       0.21222004
Si       0.00000000       1.91979491      16.07250000  F        3       0.03195753      -0.00000000      -0.15164511
Si       3.83958982       1.91979491      16.07250000  F        3      -0.03195756      -0.00000000      -0.15164509
Si       7.67917964       1.91979491      16.07250000  F        3       0.00000000      -0.00000000      -0.14387488
Si       0.00000000       5.75938473      16.07250000  F        3      -0.03439697       0.00000002      -0.06410699
Si       3.83958982       5.75938473      16.07250000  F        3       0.03439693       0.00000002      -0.06410697
Si       7.67917964       5.75938473      16.07250000  F        3       0.00000000       0.00000002      -0.19640369
Si       0.00000000       0.00000000      17.43000000  F        2       0.05326432      -0.10679437       0.47143995
Si       3.83958982       0.00000000      17.43000000  F        2      -0.05326435      -0.10679437       0.47143993
Si       7.67917964       0.00000000      17.43000000  F        2      -0.00000000      -0.11145486       0.28323008
Si       0.00000000       3.83958982      17.43000000  F        2       0.05326432       0.10679435       0.47143996
Si       3.83958982       3.83958982      17.43000000  F        2      -0.05326435       0.10679435       0.47143994
Si       7.67917964       3.83958982      17.43000000  F        2      -0.00000000       0.11145484       0.28323009
Si       1.91979491       0.00000000      18.78750000  F        1      -0.00000000      -0.01715210      -0.29661429
Si       5.75938473       0.00000000      18.78750000  F        1      -0.13338534       0.00006953      -0.26782036
Si       9.59897455       0.00000000      18.78750000  F        1       0.13338538       0.00006953      -0.26782038
Si       1.91979491       3.83958982      18.78750000  F        1      -0.00000000       0.01715210      -0.29661429
Si       5.75938473       3.83958982      18.78750000  F        1      -0.13338534      -0.00006953      -0.26782036
Si       9.59897455       3.83958982      18.78750000  F        1       0.13338538      -0.00006953      -0.26782038
Cl       7.67917964       1.91979491      20.38750000  T        0       0.00000000       0.00000000       0.41940985
H        7.67917964       1.91979491      21.68928926  T        0      -0.00000000      -0.00000000       0.12385969
38
Lattice="11.518769465528859 0.0 0.0 0.0 7.679179643685906 0.0 0.0 0.0 30.7875" Properties=species:S:1:pos:R:3:move_mask:L:1:tags:I:1:forces:R:3 surface=Si100 species=HCl site=hollow orientation=upright height_A=1.3 substrate_atoms=36 calculation_kind="Rigid evaluated approach scan; not NEB" energy=-186.43740685304687 pbc="T T F"
Si       0.00000000       0.00000000      12.00000000  F        6       0.00019935       0.00128891       0.24979205
Si       3.83958982       0.00000000      12.00000000  F        6      -0.00019939       0.00128891       0.24979203
Si       7.67917964       0.00000000      12.00000000  F        6       0.00000000      -0.00100166       0.25380334
Si       0.00000000       3.83958982      12.00000000  F        6       0.00019935      -0.00128891       0.24979205
Si       3.83958982       3.83958982      12.00000000  F        6      -0.00019939      -0.00128891       0.24979203
Si       7.67917964       3.83958982      12.00000000  F        6       0.00000000       0.00100166       0.25380334
Si       1.91979491       0.00000000      13.35750000  F        5       0.00000000       0.00308729      -0.53156241
Si       5.75938473       0.00000000      13.35750000  F        5       0.01469758      -0.00197970      -0.50832039
Si       9.59897455       0.00000000      13.35750000  F        5      -0.01469755      -0.00197970      -0.50832041
Si       1.91979491       3.83958982      13.35750000  F        5       0.00000000      -0.00308731      -0.53156242
Si       5.75938473       3.83958982      13.35750000  F        5       0.01469758       0.00197968      -0.50832041
Si       9.59897455       3.83958982      13.35750000  F        5      -0.01469755       0.00197968      -0.50832043
Si       1.91979491       1.91979491      14.71500000  F        4      -0.00000000      -0.00000000       0.15210272
Si       5.75938473       1.91979491      14.71500000  F        4       0.00874957      -0.00000000       0.14224589
Si       9.59897455       1.91979491      14.71500000  F        4      -0.00874953      -0.00000000       0.14224591
Si       1.91979491       5.75938473      14.71500000  F        4      -0.00000000       0.00000002       0.18089081
Si       5.75938473       5.75938473      14.71500000  F        4       0.03705160       0.00000002       0.20849793
Si       9.59897455       5.75938473      14.71500000  F        4      -0.03705156       0.00000002       0.20849795
Si       0.00000000       1.91979491      16.07250000  F        3       0.03747132      -0.00000000      -0.15282300
Si       3.83958982       1.91979491      16.07250000  F        3      -0.03747136      -0.00000000      -0.15282298
Si       7.67917964       1.91979491      16.07250000  F        3       0.00000000      -0.00000000      -0.25440961
Si       0.00000000       5.75938473      16.07250000  F        3      -0.02552297       0.00000002      -0.07169455
Si       3.83958982       5.75938473      16.07250000  F        3       0.02552294       0.00000002      -0.07169454
Si       7.67917964       5.75938473      16.07250000  F        3       0.00000000       0.00000002      -0.20712345
Si       0.00000000       0.00000000      17.43000000  F        2       0.07690222      -0.14211682       0.43637386
Si       3.83958982       0.00000000      17.43000000  F        2      -0.07690225      -0.14211682       0.43637384
Si       7.67917964       0.00000000      17.43000000  F        2      -0.00000000      -0.14294673       0.21969332
Si       0.00000000       3.83958982      17.43000000  F        2       0.07690222       0.14211680       0.43637387
Si       3.83958982       3.83958982      17.43000000  F        2      -0.07690225       0.14211680       0.43637386
Si       7.67917964       3.83958982      17.43000000  F        2      -0.00000000       0.14294671       0.21969333
Si       1.91979491       0.00000000      18.78750000  F        1      -0.00000000      -0.02159761      -0.28270350
Si       5.75938473       0.00000000      18.78750000  F        1      -0.28651034      -0.12881240      -0.29708424
Si       9.59897455       0.00000000      18.78750000  F        1       0.28651037      -0.12881240      -0.29708426
Si       1.91979491       3.83958982      18.78750000  F        1      -0.00000000       0.02159761      -0.28270350
Si       5.75938473       3.83958982      18.78750000  F        1      -0.28651034       0.12881240      -0.29708424
Si       9.59897455       3.83958982      18.78750000  F        1       0.28651037       0.12881240      -0.29708426
Cl       7.67917964       1.91979491      20.08750000  T        0       0.00000000       0.00000000       0.96346927
H        7.67917964       1.91979491      21.38928926  T        0      -0.00000000      -0.00000000       0.07111118
