38
Lattice="11.518769465528859 0.0 0.0 0.0 7.679179643685906 0.0 0.0 0.0 30.7875" Properties=species:S:1:pos:R:3:move_mask:L:1:tags:I:1:forces:R:3 surface=Si100 species=HF site=hollow orientation=upright height_A=1.9 substrate_atoms=36 calculation_kind="Rigid evaluated approach scan; not NEB" energy=-188.5336075655369 pbc="T T F"
Si       0.00000000       0.00000000      12.00000000  F        6      -0.00039517      -0.00017029       0.25031138
Si       3.83958982       0.00000000      12.00000000  F        6       0.00039513      -0.00017029       0.25031136
Si       7.67917964       0.00000000      12.00000000  F        6       0.00000000      -0.00118497       0.24834612
Si       0.00000000       3.83958982      12.00000000  F        6      -0.00039517       0.00017029       0.25031138
Si       3.83958982       3.83958982      12.00000000  F        6       0.00039513       0.00017029       0.25031136
Si       7.67917964       3.83958982      12.00000000  F        6       0.00000000       0.00118497       0.24834612
Si       1.91979491       0.00000000      13.35750000  F        5       0.00000000       0.00151635      -0.52697925
Si       5.75938473       0.00000000      13.35750000  F        5       0.00100830       0.00090358      -0.51876229
Si       9.59897455       0.00000000      13.35750000  F        5      -0.00100827       0.00090358      -0.51876230
Si       1.91979491       3.83958982      13.35750000  F        5       0.00000000      -0.00151637      -0.52697927
Si       5.75938473       3.83958982      13.35750000  F        5       0.00100830      -0.00090360      -0.51876230
Si       9.59897455       3.83958982      13.35750000  F        5      -0.00100827      -0.00090360      -0.51876232
Si       1.91979491       1.91979491      14.71500000  F        4      -0.00000000      -0.00000000       0.15336393
Si       5.75938473       1.91979491      14.71500000  F        4       0.01588182      -0.00000000       0.17291505
Si       9.59897455       1.91979491      14.71500000  F        4      -0.01588178      -0.00000000       0.17291507
Si       1.91979491       5.75938473      14.71500000  F        4      -0.00000000       0.00000002       0.15127025
Si       5.75938473       5.75938473      14.71500000  F        4       0.02836051       0.00000002       0.16701317
Si       9.59897455       5.75938473      14.71500000  F        4      -0.02836048       0.00000002       0.16701319
Si       0.00000000       1.91979491      16.07250000  T        3      -0.00566237      -0.00000000      -0.14373707
Si       3.83958982       1.91979491      16.07250000  T        3       0.00566233      -0.00000000      -0.14373705
Si       7.67917964       1.91979491      16.07250000  T        3       0.00000000      -0.00000000      -0.17830018
Si       0.00000000       5.75938473      16.07250000  T        3      -0.00591388       0.00000002      -0.13008838
Si       3.83958982       5.75938473      16.07250000  T        3       0.00591384       0.00000002      -0.13008836
Si       7.67917964       5.75938473      16.07250000  T        3       0.00000000       0.00000002      -0.13778875
Si       0.00000000       0.00000000      17.43000000  T        2      -0.01836355      -0.02925107       0.53157003
Si       3.83958982       0.00000000      17.43000000  T        2       0.01836352      -0.02925107       0.53157002
Si       7.67917964       0.00000000      17.43000000  T        2      -0.00000000      -0.03189103       0.43592199
Si       0.00000000       3.83958982      17.43000000  T        2      -0.01836355       0.02925104       0.53157005
Si       3.83958982       3.83958982      17.43000000  T        2       0.01836352       0.02925104       0.53157003
Si       7.67917964       3.83958982      17.43000000  T        2      -0.00000000       0.03189101       0.43592201
Si       1.91979491       0.00000000      18.78750000  T        1      -0.00000000      -0.00810149      -0.25519957
Si       5.75938473       0.00000000      18.78750000  T        1      -0.06537717       0.04272242      -0.25263629
Si       9.59897455       0.00000000      18.78750000  T        1       0.06537720       0.04272242      -0.25263630
Si       1.91979491       3.83958982      18.78750000  T        1      -0.00000000       0.00810149      -0.25519957
Si       5.75938473       3.83958982      18.78750000  T        1      -0.06537717      -0.04272242      -0.25263629
Si       9.59897455       3.83958982      18.78750000  T        1       0.06537720      -0.04272242      -0.25263630
F        7.67917964       1.91979491      20.68750000  T        0       0.00000000       0.00000000       0.70707001
H        7.67917964       1.91979491      21.64873254  T        0       0.00000000      -0.00000000      -0.67393068
38
Lattice="11.518769465528859 0.0 0.0 0.0 7.679179643685906 0.0 0.0 0.0 30.7875" Properties=species:S:1:pos:R:3:move_mask:L:1:tags:I:1:forces:R:3 surface=Si100 species=HF site=hollow orientation=upright height_A=1.9 substrate_atoms=36 calculation_kind="Rigid evaluated approach scan; not NEB" energy=-188.5362594945767 pbc="T T F"
Si       0.00000000       0.00000000      12.00000000  F        6      -0.00039352      -0.00017407       0.25025262
Si       3.83958982       0.00000000      12.00000000  F        6       0.00039348      -0.00017407       0.25025260
Si       7.67917964       0.00000000      12.00000000  F        6       0.00000000      -0.00118368       0.24829214
Si       0.00000000       3.83958982      12.00000000  F        6      -0.00039352       0.00017407       0.25025262
Si       3.83958982       3.83958982      12.00000000  F        6       0.00039348       0.00017407       0.25025260
Si       7.67917964       3.83958982      12.00000000  F        6       0.00000000       0.00118368       0.24829214
Si       1.91979491       0.00000000      13.35750000  F        5       0.00000000       0.00151822      -0.52666903
Si       5.75938473       0.00000000      13.35750000  F        5       0.00096998       0.00091758      -0.51851340
Si       9.59897455       0.00000000      13.35750000  F        5      -0.00096994       0.00091758      -0.51851342
Si       1.91979491       3.83958982      13.35750000  F        5       0.00000000      -0.00151824      -0.52666905
Si       5.75938473       3.83958982      13.35750000  F        5       0.00096998      -0.00091760      -0.51851341
Si       9.59897455       3.83958982      13.35750000  F        5      -0.00096994      -0.00091760      -0.51851343
Si       1.91979491       1.91979491      14.71500000  F        4      -0.00000000      -0.00000000       0.15260884
Si       5.75938473       1.91979491      14.71500000  F        4       0.01584541      -0.00000000       0.17191651
Si       9.59897455       1.91979491      14.71500000  F        4      -0.01584538      -0.00000000       0.17191653
Si       1.91979491       5.75938473      14.71500000  F        4      -0.00000000       0.00000002       0.15060769
Si       5.75938473       5.75938473      14.71500000  F        4       0.02838535       0.00000002       0.16617543
Si       9.59897455       5.75938473      14.71500000  F        4      -0.02838531       0.00000002       0.16617545
Si      -0.00000510       1.91979491      16.07237064  T        3      -0.00554502      -0.00000000      -0.13888341
Si       3.83959492       1.91979491      16.07237064  T        3       0.00554499      -0.00000000      -0.13888339
Si       7.67917964       1.91979491      16.07233953  T        3       0.00000000      -0.00000000      -0.17312248
Si      -0.00000532       5.75938473      16.07238292  T        3      -0.00579345       0.00000002      -0.12578850
Si       3.83959514       5.75938473      16.07238292  T        3       0.00579341       0.00000002      -0.12578848
Si       7.67917964       5.75938473      16.07237599  T        3       0.00000000       0.00000002      -0.13379653
Si      -0.00001653      -0.00002633      17.43047841  T        2      -0.01761349      -0.02876534       0.52234311
Si       3.83960635      -0.00002633      17.43047841  T        2       0.01761346      -0.02876534       0.52234309
Si       7.67917964      -0.00002870      17.43039233  T        2      -0.00000000      -0.03148971       0.42848662
Si      -0.00001653       3.83961615      17.43047841  T        2      -0.01761349       0.02876532       0.52234312
Si       3.83960635       3.83961615      17.43047841  T        2       0.01761346       0.02876532       0.52234310
Si       7.67917964       3.83961852      17.43039233  T        2      -0.00000000       0.03148969       0.42848663
Si       1.91979491      -0.00000729      18.78727032  T        1      -0.00000000      -0.00813335      -0.25042608
Si       5.75932589       0.00003845      18.78727263  T        1      -0.06367757       0.04294075      -0.24801898
Si       9.59903339       0.00003845      18.78727263  T        1       0.06367761       0.04294075      -0.24801900
Si       1.91979491       3.83959711      18.78727032  T        1      -0.00000000       0.00813335      -0.25042608
Si       5.75932589       3.83955137      18.78727263  T        1      -0.06367757      -0.04294075      -0.24801898
Si       9.59903339       3.83955137      18.78727263  T        1       0.06367761      -0.04294075      -0.24801900
F        7.67917964       1.91979491      20.68813636  T        0       0.00000000       0.00000000       0.64621484
H        7.67917964       1.91979491      21.64812600  T        0       0.00000000      -0.00000000      -0.61297300
38
Lattice="11.518769465528859 0.0 0.0 0.0 7.679179643685906 0.0 0.0 0.0 30.7875" Properties=species:S:1:pos:R:3:move_mask:L:1:tags:I:1:forces:R:3 surface=Si100 species=HF site=hollow orientation=upright height_A=1.9 substrate_atoms=36 calculation_kind="Rigid evaluated approach scan; not NEB" energy=-188.54114486522516 pbc="T T F"
Si       0.00000000       0.00000000      12.00000000  F        6      -0.00039025      -0.00018148       0.25013708
Si       3.83958982       0.00000000      12.00000000  F        6       0.00039021      -0.00018148       0.25013706
Si       7.67917964       0.00000000      12.00000000  F        6       0.00000000      -0.00118134       0.24818577
Si       0.00000000       3.83958982      12.00000000  F        6      -0.00039025       0.00018148       0.25013708
Si       3.83958982       3.83958982      12.00000000  F        6       0.00039021       0.00018148       0.25013706
Si       7.67917964       3.83958982      12.00000000  F        6       0.00000000       0.00118134       0.24818577
Si       1.91979491       0.00000000      13.35750000  F        5       0.00000000       0.00152186      -0.52605373
Si       5.75938473       0.00000000      13.35750000  F        5       0.00089421       0.00094470      -0.51801724
Si       9.59897455       0.00000000      13.35750000  F        5      -0.00089418       0.00094470      -0.51801726
Si       1.91979491       3.83958982      13.35750000  F        5       0.00000000      -0.00152188      -0.52605375
Si       5.75938473       3.83958982      13.35750000  F        5       0.00089421      -0.00094472      -0.51801726
Si       9.59897455       3.83958982      13.35750000  F        5      -0.00089418      -0.00094472      -0.51801727
Si       1.91979491       1.91979491      14.71500000  F        4      -0.00000000      -0.00000000       0.15112343
Si       5.75938473       1.91979491      14.71500000  F        4       0.01576959      -0.00000000       0.16995243
Si       9.59897455       1.91979491      14.71500000  F        4      -0.01576956      -0.00000000       0.16995245
Si       1.91979491       5.75938473      14.71500000  F        4      -0.00000000       0.00000002       0.14930673
Si       5.75938473       5.75938473      14.71500000  F        4       0.02843204       0.00000002       0.16453030
Si       9.59897455       5.75938473      14.71500000  F        4      -0.02843201       0.00000002       0.16453032
Si      -0.00001519       1.91979491      16.07211619  T        3      -0.00531560      -0.00000000      -0.12929694
Si       3.83960501       1.91979491      16.07211619  T        3       0.00531556      -0.00000000      -0.12929692
Si       7.67917964       1.91979491      16.07202307  T        3       0.00000000      -0.00000000      -0.16294266
Si      -0.00001587       5.75938473      16.07215255  T        3      -0.00555911       0.00000002      -0.11729372
Si       3.83960569       5.75938473      16.07215255  T        3       0.00555907       0.00000002      -0.11729370
Si       7.67917964       5.75938473      16.07213142  T        3       0.00000000       0.00000002      -0.12591321
Si      -0.00004891      -0.00007860      17.43142806  T        2      -0.01612899      -0.02781024       0.50404454
Si       3.83963872      -0.00007860      17.43142806  T        2       0.01612896      -0.02781024       0.50404453
Si       7.67917964      -0.00008583      17.43117123  T        2      -0.00000000      -0.03070233       0.41375391
Si      -0.00004891       3.83966842      17.43142806  T        2      -0.01612899       0.02781022       0.50404456
Si       3.83963872       3.83966842      17.43142806  T        2       0.01612896       0.02781022       0.50404454
Si       7.67917964       3.83967565      17.43117123  T        2      -0.00000000       0.03070231       0.41375392
Si       1.91979491      -0.00002194      18.78681475  T        1      -0.00000000      -0.00819668      -0.24093772
Si       5.75920966       0.00011573      18.78682152  T        1      -0.06032112       0.04336429      -0.23883524
Si       9.59914962       0.00011573      18.78682152  T        1       0.06032116       0.04336430      -0.23883525
Si       1.91979491       3.83961176      18.78681475  T        1      -0.00000000       0.00819668      -0.24093772
Si       5.75920966       3.83947409      18.78682152  T        1      -0.06032112      -0.04336430      -0.23883524
Si       9.59914962       3.83947409      18.78682152  T        1       0.06032116      -0.04336430      -0.23883525
F        7.67917964       1.91979491      20.68935126  T        0       0.00000000       0.00000000       0.52791213
H        7.67917964       1.91979491      21.64697098  T        0       0.00000000      -0.00000000      -0.49448353
38
Lattice="11.518769465528859 0.0 0.0 0.0 7.679179643685906 0.0 0.0 0.0 30.7875" Properties=species:S:1:pos:R:3:move_mask:L:1:tags:I:1:forces:R:3 surface=Si100 species=HF site=hollow orientation=upright height_A=1.9 substrate_atoms=36 calculation_kind="Rigid evaluated approach scan; not NEB" energy=-188.547528763844 pbc="T T F"
Si       0.00000000       0.00000000      12.00000000  F        6      -0.00038543      -0.00019227       0.24996851
Si       3.83958982       0.00000000      12.00000000  F        6       0.00038539      -0.00019227       0.24996849
Si       7.67917964       0.00000000      12.00000000  F        6       0.00000000      -0.00117844       0.24803000
Si       0.00000000       3.83958982      12.00000000  F        6      -0.00038543       0.00019227       0.24996851
Si       3.83958982       3.83958982      12.00000000  F        6       0.00038539       0.00019227       0.24996849
Si       7.67917964       3.83958982      12.00000000  F        6       0.00000000       0.00117844       0.24803000
Si       1.91979491       0.00000000      13.35750000  F        5       0.00000000       0.00152709      -0.52514217
Si       5.75938473       0.00000000      13.35750000  F        5       0.00078250       0.00098320      -0.51727575
Si       9.59897455       0.00000000      13.35750000  F        5      -0.00078247       0.00098320      -0.51727576
Si       1.91979491       3.83958982      13.35750000  F        5       0.00000000      -0.00152711      -0.52514218
Si       5.75938473       3.83958982      13.35750000  F        5       0.00078250      -0.00098322      -0.51727576
Si       9.59897455       3.83958982      13.35750000  F        5      -0.00078247      -0.00098322      -0.51727578
Si       1.91979491       1.91979491      14.71500000  F        4      -0.00000000      -0.00000000       0.14895626
Si       5.75938473       1.91979491      14.71500000  F        4       0.01564808      -0.00000000       0.16708714
Si       9.59897455       1.91979491      14.71500000  F        4      -0.01564804      -0.00000000       0.16708716
Si       1.91979491       5.75938473      14.71500000  F        4      -0.00000000       0.00000002       0.14741532
Si       5.75938473       5.75938473      14.71500000  F        4       0.02849450       0.00000002       0.16213705
Si       9.59897455       5.75938473      14.71500000  F        4      -0.02849447       0.00000002       0.16213707
Si      -0.00003012       1.91979491      16.07174507  T        3      -0.00498441      -0.00000000      -0.11520126
Si       3.83961994       1.91979491      16.07174507  T        3       0.00498437      -0.00000000      -0.11520125
Si       7.67917964       1.91979491      16.07155914  T        3       0.00000000      -0.00000000      -0.14808679
Si      -0.00003147       5.75938473      16.07181628  T        3      -0.00522321       0.00000002      -0.10479896
Si       3.83962129       5.75938473      16.07181628  T        3       0.00522318       0.00000002      -0.10479894
Si       7.67917964       5.75938473      16.07177291  T        3       0.00000000       0.00000002      -0.11432690
Si      -0.00009577      -0.00015622      17.43283679  T        2      -0.01393947      -0.02641691       0.47694641
Si       3.83968559      -0.00015622      17.43283679  T        2       0.01393943      -0.02641691       0.47694640
Si       7.67917964      -0.00017099      17.43232704  T        2      -0.00000000      -0.02955062       0.39197101
Si      -0.00009577       3.83974604      17.43283679  T        2      -0.01393947       0.02641689       0.47694642
Si       3.83968559       3.83974604      17.43283679  T        2       0.01393943       0.02641689       0.47694641
Si       7.67917964       3.83976081      17.43232704  T        2      -0.00000000       0.02955061       0.39197102
Si       1.91979491      -0.00004413      18.78613990  T        1      -0.00000000      -0.00829106      -0.22683133
Si       5.75903874       0.00023294      18.78615300  T        1      -0.05539355       0.04396747      -0.22517354
Si       9.59932054       0.00023294      18.78615300  T        1       0.05539359       0.04396747      -0.22517356
Si       1.91979491       3.83963395      18.78613990  T        1      -0.00000000       0.00829106      -0.22683133
Si       5.75903874       3.83935688      18.78615300  T        1      -0.05539355      -0.04396747      -0.22517354
Si       9.59932054       3.83935688      18.78615300  T        1       0.05539359      -0.04396747      -0.22517355
F        7.67917964       1.91979491      20.69102495  T        0       0.00000000       0.00000000       0.36039645
H        7.67917964       1.91979491      21.64538792  T        0       0.00000000      -0.00000000      -0.32671977
38
Lattice="11.518769465528859 0.0 0.0 0.0 7.679179643685906 0.0 0.0 0.0 30.7875" Properties=species:S:1:pos:R:3:move_mask:L:1:tags:I:1:forces:R:3 surface=Si100 species=HF site=hollow orientation=upright height_A=1.9 substrate_atoms=36 calculation_kind="Rigid evaluated approach scan; not NEB" energy=-188.55455472984855 pbc="T T F"
Si       0.00000000       0.00000000      12.00000000  F        6      -0.00037915      -0.00020606       0.24975229
Si       3.83958982       0.00000000      12.00000000  F        6       0.00037911      -0.00020606       0.24975227
Si       7.67917964       0.00000000      12.00000000  F        6       0.00000000      -0.00117574       0.24782899
Si       0.00000000       3.83958982      12.00000000  F        6      -0.00037915       0.00020606       0.24975229
Si       3.83958982       3.83958982      12.00000000  F        6       0.00037911       0.00020606       0.24975227
Si       7.67917964       3.83958982      12.00000000  F        6       0.00000000       0.00117574       0.24782899
Si       1.91979491       0.00000000      13.35750000  F        5       0.00000000       0.00153366      -0.52394602
Si       5.75938473       0.00000000      13.35750000  F        5       0.00063661       0.00103053      -0.51629065
Si       9.59897455       0.00000000      13.35750000  F        5      -0.00063658       0.00103053      -0.51629067
Si       1.91979491       3.83958982      13.35750000  F        5       0.00000000      -0.00153368      -0.52394603
Si       5.75938473       3.83958982      13.35750000  F        5       0.00063661      -0.00103055      -0.51629067
Si       9.59897455       3.83958982      13.35750000  F        5      -0.00063658      -0.00103055      -0.51629068
Si       1.91979491       1.91979491      14.71500000  F        4      -0.00000000      -0.00000000       0.14618108
Si       5.75938473       1.91979491      14.71500000  F        4       0.01547134      -0.00000000       0.16341681
Si       9.59897455       1.91979491      14.71500000  F        4      -0.01547130      -0.00000000       0.16341683
Si       1.91979491       5.75938473      14.71500000  F        4      -0.00000000       0.00000002       0.14500671
Si       5.75938473       5.75938473      14.71500000  F        4       0.02856344       0.00000002       0.15908386
Si       9.59897455       5.75938473      14.71500000  F        4      -0.02856341       0.00000002       0.15908388
Si      -0.00004966       1.91979491      16.07127000  T        3      -0.00456636      -0.00000000      -0.09691519
Si       3.83963948       1.91979491      16.07127000  T        3       0.00456633      -0.00000000      -0.09691517
Si       7.67917964       1.91979491      16.07096027  T        3       0.00000000      -0.00000000      -0.12900483
Si      -0.00005191       5.75938473      16.07138531  T        3      -0.00480278       0.00000002      -0.08858395
Si       3.83964173       5.75938473      16.07138531  T        3       0.00480275       0.00000002      -0.08858393
Si       7.67917964       5.75938473      16.07131024  T        3       0.00000000       0.00000002      -0.09930591
Si      -0.00015503      -0.00025843      17.43468869  T        2      -0.01108843      -0.02463044       0.44141948
Si       3.83974485      -0.00025843      17.43468869  T        2       0.01108840      -0.02463044       0.44141946
Si       7.67917964      -0.00028382      17.43384726  T        2       0.00000000      -0.02805021       0.36348149
Si      -0.00015503       3.83984825      17.43468869  T        2      -0.01108843       0.02463043       0.44141949
Si       3.83974485       3.83984825      17.43468869  T        2       0.01108840       0.02463043       0.44141947
Si       7.67917964       3.83987364      17.43384726  T        2       0.00000000       0.02805020       0.36348150
Si       1.91979491      -0.00007425      18.78525476  T        1      -0.00000000      -0.00841635      -0.20823221
Si       5.75881708       0.00039228      18.78527560  T        1      -0.04902864       0.04471379      -0.20716249
Si       9.59954220       0.00039228      18.78527560  T        1       0.04902868       0.04471379      -0.20716250
Si       1.91979491       3.83966407      18.78525476  T        1      -0.00000000       0.00841635      -0.20823221
Si       5.75881708       3.83919754      18.78527560  T        1      -0.04902864      -0.04471379      -0.20716249
Si       9.59954220       3.83919754      18.78527560  T        1       0.04902868      -0.04471379      -0.20716250
F        7.67917964       1.91979491      20.69297260  T        0       0.00000000       0.00000000       0.15900152
H        7.67917964       1.91979491      21.64356309  T        0       0.00000000      -0.00000000      -0.12502055
38
Lattice="11.518769465528859 0.0 0.0 0.0 7.679179643685906 0.0 0.0 0.0 30.7875" Properties=species:S:1:pos:R:3:move_mask:L:1:tags:I:1:forces:R:3 surface=Si100 species=HF site=hollow orientation=upright height_A=1.9 substrate_atoms=36 calculation_kind="Rigid evaluated approach scan; not NEB" energy=-188.561494799262 pbc="T T F"
Si       0.00000000       0.00000000      12.00000000  F        6      -0.00037156      -0.00022232       0.24949579
Si       3.83958982       0.00000000      12.00000000  F        6       0.00037153      -0.00022232       0.24949577
Si       7.67917964       0.00000000      12.00000000  F        6       0.00000000      -0.00117421       0.24758837
Si       0.00000000       3.83958982      12.00000000  F        6      -0.00037156       0.00022232       0.24949579
Si       3.83958982       3.83958982      12.00000000  F        6       0.00037153       0.00022232       0.24949577
Si       7.67917964       3.83958982      12.00000000  F        6       0.00000000       0.00117421       0.24758837
Si       1.91979491       0.00000000      13.35750000  F        5       0.00000000       0.00154126      -0.52248139
Si       5.75938473       0.00000000      13.35750000  F        5       0.00045841       0.00108341      -0.51506535
Si       9.59897455       0.00000000      13.35750000  F        5      -0.00045838       0.00108341      -0.51506537
Si       1.91979491       3.83958982      13.35750000  F        5       0.00000000      -0.00154129      -0.52248140
Si       5.75938473       3.83958982      13.35750000  F        5       0.00045841      -0.00108343      -0.51506537
Si       9.59897455       3.83958982      13.35750000  F        5      -0.00045838      -0.00108343      -0.51506539
Si       1.91979491       1.91979491      14.71500000  F        4      -0.00000000      -0.00000000       0.14290520
Si       5.75938473       1.91979491      14.71500000  F        4       0.01522704      -0.00000000       0.15907782
Si       9.59897455       1.91979491      14.71500000  F        4      -0.01522700      -0.00000000       0.15907783
Si       1.91979491       5.75938473      14.71500000  F        4      -0.00000000       0.00000002       0.14218671
Si       5.75938473       5.75938473      14.71500000  F        4       0.02862610       0.00000002       0.15549403
Si       9.59897455       5.75938473      14.71500000  F        4      -0.02862607       0.00000002       0.15549404
Si      -0.00007352       1.91979491      16.07070938  T        3      -0.00408072      -0.00000000      -0.07488507
Si       3.83966334       1.91979491      16.07070938  T        3       0.00408069      -0.00000000      -0.07488506
Si       7.67917964       1.91979491      16.07024419  T        3       0.00000000      -0.00000000      -0.10627263
Si      -0.00007690       5.75938473      16.07087583  T        3      -0.00431831       0.00000002      -0.06904372
Si       3.83966672       5.75938473      16.07087583  T        3       0.00431828       0.00000002      -0.06904371
Si       7.67917964       5.75938473      16.07075752  T        3       0.00000000       0.00000002      -0.08122229
Si      -0.00022357      -0.00038423      17.43696140  T        2      -0.00764099      -0.02251209       0.39799190
Si       3.83981339      -0.00038423      17.43696140  T        2       0.00764097      -0.02251209       0.39799189
Si       7.67917964      -0.00042387      17.43571446  T        2       0.00000000      -0.02619989       0.32877103
Si      -0.00022357       3.83997405      17.43696140  T        2      -0.00764099       0.02251208       0.39799191
Si       3.83981339       3.83997405      17.43696140  T        2       0.00764097       0.02251208       0.39799190
Si       7.67917964       3.84001369      17.43571446  T        2       0.00000000       0.02619988       0.32877104
Si       1.91979491      -0.00011292      18.78417227  T        1      -0.00000000      -0.00857292      -0.18532445
Si       5.75855028       0.00059706      18.78420153  T        1      -0.04142521       0.04555830      -0.18501480
Si       9.59980900       0.00059706      18.78420153  T        1       0.04142524       0.04555830      -0.18501482
Si       1.91979491       3.83970274      18.78417227  T        1      -0.00000000       0.00857292      -0.18532445
Si       5.75855028       3.83899276      18.78420153  T        1      -0.04142521      -0.04555830      -0.18501480
Si       9.59980900       3.83899276      18.78420153  T        1       0.04142524      -0.04555830      -0.18501481
F        7.67917964       1.91979491      20.69494376  T        0      -0.00000000       0.00000000      -0.05128725
H        7.67917964       1.91979491      21.64174910  T        0       0.00000000      -0.00000000       0.08566698
38
Lattice="11.518769465528859 0.0 0.0 0.0 7.679179643685906 0.0 0.0 0.0 30.7875" Properties=species:S:1:pos:R:3:move_mask:L:1:tags:I:1:forces:R:3 surface=Si100 species=HF site=hollow orientation=upright height_A=1.9 substrate_atoms=36 calculation_kind="Rigid evaluated approach scan; not NEB" energy=-188.56796013723195 pbc="T T F"
Si       0.00000000       0.00000000      12.00000000  F        6      -0.00036285      -0.00024034       0.24920950
Si       3.83958982       0.00000000      12.00000000  F        6       0.00036281      -0.00024034       0.24920948
Si       7.67917964       0.00000000      12.00000000  F        6       0.00000000      -0.00117496       0.24731634
Si       0.00000000       3.83958982      12.00000000  F        6      -0.00036285       0.00024034       0.24920950
Si       3.83958982       3.83958982      12.00000000  F        6       0.00036281       0.00024034       0.24920948
Si       7.67917964       3.83958982      12.00000000  F        6       0.00000000       0.00117496       0.24731634
Si       1.91979491       0.00000000      13.35750000  F        5       0.00000000       0.00154948      -0.52077557
Si       5.75938473       0.00000000      13.35750000  F        5       0.00025029       0.00113795      -0.51361186
Si       9.59897455       0.00000000      13.35750000  F        5      -0.00025026       0.00113795      -0.51361188
Si       1.91979491       3.83958982      13.35750000  F        5       0.00000000      -0.00154950      -0.52077558
Si       5.75938473       3.83958982      13.35750000  F        5       0.00025029      -0.00113797      -0.51361187
Si       9.59897455       3.83958982      13.35750000  F        5      -0.00025026      -0.00113797      -0.51361189
Si       1.91979491       1.91979491      14.71500000  F        4      -0.00000000      -0.00000000       0.13928840
Si       5.75938473       1.91979491      14.71500000  F        4       0.01490164      -0.00000000       0.15426709
Si       9.59897455       1.91979491      14.71500000  F        4      -0.01490161      -0.00000000       0.15426711
Si       1.91979491       5.75938473      14.71500000  F        4      -0.00000000       0.00000002       0.13910863
Si       5.75938473       5.75938473      14.71500000  F        4       0.02866624       0.00000002       0.15154137
Si       9.59897455       5.75938473      14.71500000  F        4      -0.02866621       0.00000002       0.15154138
Si      -0.00010123       1.91979491      16.07009038  T        3      -0.00355069      -0.00000000      -0.04979122
Si       3.83969104       1.91979491      16.07009038  T        3       0.00355066      -0.00000000      -0.04979121
Si       7.67917964       1.91979491      16.06943731  T        3       0.00000000      -0.00000000      -0.08065971
Si      -0.00010599       5.75938473      16.07031178  T        3      -0.00379288       0.00000001      -0.04678426
Si       3.83969581       5.75938473      16.07031178  T        3       0.00379285       0.00000001      -0.04678425
Si       7.67917964       5.75938473      16.07013594  T        3       0.00000000       0.00000001      -0.06063182
Si      -0.00029695      -0.00053185      17.43961503  T        2      -0.00370425      -0.02014558       0.34756540
Si       3.83988677      -0.00053185      17.43961503  T        2       0.00370423      -0.02014558       0.34756539
Si       7.67917964      -0.00058996      17.43789735  T        2       0.00000000      -0.02398561       0.28862741
Si      -0.00029695       3.84012167      17.43961503  T        2      -0.00370425       0.02014556       0.34756541
Si       3.83988677       3.84012167      17.43961503  T        2       0.00370423       0.02014556       0.34756540
Si       7.67917964       3.84017978      17.43789735  T        2       0.00000000       0.02398560       0.28862742
Si       1.91979491      -0.00016082      18.78291483  T        1      -0.00000000      -0.00876151      -0.15846709
Si       5.75824686       0.00085099      18.78295214  T        1      -0.03287895       0.04645220      -0.15914795
Si       9.60011242       0.00085099      18.78295214  T        1       0.03287897       0.04645220      -0.15914797
Si       1.91979491       3.83975064      18.78291483  T        1      -0.00000000       0.00876151      -0.15846709
Si       5.75824686       3.83873883      18.78295214  T        1      -0.03287895      -0.04645220      -0.15914795
Si       9.60011242       3.83873883      18.78295214  T        1       0.03287897      -0.04645220      -0.15914797
F        7.67917964       1.91979491      20.69663943  T        0      -0.00000000       0.00000000      -0.23568738
H        7.67917964       1.91979491      21.64024743  T        0       0.00000000      -0.00000000       0.27065346
38
Lattice="11.518769465528859 0.0 0.0 0.0 7.679179643685906 0.0 0.0 0.0 30.7875" Properties=species:S:1:pos:R:3:move_mask:L:1:tags:I:1:forces:R:3 surface=Si100 species=HF site=hollow orientation=upright height_A=1.9 substrate_atoms=36 calculation_kind="Rigid evaluated approach scan; not NEB" energy=-188.5739148562049 pbc="T T F"
Si       0.00000000       0.00000000      12.00000000  F        6      -0.00035318      -0.00025917       0.24890771
Si       3.83958982       0.00000000      12.00000000  F        6       0.00035314      -0.00025917       0.24890769
Si       7.67917964       0.00000000      12.00000000  F        6       0.00000000      -0.00117886       0.24702457
Si       0.00000000       3.83958982      12.00000000  F        6      -0.00035318       0.00025917       0.24890771
Si       3.83958982       3.83958982      12.00000000  F        6       0.00035314       0.00025917       0.24890769
Si       7.67917964       3.83958982      12.00000000  F        6       0.00000000       0.00117886       0.24702457
Si       1.91979491       0.00000000      13.35750000  F        5       0.00000000       0.00155769      -0.51887442
Si       5.75938473       0.00000000      13.35750000  F        5       0.00001584       0.00119018      -0.51195949
Si       9.59897455       0.00000000      13.35750000  F        5      -0.00001581       0.00119018      -0.51195951
Si       1.91979491       3.83958982      13.35750000  F        5       0.00000000      -0.00155771      -0.51887443
Si       5.75938473       3.83958982      13.35750000  F        5       0.00001584      -0.00119020      -0.51195951
Si       9.59897455       3.83958982      13.35750000  F        5      -0.00001581      -0.00119020      -0.51195953
Si       1.91979491       1.91979491      14.71500000  F        4      -0.00000001      -0.00000000       0.13555524
Si       5.75938473       1.91979491      14.71500000  F        4       0.01448308      -0.00000000       0.14925328
Si       9.59897455       1.91979491      14.71500000  F        4      -0.01448305      -0.00000000       0.14925330
Si       1.91979491       5.75938473      14.71500000  F        4      -0.00000001       0.00000002       0.13597981
Si       5.75938473       5.75938473      14.71500000  F        4       0.02866533       0.00000002       0.14745734
Si       9.59897455       5.75938473      14.71500000  F        4      -0.02866530       0.00000002       0.14745736
Si      -0.00013205       1.91979491      16.06945074  T        3      -0.00300040      -0.00000000      -0.02264314
Si       3.83972187       1.91979491      16.06945074  T        3       0.00300038      -0.00000000      -0.02264313
Si       7.67917964       1.91979491      16.06857739  T        3       0.00000000      -0.00000000      -0.05318891
Si      -0.00013846       5.75938473      16.06972657  T        3      -0.00324998       0.00000001      -0.02270627
Si       3.83972828       5.75938473      16.06972658  T        3       0.00324995       0.00000001      -0.02270626
Si       7.67917964       5.75938473      16.06947600  T        3       0.00000000       0.00000001      -0.03834120
Si      -0.00036912      -0.00069811      17.44257954  T        2       0.00055357      -0.01763734       0.29164842
Si       3.83995894      -0.00069811      17.44257954  T        2      -0.00055359      -0.01763734       0.29164842
Si       7.67917964      -0.00077921      17.44034048  T        2       0.00000000      -0.02140635       0.24429366
Si      -0.00036912       3.84028793      17.44257954  T        2       0.00055357       0.01763733       0.29164843
Si       3.83995894       3.84028793      17.44257954  T        2      -0.00055359       0.01763733       0.29164842
Si       7.67917964       3.84036902      17.44034048  T        2       0.00000000       0.02140634       0.24429367
Si       1.91979491      -0.00021845      18.78152040  T        1      -0.00000000      -0.00898273      -0.12832988
Si       5.75791927       0.00115654      18.78156384  T        1      -0.02379007       0.04735419      -0.13030057
Si       9.60044001       0.00115654      18.78156384  T        1       0.02379009       0.04735419      -0.13030059
Si       1.91979491       3.83980827      18.78152040  T        1      -0.00000000       0.00898273      -0.12832988
Si       5.75791927       3.83843328      18.78156384  T        1      -0.02379007      -0.04735419      -0.13030057
Si       9.60044001       3.83843328      18.78156384  T        1       0.02379009      -0.04735419      -0.13030058
F        7.67917964       1.91979491      20.69777479  T        0      -0.00000000       0.00000000      -0.35697416
H        7.67917964       1.91979491      21.63934464  T        0       0.00000000      -0.00000000       0.39283476
38
Lattice="11.518769465528859 0.0 0.0 0.0 7.679179643685906 0.0 0.0 0.0 30.7875" Properties=species:S:1:pos:R:3:move_mask:L:1:tags:I:1:forces:R:3 surface=Si100 species=HF site=hollow orientation=upright height_A=1.9 substrate_atoms=36 calculation_kind="Rigid evaluated approach scan; not NEB" energy=-188.5799639375157 pbc="T T F"
Si       0.00000000       0.00000000      12.00000000  F        6      -0.00034146      -0.00027974       0.24857506
Si       3.83958982       0.00000000      12.00000000  F        6       0.00034142      -0.00027974       0.24857504
Si       7.67917964       0.00000000      12.00000000  F        6       0.00000000      -0.00118714       0.24669528
Si       0.00000000       3.83958982      12.00000000  F        6      -0.00034146       0.00027974       0.24857506
Si       3.83958982       3.83958982      12.00000000  F        6       0.00034142       0.00027974       0.24857504
Si       7.67917964       3.83958982      12.00000000  F        6       0.00000000       0.00118714       0.24669528
Si       1.91979491       0.00000000      13.35750000  F        5       0.00000000       0.00156584      -0.51661461
Si       5.75938473       0.00000000      13.35750000  F        5      -0.00026878       0.00124161      -0.50995348
Si       9.59897455       0.00000000      13.35750000  F        5       0.00026881       0.00124161      -0.50995349
Si       1.91979491       3.83958982      13.35750000  F        5       0.00000000      -0.00156586      -0.51661462
Si       5.75938473       3.83958982      13.35750000  F        5      -0.00026878      -0.00124163      -0.50995349
Si       9.59897455       3.83958982      13.35750000  F        5       0.00026881      -0.00124163      -0.50995351
Si       1.91979491       1.91979491      14.71500000  F        4      -0.00000001      -0.00000000       0.13160562
Si       5.75938473       1.91979491      14.71500000  F        4       0.01390024      -0.00000000       0.14383495
Si       9.59897455       1.91979491      14.71500000  F        4      -0.01390021      -0.00000000       0.14383496
Si       1.91979491       5.75938473      14.71500000  F        4      -0.00000001       0.00000002       0.13274008
Si       5.75938473       5.75938473      14.71500000  F        4       0.02859483       0.00000002       0.14309534
Si       9.59897455       5.75938473      14.71500000  F        4      -0.02859480       0.00000002       0.14309536
Si      -0.00016868       1.91979491      16.06877129  T        3      -0.00238909      -0.00000000       0.00832157
Si       3.83975850       1.91979491      16.06877129  T        3       0.00238907      -0.00000000       0.00832158
Si       7.67917964       1.91979491      16.06761755  T        3       0.00000000      -0.00000000      -0.02201362
Si      -0.00017723       5.75938473      16.06910089  T        3      -0.00265136       0.00000001       0.00474661
Si       3.83976705       5.75938473      16.06910089  T        3       0.00265134       0.00000001       0.00474662
Si       7.67917964       5.75938473      16.06874443  T        3       0.00000000       0.00000001      -0.01284305
Si      -0.00043944      -0.00089870      17.44610946  T        2       0.00538253      -0.01482616       0.22574049
Si       3.84002926      -0.00089870      17.44610946  T        2      -0.00538255      -0.01482616       0.22574049
Si       7.67917964      -0.00101023      17.44325762  T        2       0.00000000      -0.01817685       0.19220354
Si      -0.00043944       3.84048851      17.44610946  T        2       0.00538253       0.01482616       0.22574049
Si       3.84002926       3.84048851      17.44610946  T        2      -0.00538255       0.01482616       0.22574049
Si       7.67917964       3.84060005      17.44325762  T        2       0.00000000       0.01817685       0.19220355
Si       1.91979491      -0.00029384      18.77987808  T        1      -0.00000001      -0.00926644      -0.09227154
Si       5.75754641       0.00155565      18.77992355  T        1      -0.01361722       0.04834220      -0.09606687
Si       9.60081287       0.00155565      18.77992355  T        1       0.01361723       0.04834220      -0.09606688
Si       1.91979491       3.83988366      18.77987808  T        1      -0.00000001       0.00926644      -0.09227153
Si       5.75754641       3.83803417      18.77992355  T        1      -0.01361722      -0.04834220      -0.09606687
Si       9.60081287       3.83803417      18.77992355  T        1       0.01361723      -0.04834220      -0.09606688
F        7.67917964       1.91979491      20.69817043  T        0      -0.00000000       0.00000000      -0.38768902
H        7.67917964       1.91979491      21.63925241  T        0       0.00000000      -0.00000000       0.42499695
38
Lattice="11.518769465528859 0.0 0.0 0.0 7.679179643685906 0.0 0.0 0.0 30.7875" Properties=species:S:1:pos:R:3:move_mask:L:1:tags:I:1:forces:R:3 surface=Si100 species=HF site=hollow orientation=upright height_A=1.9 substrate_atoms=36 calculation_kind="Rigid evaluated approach scan; not NEB" energy=-188.58563824753895 pbc="T T F"
Si       0.00000000       0.00000000      12.00000000  F        6      -0.00032690      -0.00030079       0.24823054
Si       3.83958982       0.00000000      12.00000000  F        6       0.00032686      -0.00030079       0.24823053
Si       7.67917964       0.00000000      12.00000000  F        6       0.00000000      -0.00120022       0.24634249
Si       0.00000000       3.83958982      12.00000000  F        6      -0.00032690       0.00030079       0.24823054
Si       3.83958982       3.83958982      12.00000000  F        6       0.00032686       0.00030079       0.24823053
Si       7.67917964       3.83958982      12.00000000  F        6       0.00000000       0.00120022       0.24634249
Si       1.91979491       0.00000000      13.35750000  F        5       0.00000000       0.00157237      -0.51400537
Si       5.75938473       0.00000000      13.35750000  F        5      -0.00060930       0.00128905      -0.50758495
Si       9.59897455       0.00000000      13.35750000  F        5       0.00060933       0.00128905      -0.50758497
Si       1.91979491       3.83958982      13.35750000  F        5       0.00000000      -0.00157239      -0.51400538
Si       5.75938473       3.83958982      13.35750000  F        5      -0.00060930      -0.00128907      -0.50758496
Si       9.59897455       3.83958982      13.35750000  F        5       0.00060933      -0.00128907      -0.50758498
Si       1.91979491       1.91979491      14.71500000  F        4      -0.00000001      -0.00000000       0.12786093
Si       5.75938473       1.91979491      14.71500000  F        4       0.01309158      -0.00000000       0.13843423
Si       9.59897455       1.91979491      14.71500000  F        4      -0.01309156      -0.00000000       0.13843424
Si       1.91979491       5.75938473      14.71500000  F        4      -0.00000001       0.00000002       0.12977298
Si       5.75938473       5.75938473      14.71500000  F        4       0.02840584       0.00000002       0.13882800
Si       9.59897455       5.75938473      14.71500000  F        4      -0.02840582       0.00000002       0.13882801
Si      -0.00021111       1.91979491      16.06811919  T        3      -0.00171176      -0.00000000       0.04195339
Si       3.83980093       1.91979491      16.06811919  T        3       0.00171174      -0.00000000       0.04195340
Si       7.67917964       1.91979491      16.06660990  T        3       0.00000000      -0.00000000       0.01188310
Si      -0.00022245       5.75938473      16.06849293  T        3      -0.00200259       0.00000000       0.03454890
Si       3.83981227       5.75938473      16.06849293  T        3       0.00200257       0.00000000       0.03454891
Si       7.67917964       5.75938473      16.06798649  T        3       0.00000000       0.00000000       0.01506772
Si      -0.00049537      -0.00113544      17.45018579  T        2       0.01053963      -0.01178407       0.15073593
Si       3.84008518      -0.00113544      17.45018579  T        2      -0.01053964      -0.01178407       0.15073594
Si       7.67917964      -0.00128573      17.44664077  T        2       0.00000001      -0.01427844       0.13293149
Si      -0.00049537       3.84072526      17.45018579  T        2       0.01053963       0.01178406       0.15073593
Si       3.84008518       3.84072526      17.45018579  T        2      -0.01053964       0.01178406       0.15073594
Si       7.67917964       3.84087555      17.44664077  T        2       0.00000001       0.01427844       0.13293149
Si       1.91979491      -0.00039227      18.77801419  T        1      -0.00000001      -0.00963349      -0.05041878
Si       5.75714202       0.00207495      18.77805197  T        1      -0.00273657       0.04946585      -0.05669610
Si       9.60121726       0.00207495      18.77805197  T        1       0.00273658       0.04946585      -0.05669611
Si       1.91979491       3.83998209      18.77801419  T        1      -0.00000001       0.00963349      -0.05041878
Si       5.75714202       3.83751487      18.77805197  T        1      -0.00273657      -0.04946585      -0.05669610
Si       9.60121726       3.83751487      18.77805197  T        1       0.00273658      -0.04946585      -0.05669610
F        7.67917964       1.91979491      20.69757021  T        0      -0.00000000       0.00000000      -0.29479900
H        7.67917964       1.91979491      21.64024884  T        0       0.00000000      -0.00000000       0.33424390
38
Lattice="11.518769465528859 0.0 0.0 0.0 7.679179643685906 0.0 0.0 0.0 30.7875" Properties=species:S:1:pos:R:3:move_mask:L:1:tags:I:1:forces:R:3 surface=Si100 species=HF site=hollow orientation=upright height_A=1.9 substrate_atoms=36 calculation_kind="Rigid evaluated approach scan; not NEB" energy=-188.58959893212116 pbc="T T F"
Si       0.00000000       0.00000000      12.00000000  F        6      -0.00030762      -0.00032011       0.24790534
Si       3.83958982       0.00000000      12.00000000  F        6       0.00030758      -0.00032011       0.24790532
Si       7.67917964       0.00000000      12.00000000  F        6       0.00000000      -0.00121666       0.24598991
Si       0.00000000       3.83958982      12.00000000  F        6      -0.00030762       0.00032011       0.24790534
Si       3.83958982       3.83958982      12.00000000  F        6       0.00030758       0.00032011       0.24790532
Si       7.67917964       3.83958982      12.00000000  F        6       0.00000000       0.00121666       0.24598991
Si       1.91979491       0.00000000      13.35750000  F        5       0.00000000       0.00157425      -0.51106308
Si       5.75938473       0.00000000      13.35750000  F        5      -0.00101659       0.00133088      -0.50484731
Si       9.59897455       0.00000000      13.35750000  F        5       0.00101662       0.00133088      -0.50484732
Si       1.91979491       3.83958982      13.35750000  F        5       0.00000000      -0.00157427      -0.51106309
Si       5.75938473       3.83958982      13.35750000  F        5      -0.00101659      -0.00133090      -0.50484732
Si       9.59897455       3.83958982      13.35750000  F        5       0.00101662      -0.00133090      -0.50484734
Si       1.91979491       1.91979491      14.71500000  F        4      -0.00000001      -0.00000000       0.12512923
Si       5.75938473       1.91979491      14.71500000  F        4       0.01194260      -0.00000000       0.13382317
Si       9.59897455       1.91979491      14.71500000  F        4      -0.01194258      -0.00000000       0.13382318
Si       1.91979491       5.75938473      14.71500000  F        4      -0.00000001       0.00000002       0.12779148
Si       5.75938473       5.75938473      14.71500000  F        4       0.02801246       0.00000002       0.13533288
Si       9.59897455       5.75938473      14.71500000  F        4      -0.02801244       0.00000002       0.13533289
Si      -0.00025926       1.91979491      16.06762056  T        3      -0.00092438      -0.00000000       0.07615433
Si       3.83984907       1.91979491      16.06762056  T        3       0.00092436      -0.00000000       0.07615433
Si       7.67917964       1.91979491      16.06565215  T        3       0.00000000      -0.00000000       0.04684506
Si      -0.00027439       5.75938473      16.06801190  T        3      -0.00129286       0.00000000       0.06483448
Si       3.83986421       5.75938473      16.06801190  T        3       0.00129285       0.00000000       0.06483448
Si       7.67917964       5.75938473      16.06728777  T        3       0.00000000       0.00000000       0.04400582
Si      -0.00051357      -0.00141202      17.45476338  T        2       0.01553711      -0.00856545       0.06847315
Si       3.84010339      -0.00141202      17.45476338  T        2      -0.01553712      -0.00856545       0.06847315
Si       7.67917964      -0.00160958      17.45046763  T        2       0.00000001      -0.00978033       0.06743400
Si      -0.00051357       3.84100184      17.45476338  T        2       0.01553711       0.00856545       0.06847314
Si       3.84010339       3.84100184      17.45476338  T        2      -0.01553712       0.00856545       0.06847315
Si       7.67917964       3.84119940      17.45046763  T        2       0.00000001       0.00978033       0.06743400
Si       1.91979491      -0.00052401      18.77598654  T        1      -0.00000001      -0.01013061      -0.00320772
Si       5.75673110       0.00276514      18.77599449  T        1       0.00827179       0.05091294      -0.01268859
Si       9.60162818       0.00276514      18.77599449  T        1      -0.00827179       0.05091294      -0.01268860
Si       1.91979491       3.84011383      18.77598654  T        1      -0.00000001       0.01013060      -0.00320771
Si       5.75673110       3.83682468      18.77599449  T        1       0.00827179      -0.05091294      -0.01268859
Si       9.60162818       3.83682468      18.77599449  T        1      -0.00827179      -0.05091294      -0.01268859
F        7.67917964       1.91979491      20.69593207  T        0      -0.00000000       0.00000000      -0.07647997
H        7.67917964       1.91979491      21.64241960  T        0       0.00000000      -0.00000000       0.11874215
38
Lattice="11.518769465528859 0.0 0.0 0.0 7.679179643685906 0.0 0.0 0.0 30.7875" Properties=species:S:1:pos:R:3:move_mask:L:1:tags:I:1:forces:R:3 surface=Si100 species=HF site=hollow orientation=upright height_A=1.9 substrate_atoms=36 calculation_kind="Rigid evaluated approach scan; not NEB" energy=-188.5901569620706 pbc="T T F"
Si       0.00000000       0.00000000      12.00000000  F        6      -0.00027783      -0.00033215       0.24767187
Si       3.83958982       0.00000000      12.00000000  F        6       0.00027779      -0.00033215       0.24767185
Si       7.67917964       0.00000000      12.00000000  F        6       0.00000000      -0.00122941       0.24569202
Si       0.00000000       3.83958982      12.00000000  F        6      -0.00027783       0.00033215       0.24767187
Si       3.83958982       3.83958982      12.00000000  F        6       0.00027779       0.00033215       0.24767185
Si       7.67917964       3.83958982      12.00000000  F        6       0.00000000       0.00122941       0.24569202
Si       1.91979491       0.00000000      13.35750000  F        5       0.00000000       0.00156360      -0.50779801
Si       5.75938473       0.00000000      13.35750000  F        5      -0.00152601       0.00137103      -0.50171165
Si       9.59897455       0.00000000      13.35750000  F        5       0.00152604       0.00137103      -0.50171166
Si       1.91979491       3.83958982      13.35750000  F        5       0.00000000      -0.00156362      -0.50779802
Si       5.75938473       3.83958982      13.35750000  F        5      -0.00152601      -0.00137106      -0.50171166
Si       9.59897455       3.83958982      13.35750000  F        5       0.00152604      -0.00137106      -0.50171168
Si       1.91979491       1.91979491      14.71500000  F        4      -0.00000001      -0.00000000       0.12561465
Si       5.75938473       1.91979491      14.71500000  F        4       0.01014085      -0.00000000       0.13202438
Si       9.59897455       1.91979491      14.71500000  F        4      -0.01014083      -0.00000000       0.13202439
Si       1.91979491       5.75938473      14.71500000  F        4      -0.00000001       0.00000002       0.12871323
Si       5.75938473       5.75938473      14.71500000  F        4       0.02719410       0.00000002       0.13437800
Si       9.59897455       5.75938473      14.71500000  F        4      -0.02719408       0.00000002       0.13437801
Si      -0.00031303       1.91979491      16.06761517  T        3       0.00015777      -0.00000000       0.10575753
Si       3.83990284       1.91979491      16.06761517  T        3      -0.00015777      -0.00000000       0.10575753
Si       7.67917964       1.91979491      16.06500219  T        3       0.00000000      -0.00000000       0.07926667
Si      -0.00033431       5.75938473      16.06795118  T        3      -0.00044854      -0.00000000       0.09100735
Si       3.83992412       5.75938473      16.06795118  T        3       0.00044853      -0.00000000       0.09100735
Si       7.67917964       5.75938473      16.06687683  T        3       0.00000000      -0.00000000       0.07073101
Si      -0.00043171      -0.00174183      17.45975063  T        2       0.01907617      -0.00513761      -0.01662588
Si       3.84002153      -0.00174183      17.45975063  T        2      -0.01907617      -0.00513761      -0.01662587
Si       7.67917964      -0.00199416      17.45470252  T        2       0.00000001      -0.00481573      -0.00242133
Si      -0.00043171       3.84133165      17.45975063  T        2       0.01907617       0.00513762      -0.01662589
Si       3.84002153       3.84133165      17.45975063  T        2      -0.01907617       0.00513762      -0.01662587
Si       7.67917964       3.84158398      17.45470252  T        2       0.00000001       0.00481573      -0.00242134
Si       1.91979491      -0.00072003      18.77395192  T        1      -0.00000001      -0.01091259       0.04822663
Si       5.75637617       0.00377820      18.77386924  T        1       0.01808098       0.05337239       0.03478094
Si       9.60198311       0.00377820      18.77386924  T        1      -0.01808098       0.05337239       0.03478094
Si       1.91979491       3.84030985      18.77395192  T        1      -0.00000001       0.01091259       0.04822663
Si       5.75637617       3.83581162      18.77386924  T        1       0.01808098      -0.05337239       0.03478095
Si       9.60198311       3.83581162      18.77386924  T        1      -0.01808098      -0.05337239       0.03478095
F        7.67917964       1.91979491      20.69381297  T        0      -0.00000000       0.00000000       0.20095593
H        7.67917964       1.91979491      21.64533959  T        0       0.00000000      -0.00000000      -0.15547568
38
Lattice="11.518769465528859 0.0 0.0 0.0 7.679179643685906 0.0 0.0 0.0 30.7875" Properties=species:S:1:pos:R:3:move_mask:L:1:tags:I:1:forces:R:3 surface=Si100 species=HF site=hollow orientation=upright height_A=1.9 substrate_atoms=36 calculation_kind="Rigid evaluated approach scan; not NEB" energy=-188.59022355939035 pbc="T T F"
Si       0.00000000       0.00000000      12.00000000  F        6      -0.00027695      -0.00033132       0.24768194
Si       3.83958982       0.00000000      12.00000000  F        6       0.00027691      -0.00033132       0.24768192
Si       7.67917964       0.00000000      12.00000000  F        6       0.00000000      -0.00122823       0.24569946
Si       0.00000000       3.83958982      12.00000000  F        6      -0.00027695       0.00033132       0.24768194
Si       3.83958982       3.83958982      12.00000000  F        6       0.00027691       0.00033132       0.24768192
Si       7.67917964       3.83958982      12.00000000  F        6       0.00000000       0.00122823       0.24569946
Si       1.91979491       0.00000000      13.35750000  F        5       0.00000000       0.00156251      -0.50779507
Si       5.75938473       0.00000000      13.35750000  F        5      -0.00153201       0.00137195      -0.50170400
Si       9.59897455       0.00000000      13.35750000  F        5       0.00153204       0.00137195      -0.50170402
Si       1.91979491       3.83958982      13.35750000  F        5       0.00000000      -0.00156253      -0.50779509
Si       5.75938473       3.83958982      13.35750000  F        5      -0.00153201      -0.00137197      -0.50170401
Si       9.59897455       3.83958982      13.35750000  F        5       0.00153204      -0.00137197      -0.50170403
Si       1.91979491       1.91979491      14.71500000  F        4      -0.00000001      -0.00000000       0.12594725
Si       5.75938473       1.91979491      14.71500000  F        4       0.01009290      -0.00000000       0.13232573
Si       9.59897455       1.91979491      14.71500000  F        4      -0.01009288      -0.00000000       0.13232573
Si       1.91979491       5.75938473      14.71500000  F        4      -0.00000001       0.00000002       0.12900324
Si       5.75938473       5.75938473      14.71500000  F        4       0.02716195       0.00000002       0.13464097
Si       9.59897455       5.75938473      14.71500000  F        4      -0.02716193       0.00000002       0.13464098
Si      -0.00031295       1.91979491      16.06766618  T        3       0.00018771      -0.00000000       0.10503702
Si       3.83990277       1.91979491      16.06766618  T        3      -0.00018771      -0.00000000       0.10503702
Si       7.67917964       1.91979491      16.06504042  T        3       0.00000000      -0.00000000       0.07880187
Si      -0.00033452       5.75938473      16.06799508  T        3      -0.00043632      -0.00000000       0.09036527
Si       3.83992434       5.75938473      16.06799508  T        3       0.00043631      -0.00000000       0.09036528
Si       7.67917964       5.75938473      16.06691095  T        3       0.00000000      -0.00000000       0.07028777
Si      -0.00042251      -0.00174431      17.45974261  T        2       0.01889726      -0.00511989      -0.01605277
Si       3.84001233      -0.00174431      17.45974261  T        2      -0.01889726      -0.00511989      -0.01605276
Si       7.67917964      -0.00199648      17.45470135  T        2       0.00000001      -0.00480698      -0.00220054
Si      -0.00042251       3.84133413      17.45974261  T        2       0.01889726       0.00511989      -0.01605277
Si       3.84001233       3.84133413      17.45974261  T        2      -0.01889726       0.00511989      -0.01605276
Si       7.67917964       3.84158630      17.45470135  T        2       0.00000001       0.00480698      -0.00220054
Si       1.91979491      -0.00072529      18.77397518  T        1      -0.00000001      -0.01094020       0.04808037
Si       5.75638489       0.00380394      18.77388602  T        1       0.01789827       0.05348743       0.03462623
Si       9.60197439       0.00380394      18.77388602  T        1      -0.01789827       0.05348743       0.03462623
Si       1.91979491       3.84031511      18.77397518  T        1      -0.00000001       0.01094020       0.04808038
Si       5.75638489       3.83578588      18.77388602  T        1       0.01789827      -0.05348743       0.03462623
Si       9.60197439       3.83578588      18.77388602  T        1      -0.01789827      -0.05348743       0.03462623
F        7.67917964       1.91979491      20.69390989  T        0      -0.00000000       0.00000000       0.19171214
H        7.67917964       1.91979491      21.64526461  T        0       0.00000000      -0.00000000      -0.14626421
38
Lattice="11.518769465528859 0.0 0.0 0.0 7.679179643685906 0.0 0.0 0.0 30.7875" Properties=species:S:1:pos:R:3:move_mask:L:1:tags:I:1:forces:R:3 surface=Si100 species=HF site=hollow orientation=upright height_A=1.9 substrate_atoms=36 calculation_kind="Rigid evaluated approach scan; not NEB" energy=-188.59034986086863 pbc="T T F"
Si       0.00000000       0.00000000      12.00000000  F        6      -0.00027521      -0.00032966       0.24770201
Si       3.83958982       0.00000000      12.00000000  F        6       0.00027517      -0.00032966       0.24770199
Si       7.67917964       0.00000000      12.00000000  F        6       0.00000000      -0.00122589       0.24571431
Si       0.00000000       3.83958982      12.00000000  F        6      -0.00027521       0.00032966       0.24770201
Si       3.83958982       3.83958982      12.00000000  F        6       0.00027517       0.00032966       0.24770199
Si       7.67917964       3.83958982      12.00000000  F        6       0.00000000       0.00122589       0.24571431
Si       1.91979491       0.00000000      13.35750000  F        5       0.00000000       0.00156034      -0.50778909
Si       5.75938473       0.00000000      13.35750000  F        5      -0.00154395       0.00137372      -0.50168849
Si       9.59897455       0.00000000      13.35750000  F        5       0.00154399       0.00137372      -0.50168851
Si       1.91979491       3.83958982      13.35750000  F        5       0.00000000      -0.00156036      -0.50778910
Si       5.75938473       3.83958982      13.35750000  F        5      -0.00154395      -0.00137375      -0.50168850
Si       9.59897455       3.83958982      13.35750000  F        5       0.00154399      -0.00137375      -0.50168852
Si       1.91979491       1.91979491      14.71500000  F        4      -0.00000001      -0.00000000       0.12661064
Si       5.75938473       1.91979491      14.71500000  F        4       0.00999722      -0.00000000       0.13292746
Si       9.59897455       1.91979491      14.71500000  F        4      -0.00999720      -0.00000000       0.13292747
Si       1.91979491       5.75938473      14.71500000  F        4      -0.00000001       0.00000002       0.12958200
Si       5.75938473       5.75938473      14.71500000  F        4       0.02709791       0.00000002       0.13516612
Si       9.59897455       5.75938473      14.71500000  F        4      -0.02709789       0.00000002       0.13516613
Si      -0.00031278       1.91979491      16.06776795  T        3       0.00024691      -0.00000000       0.10360110
Si       3.83990260       1.91979491      16.06776795  T        3      -0.00024691      -0.00000000       0.10360110
Si       7.67917964       1.91979491      16.06511674  T        3       0.00000000      -0.00000000       0.07787161
Si      -0.00033495       5.75938473      16.06808264  T        3      -0.00041245      -0.00000000       0.08908575
Si       3.83992477       5.75938473      16.06808264  T        3       0.00041244      -0.00000000       0.08908575
Si       7.67917964       5.75938473      16.06697903  T        3       0.00000000      -0.00000000       0.06940291
Si      -0.00040418      -0.00174926      17.45972686  T        2       0.01854127      -0.00508481      -0.01491235
Si       3.83999400      -0.00174926      17.45972686  T        2      -0.01854127      -0.00508481      -0.01491234
Si       7.67917964      -0.00200113      17.45469913  T        2       0.00000001      -0.00478899      -0.00175945
Si      -0.00040418       3.84133908      17.45972686  T        2       0.01854127       0.00508482      -0.01491236
Si       3.83999400       3.84133908      17.45972686  T        2      -0.01854127       0.00508482      -0.01491234
Si       7.67917964       3.84159095      17.45469913  T        2       0.00000001       0.00478900      -0.00175945
Si       1.91979491      -0.00073585      18.77402168  T        1      -0.00000001      -0.01099554       0.04778917
Si       5.75640226       0.00385555      18.77391953  T        1       0.01753294       0.05371687       0.03431820
Si       9.60195703       0.00385555      18.77391953  T        1      -0.01753294       0.05371687       0.03431820
Si       1.91979491       3.84032567      18.77402168  T        1      -0.00000001       0.01099554       0.04778917
Si       5.75640226       3.83573427      18.77391953  T        1       0.01753294      -0.05371688       0.03431820
Si       9.60195703       3.83573427      18.77391953  T        1      -0.01753294      -0.05371688       0.03431820
F        7.67917964       1.91979491      20.69409908  T        0      -0.00000000       0.00000000       0.17368265
H        7.67917964       1.91979491      21.64511933  T        0       0.00000000      -0.00000000      -0.12829794
38
Lattice="11.518769465528859 0.0 0.0 0.0 7.679179643685906 0.0 0.0 0.0 30.7875" Properties=species:S:1:pos:R:3:move_mask:L:1:tags:I:1:forces:R:3 surface=Si100 species=HF site=hollow orientation=upright height_A=1.9 substrate_atoms=36 calculation_kind="Rigid evaluated approach scan; not NEB" energy=-188.59052339456267 pbc="T T F"
Si       0.00000000       0.00000000      12.00000000  F        6      -0.00027263      -0.00032716       0.24773201
Si       3.83958982       0.00000000      12.00000000  F        6       0.00027259      -0.00032716       0.24773200
Si       7.67917964       0.00000000      12.00000000  F        6       0.00000000      -0.00122243       0.24573648
Si       0.00000000       3.83958982      12.00000000  F        6      -0.00027263       0.00032716       0.24773201
Si       3.83958982       3.83958982      12.00000000  F        6       0.00027259       0.00032716       0.24773200
Si       7.67917964       3.83958982      12.00000000  F        6       0.00000000       0.00122243       0.24573648
Si       1.91979491       0.00000000      13.35750000  F        5       0.00000000       0.00155710      -0.50777976
Si       5.75938473       0.00000000      13.35750000  F        5      -0.00156175       0.00137627      -0.50166462
Si       9.59897455       0.00000000      13.35750000  F        5       0.00156179       0.00137627      -0.50166464
Si       1.91979491       3.83958982      13.35750000  F        5       0.00000000      -0.00155712      -0.50777977
Si       5.75938473       3.83958982      13.35750000  F        5      -0.00156175      -0.00137629      -0.50166463
Si       9.59897455       3.83958982      13.35750000  F        5       0.00156179      -0.00137629      -0.50166465
Si       1.91979491       1.91979491      14.71500000  F        4      -0.00000001      -0.00000000       0.12760243
Si       5.75938473       1.91979491      14.71500000  F        4       0.00985406      -0.00000000       0.13382888
Si       9.59897455       1.91979491      14.71500000  F        4      -0.00985404      -0.00000000       0.13382888
Si       1.91979491       5.75938473      14.71500000  F        4      -0.00000001       0.00000002       0.13044807
Si       5.75938473       5.75938473      14.71500000  F        4       0.02700238       0.00000002       0.13595292
Si       9.59897455       5.75938473      14.71500000  F        4      -0.02700236       0.00000002       0.13595292
Si      -0.00031249       1.91979491      16.06792018  T        3       0.00033405      -0.00000000       0.10145759
Si       3.83990230       1.91979491      16.06792018  T        3      -0.00033405      -0.00000000       0.10145759
Si       7.67917964       1.91979491      16.06523100  T        3       0.00000000      -0.00000000       0.07647261
Si      -0.00033558       5.75938473      16.06821359  T        3      -0.00037808      -0.00000000       0.08717590
Si       3.83992539       5.75938473      16.06821359  T        3       0.00037808      -0.00000000       0.08717591
Si       7.67917964       5.75938473      16.06708093  T        3       0.00000000      -0.00000000       0.06807798
Si      -0.00037683      -0.00175670      17.45970395  T        2       0.01801140      -0.00503311      -0.01321469
Si       3.83996665      -0.00175670      17.45970395  T        2      -0.01801140      -0.00503311      -0.01321468
Si       7.67917964      -0.00200812      17.45469610  T        2       0.00000001      -0.00476058      -0.00109817
Si      -0.00037683       3.84134652      17.45970395  T        2       0.01801140       0.00503312      -0.01321469
Si       3.83996665       3.84134652      17.45970395  T        2      -0.01801140       0.00503312      -0.01321468
Si       7.67917964       3.84159793      17.45469610  T        2       0.00000001       0.00476059      -0.00109818
Si       1.91979491      -0.00075178      18.77409151  T        1      -0.00000001      -0.01107901       0.04735519
Si       5.75642815       0.00393345      18.77396978  T        1       0.01698446       0.05405993       0.03385912
Si       9.60193113       0.00393345      18.77396978  T        1      -0.01698446       0.05405993       0.03385911
Si       1.91979491       3.84034160      18.77409151  T        1      -0.00000001       0.01107901       0.04735519
Si       5.75642815       3.83565637      18.77396978  T        1       0.01698446      -0.05405994       0.03385912
Si       9.60193113       3.83565637      18.77396978  T        1      -0.01698446      -0.05405994       0.03385912
F        7.67917964       1.91979491      20.69437101  T        0      -0.00000000       0.00000000       0.14782640
H        7.67917964       1.91979491      21.64491349  T        0       0.00000000      -0.00000000      -0.10253272
38
Lattice="11.518769465528859 0.0 0.0 0.0 7.679179643685906 0.0 0.0 0.0 30.7875" Properties=species:S:1:pos:R:3:move_mask:L:1:tags:I:1:forces:R:3 surface=Si100 species=HF site=hollow orientation=upright height_A=1.9 substrate_atoms=36 calculation_kind="Rigid evaluated approach scan; not NEB" energy=-188.59072859696906 pbc="T T F"
Si       0.00000000       0.00000000      12.00000000  F        6      -0.00026924      -0.00032380       0.24777187
Si       3.83958982       0.00000000      12.00000000  F        6       0.00026920      -0.00032380       0.24777186
Si       7.67917964       0.00000000      12.00000000  F        6       0.00000000      -0.00121788       0.24576592
Si       0.00000000       3.83958982      12.00000000  F        6      -0.00026924       0.00032380       0.24777187
Si       3.83958982       3.83958982      12.00000000  F        6       0.00026920       0.00032380       0.24777186
Si       7.67917964       3.83958982      12.00000000  F        6       0.00000000       0.00121788       0.24576592
Si       1.91979491       0.00000000      13.35750000  F        5       0.00000000       0.00155280      -0.50776661
Si       5.75938473       0.00000000      13.35750000  F        5      -0.00158531       0.00137944      -0.50163157
Si       9.59897455       0.00000000      13.35750000  F        5       0.00158534       0.00137944      -0.50163159
Si       1.91979491       3.83958982      13.35750000  F        5       0.00000000      -0.00155283      -0.50776663
Si       5.75938473       3.83958982      13.35750000  F        5      -0.00158531      -0.00137946      -0.50163158
Si       9.59897455       3.83958982      13.35750000  F        5       0.00158534      -0.00137946      -0.50163160
Si       1.91979491       1.91979491      14.71500000  F        4      -0.00000001      -0.00000000       0.12892047
Si       5.75938473       1.91979491      14.71500000  F        4       0.00966358      -0.00000000       0.13503033
Si       9.59897455       1.91979491      14.71500000  F        4      -0.00966356      -0.00000000       0.13503034
Si       1.91979491       5.75938473      14.71500000  F        4      -0.00000001       0.00000002       0.13160065
Si       5.75938473       5.75938473      14.71500000  F        4       0.02687586       0.00000002       0.13700179
Si       9.59897455       5.75938473      14.71500000  F        4      -0.02687584       0.00000002       0.13700180
Si      -0.00031200       1.91979491      16.06812265  T        3       0.00044719      -0.00000000       0.09861552
Si       3.83990182       1.91979491      16.06812265  T        3      -0.00044719      -0.00000000       0.09861552
Si       7.67917964       1.91979491      16.06538318  T        3       0.00000000      -0.00000000       0.07459788
Si      -0.00033638       5.75938473      16.06838769  T        3      -0.00033497      -0.00000000       0.08464409
Si       3.83992620       5.75938473      16.06838769  T        3       0.00033496      -0.00000000       0.08464409
Si       7.67917964       5.75938473      16.06721656  T        3       0.00000000      -0.00000000       0.06631341
Si      -0.00034060      -0.00176663      17.45967481  T        2       0.01731190      -0.00496586      -0.01097331
Si       3.83993041      -0.00176663      17.45967481  T        2      -0.01731190      -0.00496586      -0.01097330
Si       7.67917964      -0.00201747      17.45469267  T        2       0.00000001      -0.00471962      -0.00021573
Si      -0.00034060       3.84135645      17.45967481  T        2       0.01731190       0.00496586      -0.01097331
Si       3.83993041       3.84135645      17.45967481  T        2      -0.01731190       0.00496586      -0.01097330
Si       7.67917964       3.84160729      17.45469267  T        2       0.00000001       0.00471963      -0.00021574
Si       1.91979491      -0.00077327      18.77418490  T        1      -0.00000001      -0.01119140       0.04678129
Si       5.75646241       0.00403843      18.77403685  T        1       0.01625120       0.05451611       0.03325164
Si       9.60189687       0.00403843      18.77403685  T        1      -0.01625120       0.05451611       0.03325164
Si       1.91979491       3.84036309      18.77418490  T        1      -0.00000001       0.01119140       0.04678129
Si       5.75646241       3.83555139      18.77403685  T        1       0.01625120      -0.05451611       0.03325164
Si       9.60189687       3.83555139      18.77403685  T        1      -0.01625120      -0.05451611       0.03325164
F        7.67917964       1.91979491      20.69471112  T        0      -0.00000000       0.00000000       0.11564902
H        7.67917964       1.91979491      21.64466208  T        0       0.00000000      -0.00000000      -0.07046910
38
Lattice="11.518769465528859 0.0 0.0 0.0 7.679179643685906 0.0 0.0 0.0 30.7875" Properties=species:S:1:pos:R:3:move_mask:L:1:tags:I:1:forces:R:3 surface=Si100 species=HF site=hollow orientation=upright height_A=1.9 substrate_atoms=36 calculation_kind="Rigid evaluated approach scan; not NEB" energy=-188.59095011517272 pbc="T T F"
Si       0.00000000       0.00000000      12.00000000  F        6      -0.00026510      -0.00031956       0.24782151
Si       3.83958982       0.00000000      12.00000000  F        6       0.00026506      -0.00031956       0.24782150
Si       7.67917964       0.00000000      12.00000000  F        6       0.00000000      -0.00121231       0.24580255
Si       0.00000000       3.83958982      12.00000000  F        6      -0.00026510       0.00031956       0.24782151
Si       3.83958982       3.83958982      12.00000000  F        6       0.00026506       0.00031956       0.24782150
Si       7.67917964       3.83958982      12.00000000  F        6       0.00000000       0.00121231       0.24580255
Si       1.91979491       0.00000000      13.35750000  F        5       0.00000000       0.00154747      -0.50774891
Si       5.75938473       0.00000000      13.35750000  F        5      -0.00161450       0.00138304      -0.50158814
Si       9.59897455       0.00000000      13.35750000  F        5       0.00161453       0.00138304      -0.50158816
Si       1.91979491       3.83958982      13.35750000  F        5       0.00000000      -0.00154749      -0.50774892
Si       5.75938473       3.83958982      13.35750000  F        5      -0.00161450      -0.00138306      -0.50158816
Si       9.59897455       3.83958982      13.35750000  F        5       0.00161453      -0.00138306      -0.50158817
Si       1.91979491       1.91979491      14.71500000  F        4      -0.00000001      -0.00000000       0.13056274
Si       5.75938473       1.91979491      14.71500000  F        4       0.00942588      -0.00000000       0.13653318
Si       9.59897455       1.91979491      14.71500000  F        4      -0.00942586      -0.00000000       0.13653318
Si       1.91979491       5.75938473      14.71500000  F        4      -0.00000001       0.00000002       0.13303948
Si       5.75938473       5.75938473      14.71500000  F        4       0.02671900       0.00000002       0.13831403
Si       9.59897455       5.75938473      14.71500000  F        4      -0.02671898       0.00000002       0.13831404
Si      -0.00031125       1.91979491      16.06837519  T        3       0.00058373      -0.00000000       0.09508588
Si       3.83990107       1.91979491      16.06837519  T        3      -0.00058374      -0.00000000       0.09508588
Si       7.67917964       1.91979491      16.06557333  T        3       0.00000000      -0.00000000       0.07223724
Si      -0.00033735       5.75938473      16.06860473  T        3      -0.00028548      -0.00000000       0.08150060
Si       3.83992716       5.75938473      16.06860473  T        3       0.00028548      -0.00000000       0.08150060
Si       7.67917964       5.75938473      16.06738591  T        3       0.00000000      -0.00000000       0.06410892
Si      -0.00029564      -0.00177912      17.45964076  T        2       0.01644846      -0.00488447      -0.00820630
Si       3.83988546      -0.00177912      17.45964076  T        2      -0.01644846      -0.00488447      -0.00820629
Si       7.67917964      -0.00202926      17.45468942  T        2       0.00000001      -0.00466283       0.00088975
Si      -0.00029564       3.84136894      17.45964076  T        2       0.01644846       0.00488447      -0.00820630
Si       3.83988546       3.84136894      17.45964076  T        2      -0.01644846       0.00488447      -0.00820629
Si       7.67917964       3.84161908      17.45468942  T        2       0.00000001       0.00466283       0.00088975
Si       1.91979491      -0.00080060      18.77430232  T        1      -0.00000001      -0.01133399       0.04607124
Si       5.75650483       0.00417179      18.77412092  T        1       0.01533084       0.05508542       0.03249896
Si       9.60185445       0.00417179      18.77412092  T        1      -0.01533084       0.05508542       0.03249896
Si       1.91979491       3.84039042      18.77430232  T        1      -0.00000001       0.01133399       0.04607124
Si       5.75650483       3.83541803      18.77412092  T        1       0.01533084      -0.05508543       0.03249897
Si       9.60185445       3.83541803      18.77412092  T        1      -0.01533084      -0.05508543       0.03249897
F        7.67917964       1.91979491      20.69509968  T        0      -0.00000000       0.00000000       0.07925621
H        7.67917964       1.91979491      21.64438556  T        0       0.00000000      -0.00000000      -0.03420531
38
Lattice="11.518769465528859 0.0 0.0 0.0 7.679179643685906 0.0 0.0 0.0 30.7875" Properties=species:S:1:pos:R:3:move_mask:L:1:tags:I:1:forces:R:3 surface=Si100 species=HF site=hollow orientation=upright height_A=1.9 substrate_atoms=36 calculation_kind="Rigid evaluated approach scan; not NEB" energy=-188.59117630865447 pbc="T T F"
Si       0.00000000       0.00000000      12.00000000  F        6      -0.00026026      -0.00031440       0.24788078
Si       3.83958982       0.00000000      12.00000000  F        6       0.00026022      -0.00031440       0.24788076
Si       7.67917964       0.00000000      12.00000000  F        6       0.00000000      -0.00120579       0.24584623
Si       0.00000000       3.83958982      12.00000000  F        6      -0.00026026       0.00031440       0.24788078
Si       3.83958982       3.83958982      12.00000000  F        6       0.00026022       0.00031440       0.24788076
Si       7.67917964       3.83958982      12.00000000  F        6       0.00000000       0.00120579       0.24584623
Si       1.91979491       0.00000000      13.35750000  F        5       0.00000000       0.00154114      -0.50772564
Si       5.75938473       0.00000000      13.35750000  F        5      -0.00164917       0.00138683      -0.50153285
Si       9.59897455       0.00000000      13.35750000  F        5       0.00164920       0.00138683      -0.50153287
Si       1.91979491       3.83958982      13.35750000  F        5       0.00000000      -0.00154116      -0.50772565
Si       5.75938473       3.83958982      13.35750000  F        5      -0.00164917      -0.00138685      -0.50153286
Si       9.59897455       3.83958982      13.35750000  F        5       0.00164920      -0.00138685      -0.50153288
Si       1.91979491       1.91979491      14.71500000  F        4      -0.00000001      -0.00000000       0.13252477
Si       5.75938473       1.91979491      14.71500000  F        4       0.00914133      -0.00000000       0.13833736
Si       9.59897455       1.91979491      14.71500000  F        4      -0.00914132      -0.00000000       0.13833737
Si       1.91979491       5.75938473      14.71500000  F        4      -0.00000001       0.00000002       0.13476262
Si       5.75938473       5.75938473      14.71500000  F        4       0.02653286       0.00000002       0.13988971
Si       9.59897455       5.75938473      14.71500000  F        4      -0.02653284       0.00000002       0.13988971
Si      -0.00031011       1.91979491      16.06867731  T        3       0.00074025      -0.00000000       0.09088749
Si       3.83989993       1.91979491      16.06867731  T        3      -0.00074026      -0.00000000       0.09088749
Si       7.67917964       1.91979491      16.06580132  T        3       0.00000000      -0.00000000       0.06938190
Si      -0.00033844       5.75938473      16.06886422  T        3      -0.00023268      -0.00000000       0.07776294
Si       3.83992826       5.75938473      16.06886422  T        3       0.00023267      -0.00000000       0.07776294
Si       7.67917964       5.75938473      16.06758879  T        3       0.00000000      -0.00000000       0.06146730
Si      -0.00024223      -0.00179420      17.45960365  T        2       0.01542981      -0.00479077      -0.00494149
Si       3.83983205      -0.00179420      17.45960365  T        2      -0.01542981      -0.00479077      -0.00494148
Si       7.67917964      -0.00204354      17.45468720  T        2       0.00000001      -0.00458570       0.00221904
Si      -0.00024223       3.84138402      17.45960365  T        2       0.01542981       0.00479077      -0.00494150
Si       3.83983205       3.84138402      17.45960365  T        2      -0.01542981       0.00479077      -0.00494149
Si       7.67917964       3.84163336      17.45468720  T        2       0.00000001       0.00458570       0.00221904
Si       1.91979491      -0.00083410      18.77444425  T        1      -0.00000001      -0.01150843       0.04523110
Si       5.75655508       0.00433516      18.77422216  T        1       0.01422245       0.05576800       0.03160610
Si       9.60180420       0.00433516      18.77422216  T        1      -0.01422245       0.05576800       0.03160610
Si       1.91979491       3.84042392      18.77444425  T        1      -0.00000001       0.01150843       0.04523111
Si       5.75655508       3.83525466      18.77422216  T        1       0.01422245      -0.05576801       0.03160611
Si       9.60180420       3.83525466      18.77422216  T        1      -0.01422245      -0.05576801       0.03160611
F        7.67917964       1.91979491      20.69551177  T        0      -0.00000000       0.00000000       0.04138746
H        7.67917964       1.91979491      21.64410977  T        0       0.00000000      -0.00000000       0.00352938
38
Lattice="11.518769465528859 0.0 0.0 0.0 7.679179643685906 0.0 0.0 0.0 30.7875" Properties=species:S:1:pos:R:3:move_mask:L:1:tags:I:1:forces:R:3 surface=Si100 species=HF site=hollow orientation=upright height_A=1.9 substrate_atoms=36 calculation_kind="Rigid evaluated approach scan; not NEB" energy=-188.5914019758359 pbc="T T F"
Si       0.00000000       0.00000000      12.00000000  F        6      -0.00025481      -0.00030831       0.24794926
Si       3.83958982       0.00000000      12.00000000  F        6       0.00025477      -0.00030831       0.24794924
Si       7.67917964       0.00000000      12.00000000  F        6       0.00000000      -0.00119844       0.24589663
Si       0.00000000       3.83958982      12.00000000  F        6      -0.00025481       0.00030831       0.24794926
Si       3.83958982       3.83958982      12.00000000  F        6       0.00025477       0.00030831       0.24794924
Si       7.67917964       3.83958982      12.00000000  F        6       0.00000000       0.00119844       0.24589663
Si       1.91979491       0.00000000      13.35750000  F        5       0.00000000       0.00153386      -0.50769559
Si       5.75938473       0.00000000      13.35750000  F        5      -0.00168904       0.00139052      -0.50146412
Si       9.59897455       0.00000000      13.35750000  F        5       0.00168907       0.00139052      -0.50146414
Si       1.91979491       3.83958982      13.35750000  F        5       0.00000000      -0.00153388      -0.50769560
Si       5.75938473       3.83958982      13.35750000  F        5      -0.00168904      -0.00139055      -0.50146413
Si       9.59897455       3.83958982      13.35750000  F        5       0.00168907      -0.00139055      -0.50146415
Si       1.91979491       1.91979491      14.71500000  F        4      -0.00000001      -0.00000000       0.13479376
Si       5.75938473       1.91979491      14.71500000  F        4       0.00881145      -0.00000000       0.14043574
Si       9.59897455       1.91979491      14.71500000  F        4      -0.00881143      -0.00000000       0.14043575
Si       1.91979491       5.75938473      14.71500000  F        4      -0.00000001       0.00000002       0.13676119
Si       5.75938473       5.75938473      14.71500000  F        4       0.02631950       0.00000002       0.14172262
Si       9.59897455       5.75938473      14.71500000  F        4      -0.02631949       0.00000002       0.14172263
Si      -0.00030846       1.91979491      16.06902727  T        3       0.00091224      -0.00000000       0.08605981
Si       3.83989827       1.91979491      16.06902727  T        3      -0.00091224      -0.00000000       0.08605981
Si       7.67917964       1.91979491      16.06606610  T        3       0.00000000      -0.00000000       0.06603500
Si      -0.00033962       5.75938473      16.06916453  T        3      -0.00018023      -0.00000000       0.07346745
Si       3.83992944       5.75938473      16.06916454  T        3       0.00018023      -0.00000000       0.07346745
Si       7.67917964       5.75938473      16.06782416  T        3       0.00000000      -0.00000000       0.05840328
Si      -0.00018092      -0.00181189      17.45956601  T        2       0.01427092      -0.00468705      -0.00122665
Si       3.83977073      -0.00181189      17.45956601  T        2      -0.01427092      -0.00468705      -0.00122664
Si       7.67917964      -0.00206033      17.45468711  T        2       0.00000001      -0.00448299       0.00376693
Si      -0.00018092       3.84140171      17.45956601  T        2       0.01427092       0.00468706      -0.00122665
Si       3.83977073       3.84140171      17.45956601  T        2      -0.01427092       0.00468706      -0.00122664
Si       7.67917964       3.84165015      17.45468711  T        2       0.00000001       0.00448300       0.00376693
Si       1.91979491      -0.00087415      18.77461083  T        1      -0.00000001      -0.01171623       0.04427188
Si       5.75661252       0.00453010      18.77434043  T        1       0.01293106       0.05656263       0.03058286
Si       9.60174676       0.00453010      18.77434042  T        1      -0.01293106       0.05656263       0.03058286
Si       1.91979491       3.84046397      18.77461083  T        1      -0.00000001       0.01171623       0.04427188
Si       5.75661252       3.83505972      18.77434043  T        1       0.01293106      -0.05656263       0.03058286
Si       9.60174676       3.83505972      18.77434042  T        1      -0.01293106      -0.05656263       0.03058286
F        7.67917964       1.91979491      20.69591819  T        0      -0.00000000       0.00000000       0.00531960
H        7.67917964       1.91979491      21.64386459  T        0       0.00000000      -0.00000000       0.03947091
38
Lattice="11.518769465528859 0.0 0.0 0.0 7.679179643685906 0.0 0.0 0.0 30.7875" Properties=species:S:1:pos:R:3:move_mask:L:1:tags:I:1:forces:R:3 surface=Si100 species=HF site=hollow orientation=upright height_A=1.9 substrate_atoms=36 calculation_kind="Rigid evaluated approach scan; not NEB" energy=-188.59165311956386 pbc="T T F"
Si       0.00000000       0.00000000      12.00000000  F        6      -0.00024822      -0.00030052       0.24803465
Si       3.83958982       0.00000000      12.00000000  F        6       0.00024818      -0.00030052       0.24803464
Si       7.67917964       0.00000000      12.00000000  F        6       0.00000000      -0.00118950       0.24595936
Si       0.00000000       3.83958982      12.00000000  F        6      -0.00024822       0.00030052       0.24803465
Si       3.83958982       3.83958982      12.00000000  F        6       0.00024818       0.00030052       0.24803464
Si       7.67917964       3.83958982      12.00000000  F        6       0.00000000       0.00118950       0.24595936
Si       1.91979491       0.00000000      13.35750000  F        5       0.00000000       0.00152484      -0.50765301
Si       5.75938473       0.00000000      13.35750000  F        5      -0.00173858       0.00139419      -0.50137114
Si       9.59897455       0.00000000      13.35750000  F        5       0.00173861       0.00139419      -0.50137116
Si       1.91979491       3.83958982      13.35750000  F        5       0.00000000      -0.00152486      -0.50765303
Si       5.75938473       3.83958982      13.35750000  F        5      -0.00173858      -0.00139421      -0.50137115
Si       9.59897455       3.83958982      13.35750000  F        5       0.00173861      -0.00139421      -0.50137117
Si       1.91979491       1.91979491      14.71500000  F        4      -0.00000001      -0.00000000       0.13762626
Si       5.75938473       1.91979491      14.71500000  F        4       0.00839835      -0.00000000       0.14307261
Si       9.59897455       1.91979491      14.71500000  F        4      -0.00839833      -0.00000000       0.14307262
Si       1.91979491       5.75938473      14.71500000  F        4      -0.00000001       0.00000002       0.13926493
Si       5.75938473       5.75938473      14.71500000  F        4       0.02605631       0.00000002       0.14402615
Si       9.59897455       5.75938473      14.71500000  F        4      -0.02605629       0.00000002       0.14402616
Si      -0.00030585       1.91979491      16.06946500  T        3       0.00111388      -0.00000000       0.08007758
Si       3.83989566       1.91979491      16.06946500  T        3      -0.00111388      -0.00000000       0.08007758
Si       7.67917964       1.91979491      16.06639826  T        3       0.00000000      -0.00000000       0.06179696
Si      -0.00034099       5.75938473      16.06953977  T        3      -0.00012735      -0.00000000       0.06814900
Si       3.83993080       5.75938473      16.06953977  T        3       0.00012734      -0.00000000       0.06814901
Si       7.67917964       5.75938473      16.06811912  T        3       0.00000000      -0.00000000       0.05456832
Si      -0.00010508      -0.00183437      17.45952745  T        2       0.01285498      -0.00456385       0.00331323
Si       3.83969489      -0.00183437      17.45952745  T        2      -0.01285498      -0.00456385       0.00331324
Si       7.67917964      -0.00208171      17.45469101  T        2       0.00000001      -0.00433411       0.00571195
Si      -0.00010508       3.84142419      17.45952745  T        2       0.01285498       0.00456385       0.00331323
Si       3.83969489       3.84142419      17.45952745  T        2      -0.01285498       0.00456385       0.00331324
Si       7.67917964       3.84167152      17.45469101  T        2       0.00000001       0.00433411       0.00571195
Si       1.91979491      -0.00092621      18.77482270  T        1      -0.00000001      -0.01198544       0.04309469
Si       5.75668309       0.00478307      18.77448994  T        1       0.01131029       0.05756617       0.02932103
Si       9.60167619       0.00478307      18.77448994  T        1      -0.01131029       0.05756617       0.02932103
Si       1.91979491       3.84051603      18.77482270  T        1      -0.00000001       0.01198544       0.04309469
Si       5.75668309       3.83480675      18.77448994  T        1       0.01131029      -0.05756617       0.02932103
Si       9.60167619       3.83480675      18.77448994  T        1      -0.01131029      -0.05756617       0.02932103
F        7.67917964       1.91979491      20.69632619  T        0      -0.00000000       0.00000000      -0.02851359
H        7.67917964       1.91979491      21.64366373  T        0       0.00000000      -0.00000000       0.07318944
38
Lattice="11.518769465528859 0.0 0.0 0.0 7.679179643685906 0.0 0.0 0.0 30.7875" Properties=species:S:1:pos:R:3:move_mask:L:1:tags:I:1:forces:R:3 surface=Si100 species=HF site=hollow orientation=upright height_A=1.9 substrate_atoms=36 calculation_kind="Rigid evaluated approach scan; not NEB" energy=-188.59194194719703 pbc="T T F"
Si       0.00000000       0.00000000      12.00000000  F        6      -0.00024046      -0.00029076       0.24813883
Si       3.83958982       0.00000000      12.00000000  F        6       0.00024042      -0.00029076       0.24813881
Si       7.67917964       0.00000000      12.00000000  F        6       0.00000000      -0.00117886       0.24603575
Si       0.00000000       3.83958982      12.00000000  F        6      -0.00024046       0.00029076       0.24813883
Si       3.83958982       3.83958982      12.00000000  F        6       0.00024042       0.00029076       0.24813881
Si       7.67917964       3.83958982      12.00000000  F        6       0.00000000       0.00117886       0.24603575
Si       1.91979491       0.00000000      13.35750000  F        5       0.00000000       0.00151391      -0.50759307
Si       5.75938473       0.00000000      13.35750000  F        5      -0.00179894       0.00139745      -0.50124722
Si       9.59897455       0.00000000      13.35750000  F        5       0.00179897       0.00139745      -0.50124724
Si       1.91979491       3.83958982      13.35750000  F        5       0.00000000      -0.00151393      -0.50759309
Si       5.75938473       3.83958982      13.35750000  F        5      -0.00179894      -0.00139747      -0.50124723
Si       9.59897455       3.83958982      13.35750000  F        5       0.00179897      -0.00139747      -0.50124725
Si       1.91979491       1.91979491      14.71500000  F        4      -0.00000001      -0.00000000       0.14108623
Si       5.75938473       1.91979491      14.71500000  F        4       0.00789170      -0.00000000       0.14631747
Si       9.59897455       1.91979491      14.71500000  F        4      -0.00789168      -0.00000000       0.14631748
Si       1.91979491       5.75938473      14.71500000  F        4      -0.00000001       0.00000002       0.14233603
Si       5.75938473       5.75938473      14.71500000  F        4       0.02573987       0.00000002       0.14686082
Si       9.59897455       5.75938473      14.71500000  F        4      -0.02573985       0.00000002       0.14686083
Si      -0.00030184       1.91979491      16.07000096  T        3       0.00134234      -0.00000000       0.07283984
Si       3.83989166       1.91979491      16.07000096  T        3      -0.00134235      -0.00000000       0.07283984
Si       7.67917964       1.91979491      16.06680627  T        3       0.00000000      -0.00000000       0.05654707
Si      -0.00034250       5.75938473      16.06999857  T        3      -0.00008018      -0.00000000       0.06172210
Si       3.83993232       5.75938473      16.06999857  T        3       0.00008018      -0.00000000       0.06172210
Si       7.67917964       5.75938473      16.06848105  T        3       0.00000000      -0.00000000       0.04987676
Si      -0.00001352      -0.00186247      17.45949345  T        2       0.01117372      -0.00442076       0.00870615
Si       3.83960334      -0.00186247      17.45949345  T        2      -0.01117372      -0.00442076       0.00870616
Si       7.67917964      -0.00210842      17.45470217  T        2       0.00000000      -0.00412290       0.00809852
Si      -0.00001352       3.84145229      17.45949345  T        2       0.01117372       0.00442076       0.00870615
Si       3.83960334       3.84145229      17.45949345  T        2      -0.01117372       0.00442076       0.00870616
Si       7.67917964       3.84169824      17.45470217  T        2       0.00000000       0.00412290       0.00809852
Si       1.91979491      -0.00099310      18.77508765  T        1      -0.00000001      -0.01232984       0.04168917
Si       5.75676747       0.00510720      18.77467552  T        1       0.00932983       0.05881599       0.02780658
Si       9.60159182       0.00510720      18.77467552  T        1      -0.00932983       0.05881599       0.02780658
Si       1.91979491       3.84058292      18.77508765  T        1      -0.00000001       0.01232984       0.04168917
Si       5.75676747       3.83448262      18.77467552  T        1       0.00932983      -0.05881599       0.02780658
Si       9.60159182       3.83448262      18.77467552  T        1      -0.00932983      -0.05881599       0.02780658
F        7.67917964       1.91979491      20.69669419  T        0      -0.00000000       0.00000000      -0.05483249
H        7.67917964       1.91979491      21.64355799  T        0       0.00000000      -0.00000000       0.09942792
38
Lattice="11.518769465528859 0.0 0.0 0.0 7.679179643685906 0.0 0.0 0.0 30.7875" Properties=species:S:1:pos:R:3:move_mask:L:1:tags:I:1:forces:R:3 surface=Si100 species=HF site=hollow orientation=upright height_A=1.9 substrate_atoms=36 calculation_kind="Rigid evaluated approach scan; not NEB" energy=-188.59228683631116 pbc="T T F"
Si       0.00000000       0.00000000      12.00000000  F        6      -0.00023152      -0.00027873       0.24826311
Si       3.83958982       0.00000000      12.00000000  F        6       0.00023148      -0.00027873       0.24826309
Si       7.67917964       0.00000000      12.00000000  F        6       0.00000000      -0.00116640       0.24612673
Si       0.00000000       3.83958982      12.00000000  F        6      -0.00023152       0.00027873       0.24826311
Si       3.83958982       3.83958982      12.00000000  F        6       0.00023148       0.00027873       0.24826309
Si       7.67917964       3.83958982      12.00000000  F        6       0.00000000       0.00116640       0.24612673
Si       1.91979491       0.00000000      13.35750000  F        5       0.00000000       0.00150095      -0.50750917
Si       5.75938473       0.00000000      13.35750000  F        5      -0.00187121       0.00139992      -0.50108464
Si       9.59897455       0.00000000      13.35750000  F        5       0.00187124       0.00139992      -0.50108466
Si       1.91979491       3.83958982      13.35750000  F        5       0.00000000      -0.00150097      -0.50750918
Si       5.75938473       3.83958982      13.35750000  F        5      -0.00187121      -0.00139994      -0.50108465
Si       9.59897455       3.83958982      13.35750000  F        5       0.00187124      -0.00139994      -0.50108467
Si       1.91979491       1.91979491      14.71500000  F        4      -0.00000001      -0.00000000       0.14522077
Si       5.75938473       1.91979491      14.71500000  F        4       0.00728298      -0.00000000       0.15022620
Si       9.59897455       1.91979491      14.71500000  F        4      -0.00728296      -0.00000000       0.15022621
Si       1.91979491       5.75938473      14.71500000  F        4      -0.00000001       0.00000002       0.14602368
Si       5.75938473       5.75938473      14.71500000  F        4       0.02536973       0.00000002       0.15027493
Si       9.59897455       5.75938473      14.71500000  F        4      -0.02536971       0.00000002       0.15027494
Si      -0.00029583       1.91979491      16.07064316  T        3       0.00159235      -0.00000000       0.06429875
Si       3.83988565       1.91979491      16.07064316  T        3      -0.00159236      -0.00000000       0.06429875
Si       7.67917964       1.91979491      16.06729683  T        3       0.00000000      -0.00000000       0.05019448
Si      -0.00034412       5.75938473      16.07054736  T        3      -0.00004696      -0.00000000       0.05415163
Si       3.83993394       5.75938473      16.07054736  T        3       0.00004696      -0.00000000       0.05415163
Si       7.67917964       5.75938473      16.06891576  T        3       0.00000000      -0.00000000       0.04427442
Si       0.00009426      -0.00189705      17.45947292  T        2       0.00923929      -0.00425699       0.01491517
Si       3.83949556      -0.00189705      17.45947292  T        2      -0.00923930      -0.00425699       0.01491518
Si       7.67917964      -0.00214117      17.45472551  T        2       0.00000000      -0.00383175       0.01094964
Si       0.00009426       3.84148687      17.45947292  T        2       0.00923929       0.00425699       0.01491517
Si       3.83949556       3.84148687      17.45947292  T        2      -0.00923930       0.00425699       0.01491518
Si       7.67917964       3.84173099      17.45472551  T        2       0.00000000       0.00383175       0.01094964
Si       1.91979491      -0.00107816      18.77541372  T        1      -0.00000001      -0.01276570       0.04006081
Si       5.75686532       0.00551796      18.77490180  T        1       0.00698444       0.06035659       0.02604436
Si       9.60149396       0.00551796      18.77490180  T        1      -0.00698444       0.06035659       0.02604436
Si       1.91979491       3.84066798      18.77541372  T        1      -0.00000001       0.01276570       0.04006081
Si       5.75686532       3.83407186      18.77490180  T        1       0.00698444      -0.06035659       0.02604436
Si       9.60149396       3.83407186      18.77490180  T        1      -0.00698444      -0.06035659       0.02604436
F        7.67917964       1.91979491      20.69697619  T        0      -0.00000000       0.00000000      -0.06770895
H        7.67917964       1.91979491      21.64360381  T        0       0.00000000      -0.00000000       0.11228461
38
Lattice="11.518769465528859 0.0 0.0 0.0 7.679179643685906 0.0 0.0 0.0 30.7875" Properties=species:S:1:pos:R:3:move_mask:L:1:tags:I:1:forces:R:3 surface=Si100 species=HF site=hollow orientation=upright height_A=1.9 substrate_atoms=36 calculation_kind="Rigid evaluated approach scan; not NEB" energy=-188.59270271381385 pbc="T T F"
Si       0.00000000       0.00000000      12.00000000  F        6      -0.00022143      -0.00026419       0.24840835
Si       3.83958982       0.00000000      12.00000000  F        6       0.00022139      -0.00026419       0.24840833
Si       7.67917964       0.00000000      12.00000000  F        6       0.00000000      -0.00115193       0.24623292
Si       0.00000000       3.83958982      12.00000000  F        6      -0.00022143       0.00026419       0.24840835
Si       3.83958982       3.83958982      12.00000000  F        6       0.00022139       0.00026419       0.24840833
Si       7.67917964       3.83958982      12.00000000  F        6       0.00000000       0.00115193       0.24623292
Si       1.91979491       0.00000000      13.35750000  F        5       0.00000000       0.00148587      -0.50739185
Si       5.75938473       0.00000000      13.35750000  F        5      -0.00195659       0.00140133      -0.50087408
Si       9.59897455       0.00000000      13.35750000  F        5       0.00195662       0.00140133      -0.50087410
Si       1.91979491       3.83958982      13.35750000  F        5       0.00000000      -0.00148590      -0.50739186
Si       5.75938473       3.83958982      13.35750000  F        5      -0.00195659      -0.00140136      -0.50087409
Si       9.59897455       3.83958982      13.35750000  F        5       0.00195662      -0.00140136      -0.50087411
Si       1.91979491       1.91979491      14.71500000  F        4      -0.00000001      -0.00000000       0.15006415
Si       5.75938473       1.91979491      14.71500000  F        4       0.00656433      -0.00000000       0.15484439
Si       9.59897455       1.91979491      14.71500000  F        4      -0.00656431      -0.00000000       0.15484439
Si       1.91979491       5.75938473      14.71500000  F        4      -0.00000001       0.00000002       0.15036818
Si       5.75938473       5.75938473      14.71500000  F        4       0.02494862       0.00000002       0.15430728
Si       9.59897455       5.75938473      14.71500000  F        4      -0.02494861       0.00000002       0.15430728
Si      -0.00028697       1.91979491      16.07139783  T        3       0.00185703      -0.00000000       0.05446001
Si       3.83987678       1.91979491      16.07139783  T        3      -0.00185703      -0.00000000       0.05446001
Si       7.67917964       1.91979491      16.06787525  T        3       0.00000000      -0.00000000       0.04268194
Si      -0.00034582       5.75938473      16.07119081  T        3      -0.00003781      -0.00000000       0.04545538
Si       3.83993564       5.75938473      16.07119082  T        3       0.00003781      -0.00000000       0.04545538
Si       7.67917964       5.75938473      16.06942796  T        3       0.00000000      -0.00000000       0.03774165
Si       0.00021810      -0.00193914      17.45947962  T        2       0.00708770      -0.00406937       0.02182628
Si       3.83937172      -0.00193914      17.45947962  T        2      -0.00708770      -0.00406937       0.02182629
Si       7.67917964      -0.00218067      17.45476858  T        2       0.00000000      -0.00344319       0.01425852
Si       0.00021810       3.84152895      17.45947962  T        2       0.00708770       0.00406937       0.02182628
Si       3.83937172       3.84152895      17.45947962  T        2      -0.00708770       0.00406937       0.02182629
Si       7.67917964       3.84177048      17.45476859  T        2       0.00000000       0.00344319       0.01425852
Si       1.91979491      -0.00118583      18.77581037  T        1      -0.00000000      -0.01331451       0.03823382
Si       5.75697521       0.00603560      18.77517386  T        1       0.00430484       0.06225044       0.02406479
Si       9.60138407       0.00603560      18.77517386  T        1      -0.00430484       0.06225044       0.02406479
Si       1.91979491       3.84077565      18.77581037  T        1      -0.00000000       0.01331451       0.03823382
Si       5.75697521       3.83355422      18.77517386  T        1       0.00430484      -0.06225044       0.02406479
Si       9.60138407       3.83355422      18.77517386  T        1      -0.00430484      -0.06225044       0.02406479
F        7.67917964       1.91979491      20.69713331  T        0      -0.00000000       0.00000000      -0.06188197
H        7.67917964       1.91979491      21.64385328  T        0       0.00000000      -0.00000000       0.10652382
38
Lattice="11.518769465528859 0.0 0.0 0.0 7.679179643685906 0.0 0.0 0.0 30.7875" Properties=species:S:1:pos:R:3:move_mask:L:1:tags:I:1:forces:R:3 surface=Si100 species=HF site=hollow orientation=upright height_A=1.9 substrate_atoms=36 calculation_kind="Rigid evaluated approach scan; not NEB" energy=-188.593187308002 pbc="T T F"
Si       0.00000000       0.00000000      12.00000000  F        6      -0.00021018      -0.00024683       0.24857492
Si       3.83958982       0.00000000      12.00000000  F        6       0.00021014      -0.00024683       0.24857491
Si       7.67917964       0.00000000      12.00000000  F        6       0.00000000      -0.00113501       0.24635467
Si       0.00000000       3.83958982      12.00000000  F        6      -0.00021018       0.00024683       0.24857492
Si       3.83958982       3.83958982      12.00000000  F        6       0.00021014       0.00024683       0.24857491
Si       7.67917964       3.83958982      12.00000000  F        6       0.00000000       0.00113501       0.24635467
Si       1.91979491       0.00000000      13.35750000  F        5       0.00000000       0.00146865      -0.50722695
Si       5.75938473       0.00000000      13.35750000  F        5      -0.00205680       0.00140181      -0.50060367
Si       9.59897455       0.00000000      13.35750000  F        5       0.00205683       0.00140181      -0.50060369
Si       1.91979491       3.83958982      13.35750000  F        5       0.00000000      -0.00146867      -0.50722697
Si       5.75938473       3.83958982      13.35750000  F        5      -0.00205680      -0.00140183      -0.50060369
Si       9.59897455       3.83958982      13.35750000  F        5       0.00205683      -0.00140183      -0.50060370
Si       1.91979491       1.91979491      14.71500000  F        4      -0.00000001      -0.00000000       0.15563870
Si       5.75938473       1.91979491      14.71500000  F        4       0.00572725      -0.00000000       0.16020768
Si       9.59897455       1.91979491      14.71500000  F        4      -0.00572723      -0.00000000       0.16020768
Si       1.91979491       5.75938473      14.71500000  F        4      -0.00000001       0.00000002       0.15540296
Si       5.75938473       5.75938473      14.71500000  F        4       0.02448360       0.00000002       0.15898730
Si       9.59897455       5.75938473      14.71500000  F        4      -0.02448358       0.00000002       0.15898731
Si      -0.00027401       1.91979491      16.07226963  T        3       0.00212899      -0.00000000       0.04339665
Si       3.83986383       1.91979491      16.07226963  T        3      -0.00212899      -0.00000000       0.04339665
Si       7.67917964       1.91979491      16.06854555  T        3       0.00000000      -0.00000000       0.03400108
Si      -0.00034759       5.75938473      16.07193196  T        3      -0.00006472      -0.00000000       0.03572004
Si       3.83993741       5.75938473      16.07193196  T        3       0.00006472      -0.00000000       0.03572004
Si       7.67917964       5.75938473      16.07002141  T        3       0.00000000      -0.00000000       0.03030709
Si       0.00035704      -0.00199005      17.45953494  T        2       0.00478764      -0.00384936       0.02921713
Si       3.83923278      -0.00199005      17.45953494  T        2      -0.00478764      -0.00384936       0.02921714
Si       7.67917964      -0.00222761      17.45484320  T        2       0.00000000      -0.00294254       0.01796980
Si       0.00035704       3.84157987      17.45953494  T        2       0.00478764       0.00384936       0.02921713
Si       3.83923278       3.84157987      17.45953494  T        2      -0.00478764       0.00384936       0.02921714
Si       7.67917964       3.84181743      17.45484320  T        2       0.00000000       0.00294254       0.01796980
Si       1.91979491      -0.00132258      18.77629000  T        1      -0.00000000      -0.01400731       0.03625838
Si       5.75709407       0.00668907      18.77549804  T        1       0.00137932       0.06459554       0.02193774
Si       9.60126521       0.00668908      18.77549803  T        1      -0.00137931       0.06459554       0.02193774
Si       1.91979491       3.84091240      18.77629000  T        1      -0.00000000       0.01400731       0.03625838
Si       5.75709407       3.83290074      18.77549804  T        1       0.00137932      -0.06459554       0.02193774
Si       9.60126521       3.83290074      18.77549803  T        1      -0.00137931      -0.06459554       0.02193774
F        7.67917964       1.91979491      20.69715158  T        0      -0.00000000       0.00000000      -0.03477699
H        7.67917964       1.91979491      21.64433881  T        0       0.00000000      -0.00000000       0.07958764
38
Lattice="11.518769465528859 0.0 0.0 0.0 7.679179643685906 0.0 0.0 0.0 30.7875" Properties=species:S:1:pos:R:3:move_mask:L:1:tags:I:1:forces:R:3 surface=Si100 species=HF site=hollow orientation=upright height_A=1.9 substrate_atoms=36 calculation_kind="Rigid evaluated approach scan; not NEB" energy=-188.59371807243903 pbc="T T F"
Si       0.00000000       0.00000000      12.00000000  F        6      -0.00019771      -0.00022639       0.24876220
Si       3.83958982       0.00000000      12.00000000  F        6       0.00019767      -0.00022639       0.24876218
Si       7.67917964       0.00000000      12.00000000  F        6       0.00000000      -0.00111482       0.24649166
Si       0.00000000       3.83958982      12.00000000  F        6      -0.00019771       0.00022639       0.24876220
Si       3.83958982       3.83958982      12.00000000  F        6       0.00019767       0.00022639       0.24876218
Si       7.67917964       3.83958982      12.00000000  F        6       0.00000000       0.00111482       0.24649166
Si       1.91979491       0.00000000      13.35750000  F        5       0.00000000       0.00144933      -0.50699307
Si       5.75938473       0.00000000      13.35750000  F        5      -0.00217432       0.00140223      -0.50025830
Si       9.59897455       0.00000000      13.35750000  F        5       0.00217435       0.00140223      -0.50025832
Si       1.91979491       3.83958982      13.35750000  F        5       0.00000000      -0.00144935      -0.50699308
Si       5.75938473       3.83958982      13.35750000  F        5      -0.00217432      -0.00140225      -0.50025832
Si       9.59897455       3.83958982      13.35750000  F        5       0.00217435      -0.00140225      -0.50025834
Si       1.91979491       1.91979491      14.71500000  F        4      -0.00000001      -0.00000000       0.16194026
Si       5.75938473       1.91979491      14.71500000  F        4       0.00476268      -0.00000000       0.16632680
Si       9.59897455       1.91979491      14.71500000  F        4      -0.00476267      -0.00000000       0.16632680
Si       1.91979491       5.75938473      14.71500000  F        4      -0.00000001       0.00000002       0.16114401
Si       5.75938473       5.75938473      14.71500000  F        4       0.02398907       0.00000002       0.16432192
Si       9.59897455       5.75938473      14.71500000  F        4      -0.02398905       0.00000002       0.16432193
Si      -0.00025513       1.91979491      16.07325950  T        3       0.00240155      -0.00000000       0.03130297
Si       3.83984495       1.91979491      16.07325950  T        3      -0.00240156      -0.00000000       0.03130298
Si       7.67917964       1.91979491      16.06930842  T        3       0.00000000      -0.00000000       0.02424605
Si      -0.00034954       5.75938473      16.07277018  T        3      -0.00014118       0.00000000       0.02515496
Si       3.83993936       5.75938473      16.07277018  T        3       0.00014118       0.00000000       0.02515496
Si       7.67917964       5.75938473      16.07069738  T        3       0.00000000       0.00000000       0.02209299
Si       0.00050881      -0.00205156      17.45967220  T        2       0.00246002      -0.00357870       0.03668680
Si       3.83908101      -0.00205156      17.45967220  T        2      -0.00246002      -0.00357870       0.03668681
Si       7.67917964      -0.00228262      17.45496803  T        2       0.00000000      -0.00232283       0.02193768
Si       0.00050881       3.84164138      17.45967220  T        2       0.00246002       0.00357870       0.03668680
Si       3.83908101       3.84164138      17.45967220  T        2      -0.00246002       0.00357870       0.03668681
Si       7.67917964       3.84187244      17.45496803  T        2       0.00000000       0.00232283       0.02193768
Si       1.91979491      -0.00149810      18.77686943  T        1      -0.00000000      -0.01489058       0.03422703
Si       5.75721626       0.00752127      18.77588243  T        1      -0.00160463       0.06754941       0.01979882
Si       9.60114302       0.00752127      18.77588243  T        1       0.00160463       0.06754941       0.01979882
Si       1.91979491       3.84108792      18.77686943  T        1      -0.00000000       0.01489058       0.03422703
Si       5.75721626       3.83206855      18.77588243  T        1      -0.00160463      -0.06754941       0.01979883
Si       9.60114302       3.83206855      18.77588243  T        1       0.00160463      -0.06754941       0.01979883
F        7.67917964       1.91979491      20.69707192  T        0      -0.00000000       0.00000000       0.01022954
H        7.67917964       1.91979491      21.64504601  T        0       0.00000000      -0.00000000       0.03484927
38
Lattice="11.518769465528859 0.0 0.0 0.0 7.679179643685906 0.0 0.0 0.0 30.7875" Properties=species:S:1:pos:R:3:move_mask:L:1:tags:I:1:forces:R:3 surface=Si100 species=HF site=hollow orientation=upright height_A=1.9 substrate_atoms=36 calculation_kind="Rigid evaluated approach scan; not NEB" energy=-188.5942828945302 pbc="T T F"
Si       0.00000000       0.00000000      12.00000000  F        6      -0.00018390      -0.00020283       0.24896688
Si       3.83958982       0.00000000      12.00000000  F        6       0.00018386      -0.00020283       0.24896687
Si       7.67917964       0.00000000      12.00000000  F        6       0.00000000      -0.00109003       0.24664178
Si       0.00000000       3.83958982      12.00000000  F        6      -0.00018390       0.00020283       0.24896688
Si       3.83958982       3.83958982      12.00000000  F        6       0.00018386       0.00020283       0.24896687
Si       7.67917964       3.83958982      12.00000000  F        6       0.00000000       0.00109003       0.24664178
Si       1.91979491       0.00000000      13.35750000  F        5       0.00000000       0.00142825      -0.50666168
Si       5.75938473       0.00000000      13.35750000  F        5      -0.00231198       0.00140478      -0.49982211
Si       9.59897455       0.00000000      13.35750000  F        5       0.00231201       0.00140478      -0.49982213
Si       1.91979491       3.83958982      13.35750000  F        5       0.00000000      -0.00142827      -0.50666170
Si       5.75938473       3.83958982      13.35750000  F        5      -0.00231198      -0.00140480      -0.49982212
Si       9.59897455       3.83958982      13.35750000  F        5       0.00231201      -0.00140480      -0.49982214
Si       1.91979491       1.91979491      14.71500000  F        4      -0.00000001      -0.00000000       0.16888354
Si       5.75938473       1.91979491      14.71500000  F        4       0.00366624      -0.00000000       0.17313162
Si       9.59897455       1.91979491      14.71500000  F        4      -0.00366623      -0.00000000       0.17313162
Si       1.91979491       5.75938473      14.71500000  F        4      -0.00000001       0.00000002       0.16754335
Si       5.75938473       5.75938473      14.71500000  F        4       0.02349226       0.00000002       0.17024767
Si       9.59897455       5.75938473      14.71500000  F        4      -0.02349224       0.00000002       0.17024767
Si      -0.00022785       1.91979491      16.07435623  T        3       0.00267034      -0.00000000       0.01861426
Si       3.83981767       1.91979491      16.07435623  T        3      -0.00267034      -0.00000000       0.01861426
Si       7.67917964       1.91979491      16.07015406  T        3       0.00000000      -0.00000000       0.01373799
Si      -0.00035198       5.75938473      16.07369412  T        3      -0.00027929       0.00000000       0.01420124
Si       3.83994179       5.75938473      16.07369412  T        3       0.00027929       0.00000000       0.01420125
Si       7.67917964       5.75938473      16.07144884  T        3       0.00000000       0.00000000       0.01341336
Si       0.00066871      -0.00212547      17.45993833  T        2       0.00030102      -0.00322690       0.04356604
Si       3.83892111      -0.00212547      17.45993833  T        2      -0.00030103      -0.00322690       0.04356604
Si       7.67917964      -0.00234562      17.45516977  T        2       0.00000000      -0.00159399       0.02585982
Si       0.00066871       3.84171529      17.45993834  T        2       0.00030102       0.00322690       0.04356604
Si       3.83892111       3.84171529      17.45993834  T        2      -0.00030103       0.00322690       0.04356604
Si       7.67917964       3.84193544      17.45516977  T        2       0.00000000       0.00159398       0.02585982
Si       1.91979491      -0.00172550      18.77756748  T        1      -0.00000000      -0.01602655       0.03229504
Si       5.75733236       0.00858868      18.77633527  T        1      -0.00431205       0.07133550       0.01787738
Si       9.60102692       0.00858868      18.77633527  T        1       0.00431206       0.07133550       0.01787738
Si       1.91979491       3.84131532      18.77756748  T        1      -0.00000000       0.01602655       0.03229505
Si       5.75733236       3.83100114      18.77633527  T        1      -0.00431206      -0.07133550       0.01787738
Si       9.60102692       3.83100114      18.77633527  T        1       0.00431206      -0.07133550       0.01787738
F        7.67917964       1.91979491      20.69702863  T        0      -0.00000000       0.00000000       0.05967865
H        7.67917964       1.91979491      21.64587357  T        0       0.00000000      -0.00000000      -0.01426905
38
Lattice="11.518769465528859 0.0 0.0 0.0 7.679179643685906 0.0 0.0 0.0 30.7875" Properties=species:S:1:pos:R:3:move_mask:L:1:tags:I:1:forces:R:3 surface=Si100 species=HF site=hollow orientation=upright height_A=1.9 substrate_atoms=36 calculation_kind="Rigid evaluated approach scan; not NEB" energy=-188.5949329612001 pbc="T T F"
Si       0.00000000       0.00000000      12.00000000  F        6      -0.00016868      -0.00017659       0.24918145
Si       3.83958982       0.00000000      12.00000000  F        6       0.00016865      -0.00017659       0.24918144
Si       7.67917964       0.00000000      12.00000000  F        6       0.00000000      -0.00105925       0.24679972
Si       0.00000000       3.83958982      12.00000000  F        6      -0.00016868       0.00017659       0.24918145
Si       3.83958982       3.83958982      12.00000000  F        6       0.00016865       0.00017659       0.24918144
Si       7.67917964       3.83958982      12.00000000  F        6       0.00000000       0.00105925       0.24679972
Si       1.91979491       0.00000000      13.35750000  F        5       0.00000000       0.00140636      -0.50620610
Si       5.75938473       0.00000000      13.35750000  F        5      -0.00247122       0.00141280      -0.49928579
Si       9.59897455       0.00000000      13.35750000  F        5       0.00247125       0.00141280      -0.49928581
Si       1.91979491       3.83958982      13.35750000  F        5       0.00000000      -0.00140638      -0.50620611
Si       5.75938473       3.83958982      13.35750000  F        5      -0.00247122      -0.00141282      -0.49928580
Si       9.59897455       3.83958982      13.35750000  F        5       0.00247125      -0.00141282      -0.49928582
Si       1.91979491       1.91979491      14.71500000  F        4      -0.00000001      -0.00000000       0.17624006
Si       5.75938473       1.91979491      14.71500000  F        4       0.00244687      -0.00000000       0.18040776
Si       9.59897455       1.91979491      14.71500000  F        4      -0.00244685      -0.00000000       0.18040776
Si       1.91979491       5.75938473      14.71500000  F        4      -0.00000001       0.00000002       0.17443282
Si       5.75938473       5.75938473      14.71500000  F        4       0.02303390       0.00000002       0.17657906
Si       9.59897455       5.75938473      14.71500000  F        4      -0.02303388       0.00000002       0.17657907
Si      -0.00018967       1.91979491      16.07552660  T        3       0.00293343       0.00000000       0.00606661
Si       3.83977949       1.91979491      16.07552660  T        3      -0.00293343       0.00000000       0.00606662
Si       7.67917964       1.91979491      16.07105397  T        3       0.00000000       0.00000000       0.00310165
Si      -0.00035555       5.75938473      16.07467402  T        3      -0.00048486       0.00000000       0.00357122
Si       3.83994537       5.75938473      16.07467402  T        3       0.00048486       0.00000000       0.00357122
Si       7.67917964       5.75938473      16.07225348  T        3       0.00000000       0.00000000       0.00482640
Si       0.00082944      -0.00221245      17.46038267  T        2      -0.00144424      -0.00276035       0.04898057
Si       3.83876038      -0.00221245      17.46038267  T        2       0.00144424      -0.00276035       0.04898057
Si       7.67917964      -0.00241501      17.45547717  T        2      -0.00000000      -0.00078688       0.02927699
Si       0.00082944       3.84180227      17.46038267  T        2      -0.00144424       0.00276035       0.04898057
Si       3.83876038       3.84180227      17.46038267  T        2       0.00144424       0.00276035       0.04898057
Si       7.67917964       3.84200483      17.45547717  T        2      -0.00000000       0.00078688       0.02927699
Si       1.91979491      -0.00201813      18.77839637  T        1      -0.00000000      -0.01747755       0.03066088
Si       5.75743046       0.00994628      18.77686037  T        1      -0.00631187       0.07618554       0.01646051
Si       9.60092882       0.00994628      18.77686036  T        1       0.00631188       0.07618554       0.01646051
Si       1.91979491       3.84160795      18.77839637  T        1      -0.00000000       0.01747755       0.03066088
Si       5.75743046       3.82964354      18.77686037  T        1      -0.00631187      -0.07618554       0.01646051
Si       9.60092882       3.82964354      18.77686036  T        1       0.00631188      -0.07618554       0.01646051
F        7.67917964       1.91979491      20.69723047  T        0      -0.00000000       0.00000000       0.09199776
H        7.67917964       1.91979491      21.64664045  T        0       0.00000000      -0.00000000      -0.04625787
38
Lattice="11.518769465528859 0.0 0.0 0.0 7.679179643685906 0.0 0.0 0.0 30.7875" Properties=species:S:1:pos:R:3:move_mask:L:1:tags:I:1:forces:R:3 surface=Si100 species=HF site=hollow orientation=upright height_A=1.9 substrate_atoms=36 calculation_kind="Rigid evaluated approach scan; not NEB" energy=-188.5957753668421 pbc="T T F"
Si       0.00000000       0.00000000      12.00000000  F        6      -0.00015216      -0.00014842       0.24939569
Si       3.83958982       0.00000000      12.00000000  F        6       0.00015212      -0.00014842       0.24939567
Si       7.67917964       0.00000000      12.00000000  F        6       0.00000000      -0.00102134       0.24695772
Si       0.00000000       3.83958982      12.00000000  F        6      -0.00015216       0.00014842       0.24939569
Si       3.83958982       3.83958982      12.00000000  F        6       0.00015212       0.00014842       0.24939567
Si       7.67917964       3.83958982      12.00000000  F        6       0.00000000       0.00102134       0.24695772
Si       1.91979491       0.00000000      13.35750000  F        5       0.00000000       0.00138526      -0.50560359
Si       5.75938473       0.00000000      13.35750000  F        5      -0.00265200       0.00142980      -0.49864276
Si       9.59897455       0.00000000      13.35750000  F        5       0.00265203       0.00142980      -0.49864278
Si       1.91979491       3.83958982      13.35750000  F        5       0.00000000      -0.00138529      -0.50560360
Si       5.75938473       3.83958982      13.35750000  F        5      -0.00265200      -0.00142982      -0.49864277
Si       9.59897455       3.83958982      13.35750000  F        5       0.00265203      -0.00142982      -0.49864279
Si       1.91979491       1.91979491      14.71500000  F        4      -0.00000001      -0.00000000       0.18368453
Si       5.75938473       1.91979491      14.71500000  F        4       0.00111638      -0.00000000       0.18785213
Si       9.59897455       1.91979491      14.71500000  F        4      -0.00111637      -0.00000000       0.18785213
Si       1.91979491       5.75938473      14.71500000  F        4      -0.00000001       0.00000002       0.18157498
Si       5.75938473       5.75938473      14.71500000  F        4       0.02266198       0.00000002       0.18306252
Si       9.59897455       5.75938473      14.71500000  F        4      -0.02266196       0.00000002       0.18306252
Si      -0.00013799       1.91979491      16.07672326  T        3       0.00318627       0.00000000      -0.00542780
Si       3.83972781       1.91979491      16.07672327  T        3      -0.00318627       0.00000000      -0.00542780
Si       7.67917964       1.91979491      16.07196686  T        3       0.00000000       0.00000000      -0.00688473
Si      -0.00036137       5.75938473      16.07566896  T        3      -0.00076301       0.00000000      -0.00587156
Si       3.83995118       5.75938473      16.07566896  T        3       0.00076301       0.00000000      -0.00587156
Si       7.67917964       5.75938473      16.07307922  T        3       0.00000000       0.00000000      -0.00296835
Si       0.00098325      -0.00231205      17.46105273  T        2      -0.00253450      -0.00215361       0.05199410
Si       3.83860657      -0.00231205      17.46105273  T        2       0.00253450      -0.00215361       0.05199410
Si       7.67917964      -0.00248793      17.45591944  T        2      -0.00000000       0.00006711       0.03165723
Si       0.00098325       3.84190187      17.46105273  T        2      -0.00253450       0.00215361       0.05199410
Si       3.83860657       3.84190187      17.46105273  T        2       0.00253450       0.00215361       0.05199411
Si       7.67917964       3.84207775      17.45591944  T        2      -0.00000000      -0.00006711       0.03165723
Si       1.91979491      -0.00239111      18.77936573  T        1      -0.00000000      -0.01931321       0.02951819
Si       5.75749924       0.01165399      18.77746075  T        1      -0.00720396       0.08234022       0.01582314
Si       9.60086004       0.01165399      18.77746075  T        1       0.00720397       0.08234022       0.01582314
Si       1.91979491       3.84198093      18.77936573  T        1      -0.00000000       0.01931321       0.02951819
Si       5.75749924       3.82793583      18.77746076  T        1      -0.00720396      -0.08234022       0.01582314
Si       9.60086004       3.82793583      18.77746075  T        1       0.00720397      -0.08234022       0.01582314
F        7.67917964       1.91979491      20.69785723  T        0       0.00000000       0.00000000       0.08906555
H        7.67917964       1.91979491      21.64719237  T        0       0.00000000      -0.00000000      -0.04304224
38
Lattice="11.518769465528859 0.0 0.0 0.0 7.679179643685906 0.0 0.0 0.0 30.7875" Properties=species:S:1:pos:R:3:move_mask:L:1:tags:I:1:forces:R:3 surface=Si100 species=HF site=hollow orientation=upright height_A=1.9 substrate_atoms=36 calculation_kind="Rigid evaluated approach scan; not NEB" energy=-188.59689380914466 pbc="T T F"
Si       0.00000000       0.00000000      12.00000000  F        6      -0.00013463      -0.00011914       0.24959745
Si       3.83958982       0.00000000      12.00000000  F        6       0.00013460      -0.00011914       0.24959743
Si       7.67917964       0.00000000      12.00000000  F        6       0.00000000      -0.00097549       0.24710567
Si       0.00000000       3.83958982      12.00000000  F        6      -0.00013463       0.00011914       0.24959745
Si       3.83958982       3.83958982      12.00000000  F        6       0.00013460       0.00011914       0.24959743
Si       7.67917964       3.83958982      12.00000000  F        6       0.00000000       0.00097549       0.24710567
Si       1.91979491       0.00000000      13.35750000  F        5       0.00000000       0.00136761      -0.50482988
Si       5.75938473       0.00000000      13.35750000  F        5      -0.00285329       0.00145905      -0.49787927
Si       9.59897455       0.00000000      13.35750000  F        5       0.00285332       0.00145905      -0.49787929
Si       1.91979491       3.83958982      13.35750000  F        5       0.00000000      -0.00136763      -0.50482989
Si       5.75938473       3.83958982      13.35750000  F        5      -0.00285329      -0.00145908      -0.49787928
Si       9.59897455       3.83958982      13.35750000  F        5       0.00285332      -0.00145908      -0.49787930
Si       1.91979491       1.91979491      14.71500000  F        4      -0.00000001      -0.00000000       0.19081947
Si       5.75938473       1.91979491      14.71500000  F        4      -0.00032656      -0.00000000       0.19511589
Si       9.59897455       1.91979491      14.71500000  F        4       0.00032657      -0.00000000       0.19511589
Si       1.91979491       5.75938473      14.71500000  F        4      -0.00000001       0.00000002       0.18871031
Si       5.75938473       5.75938473      14.71500000  F        4       0.02243360       0.00000002       0.18942213
Si       9.59897455       5.75938473      14.71500000  F        4      -0.02243359       0.00000002       0.18942213
Si      -0.00006913       1.91979491      16.07789003  T        3       0.00341307       0.00000000      -0.01479372
Si       3.83965895       1.91979491      16.07789004  T        3      -0.00341306       0.00000000      -0.01479372
Si       7.67917964       1.91979491      16.07284214  T        3       0.00000000       0.00000000      -0.01537985
Si      -0.00037130       5.75938473      16.07663172  T        3      -0.00112985       0.00000000      -0.01311969
Si       3.83996111       5.75938473      16.07663172  T        3       0.00112986       0.00000000      -0.01311969
Si       7.67917964       5.75938473      16.07388852  T        3       0.00000000       0.00000000      -0.00915548
Si       0.00112331      -0.00242323      17.46200320  T        2      -0.00274004      -0.00139513       0.05158501
Si       3.83846651      -0.00242323      17.46200321  T        2       0.00274004      -0.00139513       0.05158501
Si       7.67917964      -0.00256045      17.45653242  T        2      -0.00000000       0.00095633       0.03240571
Si       0.00112331       3.84201305      17.46200321  T        2      -0.00274004       0.00139513       0.05158501
Si       3.83846651       3.84201305      17.46200321  T        2       0.00274004       0.00139513       0.05158501
Si       7.67917964       3.84215027      17.45653242  T        2      -0.00000000      -0.00095633       0.03240571
Si       1.91979491      -0.00286818      18.78049400  T        1      -0.00000000      -0.02164305       0.02903747
Si       5.75752909       0.01380545      18.77814629  T        1      -0.00668343       0.09013012       0.01620875
Si       9.60083020       0.01380545      18.77814629  T        1       0.00668343       0.09013012       0.01620875
Si       1.91979491       3.84245800      18.78049400  T        1      -0.00000000       0.02164304       0.02903747
Si       5.75752909       3.82578437      18.77814629  T        1      -0.00668343      -0.09013012       0.01620875
Si       9.60083020       3.82578437      18.77814629  T        1       0.00668343      -0.09013012       0.01620875
F        7.67917964       1.91979491      20.69896459  T        0       0.00000000       0.00000000       0.04671596
H        7.67917964       1.91979491      21.64751162  T        0       0.00000000      -0.00000000      -0.00044526
38
Lattice="11.518769465528859 0.0 0.0 0.0 7.679179643685906 0.0 0.0 0.0 30.7875" Properties=species:S:1:pos:R:3:move_mask:L:1:tags:I:1:forces:R:3 surface=Si100 species=HF site=hollow orientation=upright height_A=1.9 substrate_atoms=36 calculation_kind="Rigid evaluated approach scan; not NEB" energy=-188.59834597169467 pbc="T T F"
Si       0.00000000       0.00000000      12.00000000  F        6      -0.00011674      -0.00008967       0.24977288
Si       3.83958982       0.00000000      12.00000000  F        6       0.00011670      -0.00008967       0.24977286
Si       7.67917964       0.00000000      12.00000000  F        6       0.00000000      -0.00092162       0.24723056
Si       0.00000000       3.83958982      12.00000000  F        6      -0.00011674       0.00008967       0.24977288
Si       3.83958982       3.83958982      12.00000000  F        6       0.00011670       0.00008967       0.24977286
Si       7.67917964       3.83958982      12.00000000  F        6       0.00000000       0.00092162       0.24723056
Si       1.91979491       0.00000000      13.35750000  F        5       0.00000000       0.00135766      -0.50386481
Si       5.75938473       0.00000000      13.35750000  F        5      -0.00307214       0.00150293      -0.49697338
Si       9.59897455       0.00000000      13.35750000  F        5       0.00307217       0.00150293      -0.49697340
Si       1.91979491       3.83958982      13.35750000  F        5       0.00000000      -0.00135768      -0.50386482
Si       5.75938473       3.83958982      13.35750000  F        5      -0.00307214      -0.00150295      -0.49697339
Si       9.59897455       3.83958982      13.35750000  F        5       0.00307217      -0.00150295      -0.49697341
Si       1.91979491       1.91979491      14.71500000  F        4      -0.00000001      -0.00000000       0.19715993
Si       5.75938473       1.91979491      14.71500000  F        4      -0.00190714      -0.00000000       0.20180439
Si       9.59897455       1.91979491      14.71500000  F        4       0.00190716      -0.00000000       0.20180439
Si       1.91979491       5.75938473      14.71500000  F        4      -0.00000001       0.00000002       0.19557097
Si       5.75938473       5.75938473      14.71500000  F        4       0.02241644       0.00000002       0.19537401
Si       9.59897455       5.75938473      14.71500000  F        4      -0.02241642       0.00000002       0.19537401
Si       0.00002196       1.91979491      16.07896118  T        3       0.00358027       0.00000000      -0.02082037
Si       3.83956785       1.91979491      16.07896118  T        3      -0.00358027       0.00000000      -0.02082037
Si       7.67917964       1.91979491      16.07361782  T        3       0.00000000       0.00000000      -0.02153989
Si      -0.00038858       5.75938473      16.07750962  T        3      -0.00161750       0.00000000      -0.01706212
Si       3.83997840       5.75938473      16.07750963  T        3       0.00161750       0.00000000      -0.01706211
Si       7.67917964       5.75938473      16.07463870  T        3       0.00000000       0.00000000      -0.01282829
Si       0.00124561      -0.00254354      17.46328973  T        2      -0.00189562      -0.00050211       0.04677478
Si       3.83834421      -0.00254354      17.46328973  T        2       0.00189561      -0.00050211       0.04677478
Si       7.67917964      -0.00262679      17.45735651  T        2      -0.00000000       0.00190698       0.03092035
Si       0.00124561       3.84213336      17.46328973  T        2      -0.00189562       0.00050211       0.04677478
Si       3.83834421       3.84213336      17.46328973  T        2       0.00189561       0.00050211       0.04677478
Si       7.67917964       3.84221661      17.45735651  T        2      -0.00000000      -0.00190699       0.03092035
Si       1.91979491      -0.00348629      18.78181174  T        1      -0.00000000      -0.02463748       0.02930148
Si       5.75751547       0.01654432      18.77893761  T        1      -0.00468127       0.10001415       0.01774389
Si       9.60084381       0.01654432      18.77893761  T        1       0.00468127       0.10001415       0.01774389
Si       1.91979491       3.84307610      18.78181174  T        1      -0.00000000       0.02463748       0.02930148
Si       5.75751547       3.82304550      18.77893761  T        1      -0.00468127      -0.10001415       0.01774389
Si       9.60084381       3.82304550      18.77893761  T        1       0.00468127      -0.10001415       0.01774389
F        7.67917964       1.91979491      20.70037641  T        0       0.00000000       0.00000000      -0.01309886
H        7.67917964       1.91979491      21.64782813  T        0       0.00000000      -0.00000000       0.05969656
38
Lattice="11.518769465528859 0.0 0.0 0.0 7.679179643685906 0.0 0.0 0.0 30.7875" Properties=species:S:1:pos:R:3:move_mask:L:1:tags:I:1:forces:R:3 surface=Si100 species=HF site=hollow orientation=upright height_A=1.9 substrate_atoms=36 calculation_kind="Rigid evaluated approach scan; not NEB" energy=-188.60031373098744 pbc="T T F"
Si       0.00000000       0.00000000      12.00000000  F        6      -0.00009920      -0.00006110       0.24991028
Si       3.83958982       0.00000000      12.00000000  F        6       0.00009916      -0.00006110       0.24991027
Si       7.67917964       0.00000000      12.00000000  F        6       0.00000000      -0.00086066       0.24731934
Si       0.00000000       3.83958982      12.00000000  F        6      -0.00009920       0.00006110       0.24991028
Si       3.83958982       3.83958982      12.00000000  F        6       0.00009916       0.00006110       0.24991027
Si       7.67917964       3.83958982      12.00000000  F        6       0.00000000       0.00086066       0.24731934
Si       1.91979491       0.00000000      13.35750000  F        5       0.00000000       0.00136114      -0.50271296
Si       5.75938473       0.00000000      13.35750000  F        5      -0.00330328       0.00156290      -0.49590871
Si       9.59897455       0.00000000      13.35750000  F        5       0.00330331       0.00156290      -0.49590873
Si       1.91979491       3.83958982      13.35750000  F        5       0.00000000      -0.00136116      -0.50271297
Si       5.75938473       3.83958982      13.35750000  F        5      -0.00330328      -0.00156292      -0.49590873
Si       9.59897455       3.83958982      13.35750000  F        5       0.00330331      -0.00156292      -0.49590874
Si       1.91979491       1.91979491      14.71500000  F        4      -0.00000001      -0.00000000       0.20222311
Si       5.75938473       1.91979491      14.71500000  F        4      -0.00368301      -0.00000000       0.20754882
Si       9.59897455       1.91979491      14.71500000  F        4       0.00368303      -0.00000000       0.20754882
Si       1.91979491       5.75938473      14.71500000  F        4      -0.00000001       0.00000002       0.20196013
Si       5.75938473       5.75938473      14.71500000  F        4       0.02267493       0.00000002       0.20070002
Si       9.59897455       5.75938473      14.71500000  F        4      -0.02267492       0.00000002       0.20070002
Si       0.00014051       1.91979491      16.07987509  T        3       0.00365117       0.00000000      -0.02255652
Si       3.83944931       1.91979491      16.07987510  T        3      -0.00365117       0.00000000      -0.02255651
Si       7.67917964       1.91979491      16.07423034  T        3       0.00000000       0.00000000      -0.02473472
Si      -0.00041823       5.75938473      16.07825869  T        3      -0.00225964       0.00000000      -0.01687622
Si       3.84000805       5.75938473      16.07825869  T        3       0.00225964       0.00000000      -0.01687622
Si       7.67917964       5.75938473      16.07529213  T        3       0.00000000       0.00000000      -0.01324392
Si       0.00135364      -0.00266787      17.46493506  T        2      -0.00004957       0.00046951       0.03719318
Si       3.83823618      -0.00266787      17.46493506  T        2       0.00004957       0.00046951       0.03719318
Si       7.67917964      -0.00267868      17.45841776  T        2      -0.00000000       0.00298647       0.02683381
Si       0.00135364       3.84225769      17.46493506  T        2      -0.00004957      -0.00046952       0.03719318
Si       3.83823618       3.84225769      17.46493506  T        2       0.00004957      -0.00046952       0.03719318
Si       7.67917964       3.84226850      17.45841776  T        2      -0.00000000      -0.00298647       0.02683381
Si       1.91979491      -0.00429330      18.78335503  T        1      -0.00000000      -0.02851765       0.03015162
Si       5.75746613       0.02005038      18.77986551  T        1      -0.00157410       0.11254129       0.02024366
Si       9.60089316       0.02005038      18.77986551  T        1       0.00157410       0.11254129       0.02024366
Si       1.91979491       3.84388312      18.78335503  T        1      -0.00000000       0.02851765       0.03015162
Si       5.75746613       3.81953944      18.77986551  T        1      -0.00157410      -0.11254129       0.02024366
Si       9.60089316       3.81953944      18.77986551  T        1       0.00157410      -0.11254129       0.02024366
F        7.67917964       1.91979491      20.70169043  T        0       0.00000000       0.00000000      -0.04200210
H        7.67917964       1.91979491      21.64860058  T        0       0.00000000      -0.00000000       0.08922813
38
Lattice="11.518769465528859 0.0 0.0 0.0 7.679179643685906 0.0 0.0 0.0 30.7875" Properties=species:S:1:pos:R:3:move_mask:L:1:tags:I:1:forces:R:3 surface=Si100 species=HF site=hollow orientation=upright height_A=1.9 substrate_atoms=36 calculation_kind="Rigid evaluated approach scan; not NEB" energy=-188.60309251798105 pbc="T T F"
Si       0.00000000       0.00000000      12.00000000  F        6      -0.00008189      -0.00003484       0.25000427
Si       3.83958982       0.00000000      12.00000000  F        6       0.00008186      -0.00003484       0.25000425
Si       7.67917964       0.00000000      12.00000000  F        6       0.00000000      -0.00079267       0.24736313
Si       0.00000000       3.83958982      12.00000000  F        6      -0.00008189       0.00003484       0.25000427
Si       3.83958982       3.83958982      12.00000000  F        6       0.00008186       0.00003484       0.25000425
Si       7.67917964       3.83958982      12.00000000  F        6       0.00000000       0.00079267       0.24736313
Si       1.91979491       0.00000000      13.35750000  F        5       0.00000000       0.00138487      -0.50140967
Si       5.75938473       0.00000000      13.35750000  F        5      -0.00354276       0.00164372      -0.49468875
Si       9.59897455       0.00000000      13.35750000  F        5       0.00354279       0.00164372      -0.49468877
Si       1.91979491       3.83958982      13.35750000  F        5       0.00000000      -0.00138489      -0.50140968
Si       5.75938473       3.83958982      13.35750000  F        5      -0.00354276      -0.00164374      -0.49468876
Si       9.59897455       3.83958982      13.35750000  F        5       0.00354279      -0.00164374      -0.49468878
Si       1.91979491       1.91979491      14.71500000  F        4      -0.00000001      -0.00000000       0.20563484
Si       5.75938473       1.91979491      14.71500000  F        4      -0.00576321      -0.00000000       0.21206806
Si       9.59897455       1.91979491      14.71500000  F        4       0.00576323      -0.00000000       0.21206806
Si       1.91979491       5.75938473      14.71500000  F        4      -0.00000001       0.00000002       0.20785418
Si       5.75938473       5.75938473      14.71500000  F        4       0.02327066       0.00000002       0.20531479
Si       9.59897455       5.75938473      14.71500000  F        4      -0.02327064       0.00000002       0.20531478
Si       0.00029182       1.91979491      16.08059073  T        3       0.00363012       0.00000000      -0.01963386
Si       3.83929800       1.91979491      16.08059073  T        3      -0.00363012       0.00000000      -0.01963385
Si       7.67917964       1.91979491      16.07462446  T        3      -0.00000000       0.00000000      -0.02455206
Si      -0.00046805       5.75938473      16.07885957  T        3      -0.00306439      -0.00000000      -0.01231910
Si       3.84005787       5.75938473      16.07885957  T        3       0.00306439      -0.00000000      -0.01231910
Si       7.67917964       5.75938473      16.07582944  T        3      -0.00000000      -0.00000000      -0.00995176
Si       0.00146149      -0.00278833      17.46691521  T        2       0.00248022       0.00146361       0.02341065
Si       3.83812832      -0.00278833      17.46691521  T        2      -0.00248022       0.00146361       0.02341066
Si       7.67917964      -0.00270415      17.45972025  T        2      -0.00000000       0.00424808       0.02007480
Si       0.00146149       3.84237815      17.46691521  T        2       0.00248022      -0.00146361       0.02341066
Si       3.83812832       3.84237815      17.46691521  T        2      -0.00248022      -0.00146361       0.02341066
Si       7.67917964       3.84229397      17.45972025  T        2      -0.00000000      -0.00424808       0.02007481
Si       1.91979491      -0.00535589      18.78517027  T        1      -0.00000000      -0.03359404       0.03109362
Si       5.75740266       0.02456587      18.78097572  T        1       0.00192070       0.12851517       0.02316980
Si       9.60095662       0.02456587      18.78097572  T        1      -0.00192070       0.12851517       0.02316980
Si       1.91979491       3.84494571      18.78517027  T        1      -0.00000000       0.03359404       0.03109362
Si       5.75740266       3.81502395      18.78097572  T        1       0.00192070      -0.12851517       0.02316980
Si       9.60095662       3.81502395      18.78097572  T        1      -0.00192070      -0.12851517       0.02316980
F        7.67917964       1.91979491      20.70263426  T        0       0.00000000       0.00000000      -0.00489267
H        7.67917964       1.91979491      21.65016833  T        0       0.00000000      -0.00000000       0.05322016
38
Lattice="11.518769465528859 0.0 0.0 0.0 7.679179643685906 0.0 0.0 0.0 30.7875" Properties=species:S:1:pos:R:3:move_mask:L:1:tags:I:1:forces:R:3 surface=Si100 species=HF site=hollow orientation=upright height_A=1.9 substrate_atoms=36 calculation_kind="Rigid evaluated approach scan; not NEB" energy=-188.60696981224652 pbc="T T F"
Si       0.00000000       0.00000000      12.00000000  F        6      -0.00006272      -0.00001298       0.25005869
Si       3.83958982       0.00000000      12.00000000  F        6       0.00006269      -0.00001298       0.25005868
Si       7.67917964       0.00000000      12.00000000  F        6       0.00000000      -0.00071391       0.24736066
Si       0.00000000       3.83958982      12.00000000  F        6      -0.00006272       0.00001298       0.25005869
Si       3.83958982       3.83958982      12.00000000  F        6       0.00006269       0.00001298       0.25005868
Si       7.67917964       3.83958982      12.00000000  F        6       0.00000000       0.00071391       0.24736066
Si       1.91979491       0.00000000      13.35750000  F        5       0.00000000       0.00143715      -0.50002331
Si       5.75938473       0.00000000      13.35750000  F        5      -0.00379220       0.00175999      -0.49335142
Si       9.59897455       0.00000000      13.35750000  F        5       0.00379223       0.00175999      -0.49335144
Si       1.91979491       3.83958982      13.35750000  F        5       0.00000000      -0.00143717      -0.50002332
Si       5.75938473       3.83958982      13.35750000  F        5      -0.00379220      -0.00176001      -0.49335144
Si       9.59897455       3.83958982      13.35750000  F        5       0.00379223      -0.00176001      -0.49335146
Si       1.91979491       1.91979491      14.71500000  F        4      -0.00000001      -0.00000000       0.20718977
Si       5.75938473       1.91979491      14.71500000  F        4      -0.00833791      -0.00000000       0.21518825
Si       9.59897455       1.91979491      14.71500000  F        4       0.00833792      -0.00000000       0.21518825
Si       1.91979491       5.75938473      14.71500000  F        4      -0.00000001       0.00000002       0.21350465
Si       5.75938473       5.75938473      14.71500000  F        4       0.02428305       0.00000002       0.20931850
Si       9.59897455       5.75938473      14.71500000  F        4      -0.02428304       0.00000002       0.20931850
Si       0.00048247       1.91979491      16.08109892  T        3       0.00361959       0.00000000      -0.01248814
Si       3.83910735       1.91979491      16.08109893  T        3      -0.00361959       0.00000000      -0.01248814
Si       7.67917964       1.91979491      16.07475744  T        3      -0.00000000       0.00000000      -0.02070117
Si      -0.00055081       5.75938473      16.07933082  T        3      -0.00398997      -0.00000000      -0.00391310
Si       3.84014062       5.75938473      16.07933082  T        3       0.00398997      -0.00000000      -0.00391310
Si       7.67917964       5.75938473      16.07626220  T        3      -0.00000000      -0.00000000      -0.00283025
Si       0.00159624      -0.00289357      17.46915254  T        2       0.00510122       0.00247905       0.00715437
Si       3.83799358      -0.00289357      17.46915254  T        2      -0.00510122       0.00247905       0.00715437
Si       7.67917964      -0.00268428      17.46124190  T        2       0.00000000       0.00565702       0.01087071
Si       0.00159624       3.84248339      17.46915254  T        2       0.00510122      -0.00247905       0.00715437
Si       3.83799358       3.84248339      17.46915255  T        2      -0.00510122      -0.00247905       0.00715437
Si       7.67917964       3.84227410      17.46124190  T        2       0.00000000      -0.00565702       0.01087071
Si       1.91979491      -0.00678136      18.78732426  T        1      -0.00000000      -0.04036995       0.03120669
Si       5.75735951       0.03047113      18.78233752  T        1       0.00497141       0.14932430       0.02563410
Si       9.60099977       0.03047113      18.78233752  T        1      -0.00497141       0.14932430       0.02563410
Si       1.91979491       3.84637118      18.78732426  T        1      -0.00000000       0.04036995       0.03120669
Si       5.75735951       3.80911869      18.78233752  T        1       0.00497141      -0.14932430       0.02563410
Si       9.60099977       3.80911869      18.78233752  T        1      -0.00497141      -0.14932430       0.02563410
F        7.67917964       1.91979491      20.70352906  T        0       0.00000000       0.00000000       0.06713861
H        7.67917964       1.91979491      21.65231056  T        0       0.00000000      -0.00000000      -0.01732496
38
Lattice="11.518769465528859 0.0 0.0 0.0 7.679179643685906 0.0 0.0 0.0 30.7875" Properties=species:S:1:pos:R:3:move_mask:L:1:tags:I:1:forces:R:3 surface=Si100 species=HF site=hollow orientation=upright height_A=1.9 substrate_atoms=36 calculation_kind="Rigid evaluated approach scan; not NEB" energy=-188.61266777419698 pbc="T T F"
Si       0.00000000       0.00000000      12.00000000  F        6      -0.00003783       0.00000232       0.25009203
Si       3.83958982       0.00000000      12.00000000  F        6       0.00003779       0.00000232       0.25009201
Si       7.67917964       0.00000000      12.00000000  F        6       0.00000000      -0.00061658       0.24732374
Si       0.00000000       3.83958982      12.00000000  F        6      -0.00003783      -0.00000232       0.25009203
Si       3.83958982       3.83958982      12.00000000  F        6       0.00003779      -0.00000232       0.25009202
Si       7.67917964       3.83958982      12.00000000  F        6       0.00000000       0.00061658       0.24732374
Si       1.91979491       0.00000000      13.35750000  F        5       0.00000000       0.00152660      -0.49866248
Si       5.75938473       0.00000000      13.35750000  F        5      -0.00405853       0.00193548      -0.49197795
Si       9.59897455       0.00000000      13.35750000  F        5       0.00405856       0.00193548      -0.49197797
Si       1.91979491       3.83958982      13.35750000  F        5       0.00000000      -0.00152662      -0.49866249
Si       5.75938473       3.83958982      13.35750000  F        5      -0.00405853      -0.00193550      -0.49197796
Si       9.59897455       3.83958982      13.35750000  F        5       0.00405856      -0.00193550      -0.49197798
Si       1.91979491       1.91979491      14.71500000  F        4      -0.00000001      -0.00000000       0.20705562
Si       5.75938473       1.91979491      14.71500000  F        4      -0.01166239      -0.00000000       0.21703786
Si       9.59897455       1.91979491      14.71500000  F        4       0.01166241      -0.00000000       0.21703785
Si       1.91979491       5.75938473      14.71500000  F        4      -0.00000001       0.00000002       0.21959482
Si       5.75938473       5.75938473      14.71500000  F        4       0.02581223       0.00000002       0.21316752
Si       9.59897455       5.75938473      14.71500000  F        4      -0.02581222       0.00000002       0.21316751
Si       0.00071932       1.91979491      16.08145290  T        3       0.00382946      -0.00000000      -0.00292369
Si       3.83887050       1.91979491      16.08145290  T        3      -0.00382946      -0.00000000      -0.00292369
Si       7.67917964       1.91979491      16.07463162  T        3      -0.00000000       0.00000000      -0.01357877
Si      -0.00068392       5.75938473      16.07975512  T        3      -0.00495869      -0.00000000       0.00654963
Si       3.84027374       5.75938473      16.07975513  T        3       0.00495869      -0.00000000       0.00654963
Si       7.67917964       5.75938473      16.07666143  T        3      -0.00000000      -0.00000000       0.00736281
Si       0.00179551      -0.00296820      17.47148945  T        2       0.00700080       0.00357016      -0.00836601
Si       3.83779431      -0.00296820      17.47148945  T        2      -0.00700080       0.00357016      -0.00836601
Si       7.67917964      -0.00259345      17.46290652  T        2       0.00000000       0.00713248       0.00023577
Si       0.00179551       3.84255802      17.47148945  T        2       0.00700080      -0.00357016      -0.00836601
Si       3.83779431       3.84255802      17.47148945  T        2      -0.00700080      -0.00357016      -0.00836601
Si       7.67917964       3.84218326      17.46290652  T        2       0.00000000      -0.00713248       0.00023577
Si       1.91979491      -0.00871900      18.78987884  T        1       0.00000000      -0.04954592       0.02915451
Si       5.75737846       0.03827367      18.78402657  T        1       0.00672614       0.17683316       0.02636039
Si       9.60098082       0.03827367      18.78402657  T        1      -0.00672615       0.17683316       0.02636039
Si       1.91979491       3.84830882      18.78987884  T        1       0.00000000       0.04954592       0.02915451
Si       5.75737846       3.80131615      18.78402657  T        1       0.00672614      -0.17683316       0.02636039
Si       9.60098082       3.80131615      18.78402657  T        1      -0.00672615      -0.17683316       0.02636039
F        7.67917964       1.91979491      20.70526910  T        0       0.00000000       0.00000000       0.08081007
H        7.67917964       1.91979491      21.65424521  T        0       0.00000000      -0.00000000      -0.02944402
38
Lattice="11.518769465528859 0.0 0.0 0.0 7.679179643685906 0.0 0.0 0.0 30.7875" Properties=species:S:1:pos:R:3:move_mask:L:1:tags:I:1:forces:R:3 surface=Si100 species=HF site=hollow orientation=upright height_A=1.9 substrate_atoms=36 calculation_kind="Rigid evaluated approach scan; not NEB" energy=-188.62151472434854 pbc="T T F"
Si       0.00000000       0.00000000      12.00000000  F        6      -0.00000437       0.00001021       0.25013258
Si       3.83958982       0.00000000      12.00000000  F        6       0.00000433       0.00001021       0.25013256
Si       7.67917964       0.00000000      12.00000000  F        6       0.00000000      -0.00049239       0.24727172
Si       0.00000000       3.83958982      12.00000000  F        6      -0.00000437      -0.00001021       0.25013258
Si       3.83958982       3.83958982      12.00000000  F        6       0.00000433      -0.00001021       0.25013256
Si       7.67917964       3.83958982      12.00000000  F        6       0.00000000       0.00049239       0.24727172
Si       1.91979491       0.00000000      13.35750000  F        5       0.00000000       0.00166434      -0.49745452
Si       5.75938473       0.00000000      13.35750000  F        5      -0.00434467       0.00219286      -0.49064225
Si       9.59897455       0.00000000      13.35750000  F        5       0.00434470       0.00219286      -0.49064227
Si       1.91979491       3.83958982      13.35750000  F        5       0.00000000      -0.00166436      -0.49745453
Si       5.75938473       3.83958982      13.35750000  F        5      -0.00434467      -0.00219288      -0.49064226
Si       9.59897455       3.83958982      13.35750000  F        5       0.00434470      -0.00219288      -0.49064228
Si       1.91979491       1.91979491      14.71500000  F        4      -0.00000001      -0.00000000       0.20570494
Si       5.75938473       1.91979491      14.71500000  F        4      -0.01604822      -0.00000000       0.21816841
Si       9.59897455       1.91979491      14.71500000  F        4       0.01604823      -0.00000000       0.21816841
Si       1.91979491       5.75938473      14.71500000  F        4      -0.00000001       0.00000002       0.22728964
Si       5.75938473       5.75938473      14.71500000  F        4       0.02803253       0.00000002       0.21780091
Si       9.59897455       5.75938473      14.71500000  F        4      -0.02803251       0.00000002       0.21780091
Si       0.00101333       1.91979491      16.08176611  T        3       0.00444980      -0.00000000       0.00612815
Si       3.83857649       1.91979491      16.08176612  T        3      -0.00444980      -0.00000000       0.00612815
Si       7.67917964       1.91979491      16.07430697  T        3      -0.00000000      -0.00000000      -0.00513694
Si      -0.00089012       5.75938473      16.08027729  T        3      -0.00598580      -0.00000000       0.01624003
Si       3.84047993       5.75938473      16.08027730  T        3       0.00598580      -0.00000000       0.01624003
Si       7.67917964       5.75938473      16.07717025  T        3      -0.00000000      -0.00000000       0.01865107
Si       0.00209801      -0.00299114      17.47371688  T        2       0.00741886       0.00474271      -0.01910949
Si       3.83749181      -0.00299114      17.47371689  T        2      -0.00741886       0.00474271      -0.01910949
Si       7.67917964      -0.00239804      17.46458356  T        2      -0.00000000       0.00878765      -0.00959480
Si       0.00209801       3.84258096      17.47371689  T        2       0.00741886      -0.00474270      -0.01910949
Si       3.83749181       3.84258096      17.47371689  T        2      -0.00741886      -0.00474270      -0.01910949
Si       7.67917964       3.84198786      17.46458356  T        2      -0.00000000      -0.00878765      -0.00959480
Si       1.91979491      -0.01139009      18.79287263  T        1       0.00000000      -0.06215272       0.02341794
Si       5.75749566       0.04869868      18.78610938  T        1       0.00609998       0.21341174       0.02377067
Si       9.60086362       0.04869868      18.78610938  T        1      -0.00609999       0.21341174       0.02377067
Si       1.91979491       3.85097991      18.79287263  T        1       0.00000000       0.06215272       0.02341794
Si       5.75749566       3.79089114      18.78610938  T        1       0.00609998      -0.21341174       0.02377067
Si       9.60086362       3.79089114      18.78610938  T        1      -0.00609999      -0.21341174       0.02377067
F        7.67917964       1.91979491      20.70819772  T        0       0.00000000       0.00000000       0.00542673
H        7.67917964       1.91979491      21.65576064  T        0       0.00000000      -0.00000000       0.04750297
38
Lattice="11.518769465528859 0.0 0.0 0.0 7.679179643685906 0.0 0.0 0.0 30.7875" Properties=species:S:1:pos:R:3:move_mask:L:1:tags:I:1:forces:R:3 surface=Si100 species=HF site=hollow orientation=upright height_A=1.9 substrate_atoms=36 calculation_kind="Rigid evaluated approach scan; not NEB" energy=-188.63584710744632 pbc="T T F"
Si       0.00000000       0.00000000      12.00000000  F        6       0.00003690       0.00001233       0.25020730
Si       3.83958982       0.00000000      12.00000000  F        6      -0.00003694       0.00001233       0.25020728
Si       7.67917964       0.00000000      12.00000000  F        6       0.00000000      -0.00033418       0.24722172
Si       0.00000000       3.83958982      12.00000000  F        6       0.00003690      -0.00001233       0.25020730
Si       3.83958982       3.83958982      12.00000000  F        6      -0.00003694      -0.00001233       0.25020728
Si       7.67917964       3.83958982      12.00000000  F        6       0.00000000       0.00033418       0.24722172
Si       1.91979491       0.00000000      13.35750000  F        5       0.00000000       0.00186741      -0.49650747
Si       5.75938473       0.00000000      13.35750000  F        5      -0.00464093       0.00254780      -0.48935676
Si       9.59897455       0.00000000      13.35750000  F        5       0.00464096       0.00254780      -0.48935678
Si       1.91979491       3.83958982      13.35750000  F        5       0.00000000      -0.00186743      -0.49650748
Si       5.75938473       3.83958982      13.35750000  F        5      -0.00464093      -0.00254782      -0.48935677
Si       9.59897455       3.83958982      13.35750000  F        5       0.00464096      -0.00254782      -0.48935679
Si       1.91979491       1.91979491      14.71500000  F        4      -0.00000001      -0.00000000       0.20367853
Si       5.75938473       1.91979491      14.71500000  F        4      -0.02185162      -0.00000000       0.21951882
Si       9.59897455       1.91979491      14.71500000  F        4       0.02185163      -0.00000000       0.21951882
Si       1.91979491       5.75938473      14.71500000  F        4      -0.00000001       0.00000002       0.23816702
Si       5.75938473       5.75938473      14.71500000  F        4       0.03128352       0.00000002       0.22461070
Si       9.59897455       5.75938473      14.71500000  F        4      -0.03128351       0.00000002       0.22461069
Si       0.00138539       1.91979491      16.08218624  T        3       0.00552653      -0.00000000       0.01128495
Si       3.83820443       1.91979491      16.08218625  T        3      -0.00552653      -0.00000000       0.01128495
Si       7.67917964       1.91979491      16.07389231  T        3      -0.00000000      -0.00000000       0.00070708
Si      -0.00120011       5.75938473      16.08108084  T        3      -0.00730766      -0.00000000       0.02197897
Si       3.84078993       5.75938473      16.08108084  T        3       0.00730766      -0.00000000       0.02197897
Si       7.67917964       5.75938473      16.07800164  T        3      -0.00000000      -0.00000000       0.02791982
Si       0.00252945      -0.00293302      17.47563124  T        2       0.00611223       0.00587839      -0.02153606
Si       3.83706037      -0.00293302      17.47563124  T        2      -0.00611223       0.00587839      -0.02153606
Si       7.67917964      -0.00205093      17.46610695  T        2      -0.00000000       0.01116957      -0.01519953
Si       0.00252945       3.84252284      17.47563124  T        2       0.00611223      -0.00587838      -0.02153606
Si       3.83706037       3.84252284      17.47563124  T        2      -0.00611223      -0.00587838      -0.02153606
Si       7.67917964       3.84164075      17.46610695  T        2      -0.00000000      -0.01116957      -0.01519953
Si       1.91979491      -0.01514230      18.79628637  T        1       0.00000000      -0.07979100       0.01281664
Si       5.75771805       0.06284388      18.78861241  T        1       0.00190486       0.26220559       0.01643119
Si       9.60064123       0.06284388      18.78861241  T        1      -0.00190487       0.26220559       0.01643119
Si       1.91979491       3.85473212      18.79628637  T        1       0.00000000       0.07979099       0.01281664
Si       5.75771805       3.77674594      18.78861241  T        1       0.00190486      -0.26220560       0.01643119
Si       9.60064123       3.77674594      18.78861241  T        1      -0.00190487      -0.26220560       0.01643119
F        7.67917964       1.91979491      20.71123782  T        0       0.00000000       0.00000000      -0.03004240
H        7.67917964       1.91979491      21.65809904  T        0       0.00000000      -0.00000000       0.08513779
38
Lattice="11.518769465528859 0.0 0.0 0.0 7.679179643685906 0.0 0.0 0.0 30.7875" Properties=species:S:1:pos:R:3:move_mask:L:1:tags:I:1:forces:R:3 surface=Si100 species=HF site=hollow orientation=upright height_A=1.9 substrate_atoms=36 calculation_kind="Rigid evaluated approach scan; not NEB" energy=-188.6602144484855 pbc="T T F"
Si       0.00000000       0.00000000      12.00000000  F        6       0.00008378       0.00001077       0.25032520
Si       3.83958982       0.00000000      12.00000000  F        6      -0.00008382       0.00001077       0.25032518
Si       7.67917964       0.00000000      12.00000000  F        6       0.00000000      -0.00012603       0.24718040
Si       0.00000000       3.83958982      12.00000000  F        6       0.00008378      -0.00001077       0.25032520
Si       3.83958982       3.83958982      12.00000000  F        6      -0.00008382      -0.00001077       0.25032518
Si       7.67917964       3.83958982      12.00000000  F        6       0.00000000       0.00012603       0.24718040
Si       1.91979491       0.00000000      13.35750000  F        5       0.00000000       0.00215954      -0.49584946
Si       5.75938473       0.00000000      13.35750000  F        5      -0.00493735       0.00303250      -0.48809346
Si       9.59897455       0.00000000      13.35750000  F        5       0.00493738       0.00303250      -0.48809348
Si       1.91979491       3.83958982      13.35750000  F        5       0.00000000      -0.00215956      -0.49584947
Si       5.75938473       3.83958982      13.35750000  F        5      -0.00493735      -0.00303252      -0.48809347
Si       9.59897455       3.83958982      13.35750000  F        5       0.00493738      -0.00303252      -0.48809349
Si       1.91979491       1.91979491      14.71500000  F        4      -0.00000001      -0.00000000       0.20120648
Si       5.75938473       1.91979491      14.71500000  F        4      -0.02943917      -0.00000000       0.22189460
Si       9.59897455       1.91979491      14.71500000  F        4       0.02943918      -0.00000000       0.22189459
Si       1.91979491       5.75938473      14.71500000  F        4      -0.00000001       0.00000002       0.25384506
Si       5.75938473       5.75938473      14.71500000  F        4       0.03616989       0.00000002       0.23493494
Si       9.59897455       5.75938473      14.71500000  F        4      -0.03616988       0.00000002       0.23493493
Si       0.00187074       1.91979491      16.08283525  T        3       0.00711114      -0.00000000       0.00987028
Si       3.83771907       1.91979491      16.08283525  T        3      -0.00711114      -0.00000000       0.00987028
Si       7.67917964       1.91979491      16.07348878  T        3      -0.00000000      -0.00000000       0.00000094
Si      -0.00165859       5.75938473      16.08233005  T        3      -0.00933129      -0.00000000       0.02160646
Si       3.84124840       5.75938473      16.08233005  T        3       0.00933129      -0.00000000       0.02160645
Si       7.67917964       5.75938473      16.07939777  T        3      -0.00000000      -0.00000000       0.03241214
Si       0.00308634      -0.00275685      17.47712858  T        2       0.00407502       0.00696540      -0.01487115
Si       3.83650347      -0.00275685      17.47712858  T        2      -0.00407502       0.00696540      -0.01487116
Si       7.67917964      -0.00147778      17.46733727  T        2      -0.00000000       0.01514948      -0.01370243
Si       0.00308634       3.84234667      17.47712858  T        2       0.00407502      -0.00696540      -0.01487115
Si       3.83650347       3.84234667      17.47712858  T        2      -0.00407502      -0.00696540      -0.01487116
Si       7.67917964       3.84106760      17.46733727  T        2      -0.00000000      -0.01514948      -0.01370243
Si       1.91979491      -0.02051847      18.79998142  T        1       0.00000000      -0.10490863      -0.00244937
Si       5.75798018       0.08233888      18.79146245  T        1      -0.00531162       0.32739614       0.00441712
Si       9.60037911       0.08233888      18.79146244  T        1       0.00531161       0.32739615       0.00441712
Si       1.91979491       3.86010829      18.79998142  T        1       0.00000000       0.10490863      -0.00244937
Si       5.75798018       3.75725094      18.79146245  T        1      -0.00531162      -0.32739615       0.00441712
Si       9.60037911       3.75725094      18.79146245  T        1       0.00531161      -0.32739615       0.00441712
F        7.67917964       1.91979491      20.71369888  T        0       0.00000000       0.00000000       0.06420776
H        7.67917964       1.91979491      21.66215810  T        0       0.00000000      -0.00000000      -0.00575391
38
Lattice="11.518769465528859 0.0 0.0 0.0 7.679179643685906 0.0 0.0 0.0 30.7875" Properties=species:S:1:pos:R:3:move_mask:L:1:tags:I:1:forces:R:3 surface=Si100 species=HF site=hollow orientation=upright height_A=1.9 substrate_atoms=36 calculation_kind="Rigid evaluated approach scan; not NEB" energy=-188.7031023007013 pbc="T T F"
Si       0.00000000       0.00000000      12.00000000  F        6       0.00013475       0.00000306       0.25045565
Si       3.83958982       0.00000000      12.00000000  F        6      -0.00013479       0.00000306       0.25045563
Si       7.67917964       0.00000000      12.00000000  F        6       0.00000000       0.00016869       0.24712820
Si       0.00000000       3.83958982      12.00000000  F        6       0.00013475      -0.00000306       0.25045565
Si       3.83958982       3.83958982      12.00000000  F        6      -0.00013479      -0.00000306       0.25045563
Si       7.67917964       3.83958982      12.00000000  F        6       0.00000000      -0.00016869       0.24712820
Si       1.91979491       0.00000000      13.35750000  F        5       0.00000000       0.00257599      -0.49539078
Si       5.75938473       0.00000000      13.35750000  F        5      -0.00524140       0.00373515      -0.48682106
Si       9.59897455       0.00000000      13.35750000  F        5       0.00524143       0.00373515      -0.48682108
Si       1.91979491       3.83958982      13.35750000  F        5       0.00000000      -0.00257601      -0.49539079
Si       5.75938473       3.83958982      13.35750000  F        5      -0.00524140      -0.00373517      -0.48682107
Si       9.59897455       3.83958982      13.35750000  F        5       0.00524143      -0.00373517      -0.48682109
Si       1.91979491       1.91979491      14.71500000  F        4      -0.00000001      -0.00000000       0.19758758
Si       5.75938473       1.91979491      14.71500000  F        4      -0.03925366      -0.00000000       0.22510267
Si       9.59897455       1.91979491      14.71500000  F        4       0.03925367      -0.00000000       0.22510266
Si       1.91979491       5.75938473      14.71500000  F        4      -0.00000001       0.00000002       0.27553251
Si       5.75938473       5.75938473      14.71500000  F        4       0.04367041       0.00000002       0.24941726
Si       9.59897455       5.75938473      14.71500000  F        4      -0.04367040       0.00000002       0.24941726
Si       0.00252786       1.91979491      16.08372245  T        3       0.00956907      -0.00000000       0.00124368
Si       3.83706196       1.91979491      16.08372245  T        3      -0.00956907      -0.00000000       0.00124367
Si       7.67917964       1.91979491      16.07308197  T        3      -0.00000000      -0.00000000      -0.00841210
Si      -0.00234098       5.75938473      16.08409927  T        3      -0.01255904       0.00000000       0.01565445
Si       3.84193080       5.75938473      16.08409927  T        3       0.01255904       0.00000000       0.01565445
Si       7.67917964       5.75938473      16.08157007  T        3      -0.00000000       0.00000000       0.03218160
Si       0.00374395      -0.00241490      17.47828734  T        2       0.00380802       0.00848080      -0.00304608
Si       3.83584587      -0.00241490      17.47828734  T        2      -0.00380802       0.00848080      -0.00304608
Si       7.67917964      -0.00054251      17.46825439  T        2      -0.00000000       0.02197272      -0.00535629
Si       0.00374395       3.84200472      17.47828734  T        2       0.00380802      -0.00848080      -0.00304608
Si       3.83584587       3.84200472      17.47828734  T        2      -0.00380802      -0.00848080      -0.00304608
Si       7.67917964       3.84013233      17.46825440  T        2      -0.00000000      -0.02197272      -0.00535629
Si       1.91979491      -0.02841389      18.80364899  T        1       0.00000000      -0.14139731      -0.01985135
Si       5.75811914       0.10971817      18.79444008  T        1      -0.01180250       0.41371918      -0.00952139
Si       9.60024015       0.10971817      18.79444008  T        1       0.01180250       0.41371918      -0.00952139
Si       1.91979491       3.86800371      18.80364899  T        1       0.00000000       0.14139731      -0.01985135
Si       5.75811914       3.72987165      18.79444008  T        1      -0.01180250      -0.41371918      -0.00952139
Si       9.60024015       3.72987165      18.79444008  T        1       0.01180250      -0.41371918      -0.00952139
F        7.67917964       1.91979491      20.71769501  T        0       0.00000000       0.00000000       0.06557651
H        7.67917964       1.91979491      21.66611471  T        0       0.00000000      -0.00000000      -0.00263015
38
Lattice="11.518769465528859 0.0 0.0 0.0 7.679179643685906 0.0 0.0 0.0 30.7875" Properties=species:S:1:pos:R:3:move_mask:L:1:tags:I:1:forces:R:3 surface=Si100 species=HF site=hollow orientation=upright height_A=1.9 substrate_atoms=36 calculation_kind="Rigid evaluated approach scan; not NEB" energy=-188.77995843998187 pbc="T T F"
Si       0.00000000       0.00000000      12.00000000  F        6       0.00017204      -0.00002226       0.25049293
Si       3.83958982       0.00000000      12.00000000  F        6      -0.00017207      -0.00002226       0.25049291
Si       7.67917964       0.00000000      12.00000000  F        6       0.00000000       0.00057672       0.24697383
Si       0.00000000       3.83958982      12.00000000  F        6       0.00017204       0.00002226       0.25049293
Si       3.83958982       3.83958982      12.00000000  F        6      -0.00017207       0.00002226       0.25049291
Si       7.67917964       3.83958982      12.00000000  F        6       0.00000000      -0.00057672       0.24697383
Si       1.91979491       0.00000000      13.35750000  F        5       0.00000000       0.00317693      -0.49496091
Si       5.75938473       0.00000000      13.35750000  F        5      -0.00553907       0.00475668      -0.48532977
Si       9.59897455       0.00000000      13.35750000  F        5       0.00553910       0.00475668      -0.48532979
Si       1.91979491       3.83958982      13.35750000  F        5       0.00000000      -0.00317695      -0.49496092
Si       5.75938473       3.83958982      13.35750000  F        5      -0.00553907      -0.00475670      -0.48532979
Si       9.59897455       3.83958982      13.35750000  F        5       0.00553910      -0.00475670      -0.48532981
Si       1.91979491       1.91979491      14.71500000  F        4      -0.00000001      -0.00000000       0.19037000
Si       5.75938473       1.91979491      14.71500000  F        4      -0.05188924      -0.00000000       0.22759930
Si       9.59897455       1.91979491      14.71500000  F        4       0.05188925      -0.00000000       0.22759929
Si       1.91979491       5.75938473      14.71500000  F        4      -0.00000001       0.00000002       0.30348741
Si       5.75938473       5.75938473      14.71500000  F        4       0.05500587       0.00000002       0.26768112
Si       9.59897455       5.75938473      14.71500000  F        4      -0.05500586       0.00000002       0.26768111
Si       0.00344646       1.91979491      16.08464121  T        3       0.01311475      -0.00000000      -0.01168602
Si       3.83614336       1.91979491      16.08464122  T        3      -0.01311475      -0.00000000      -0.01168602
Si       7.67917964       1.91979491      16.07244477  T        3      -0.00000000      -0.00000000      -0.02404432
Si      -0.00336710       5.75938473      16.08629416  T        3      -0.01778132       0.00000000       0.00857982
Si       3.84295692       5.75938473      16.08629416  T        3       0.01778132       0.00000000       0.00857982
Si       7.67917964       5.75938473      16.08462187  T        3      -0.00000000       0.00000000       0.03104695
Si       0.00450441      -0.00184048      17.47935873  T        2       0.00782285       0.01127177       0.00548109
Si       3.83508541      -0.00184048      17.47935873  T        2      -0.00782285       0.01127177       0.00548108
Si       7.67917964       0.00099492      17.46902127  T        2      -0.00000000       0.03521470       0.00636179
Si       0.00450441       3.84143029      17.47935873  T        2       0.00782285      -0.01127177       0.00548109
Si       3.83508541       3.84143029      17.47935873  T        2      -0.00782285      -0.01127177       0.00548108
Si       7.67917964       3.83859490      17.46902127  T        2      -0.00000000      -0.03521470       0.00636179
Si       1.91979491      -0.04017859      18.80675890  T        1       0.00000000      -0.19473802      -0.03434564
Si       5.75793271       0.14840578      18.79714655  T        1      -0.01525012       0.52169961      -0.02141524
Si       9.60042657       0.14840578      18.79714655  T        1       0.01525012       0.52169961      -0.02141524
Si       1.91979491       3.87976841      18.80675890  T        1       0.00000000       0.19473802      -0.03434564
Si       5.75793271       3.69118404      18.79714655  T        1      -0.01525012      -0.52169961      -0.02141524
Si       9.60042657       3.69118404      18.79714655  T        1       0.01525012      -0.52169961      -0.02141524
F        7.67917964       1.91979491      20.72348459  T        0       0.00000000       0.00000000      -0.04270688
H        7.67917964       1.91979491      21.66998695  T        0       0.00000000      -0.00000000       0.11252438
38
Lattice="11.518769465528859 0.0 0.0 0.0 7.679179643685906 0.0 0.0 0.0 30.7875" Properties=species:S:1:pos:R:3:move_mask:L:1:tags:I:1:forces:R:3 surface=Si100 species=HF site=hollow orientation=upright height_A=1.9 substrate_atoms=36 calculation_kind="Rigid evaluated approach scan; not NEB" energy=-188.87420101057515 pbc="T T F"
Si       0.00000000       0.00000000      12.00000000  F        6       0.00015486      -0.00007699       0.25032705
Si       3.83958982       0.00000000      12.00000000  F        6      -0.00015490      -0.00007699       0.25032703
Si       7.67917964       0.00000000      12.00000000  F        6       0.00000000       0.00094301       0.24666640
Si       0.00000000       3.83958982      12.00000000  F        6       0.00015486       0.00007699       0.25032705
Si       3.83958982       3.83958982      12.00000000  F        6      -0.00015490       0.00007699       0.25032703
Si       7.67917964       3.83958982      12.00000000  F        6       0.00000000      -0.00094301       0.24666640
Si       1.91979491       0.00000000      13.35750000  F        5       0.00000000       0.00380959      -0.49459986
Si       5.75938473       0.00000000      13.35750000  F        5      -0.00571503       0.00577641      -0.48381826
Si       9.59897455       0.00000000      13.35750000  F        5       0.00571506       0.00577641      -0.48381828
Si       1.91979491       3.83958982      13.35750000  F        5       0.00000000      -0.00380961      -0.49459987
Si       5.75938473       3.83958982      13.35750000  F        5      -0.00571503      -0.00577643      -0.48381828
Si       9.59897455       3.83958982      13.35750000  F        5       0.00571506      -0.00577643      -0.48381830
Si       1.91979491       1.91979491      14.71500000  F        4      -0.00000001      -0.00000000       0.17952119
Si       5.75938473       1.91979491      14.71500000  F        4      -0.06374373      -0.00000000       0.22677439
Si       9.59897455       1.91979491      14.71500000  F        4       0.06374374      -0.00000000       0.22677439
Si       1.91979491       5.75938473      14.71500000  F        4      -0.00000001       0.00000002       0.32771053
Si       5.75938473       5.75938473      14.71500000  F        4       0.06683021       0.00000002       0.28241727
Si       9.59897455       5.75938473      14.71500000  F        4      -0.06683020       0.00000002       0.28241727
Si       0.00438242       1.91979491      16.08501789  T        3       0.01626618      -0.00000000      -0.01990805
Si       3.83520740       1.91979491      16.08501789  T        3      -0.01626618      -0.00000000      -0.01990805
Si       7.67917964       1.91979491      16.07145838  T        3      -0.00000000      -0.00000000      -0.03915571
Si      -0.00448326       5.75938473      16.08801725  T        3      -0.02319400       0.00000000       0.00740999
Si       3.84407308       5.75938473      16.08801726  T        3       0.02319400       0.00000000       0.00740999
Si       7.67917964       5.75938473      16.08744888  T        3      -0.00000000       0.00000000       0.03492221
Si       0.00521081      -0.00118593      17.48022899  T        2       0.01339496       0.01507809       0.00353938
Si       3.83437901      -0.00118593      17.48022899  T        2      -0.01339496       0.01507809       0.00353938
Si       7.67917964       0.00286061      17.46969919  T        2      -0.00000000       0.05332898       0.01341354
Si       0.00521081       3.84077575      17.48022899  T        2       0.01339496      -0.01507809       0.00353938
Si       3.83437901       3.84077575      17.48022899  T        2      -0.01339496      -0.01507809       0.00353938
Si       7.67917964       3.83672921      17.46969919  T        2      -0.00000000      -0.05332899       0.01341354
Si       1.91979491      -0.05276960      18.80815143  T        1       0.00000000      -0.25032617      -0.03862896
Si       5.75745882       0.18713360      18.79854959  T        1      -0.01776949       0.61177417      -0.02699959
Si       9.60090046       0.18713360      18.79854959  T        1       0.01776949       0.61177417      -0.02699959
Si       1.91979491       3.89235942      18.80815143  T        1       0.00000000       0.25032617      -0.03862896
Si       5.75745882       3.65245622      18.79854959  T        1      -0.01776949      -0.61177417      -0.02699959
Si       9.60090046       3.65245622      18.79854959  T        1       0.01776949      -0.61177417      -0.02699959
F        7.67917964       1.91979491      20.72655593  T        0       0.00000000       0.00000000       0.07504995
H        7.67917964       1.91979491      21.67522350  T        0      -0.00000000      -0.00000000       0.00266821
38
Lattice="11.518769465528859 0.0 0.0 0.0 7.679179643685906 0.0 0.0 0.0 30.7875" Properties=species:S:1:pos:R:3:move_mask:L:1:tags:I:1:forces:R:3 surface=Si100 species=HF site=hollow orientation=upright height_A=1.9 substrate_atoms=36 calculation_kind="Rigid evaluated approach scan; not NEB" energy=-188.98322848861397 pbc="T T F"
Si       0.00000000       0.00000000      12.00000000  F        6       0.00007108      -0.00017697       0.24997672
Si       3.83958982       0.00000000      12.00000000  F        6      -0.00007112      -0.00017697       0.24997670
Si       7.67917964       0.00000000      12.00000000  F        6       0.00000000       0.00126482       0.24620657
Si       0.00000000       3.83958982      12.00000000  F        6       0.00007108       0.00017697       0.24997672
Si       3.83958982       3.83958982      12.00000000  F        6      -0.00007112       0.00017697       0.24997670
Si       7.67917964       3.83958982      12.00000000  F        6       0.00000000      -0.00126482       0.24620657
Si       1.91979491       0.00000000      13.35750000  F        5       0.00000000       0.00447877      -0.49432927
Si       5.75938473       0.00000000      13.35750000  F        5      -0.00583424       0.00681427      -0.48234378
Si       9.59897455       0.00000000      13.35750000  F        5       0.00583427       0.00681427      -0.48234380
Si       1.91979491       3.83958982      13.35750000  F        5       0.00000000      -0.00447879      -0.49432928
Si       5.75938473       3.83958982      13.35750000  F        5      -0.00583424      -0.00681429      -0.48234379
Si       9.59897455       3.83958982      13.35750000  F        5       0.00583427      -0.00681429      -0.48234381
Si       1.91979491       1.91979491      14.71500000  F        4      -0.00000001      -0.00000000       0.16542352
Si       5.75938473       1.91979491      14.71500000  F        4      -0.07532623      -0.00000000       0.22226933
Si       9.59897455       1.91979491      14.71500000  F        4       0.07532624      -0.00000000       0.22226933
Si       1.91979491       5.75938473      14.71500000  F        4      -0.00000001       0.00000002       0.34863426
Si       5.75938473       5.75938473      14.71500000  F        4       0.07886902       0.00000002       0.29360456
Si       9.59897455       5.75938473      14.71500000  F        4      -0.07886901       0.00000002       0.29360455
Si       0.00534400       1.91979491      16.08490492  T        3       0.01929962      -0.00000000      -0.02369871
Si       3.83424581       1.91979491      16.08490492  T        3      -0.01929962      -0.00000000      -0.02369872
Si       7.67917964       1.91979491      16.07002895  T        3      -0.00000000      -0.00000000      -0.04984652
Si      -0.00570172       5.75938473      16.08936161  T        3      -0.02798804       0.00000000       0.01119732
Si       3.84529153       5.75938473      16.08936162  T        3       0.02798804       0.00000000       0.01119731
Si       7.67917964       5.75938473      16.09008476  T        3      -0.00000000       0.00000000       0.04579989
Si       0.00595769      -0.00044348      17.48090412  T        2       0.01813268       0.02051051      -0.00384362
Si       3.83363213      -0.00044348      17.48090413  T        2      -0.01813268       0.02051051      -0.00384362
Si       7.67917964       0.00517247      17.47042651  T        2      -0.00000000       0.07524920       0.01532659
Si       0.00595769       3.84003330      17.48090413  T        2       0.01813269      -0.02051051      -0.00384362
Si       3.83363213       3.84003330      17.48090413  T        2      -0.01813268      -0.02051051      -0.00384362
Si       7.67917964       3.83441735      17.47042651  T        2      -0.00000000      -0.07524920       0.01532659
Si       1.91979491      -0.06630076      18.80839465  T        1       0.00000000      -0.30822935      -0.03635644
Si       5.75679177       0.22576357      18.79901995  T        1      -0.02025705       0.68695488      -0.02963124
Si       9.60156751       0.22576357      18.79901995  T        1       0.02025705       0.68695488      -0.02963124
Si       1.91979491       3.90589058      18.80839465  T        1       0.00000000       0.30822935      -0.03635644
Si       5.75679177       3.61382625      18.79901995  T        1      -0.02025705      -0.68695488      -0.02963124
Si       9.60156751       3.61382625      18.79901995  T        1       0.02025705      -0.68695488      -0.02963124
F        7.67917964       1.91979491      20.73012095  T        0       0.00000000       0.00000000       0.07388399
H        7.67917964       1.91979491      21.67893390  T        0      -0.00000000      -0.00000000       0.01103277
38
Lattice="11.518769465528859 0.0 0.0 0.0 7.679179643685906 0.0 0.0 0.0 30.7875" Properties=species:S:1:pos:R:3:move_mask:L:1:tags:I:1:forces:R:3 surface=Si100 species=HF site=hollow orientation=upright height_A=1.9 substrate_atoms=36 calculation_kind="Rigid evaluated approach scan; not NEB" energy=-189.10547069389892 pbc="T T F"
Si       0.00000000       0.00000000      12.00000000  F        6      -0.00010131      -0.00032540       0.24945100
Si       3.83958982       0.00000000      12.00000000  F        6       0.00010128      -0.00032540       0.24945098
Si       7.67917964       0.00000000      12.00000000  F        6       0.00000000       0.00153502       0.24557588
Si       0.00000000       3.83958982      12.00000000  F        6      -0.00010131       0.00032540       0.24945100
Si       3.83958982       3.83958982      12.00000000  F        6       0.00010128       0.00032540       0.24945098
Si       7.67917964       3.83958982      12.00000000  F        6       0.00000000      -0.00153502       0.24557588
Si       1.91979491       0.00000000      13.35750000  F        5       0.00000000       0.00519594      -0.49418876
Si       5.75938473       0.00000000      13.35750000  F        5      -0.00592411       0.00784920      -0.48086605
Si       9.59897455       0.00000000      13.35750000  F        5       0.00592414       0.00784920      -0.48086607
Si       1.91979491       3.83958982      13.35750000  F        5       0.00000000      -0.00519596      -0.49418877
Si       5.75938473       3.83958982      13.35750000  F        5      -0.00592411      -0.00784922      -0.48086606
Si       9.59897455       3.83958982      13.35750000  F        5       0.00592414      -0.00784922      -0.48086608
Si       1.91979491       1.91979491      14.71500000  F        4      -0.00000001      -0.00000000       0.14904174
Si       5.75938473       1.91979491      14.71500000  F        4      -0.08699518      -0.00000000       0.21489476
Si       9.59897455       1.91979491      14.71500000  F        4       0.08699519      -0.00000000       0.21489475
Si       1.91979491       5.75938473      14.71500000  F        4      -0.00000001       0.00000002       0.36733568
Si       5.75938473       5.75938473      14.71500000  F        4       0.09095757       0.00000002       0.30215016
Si       9.59897455       5.75938473      14.71500000  F        4      -0.09095756       0.00000002       0.30215015
Si       0.00633628       1.91979491      16.08444233  T        3       0.02202531      -0.00000000      -0.02483234
Si       3.83325353       1.91979491      16.08444234  T        3      -0.02202531      -0.00000000      -0.02483234
Si       7.67917964       1.91979491      16.06821233  T        3      -0.00000000      -0.00000000      -0.05696784
Si      -0.00701610       5.75938473      16.09049405  T        3      -0.03188440       0.00000000       0.01746417
Si       3.84660592       5.75938473      16.09049405  T        3       0.03188440       0.00000000       0.01746417
Si       7.67917964       5.75938473      16.09269009  T        3      -0.00000000       0.00000000       0.06195530
Si       0.00677914       0.00041322      17.48131999  T        2       0.02098057       0.02746860      -0.01143902
Si       3.83281068       0.00041322      17.48132000  T        2      -0.02098057       0.02746860      -0.01143903
Si       7.67917964       0.00802388      17.47118881  T        2      -0.00000000       0.10003350       0.01485237
Si       0.00677914       3.83917660      17.48131999  T        2       0.02098057      -0.02746860      -0.01143902
Si       3.83281068       3.83917660      17.48132000  T        2      -0.02098057      -0.02746860      -0.01143903
Si       7.67917964       3.83156594      17.47118881  T        2      -0.00000000      -0.10003350       0.01485237
Si       1.91979491      -0.08085555      18.80797986  T        1       0.00000000      -0.36830369      -0.03140382
Si       5.75599254       0.26419988      18.79887452  T        1      -0.02431971       0.75576098      -0.03250630
Si       9.60236675       0.26419988      18.79887452  T        1       0.02431971       0.75576098      -0.03250630
Si       1.91979491       3.92044537      18.80797986  T        1       0.00000000       0.36830369      -0.03140382
Si       5.75599254       3.57538994      18.79887452  T        1      -0.02431971      -0.75576098      -0.03250630
Si       9.60236675       3.57538994      18.79887452  T        1       0.02431971      -0.75576098      -0.03250630
F        7.67917964       1.91979491      20.73383741  T        0       0.00000000       0.00000000       0.00822151
H        7.67917964       1.91979491      21.68173856  T        0      -0.00000000      -0.00000000       0.08283039
38
Lattice="11.518769465528859 0.0 0.0 0.0 7.679179643685906 0.0 0.0 0.0 30.7875" Properties=species:S:1:pos:R:3:move_mask:L:1:tags:I:1:forces:R:3 surface=Si100 species=HF site=hollow orientation=upright height_A=1.9 substrate_atoms=36 calculation_kind="Rigid evaluated approach scan; not NEB" energy=-189.24085643034772 pbc="T T F"
Si       0.00000000       0.00000000      12.00000000  F        6      -0.00037934      -0.00051494       0.24873684
Si       3.83958982       0.00000000      12.00000000  F        6       0.00037930      -0.00051494       0.24873683
Si       7.67917964       0.00000000      12.00000000  F        6       0.00000000       0.00175488       0.24473353
Si       0.00000000       3.83958982      12.00000000  F        6      -0.00037934       0.00051493       0.24873684
Si       3.83958982       3.83958982      12.00000000  F        6       0.00037930       0.00051493       0.24873683
Si       7.67917964       3.83958982      12.00000000  F        6       0.00000000      -0.00175488       0.24473353
Si       1.91979491       0.00000000      13.35750000  F        5       0.00000000       0.00597128      -0.49420812
Si       5.75938473       0.00000000      13.35750000  F        5      -0.00599372       0.00886774      -0.47931030
Si       9.59897455       0.00000000      13.35750000  F        5       0.00599375       0.00886774      -0.47931032
Si       1.91979491       3.83958982      13.35750000  F        5       0.00000000      -0.00597130      -0.49420813
Si       5.75938473       3.83958982      13.35750000  F        5      -0.00599372      -0.00886776      -0.47931032
Si       9.59897455       3.83958982      13.35750000  F        5       0.00599375      -0.00886776      -0.47931034
Si       1.91979491       1.91979491      14.71500000  F        4      -0.00000001      -0.00000000       0.13143306
Si       5.75938473       1.91979491      14.71500000  F        4      -0.09888406      -0.00000000       0.20570813
Si       9.59897455       1.91979491      14.71500000  F        4       0.09888407      -0.00000000       0.20570813
Si       1.91979491       5.75938473      14.71500000  F        4      -0.00000001       0.00000002       0.38484804
Si       5.75938473       5.75938473      14.71500000  F        4       0.10303155       0.00000002       0.30899449
Si       9.59897455       5.75938473      14.71500000  F        4      -0.10303154       0.00000002       0.30899449
Si       0.00735758       1.91979491      16.08376219  T        3       0.02424751      -0.00000000      -0.02496522
Si       3.83223223       1.91979491      16.08376219  T        3      -0.02424751      -0.00000000      -0.02496522
Si       7.67917964       1.91979491      16.06610940  T        3      -0.00000000      -0.00000000      -0.06271736
Si      -0.00840688       5.75938473      16.09155211  T        3      -0.03490522      -0.00000000       0.02417464
Si       3.84799670       5.75938473      16.09155212  T        3       0.03490522      -0.00000000       0.02417463
Si       7.67917964       5.75938473      16.09542940  T        3      -0.00000000      -0.00000000       0.08091346
Si       0.00766309       0.00141339      17.48145845  T        2       0.02185234       0.03545130      -0.01626507
Si       3.83192672       0.00141339      17.48145845  T        2      -0.02185234       0.03545130      -0.01626507
Si       7.67917964       0.01147339      17.47194443  T        2       0.00000000       0.12632433       0.01466759
Si       0.00766309       3.83817643      17.48145845  T        2       0.02185234      -0.03545130      -0.01626507
Si       3.83192672       3.83817643      17.48145846  T        2      -0.02185234      -0.03545130      -0.01626507
Si       7.67917964       3.82811643      17.47194443  T        2       0.00000000      -0.12632433       0.01466759
Si       1.91979491      -0.09646968      18.80724198  T        1       0.00000000      -0.42996511      -0.02617160
Si       5.75507776       0.30239571      18.79831467  T        1      -0.03067359       0.82736627      -0.03739244
Si       9.60328153       0.30239571      18.79831467  T        1       0.03067359       0.82736627      -0.03739244
Si       1.91979491       3.93605950      18.80724198  T        1       0.00000000       0.42996511      -0.02617160
Si       5.75507776       3.53719411      18.79831467  T        1      -0.03067359      -0.82736627      -0.03739244
Si       9.60328153       3.53719411      18.79831467  T        1       0.03067359      -0.82736627      -0.03739244
F        7.67917964       1.91979491      20.73662207  T        0       0.00000000       0.00000000       0.01263357
H        7.67917964       1.91979491      21.68491350  T        0      -0.00000000      -0.00000000       0.08394633
38
Lattice="11.518769465528859 0.0 0.0 0.0 7.679179643685906 0.0 0.0 0.0 30.7875" Properties=species:S:1:pos:R:3:move_mask:L:1:tags:I:1:forces:R:3 surface=Si100 species=HF site=hollow orientation=upright height_A=1.9 substrate_atoms=36 calculation_kind="Rigid evaluated approach scan; not NEB" energy=-189.39025509886702 pbc="T T F"
Si       0.00000000       0.00000000      12.00000000  F        6      -0.00076129      -0.00073274       0.24781986
Si       3.83958982       0.00000000      12.00000000  F        6       0.00076125      -0.00073274       0.24781984
Si       7.67917964       0.00000000      12.00000000  F        6       0.00000000       0.00194019       0.24364652
Si       0.00000000       3.83958982      12.00000000  F        6      -0.00076129       0.00073274       0.24781986
Si       3.83958982       3.83958982      12.00000000  F        6       0.00076125       0.00073274       0.24781984
Si       7.67917964       3.83958982      12.00000000  F        6       0.00000000      -0.00194019       0.24364652
Si       1.91979491       0.00000000      13.35750000  F        5       0.00000000       0.00679831      -0.49442003
Si       5.75938473       0.00000000      13.35750000  F        5      -0.00605079       0.00989083      -0.47767745
Si       9.59897455       0.00000000      13.35750000  F        5       0.00605082       0.00989083      -0.47767747
Si       1.91979491       3.83958982      13.35750000  F        5       0.00000000      -0.00679833      -0.49442005
Si       5.75938473       3.83958982      13.35750000  F        5      -0.00605079      -0.00989085      -0.47767747
Si       9.59897455       3.83958982      13.35750000  F        5       0.00605082      -0.00989085      -0.47767748
Si       1.91979491       1.91979491      14.71500000  F        4      -0.00000001      -0.00000000       0.11356284
Si       5.75938473       1.91979491      14.71500000  F        4      -0.11094714      -0.00000000       0.19544516
Si       9.59897455       1.91979491      14.71500000  F        4       0.11094715      -0.00000000       0.19544516
Si       1.91979491       5.75938473      14.71500000  F        4      -0.00000001       0.00000002       0.40188693
Si       5.75938473       5.75938473      14.71500000  F        4       0.11505900       0.00000002       0.31478115
Si       9.59897455       5.75938473      14.71500000  F        4      -0.11505899       0.00000002       0.31478114
Si       0.00839790       1.91979491      16.08296111  T        3       0.02614827      -0.00000000      -0.02537419
Si       3.83119192       1.91979491      16.08296111  T        3      -0.02614827      -0.00000000      -0.02537419
Si       7.67917964       1.91979491      16.06381026  T        3      -0.00000000      -0.00000000      -0.06835922
Si      -0.00984672       5.75938473      16.09261827  T        3      -0.03726167      -0.00000000       0.03025601
Si       3.84943653       5.75938473      16.09261828  T        3       0.03726167      -0.00000000       0.03025601
Si       7.67917964       5.75938473      16.09841468  T        3      -0.00000000      -0.00000000       0.10102583
Si       0.00857414       0.00257591      17.48135941  T        2       0.02084926       0.04394294      -0.01728235
Si       3.83101568       0.00257591      17.48135942  T        2      -0.02084926       0.04394294      -0.01728235
Si       7.67917964       0.01553264      17.47267394  T        2       0.00000000       0.15243009       0.01638388
Si       0.00857414       3.83701391      17.48135942  T        2       0.02084926      -0.04394294      -0.01728235
Si       3.83101568       3.83701391      17.48135942  T        2      -0.02084926      -0.04394294      -0.01728235
Si       7.67917964       3.82405718      17.47267394  T        2       0.00000000      -0.15243009       0.01638388
Si       1.91979491      -0.11310219      18.80638412  T        1       0.00000000      -0.49193128      -0.02144934
Si       5.75403599       0.34032707      18.79744848  T        1      -0.03846504       0.90443296      -0.04517862
Si       9.60432330       0.34032707      18.79744848  T        1       0.03846503       0.90443297      -0.04517862
Si       1.91979491       3.95269201      18.80638412  T        1       0.00000000       0.49193128      -0.02144934
Si       5.75403599       3.49926275      18.79744848  T        1      -0.03846504      -0.90443297      -0.04517862
Si       9.60432330       3.49926275      18.79744848  T        1       0.03846503      -0.90443297      -0.04517862
F        7.67917964       1.91979491      20.73880193  T        0       0.00000000      -0.00000000       0.05877445
H        7.67917964       1.91979491      21.68825276  T        0      -0.00000000      -0.00000000       0.04384521
38
Lattice="11.518769465528859 0.0 0.0 0.0 7.679179643685906 0.0 0.0 0.0 30.7875" Properties=species:S:1:pos:R:3:move_mask:L:1:tags:I:1:forces:R:3 surface=Si100 species=HF site=hollow orientation=upright height_A=1.9 substrate_atoms=36 calculation_kind="Rigid evaluated approach scan; not NEB" energy=-189.55404442411302 pbc="T T F"
Si       0.00000000       0.00000000      12.00000000  F        6      -0.00122197      -0.00096693       0.24670718
Si       3.83958982       0.00000000      12.00000000  F        6       0.00122193      -0.00096693       0.24670716
Si       7.67917964       0.00000000      12.00000000  F        6       0.00000000       0.00210851       0.24231525
Si       0.00000000       3.83958982      12.00000000  F        6      -0.00122197       0.00096693       0.24670718
Si       3.83958982       3.83958982      12.00000000  F        6       0.00122193       0.00096693       0.24670716
Si       7.67917964       3.83958982      12.00000000  F        6       0.00000000      -0.00210851       0.24231525
Si       1.91979491       0.00000000      13.35750000  F        5       0.00000000       0.00764127      -0.49485163
Si       5.75938473       0.00000000      13.35750000  F        5      -0.00608755       0.01094602      -0.47604327
Si       9.59897455       0.00000000      13.35750000  F        5       0.00608758       0.01094602      -0.47604329
Si       1.91979491       3.83958982      13.35750000  F        5       0.00000000      -0.00764129      -0.49485164
Si       5.75938473       3.83958982      13.35750000  F        5      -0.00608755      -0.01094604      -0.47604329
Si       9.59897455       3.83958982      13.35750000  F        5       0.00608758      -0.01094604      -0.47604331
Si       1.91979491       1.91979491      14.71500000  F        4      -0.00000001      -0.00000000       0.09610607
Si       5.75938473       1.91979491      14.71500000  F        4      -0.12310552      -0.00000000       0.18459281
Si       9.59897455       1.91979491      14.71500000  F        4       0.12310553      -0.00000000       0.18459281
Si       1.91979491       5.75938473      14.71500000  F        4      -0.00000001       0.00000002       0.41888372
Si       5.75938473       5.75938473      14.71500000  F        4       0.12702373       0.00000002       0.31993232
Si       9.59897455       5.75938473      14.71500000  F        4      -0.12702372       0.00000002       0.31993232
Si       0.00944564       1.91979491      16.08209749  T        3       0.02811717      -0.00000000      -0.02685880
Si       3.83014418       1.91979491      16.08209750  T        3      -0.02811717      -0.00000000      -0.02685880
Si       7.67917964       1.91979491      16.06138007  T        3      -0.00000000      -0.00000000      -0.07456188
Si      -0.01130845       5.75938473      16.09372955  T        3      -0.03930875      -0.00000000       0.03539957
Si       3.85089826       5.75938473      16.09372955  T        3       0.03930875      -0.00000000       0.03539957
Si       7.67917964       5.75938473      16.10170315  T        3      -0.00000000      -0.00000000       0.12128334
Si       0.00946946       0.00390641      17.48109923  T        2       0.01760784       0.05253753      -0.01444570
Si       3.83012036       0.00390641      17.48109923  T        2      -0.01760784       0.05253753      -0.01444570
Si       7.67917964       0.02016749      17.47338749  T        2       0.00000000       0.17701784       0.02128968
Si       0.00946946       3.83568341      17.48109923  T        2       0.01760784      -0.05253753      -0.01444570
Si       3.83012036       3.83568341      17.48109923  T        2      -0.01760784      -0.05253753      -0.01444570
Si       7.67917964       3.81942232      17.47338749  T        2       0.00000000      -0.17701784       0.02128968
Si       1.91979491      -0.13065461      18.80552135  T        1       0.00000000      -0.55230458      -0.01696055
Si       5.75285359       0.37799799      18.79632224  T        1      -0.04726207       0.97859487      -0.05668703
Si       9.60550569       0.37799799      18.79632224  T        1       0.04726207       0.97859487      -0.05668703
Si       1.91979491       3.97024443      18.80552135  T        1       0.00000000       0.55230458      -0.01696055
Si       5.75285359       3.46159183      18.79632224  T        1      -0.04726207      -0.97859487      -0.05668703
Si       9.60550569       3.46159183      18.79632224  T        1       0.04726207      -0.97859487      -0.05668703
F        7.67917964       1.91979491      20.74104056  T        0       0.00000000      -0.00000000       0.07791596
H        7.67917964       1.91979491      21.69118108  T        0      -0.00000000       0.00000000       0.03253092
38
Lattice="11.518769465528859 0.0 0.0 0.0 7.679179643685906 0.0 0.0 0.0 30.7875" Properties=species:S:1:pos:R:3:move_mask:L:1:tags:I:1:forces:R:3 surface=Si100 species=HF site=hollow orientation=upright height_A=1.9 substrate_atoms=36 calculation_kind="Rigid evaluated approach scan; not NEB" energy=-189.7306908689269 pbc="T T F"
Si       0.00000000       0.00000000      12.00000000  F        6      -0.00171159      -0.00121505       0.24544108
Si       3.83958982       0.00000000      12.00000000  F        6       0.00171155      -0.00121505       0.24544107
Si       7.67917964       0.00000000      12.00000000  F        6       0.00000000       0.00226680       0.24078668
Si       0.00000000       3.83958982      12.00000000  F        6      -0.00171159       0.00121505       0.24544108
Si       3.83958982       3.83958982      12.00000000  F        6       0.00171155       0.00121505       0.24544107
Si       7.67917964       3.83958982      12.00000000  F        6       0.00000000      -0.00226680       0.24078668
Si       1.91979491       0.00000000      13.35750000  F        5       0.00000000       0.00842805      -0.49548542
Si       5.75938473       0.00000000      13.35750000  F        5      -0.00606503       0.01204002      -0.47453035
Si       9.59897455       0.00000000      13.35750000  F        5       0.00606506       0.01204002      -0.47453036
Si       1.91979491       3.83958982      13.35750000  F        5       0.00000000      -0.00842807      -0.49548543
Si       5.75938473       3.83958982      13.35750000  F        5      -0.00606503      -0.01204004      -0.47453036
Si       9.59897455       3.83958982      13.35750000  F        5       0.00606506      -0.01204004      -0.47453038
Si       1.91979491       1.91979491      14.71500000  F        4      -0.00000001      -0.00000000       0.07935333
Si       5.75938473       1.91979491      14.71500000  F        4      -0.13533455      -0.00000000       0.17361737
Si       9.59897455       1.91979491      14.71500000  F        4       0.13533456      -0.00000000       0.17361737
Si       1.91979491       5.75938473      14.71500000  F        4      -0.00000001       0.00000002       0.43607928
Si       5.75938473       5.75938473      14.71500000  F        4       0.13895803       0.00000002       0.32483447
Si       9.59897455       5.75938473      14.71500000  F        4      -0.13895802       0.00000002       0.32483447
Si       0.01049507       1.91979491      16.08119686  T        3       0.03049112      -0.00000000      -0.02964757
Si       3.82909475       1.91979491      16.08119686  T        3      -0.03049112      -0.00000000      -0.02964757
Si       7.67917964       1.91979491      16.05885557  T        3       0.00000000      -0.00000000      -0.08173489
Si      -0.01277332       5.75938473      16.09489656  T        3      -0.04138189      -0.00000000       0.03973113
Si       3.85236314       5.75938473      16.09489657  T        3       0.04138189      -0.00000000       0.03973112
Si       7.67917964       5.75938473      16.10531648  T        3       0.00000000      -0.00000000       0.14095421
Si       0.01030412       0.00540188      17.48076642  T        2       0.01147609       0.06090582      -0.00825292
Si       3.82928570       0.00540188      17.48076643  T        2      -0.01147609       0.06090582      -0.00825292
Si       7.67917964       0.02531901      17.47412289  T        2       0.00000000       0.19931957       0.03052124
Si       0.01030412       3.83418794      17.48076643  T        2       0.01147609      -0.06090582      -0.00825292
Si       3.82928570       3.83418794      17.48076643  T        2      -0.01147609      -0.06090582      -0.00825292
Si       7.67917964       3.81427081      17.47412289  T        2       0.00000000      -0.19931957       0.03052124
Si       1.91979491      -0.14902144      18.80471711  T        1       0.00000000      -0.60894882      -0.01208242
Si       5.75151905       0.41541662      18.79493818  T        1      -0.05612128       1.03453479      -0.07258627
Si       9.60684023       0.41541662      18.79493818  T        1       0.05612128       1.03453479      -0.07258627
Si       1.91979491       3.98861126      18.80471711  T        1       0.00000000       0.60894882      -0.01208242
Si       5.75151905       3.42417320      18.79493818  T        1      -0.05612128      -1.03453479      -0.07258627
Si       9.60684023       3.42417319      18.79493818  T        1       0.05612128      -1.03453480      -0.07258627
F        7.67917964       1.91979491      20.74345537  T        0       0.00000000      -0.00000000       0.06331481
H        7.67917964       1.91979491      21.69366858  T        0      -0.00000000       0.00000000       0.05719624
38
Lattice="11.518769465528859 0.0 0.0 0.0 7.679179643685906 0.0 0.0 0.0 30.7875" Properties=species:S:1:pos:R:3:move_mask:L:1:tags:I:1:forces:R:3 surface=Si100 species=HF site=hollow orientation=upright height_A=1.9 substrate_atoms=36 calculation_kind="Rigid evaluated approach scan; not NEB" energy=-189.91619869390178 pbc="T T F"
Si       0.00000000       0.00000000      12.00000000  F        6      -0.00216066      -0.00148969       0.24409453
Si       3.83958982       0.00000000      12.00000000  F        6       0.00216062      -0.00148969       0.24409451
Si       7.67917964       0.00000000      12.00000000  F        6       0.00000000       0.00240842       0.23914841
Si       0.00000000       3.83958982      12.00000000  F        6      -0.00216066       0.00148969       0.24409453
Si       3.83958982       3.83958982      12.00000000  F        6       0.00216062       0.00148969       0.24409451
Si       7.67917964       3.83958982      12.00000000  F        6       0.00000000      -0.00240842       0.23914841
Si       1.91979491       0.00000000      13.35750000  F        5       0.00000000       0.00905964      -0.49622209
Si       5.75938473       0.00000000      13.35750000  F        5      -0.00590884       0.01315898      -0.47326268
Si       9.59897455       0.00000000      13.35750000  F        5       0.00590887       0.01315898      -0.47326270
Si       1.91979491       3.83958982      13.35750000  F        5       0.00000000      -0.00905966      -0.49622210
Si       5.75938473       3.83958982      13.35750000  F        5      -0.00590884      -0.01315900      -0.47326270
Si       9.59897455       3.83958982      13.35750000  F        5       0.00590887      -0.01315900      -0.47326272
Si       1.91979491       1.91979491      14.71500000  F        4      -0.00000001      -0.00000000       0.06326198
Si       5.75938473       1.91979491      14.71500000  F        4      -0.14764401      -0.00000000       0.16306348
Si       9.59897455       1.91979491      14.71500000  F        4       0.14764402      -0.00000000       0.16306348
Si       1.91979491       5.75938473      14.71500000  F        4      -0.00000001       0.00000002       0.45361451
Si       5.75938473       5.75938473      14.71500000  F        4       0.15098766       0.00000002       0.33002812
Si       9.59897455       5.75938473      14.71500000  F        4      -0.15098765       0.00000002       0.33002812
Si       0.01155026       1.91979491      16.08026081  T        3       0.03343500      -0.00000000      -0.03340573
Si       3.82803956       1.91979491      16.08026081  T        3      -0.03343500      -0.00000000      -0.03340573
Si       7.67917964       1.91979491      16.05624377  T        3       0.00000000       0.00000000      -0.08976837
Si      -0.01423591       5.75938473      16.09612098  T        3      -0.04360030      -0.00000000       0.04358982
Si       3.85382572       5.75938473      16.09612099  T        3       0.04360030      -0.00000000       0.04358982
Si       7.67917964       5.75938473      16.10926463  T        3       0.00000000      -0.00000000       0.15952918
Si       0.01103150       0.00705842      17.48044420  T        2       0.00217345       0.06866813       0.00028205
Si       3.82855832       0.00705842      17.48044420  T        2      -0.00217345       0.06866813       0.00028205
Si       7.67917964       0.03093352      17.47494249  T        2       0.00000000       0.21876181       0.04425469
Si       0.01103150       3.83253140      17.48044420  T        2       0.00217345      -0.06866813       0.00028205
Si       3.82855832       3.83253140      17.48044420  T        2      -0.00217345      -0.06866813       0.00028205
Si       7.67917964       3.80865629      17.47494249  T        2       0.00000000      -0.21876181       0.04425469
Si       1.91979491      -0.16814855      18.80400727  T        1       0.00000000      -0.66003776      -0.00649024
Si       5.75002528       0.45257967      18.79326305  T        1      -0.06387046       1.05692048      -0.09274491
Si       9.60833400       0.45257967      18.79326305  T        1       0.06387046       1.05692048      -0.09274491
Si       1.91979491       4.00773837      18.80400727  T        1       0.00000000       0.66003776      -0.00649024
Si       5.75002528       3.38701015      18.79326305  T        1      -0.06387046      -1.05692048      -0.09274492
Si       9.60833400       3.38701015      18.79326305  T        1       0.06387046      -1.05692048      -0.09274491
F        7.67917964       1.91979491      20.74582349  T        0       0.00000000      -0.00000000       0.04656361
H        7.67917964       1.91979491      21.69603772  T        0      -0.00000000       0.00000000       0.08539039
38
Lattice="11.518769465528859 0.0 0.0 0.0 7.679179643685906 0.0 0.0 0.0 30.7875" Properties=species:S:1:pos:R:3:move_mask:L:1:tags:I:1:forces:R:3 surface=Si100 species=HF site=hollow orientation=upright height_A=1.9 substrate_atoms=36 calculation_kind="Rigid evaluated approach scan; not NEB" energy=-190.1046221673774 pbc="T T F"
Si       0.00000000       0.00000000      12.00000000  F        6      -0.00249564      -0.00181633       0.24274568
Si       3.83958982       0.00000000      12.00000000  F        6       0.00249560      -0.00181633       0.24274567
Si       7.67917964       0.00000000      12.00000000  F        6       0.00000000       0.00251686       0.23749975
Si       0.00000000       3.83958982      12.00000000  F        6      -0.00249564       0.00181633       0.24274568
Si       3.83958982       3.83958982      12.00000000  F        6       0.00249560       0.00181633       0.24274567
Si       7.67917964       3.83958982      12.00000000  F        6       0.00000000      -0.00251686       0.23749975
Si       1.91979491       0.00000000      13.35750000  F        5       0.00000000       0.00944507      -0.49689338
Si       5.75938473       0.00000000      13.35750000  F        5      -0.00552273       0.01428704      -0.47230440
Si       9.59897455       0.00000000      13.35750000  F        5       0.00552276       0.01428704      -0.47230442
Si       1.91979491       3.83958982      13.35750000  F        5       0.00000000      -0.00944509      -0.49689339
Si       5.75938473       3.83958982      13.35750000  F        5      -0.00552273      -0.01428707      -0.47230442
Si       9.59897455       3.83958982      13.35750000  F        5       0.00552276      -0.01428707      -0.47230444
Si       1.91979491       1.91979491      14.71500000  F        4      -0.00000001      -0.00000000       0.04758330
Si       5.75938473       1.91979491      14.71500000  F        4      -0.16003644      -0.00000000       0.15348554
Si       9.59897455       1.91979491      14.71500000  F        4       0.16003645      -0.00000000       0.15348554
Si       1.91979491       5.75938473      14.71500000  F        4      -0.00000001       0.00000002       0.47160715
Si       5.75938473       5.75938473      14.71500000  F        4       0.16333958       0.00000002       0.33630162
Si       9.59897455       5.75938473      14.71500000  F        4      -0.16333957       0.00000002       0.33630161
Si       0.01262503       1.91979491      16.07927712  T        3       0.03691840       0.00000000      -0.03742811
Si       3.82696479       1.91979491      16.07927712  T        3      -0.03691840       0.00000000      -0.03742811
Si       7.67917964       1.91979491      16.05352686  T        3       0.00000000       0.00000000      -0.09792695
Si      -0.01570346       5.75938473      16.09740686  T        3      -0.04578706      -0.00000000       0.04733460
Si       3.85529327       5.75938473      16.09740686  T        3       0.04578706      -0.00000000       0.04733460
Si       7.67917964       5.75938473      16.11356426  T        3       0.00000000      -0.00000000       0.17663981
Si       0.01160367       0.00887644      17.48020079  T        2      -0.00977870       0.07529398       0.00970311
Si       3.82798614       0.00887644      17.48020079  T        2       0.00977870       0.07529398       0.00970311
Si       7.67917964       0.03698242      17.47592507  T        2       0.00000000       0.23456234       0.06113312
Si       0.01160367       3.83071338      17.48020079  T        2      -0.00977870      -0.07529398       0.00970311
Si       3.82798614       3.83071338      17.48020079  T        2       0.00977870      -0.07529398       0.00970311
Si       7.67917964       3.80260740      17.47592507  T        2       0.00000000      -0.23456234       0.06113312
Si       1.91979491      -0.18806673      18.80341357  T        1       0.00000000      -0.70457931      -0.00050601
Si       5.74837014       0.48945730      18.79123627  T        1      -0.06951674       1.03437158      -0.11585615
Si       9.60998914       0.48945730      18.79123626  T        1       0.06951674       1.03437158      -0.11585615
Si       1.91979491       4.02765655      18.80341357  T        1       0.00000000       0.70457931      -0.00050601
Si       5.74837014       3.35013252      18.79123627  T        1      -0.06951674      -1.03437158      -0.11585615
Si       9.60998914       3.35013252      18.79123626  T        1       0.06951674      -1.03437158      -0.11585615
F        7.67917964       1.91979491      20.74800544  T        0       0.00000000      -0.00000000       0.04957500
H        7.67917964       1.91979491      21.69853423  T        0      -0.00000000       0.00000000       0.09351460
38
Lattice="11.518769465528859 0.0 0.0 0.0 7.679179643685906 0.0 0.0 0.0 30.7875" Properties=species:S:1:pos:R:3:move_mask:L:1:tags:I:1:forces:R:3 surface=Si100 species=HF site=hollow orientation=upright height_A=1.9 substrate_atoms=36 calculation_kind="Rigid evaluated approach scan; not NEB" energy=-190.28872393375897 pbc="T T F"
Si       0.00000000       0.00000000      12.00000000  F        6      -0.00266134      -0.00222545       0.24144445
Si       3.83958982       0.00000000      12.00000000  F        6       0.00266130      -0.00222545       0.24144443
Si       7.67917964       0.00000000      12.00000000  F        6       0.00000000       0.00257008       0.23591386
Si       0.00000000       3.83958982      12.00000000  F        6      -0.00266134       0.00222545       0.24144445
Si       3.83958982       3.83958982      12.00000000  F        6       0.00266130       0.00222545       0.24144443
Si       7.67917964       3.83958982      12.00000000  F        6       0.00000000      -0.00257008       0.23591386
Si       1.91979491       0.00000000      13.35750000  F        5       0.00000000       0.00955135      -0.49733056
Si       5.75938473       0.00000000      13.35750000  F        5      -0.00481939       0.01542566      -0.47162853
Si       9.59897455       0.00000000      13.35750000  F        5       0.00481942       0.01542566      -0.47162855
Si       1.91979491       3.83958982      13.35750000  F        5       0.00000000      -0.00955137      -0.49733057
Si       5.75938473       3.83958982      13.35750000  F        5      -0.00481939      -0.01542568      -0.47162854
Si       9.59897455       3.83958982      13.35750000  F        5       0.00481942      -0.01542568      -0.47162856
Si       1.91979491       1.91979491      14.71500000  F        4      -0.00000001      -0.00000000       0.03196352
Si       5.75938473       1.91979491      14.71500000  F        4      -0.17252558      -0.00000000       0.14525119
Si       9.59897455       1.91979491      14.71500000  F        4       0.17252559      -0.00000000       0.14525119
Si       1.91979491       5.75938473      14.71500000  F        4      -0.00000001       0.00000002       0.49020954
Si       5.75938473       5.75938473      14.71500000  F        4       0.17630562       0.00000002       0.34458808
Si       9.59897455       5.75938473      14.71500000  F        4      -0.17630561       0.00000002       0.34458808
Si       0.01374118       1.91979491      16.07822776  T        3       0.04064511       0.00000000      -0.04090721
Si       3.82584863       1.91979491      16.07822777  T        3      -0.04064511       0.00000000      -0.04090721
Si       7.67917964       1.91979491      16.05067018  T        3       0.00000000       0.00000000      -0.10516039
Si      -0.01719221       5.75938473      16.09876641  T        3      -0.04757416      -0.00000000       0.05115575
Si       3.85678203       5.75938473      16.09876642  T        3       0.04757416      -0.00000000       0.05115575
Si       7.67917964       5.75938473      16.11825053  T        3       0.00000000      -0.00000000       0.19194090
Si       0.01197310       0.01086257      17.48008596  T        2      -0.02323093       0.08013066       0.01850308
Si       3.82761672       0.01086257      17.48008596  T        2       0.02323093       0.08013066       0.01850308
Si       7.67917964       0.04346878      17.47715460  T        2       0.00000000       0.24557947       0.07848608
Si       0.01197310       3.82872725      17.48008596  T        2      -0.02323093      -0.08013066       0.01850308
Si       3.82761672       3.82872725      17.48008597  T        2       0.02323093      -0.08013066       0.01850308
Si       7.67917964       3.79612103      17.47715461  T        2       0.00000000      -0.24557947       0.07848608
Si       1.91979491      -0.20890762      18.80294890  T        1       0.00000000      -0.74288218       0.00498015
Si       5.74655455       0.52598028      18.78877832  T        1      -0.07278736       0.95898708      -0.13972417
Si       9.61180473       0.52598028      18.78877832  T        1       0.07278736       0.95898708      -0.13972417
Si       1.91979491       4.04849743      18.80294890  T        1       0.00000000       0.74288218       0.00498015
Si       5.74655455       3.31360953      18.78877832  T        1      -0.07278736      -0.95898708      -0.13972417
Si       9.61180473       3.31360953      18.78877832  T        1       0.07278736      -0.95898708      -0.13972417
F        7.67917964       1.91979491      20.75007761  T        0       0.00000000      -0.00000000       0.06881239
H        7.67917964       1.91979491      21.70118613  T        0      -0.00000000       0.00000000       0.08358018
38
Lattice="11.518769465528859 0.0 0.0 0.0 7.679179643685906 0.0 0.0 0.0 30.7875" Properties=species:S:1:pos:R:3:move_mask:L:1:tags:I:1:forces:R:3 surface=Si100 species=HF site=hollow orientation=upright height_A=1.9 substrate_atoms=36 calculation_kind="Rigid evaluated approach scan; not NEB" energy=-190.46076335147137 pbc="T T F"
Si       0.00000000       0.00000000      12.00000000  F        6      -0.00263973      -0.00274627       0.24019794
Si       3.83958982       0.00000000      12.00000000  F        6       0.00263969      -0.00274627       0.24019792
Si       7.67917964       0.00000000      12.00000000  F        6       0.00000000       0.00254043       0.23442119
Si       0.00000000       3.83958982      12.00000000  F        6      -0.00263973       0.00274627       0.24019794
Si       3.83958982       3.83958982      12.00000000  F        6       0.00263969       0.00274627       0.24019792
Si       7.67917964       3.83958982      12.00000000  F        6       0.00000000      -0.00254043       0.23442119
Si       1.91979491       0.00000000      13.35750000  F        5       0.00000000       0.00943482      -0.49743497
Si       5.75938473       0.00000000      13.35750000  F        5      -0.00375355       0.01659097      -0.47115174
Si       9.59897455       0.00000000      13.35750000  F        5       0.00375358       0.01659097      -0.47115176
Si       1.91979491       3.83958982      13.35750000  F        5       0.00000000      -0.00943485      -0.49743498
Si       5.75938473       3.83958982      13.35750000  F        5      -0.00375355      -0.01659099      -0.47115175
Si       9.59897455       3.83958982      13.35750000  F        5       0.00375358      -0.01659099      -0.47115177
Si       1.91979491       1.91979491      14.71500000  F        4      -0.00000001      -0.00000000       0.01597358
Si       5.75938473       1.91979491      14.71500000  F        4      -0.18523034      -0.00000000       0.13828020
Si       9.59897455       1.91979491      14.71500000  F        4       0.18523035      -0.00000000       0.13828020
Si       1.91979491       5.75938473      14.71500000  F        4      -0.00000001       0.00000002       0.50961679
Si       5.75938473       5.75938473      14.71500000  F        4       0.19017619       0.00000002       0.35566486
Si       9.59897455       5.75938473      14.71500000  F        4      -0.19017618       0.00000002       0.35566486
Si       0.01492679       1.91979491      16.07709312  T        3       0.04400824       0.00000000      -0.04313613
Si       3.82466302       1.91979491      16.07709312  T        3      -0.04400824       0.00000000      -0.04313613
Si       7.67917964       1.91979491      16.04762734  T        3       0.00000000       0.00000000      -0.11048666
Si      -0.01872434       5.75938473      16.10022279  T        3      -0.04861006       0.00000000       0.05496020
Si       3.85831415       5.75938473      16.10022279  T        3       0.04861006       0.00000000       0.05496020
Si       7.67917964       5.75938473      16.12338637  T        3       0.00000000       0.00000000       0.20497775
Si       0.01209331       0.01303020      17.48013231  T        2      -0.03678527       0.08246290       0.02562125
Si       3.82749651       0.01303020      17.48013232  T        2       0.03678527       0.08246290       0.02562125
Si       7.67917964       0.05042834      17.47871079  T        2       0.00000000       0.25094592       0.09302560
Si       0.01209331       3.82655962      17.48013231  T        2      -0.03678527      -0.08246290       0.02562125
Si       3.82749651       3.82655962      17.48013232  T        2       0.03678527      -0.08246290       0.02562125
Si       7.67917964       3.78916148      17.47871079  T        2       0.00000000      -0.25094592       0.09302560
Si       1.91979491      -0.23092628      18.80261783  T        1      -0.00000000      -0.77692696       0.00884638
Si       5.74457648       0.56202302      18.78579482  T        1      -0.07453350       0.82854803      -0.16183361
Si       9.61378280       0.56202302      18.78579481  T        1       0.07453350       0.82854802      -0.16183361
Si       1.91979491       4.07051610      18.80261783  T        1      -0.00000000       0.77692696       0.00884638
Si       5.74457648       3.27756680      18.78579482  T        1      -0.07453350      -0.82854803      -0.16183361
Si       9.61378280       3.27756680      18.78579481  T        1       0.07453350      -0.82854802      -0.16183361
F        7.67917964       1.91979491      20.75222941  T        0       0.00000000      -0.00000000       0.08764833
H        7.67917964       1.91979491      21.70390667  T        0      -0.00000000       0.00000000       0.07168029
38
Lattice="11.518769465528859 0.0 0.0 0.0 7.679179643685906 0.0 0.0 0.0 30.7875" Properties=species:S:1:pos:R:3:move_mask:L:1:tags:I:1:forces:R:3 surface=Si100 species=HF site=hollow orientation=upright height_A=1.9 substrate_atoms=36 calculation_kind="Rigid evaluated approach scan; not NEB" energy=-190.6140149179338 pbc="T T F"
Si       0.00000000       0.00000000      12.00000000  F        6      -0.00245656      -0.00340653       0.23898986
Si       3.83958982       0.00000000      12.00000000  F        6       0.00245653      -0.00340653       0.23898984
Si       7.67917964       0.00000000      12.00000000  F        6       0.00000000       0.00239287       0.23303151
Si       0.00000000       3.83958982      12.00000000  F        6      -0.00245656       0.00340653       0.23898986
Si       3.83958982       3.83958982      12.00000000  F        6       0.00245653       0.00340653       0.23898984
Si       7.67917964       3.83958982      12.00000000  F        6       0.00000000      -0.00239287       0.23303151
Si       1.91979491       0.00000000      13.35750000  F        5       0.00000000       0.00922274      -0.49717621
Si       5.75938473       0.00000000      13.35750000  F        5      -0.00232788       0.01777856      -0.47078602
Si       9.59897455       0.00000000      13.35750000  F        5       0.00232791       0.01777856      -0.47078604
Si       1.91979491       3.83958982      13.35750000  F        5       0.00000000      -0.00922276      -0.49717622
Si       5.75938473       3.83958982      13.35750000  F        5      -0.00232788      -0.01777858      -0.47078603
Si       9.59897455       3.83958982      13.35750000  F        5       0.00232791      -0.01777858      -0.47078605
Si       1.91979491       1.91979491      14.71500000  F        4      -0.00000001      -0.00000000      -0.00087934
Si       5.75938473       1.91979491      14.71500000  F        4      -0.19845916      -0.00000000       0.13191065
Si       9.59897455       1.91979491      14.71500000  F        4       0.19845917      -0.00000000       0.13191065
Si       1.91979491       5.75938473      14.71500000  F        4      -0.00000001       0.00000002       0.53001259
Si       5.75938473       5.75938473      14.71500000  F        4       0.20515609       0.00000002       0.36979810
Si       9.59897455       5.75938473      14.71500000  F        4      -0.20515608       0.00000002       0.36979810
Si       0.01621420       1.91979491      16.07585346  T        3       0.04624596       0.00000000      -0.04359048
Si       3.82337561       1.91979491      16.07585346  T        3      -0.04624596       0.00000000      -0.04359048
Si       7.67917964       1.91979491      16.04434152  T        3       0.00000000       0.00000000      -0.11320416
Si      -0.02032658       5.75938473      16.10181092  T        3      -0.04867500       0.00000000       0.05836060
Si       3.85991640       5.75938473      16.10181093  T        3       0.04867500       0.00000000       0.05836060
Si       7.67917964       5.75938473      16.12906987  T        3       0.00000000       0.00000000       0.21500840
Si       0.01191706       0.01539885      17.48036041  T        2      -0.04879736       0.08144332       0.03060872
Si       3.82767276       0.01539885      17.48036042  T        2       0.04879736       0.08144332       0.03060872
Si       7.67917964       0.05793055      17.48066287  T        2       0.00000000       0.25033942       0.10166732
Si       0.01191706       3.82419097      17.48036042  T        2      -0.04879736      -0.08144332       0.03060872
Si       3.82767276       3.82419097      17.48036042  T        2       0.04879736      -0.08144332       0.03060872
Si       7.67917964       3.78165926      17.48066288  T        2       0.00000000      -0.25033942       0.10166732
Si       1.91979491      -0.25453524      18.80241553  T        1      -0.00000000      -0.81057538       0.01002734
Si       5.74242031       0.59737235      18.78217514  T        1      -0.07619182       0.65051397      -0.17973436
Si       9.61593897       0.59737235      18.78217514  T        1       0.07619182       0.65051397      -0.17973436
Si       1.91979491       4.09412506      18.80241553  T        1      -0.00000000       0.81057538       0.01002734
Si       5.74242031       3.24221747      18.78217514  T        1      -0.07619182      -0.65051397      -0.17973436
Si       9.61593897       3.24221747      18.78217514  T        1       0.07619182      -0.65051397      -0.17973436
F        7.67917964       1.91979491      20.75462381  T        0       0.00000000      -0.00000000       0.09380347
H        7.67917964       1.91979491      21.70664285  T        0      -0.00000000       0.00000000       0.07088869
38
Lattice="11.518769465528859 0.0 0.0 0.0 7.679179643685906 0.0 0.0 0.0 30.7875" Properties=species:S:1:pos:R:3:move_mask:L:1:tags:I:1:forces:R:3 surface=Si100 species=HF site=hollow orientation=upright height_A=1.9 substrate_atoms=36 calculation_kind="Rigid evaluated approach scan; not NEB" energy=-190.74419324095106 pbc="T T F"
Si       0.00000000       0.00000000      12.00000000  F        6      -0.00216882      -0.00423633       0.23781692
Si       3.83958982       0.00000000      12.00000000  F        6       0.00216879      -0.00423633       0.23781691
Si       7.67917964       0.00000000      12.00000000  F        6       0.00000000       0.00208990       0.23178765
Si       0.00000000       3.83958982      12.00000000  F        6      -0.00216882       0.00423633       0.23781692
Si       3.83958982       3.83958982      12.00000000  F        6       0.00216879       0.00423633       0.23781691
Si       7.67917964       3.83958982      12.00000000  F        6       0.00000000      -0.00208990       0.23178765
Si       1.91979491       0.00000000      13.35750000  F        5       0.00000000       0.00904683      -0.49649182
Si       5.75938473       0.00000000      13.35750000  F        5      -0.00057960       0.01891712      -0.47049013
Si       9.59897455       0.00000000      13.35750000  F        5       0.00057963       0.01891712      -0.47049015
Si       1.91979491       3.83958982      13.35750000  F        5       0.00000000      -0.00904685      -0.49649183
Si       5.75938473       3.83958982      13.35750000  F        5      -0.00057960      -0.01891714      -0.47049015
Si       9.59897455       3.83958982      13.35750000  F        5       0.00057963      -0.01891714      -0.47049016
Si       1.91979491       1.91979491      14.71500000  F        4      -0.00000001      -0.00000000      -0.01907280
Si       5.75938473       1.91979491      14.71500000  F        4      -0.21268154      -0.00000000       0.12511598
Si       9.59897455       1.91979491      14.71500000  F        4       0.21268155      -0.00000000       0.12511598
Si       1.91979491       5.75938473      14.71500000  F        4      -0.00000001       0.00000002       0.55145396
Si       5.75938473       5.75938473      14.71500000  F        4       0.22130846       0.00000002       0.38660688
Si       9.59897455       5.75938473      14.71500000  F        4      -0.22130845       0.00000002       0.38660688
Si       0.01763711       1.91979491      16.07449057  T        3       0.04680499      -0.00000000      -0.04195891
Si       3.82195271       1.91979491      16.07449057  T        3      -0.04680499      -0.00000000      -0.04195891
Si       7.67917964       1.91979491      16.04074702  T        3       0.00000000       0.00000000      -0.11298163
Si      -0.02202914       5.75938473      16.10357630  T        3      -0.04756289       0.00000000       0.06066851
Si       3.86161896       5.75938473      16.10357630  T        3       0.04756289       0.00000000       0.06066851
Si       7.67917964       5.75938473      16.13543501  T        3       0.00000000       0.00000000       0.22060919
Si       0.01139556       0.01798877      17.48078496  T        2      -0.05710184       0.07576219       0.03327788
Si       3.82819426       0.01798877      17.48078496  T        2       0.05710184       0.07576219       0.03327788
Si       7.67917964       0.06607502      17.48306309  T        2       0.00000000       0.24147054       0.10293201
Si       0.01139556       3.82160104      17.48078496  T        2      -0.05710184      -0.07576219       0.03327788
Si       3.82819426       3.82160104      17.48078497  T        2       0.05710184      -0.07576219       0.03327788
Si       7.67917964       3.77351480      17.48306309  T        2       0.00000000      -0.24147054       0.10293201
Si       1.91979491      -0.28034054      18.80232498  T        1      -0.00000000      -0.84949310       0.00771281
Si       5.74004691       0.63167790      18.77779207  T        1      -0.07788728       0.43577684      -0.19134086
Si       9.61831237       0.63167790      18.77779207  T        1       0.07788728       0.43577684      -0.19134086
Si       1.91979491       4.11993036      18.80232498  T        1      -0.00000000       0.84949310       0.00771281
Si       5.74004691       3.20791192      18.77779207  T        1      -0.07788728      -0.43577684      -0.19134086
Si       9.61831237       3.20791192      18.77779207  T        1       0.07788728      -0.43577684      -0.19134086
F        7.67917964       1.91979491      20.75733016  T        0       0.00000000      -0.00000000       0.08792587
H        7.67917964       1.91979491      21.70945623  T        0      -0.00000000       0.00000000       0.08226410
38
Lattice="11.518769465528859 0.0 0.0 0.0 7.679179643685906 0.0 0.0 0.0 30.7875" Properties=species:S:1:pos:R:3:move_mask:L:1:tags:I:1:forces:R:3 surface=Si100 species=HF site=hollow orientation=upright height_A=1.9 substrate_atoms=36 calculation_kind="Rigid evaluated approach scan; not NEB" energy=-190.85010093707865 pbc="T T F"
Si       0.00000000       0.00000000      12.00000000  F        6      -0.00184296      -0.00526678       0.23668364
Si       3.83958982       0.00000000      12.00000000  F        6       0.00184292      -0.00526678       0.23668362
Si       7.67917964       0.00000000      12.00000000  F        6       0.00000000       0.00160770       0.23075914
Si       0.00000000       3.83958982      12.00000000  F        6      -0.00184296       0.00526678       0.23668364
Si       3.83958982       3.83958982      12.00000000  F        6       0.00184292       0.00526678       0.23668362
Si       7.67917964       3.83958982      12.00000000  F        6       0.00000000      -0.00160770       0.23075914
Si       1.91979491       0.00000000      13.35750000  F        5       0.00000000       0.00899219      -0.49523078
Si       5.75938473       0.00000000      13.35750000  F        5       0.00144777       0.01988107      -0.47026198
Si       9.59897455       0.00000000      13.35750000  F        5      -0.00144774       0.01988107      -0.47026200
Si       1.91979491       3.83958982      13.35750000  F        5       0.00000000      -0.00899221      -0.49523079
Si       5.75938473       3.83958982      13.35750000  F        5       0.00144777      -0.01988109      -0.47026200
Si       9.59897455       3.83958982      13.35750000  F        5      -0.00144774      -0.01988109      -0.47026202
Si       1.91979491       1.91979491      14.71500000  F        4      -0.00000001      -0.00000000      -0.03902311
Si       5.75938473       1.91979491      14.71500000  F        4      -0.22845739      -0.00000000       0.11685456
Si       9.59897455       1.91979491      14.71500000  F        4       0.22845740      -0.00000000       0.11685455
Si       1.91979491       5.75938473      14.71500000  F        4      -0.00000001       0.00000002       0.57384267
Si       5.75938473       5.75938473      14.71500000  F        4       0.23857526       0.00000002       0.40536465
Si       9.59897455       5.75938473      14.71500000  F        4      -0.23857525       0.00000002       0.40536465
Si       0.01922737       1.91979491      16.07299080  T        3       0.04560411      -0.00000000      -0.03804748
Si       3.82036244       1.91979491      16.07299081  T        3      -0.04560411      -0.00000000      -0.03804748
Si       7.67917964       1.91979491      16.03677262  T        3       0.00000000      -0.00000000      -0.10980252
Si      -0.02386309       5.75938473      16.10557050  T        3      -0.04496554       0.00000000       0.06090691
Si       3.86345290       5.75938473      16.10557051  T        3       0.04496554       0.00000000       0.06090691
Si       7.67917964       5.75938473      16.14264042  T        3       0.00000000       0.00000000       0.21950904
Si       0.01048685       0.02080638      17.48141699  T        2      -0.05924434       0.06311324       0.03340441
Si       3.82910297       0.02080638      17.48141699  T        2       0.05924434       0.06311323       0.03340441
Si       7.67917964       0.07496176      17.48594122  T        2       0.00000000       0.22169545       0.09666435
Si       0.01048685       3.81878344      17.48141699  T        2      -0.05924434      -0.06311324       0.03340441
Si       3.82910297       3.81878344      17.48141699  T        2       0.05924434      -0.06311324       0.03340441
Si       7.67917964       3.76462805      17.48594122  T        2       0.00000000      -0.22169545       0.09666435
Si       1.91979491      -0.30918624      18.80231100  T        1      -0.00000000      -0.90062397       0.00138506
Si       5.73739586       0.66436773      18.77250875  T        1      -0.07801497       0.19193047      -0.19463113
Si       9.62096342       0.66436773      18.77250875  T        1       0.07801497       0.19193046      -0.19463113
Si       1.91979491       4.14877606      18.80231100  T        1      -0.00000000       0.90062397       0.00138506
Si       5.73739586       3.17522209      18.77250875  T        1      -0.07801497      -0.19193047      -0.19463113
Si       9.62096342       3.17522209      18.77250875  T        1       0.07801497      -0.19193046      -0.19463113
F        7.67917964       1.91979491      20.76034588  T        0       0.00000000      -0.00000000       0.08140483
H        7.67917964       1.91979491      21.71251665  T        0      -0.00000000       0.00000000       0.09597667
38
Lattice="11.518769465528859 0.0 0.0 0.0 7.679179643685906 0.0 0.0 0.0 30.7875" Properties=species:S:1:pos:R:3:move_mask:L:1:tags:I:1:forces:R:3 surface=Si100 species=HF site=hollow orientation=upright height_A=1.9 substrate_atoms=36 calculation_kind="Rigid evaluated approach scan; not NEB" energy=-190.93401295864925 pbc="T T F"
Si       0.00000000       0.00000000      12.00000000  F        6      -0.00152915      -0.00651975       0.23555572
Si       3.83958982       0.00000000      12.00000000  F        6       0.00152911      -0.00651975       0.23555570
Si       7.67917964       0.00000000      12.00000000  F        6       0.00000000       0.00095727       0.22997114
Si       0.00000000       3.83958982      12.00000000  F        6      -0.00152915       0.00651975       0.23555572
Si       3.83958982       3.83958982      12.00000000  F        6       0.00152911       0.00651975       0.23555570
Si       7.67917964       3.83958982      12.00000000  F        6       0.00000000      -0.00095727       0.22997114
Si       1.91979491       0.00000000      13.35750000  F        5       0.00000000       0.00908798      -0.49322392
Si       5.75938473       0.00000000      13.35750000  F        5       0.00372543       0.02058368      -0.47011083
Si       9.59897455       0.00000000      13.35750000  F        5      -0.00372540       0.02058368      -0.47011084
Si       1.91979491       3.83958982      13.35750000  F        5       0.00000000      -0.00908800      -0.49322393
Si       5.75938473       3.83958982      13.35750000  F        5       0.00372543      -0.02058370      -0.47011084
Si       9.59897455       3.83958982      13.35750000  F        5      -0.00372540      -0.02058370      -0.47011086
Si       1.91979491       1.91979491      14.71500000  F        4      -0.00000001      -0.00000000      -0.06113184
Si       5.75938473       1.91979491      14.71500000  F        4      -0.24633317      -0.00000000       0.10636094
Si       9.59897455       1.91979491      14.71500000  F        4       0.24633318      -0.00000000       0.10636094
Si       1.91979491       5.75938473      14.71500000  F        4      -0.00000001       0.00000002       0.59699891
Si       5.75938473       5.75938473      14.71500000  F        4       0.25684931       0.00000002       0.42551117
Si       9.59897455       5.75938473      14.71500000  F        4      -0.25684930       0.00000002       0.42551117
Si       0.02100949       1.91979491      16.07135322  T        3       0.04296385      -0.00000000      -0.03148209
Si       3.81858033       1.91979491      16.07135322  T        3      -0.04296385      -0.00000000      -0.03148208
Si       7.67917964       1.91979491      16.03235499  T        3       0.00000000      -0.00000000      -0.10363516
Si      -0.02585201       5.75938473      16.10783761  T        3      -0.04058502       0.00000000       0.05786771
Si       3.86544183       5.75938473      16.10783761  T        3       0.04058502       0.00000000       0.05786770
Si       7.67917964       5.75938473      16.15082700  T        3       0.00000000       0.00000000       0.20915838
Si       0.00918017       0.02381022      17.48225803  T        2      -0.05300938       0.04085377       0.03064009
Si       3.83040965       0.02381022      17.48225803  T        2       0.05300938       0.04085377       0.03064009
Si       7.67917964       0.08463258      17.48928933  T        2       0.00000000       0.18870508       0.08349863
Si       0.00918017       3.81577959      17.48225803  T        2      -0.05300938      -0.04085377       0.03064009
Si       3.83040965       3.81577959      17.48225803  T        2       0.05300938      -0.04085377       0.03064009
Si       7.67917964       3.75495724      17.48928933  T        2       0.00000000      -0.18870508       0.08349863
Si       1.91979491      -0.34214981      18.80231085  T        1      -0.00000000      -0.96926029      -0.00934586
Si       5.73440769       0.69452365      18.76621337  T        1      -0.07359983      -0.07844261      -0.18759775
Si       9.62395159       0.69452365      18.76621337  T        1       0.07359983      -0.07844261      -0.18759774
Si       1.91979491       4.18173963      18.80231085  T        1      -0.00000000       0.96926029      -0.00934586
Si       5.73440769       3.14506616      18.76621337  T        1      -0.07359983       0.07844261      -0.18759775
Si       9.62395159       3.14506616      18.76621337  T        1       0.07359983       0.07844261      -0.18759774
F        7.67917964       1.91979491      20.76368130  T        0       0.00000000      -0.00000000       0.08592063
H        7.67917964       1.91979491      21.71601764  T        0      -0.00000000       0.00000000       0.10042481
38
Lattice="11.518769465528859 0.0 0.0 0.0 7.679179643685906 0.0 0.0 0.0 30.7875" Properties=species:S:1:pos:R:3:move_mask:L:1:tags:I:1:forces:R:3 surface=Si100 species=HF site=hollow orientation=upright height_A=1.9 substrate_atoms=36 calculation_kind="Rigid evaluated approach scan; not NEB" energy=-191.00298962649714 pbc="T T F"
Si       0.00000000       0.00000000      12.00000000  F        6      -0.00124763      -0.00799224       0.23433842
Si       3.83958982       0.00000000      12.00000000  F        6       0.00124759      -0.00799224       0.23433840
Si       7.67917964       0.00000000      12.00000000  F        6       0.00000000       0.00019835       0.22936072
Si       0.00000000       3.83958982      12.00000000  F        6      -0.00124763       0.00799224       0.23433842
Si       3.83958982       3.83958982      12.00000000  F        6       0.00124759       0.00799224       0.23433840
Si       7.67917964       3.83958982      12.00000000  F        6       0.00000000      -0.00019835       0.22936072
Si       1.91979491       0.00000000      13.35750000  F        5       0.00000000       0.00930919      -0.49042550
Si       5.75938473       0.00000000      13.35750000  F        5       0.00622851       0.02108338      -0.47006862
Si       9.59897455       0.00000000      13.35750000  F        5      -0.00622848       0.02108338      -0.47006864
Si       1.91979491       3.83958982      13.35750000  F        5       0.00000000      -0.00930921      -0.49042551
Si       5.75938473       3.83958982      13.35750000  F        5       0.00622851      -0.02108340      -0.47006863
Si       9.59897455       3.83958982      13.35750000  F        5      -0.00622848      -0.02108340      -0.47006865
Si       1.91979491       1.91979491      14.71500000  F        4      -0.00000001      -0.00000000      -0.08584455
Si       5.75938473       1.91979491      14.71500000  F        4      -0.26665537      -0.00000000       0.09347784
Si       9.59897455       1.91979491      14.71500000  F        4       0.26665538      -0.00000000       0.09347784
Si       1.91979491       5.75938473      14.71500000  F        4      -0.00000001       0.00000002       0.62073555
Si       5.75938473       5.75938473      14.71500000  F        4       0.27597448       0.00000002       0.44689707
Si       9.59897455       5.75938473      14.71500000  F        4      -0.27597447       0.00000002       0.44689707
Si       0.02298866       1.91979491      16.06960637  T        3       0.03933392      -0.00000000      -0.02137894
Si       3.81660116       1.91979491      16.06960638  T        3      -0.03933393      -0.00000000      -0.02137894
Si       7.67917964       1.91979491      16.02747463  T        3      -0.00000000      -0.00000000      -0.09375907
Si      -0.02799473       5.75938473      16.11038424  T        3      -0.03433589      -0.00000000       0.05010617
Si       3.86758455       5.75938473      16.11038424  T        3       0.03433589      -0.00000000       0.05010617
Si       7.67917964       5.75938473      16.16002473  T        3       0.00000000       0.00000000       0.18786274
Si       0.00753585       0.02686276      17.48328514  T        2      -0.03668752       0.00696415       0.02491370
Si       3.83205397       0.02686276      17.48328514  T        2       0.03668752       0.00696415       0.02491370
Si       7.67917964       0.09497363      17.49303263  T        2       0.00000000       0.14161699       0.06377379
Si       0.00753585       3.81272706      17.48328514  T        2      -0.03668752      -0.00696415       0.02491370
Si       3.83205397       3.81272706      17.48328514  T        2       0.03668752      -0.00696415       0.02491370
Si       7.67917964       3.74461619      17.49303263  T        2       0.00000000      -0.14161699       0.06377379
Si       1.91979491      -0.38032602      18.80222679  T        1      -0.00000000      -1.04960515      -0.02545808
Si       5.73107509       0.72078066      18.75890013  T        1      -0.06169937      -0.36429847      -0.16836612
Si       9.62728420       0.72078066      18.75890013  T        1       0.06169937      -0.36429848      -0.16836612
Si       1.91979491       4.21991584      18.80222679  T        1      -0.00000000       1.04960515      -0.02545808
Si       5.73107509       3.11880916      18.75890013  T        1      -0.06169937       0.36429847      -0.16836612
Si       9.62728420       3.11880916      18.75890013  T        1       0.06169937       0.36429848      -0.16836612
F        7.67917964       1.91979491      20.76743501  T        0       0.00000000      -0.00000000       0.10103872
H        7.67917964       1.91979491      21.72004964  T        0      -0.00000000       0.00000000       0.09399105
38
Lattice="11.518769465528859 0.0 0.0 0.0 7.679179643685906 0.0 0.0 0.0 30.7875" Properties=species:S:1:pos:R:3:move_mask:L:1:tags:I:1:forces:R:3 surface=Si100 species=HF site=hollow orientation=upright height_A=1.9 substrate_atoms=36 calculation_kind="Rigid evaluated approach scan; not NEB" energy=-191.07003610800152 pbc="T T F"
Si       0.00000000       0.00000000      12.00000000  F        6      -0.00101709      -0.00963689       0.23291778
Si       3.83958982       0.00000000      12.00000000  F        6       0.00101706      -0.00963689       0.23291776
Si       7.67917964       0.00000000      12.00000000  F        6       0.00000000      -0.00056375       0.22880099
Si       0.00000000       3.83958982      12.00000000  F        6      -0.00101709       0.00963689       0.23291778
Si       3.83958982       3.83958982      12.00000000  F        6       0.00101706       0.00963689       0.23291776
Si       7.67917964       3.83958982      12.00000000  F        6       0.00000000       0.00056375       0.22880099
Si       1.91979491       0.00000000      13.35750000  F        5       0.00000000       0.00959241      -0.48712201
Si       5.75938473       0.00000000      13.35750000  F        5       0.00888074       0.02163525      -0.47021132
Si       9.59897455       0.00000000      13.35750000  F        5      -0.00888071       0.02163525      -0.47021134
Si       1.91979491       3.83958982      13.35750000  F        5       0.00000000      -0.00959243      -0.48712202
Si       5.75938473       3.83958982      13.35750000  F        5       0.00888074      -0.02163527      -0.47021134
Si       9.59897455       3.83958982      13.35750000  F        5      -0.00888071      -0.02163527      -0.47021135
Si       1.91979491       1.91979491      14.71500000  F        4      -0.00000001      -0.00000000      -0.11353778
Si       5.75938473       1.91979491      14.71500000  F        4      -0.28937682      -0.00000000       0.07891139
Si       9.59897455       1.91979491      14.71500000  F        4       0.28937683      -0.00000000       0.07891138
Si       1.91979491       5.75938473      14.71500000  F        4      -0.00000001       0.00000002       0.64508186
Si       5.75938473       5.75938473      14.71500000  F        4       0.29567896       0.00000002       0.46963607
Si       9.59897455       5.75938473      14.71500000  F        4      -0.29567895       0.00000002       0.46963606
Si       0.02513550       1.91979491      16.06783044  T        3       0.03492807      -0.00000000      -0.00615454
Si       3.81445431       1.91979491      16.06783044  T        3      -0.03492807      -0.00000000      -0.00615454
Si       7.67917964       1.91979491      16.02220963  T        3      -0.00000000      -0.00000000      -0.07829433
Si      -0.03024545       5.75938473      16.11314211  T        3      -0.02646856      -0.00000000       0.03594596
Si       3.86983526       5.75938473      16.11314211  T        3       0.02646856      -0.00000000       0.03594595
Si       7.67917964       5.75938473      16.17004686  T        3       0.00000000       0.00000000       0.15577593
Si       0.00571650       0.02969518      17.48443939  T        2      -0.00836341      -0.03891154       0.01702647
Si       3.83387332       0.02969518      17.48443939  T        2       0.00836341      -0.03891154       0.01702647
Si       7.67917964       0.10562113      17.49699839  T        2       0.00000000       0.08183839       0.03655837
Si       0.00571650       3.80989464      17.48443939  T        2      -0.00836341       0.03891154       0.01702647
Si       3.83387332       3.80989464      17.48443939  T        2       0.00836341       0.03891154       0.01702647
Si       7.67917964       3.73396869      17.49699839  T        2       0.00000000      -0.08183839       0.03655837
Si       1.91979491      -0.42432960      18.80192355  T        1      -0.00000000      -1.10978391      -0.04972708
Si       5.72750056       0.74136283      18.75076209  T        1      -0.04117618      -0.62996549      -0.13544347
Si       9.63085873       0.74136283      18.75076208  T        1       0.04117618      -0.62996549      -0.13544347
Si       1.91979491       4.26391942      18.80192355  T        1      -0.00000000       1.10978391      -0.04972708
Si       5.72750056       3.09822699      18.75076209  T        1      -0.04117618       0.62996549      -0.13544347
Si       9.63085873       3.09822699      18.75076208  T        1       0.04117618       0.62996549      -0.13544347
F        7.67917964       1.91979491      20.77174241  T        0       0.00000000      -0.00000000       0.11363436
H        7.67917964       1.91979491      21.72454677  T        0      -0.00000000       0.00000000       0.08648397
38
Lattice="11.518769465528859 0.0 0.0 0.0 7.679179643685906 0.0 0.0 0.0 30.7875" Properties=species:S:1:pos:R:3:move_mask:L:1:tags:I:1:forces:R:3 surface=Si100 species=HF site=hollow orientation=upright height_A=1.9 substrate_atoms=36 calculation_kind="Rigid evaluated approach scan; not NEB" energy=-191.15003122589738 pbc="T T F"
Si       0.00000000       0.00000000      12.00000000  F        6      -0.00091609      -0.01133655       0.23126893
Si       3.83958982       0.00000000      12.00000000  F        6       0.00091606      -0.01133655       0.23126891
Si       7.67917964       0.00000000      12.00000000  F        6       0.00000000      -0.00119392       0.22819608
Si       0.00000000       3.83958982      12.00000000  F        6      -0.00091609       0.01133655       0.23126893
Si       3.83958982       3.83958982      12.00000000  F        6       0.00091606       0.01133655       0.23126891
Si       7.67917964       3.83958982      12.00000000  F        6       0.00000000       0.00119392       0.22819608
Si       1.91979491       0.00000000      13.35750000  F        5       0.00000000       0.00987144      -0.48408070
Si       5.75938473       0.00000000      13.35750000  F        5       0.01146171       0.02263190      -0.47058022
Si       9.59897455       0.00000000      13.35750000  F        5      -0.01146168       0.02263190      -0.47058024
Si       1.91979491       3.83958982      13.35750000  F        5       0.00000000      -0.00987146      -0.48408071
Si       5.75938473       3.83958982      13.35750000  F        5       0.01146171      -0.02263193      -0.47058023
Si       9.59897455       3.83958982      13.35750000  F        5      -0.01146168      -0.02263193      -0.47058025
Si       1.91979491       1.91979491      14.71500000  F        4      -0.00000001      -0.00000000      -0.14362149
Si       5.75938473       1.91979491      14.71500000  F        4      -0.31394666      -0.00000000       0.06426156
Si       9.59897455       1.91979491      14.71500000  F        4       0.31394667      -0.00000000       0.06426156
Si       1.91979491       5.75938473      14.71500000  F        4      -0.00000001       0.00000002       0.67059229
Si       5.75938473       5.75938473      14.71500000  F        4       0.31546698       0.00000002       0.49374872
Si       9.59897455       5.75938473      14.71500000  F        4      -0.31546697       0.00000002       0.49374871
Si       0.02737544       1.91979491      16.06617638  T        3       0.02936126      -0.00000000       0.01618657
Si       3.81221438       1.91979491      16.06617638  T        3      -0.02936126      -0.00000000       0.01618657
Si       7.67917964       1.91979491      16.01678074  T        3      -0.00000000      -0.00000000      -0.05491647
Si      -0.03250499       5.75938473      16.11594152  T        3      -0.01743837      -0.00000000       0.01380605
Si       3.87209480       5.75938473      16.11594153  T        3       0.01743837      -0.00000000       0.01380605
Si       7.67917964       5.75938473      16.18043990  T        3       0.00000000       0.00000000       0.11481458
Si       0.00400399       0.03190704      17.48562836  T        2       0.03384957      -0.09432995       0.00846838
Si       3.83558582       0.03190704      17.48562837  T        2      -0.03384957      -0.09432995       0.00846838
Si       7.67917964       0.11593099      17.50089154  T        2       0.00000000       0.01309100       0.00010082
Si       0.00400399       3.80768278      17.48562836  T        2       0.03384957       0.09432995       0.00846838
Si       3.83558582       3.80768278      17.48562837  T        2      -0.03384957       0.09432995       0.00846838
Si       7.67917964       3.72365883      17.50089154  T        2       0.00000000      -0.01309100       0.00010082
Si       1.91979491      -0.47368614      18.80121539  T        1      -0.00000000      -1.09262090      -0.08615730
Si       5.72391954       0.75439883      18.74224456  T        1      -0.01417173      -0.81276237      -0.08858577
Si       9.63443975       0.75439883      18.74224456  T        1       0.01417173      -0.81276237      -0.08858577
Si       1.91979491       4.31327596      18.80121539  T        1      -0.00000000       1.09262090      -0.08615730
Si       5.72391954       3.08519099      18.74224456  T        1      -0.01417173       0.81276237      -0.08858577
Si       9.63443975       3.08519099      18.74224456  T        1       0.01417173       0.81276237      -0.08858577
F        7.67917964       1.91979491      20.77661753  T        0       0.00000000      -0.00000000       0.11129757
H        7.67917964       1.91979491      21.72935539  T        0      -0.00000000       0.00000000       0.08742477
38
Lattice="11.518769465528859 0.0 0.0 0.0 7.679179643685906 0.0 0.0 0.0 30.7875" Properties=species:S:1:pos:R:3:move_mask:L:1:tags:I:1:forces:R:3 surface=Si100 species=HF site=hollow orientation=upright height_A=1.9 substrate_atoms=36 calculation_kind="Rigid evaluated approach scan; not NEB" energy=-191.24751238915968 pbc="T T F"
Si       0.00000000       0.00000000      12.00000000  F        6      -0.00107263      -0.01290346       0.22953230
Si       3.83958982       0.00000000      12.00000000  F        6       0.00107259      -0.01290346       0.22953229
Si       7.67917964       0.00000000      12.00000000  F        6       0.00000000      -0.00156247       0.22755957
Si       0.00000000       3.83958982      12.00000000  F        6      -0.00107263       0.01290346       0.22953230
Si       3.83958982       3.83958982      12.00000000  F        6       0.00107259       0.01290346       0.22953229
Si       7.67917964       3.83958982      12.00000000  F        6       0.00000000       0.00156247       0.22755957
Si       1.91979491       0.00000000      13.35750000  F        5       0.00000000       0.01009583      -0.48224693
Si       5.75938473       0.00000000      13.35750000  F        5       0.01360753       0.02436182      -0.47102605
Si       9.59897455       0.00000000      13.35750000  F        5      -0.01360750       0.02436182      -0.47102607
Si       1.91979491       3.83958982      13.35750000  F        5       0.00000000      -0.01009586      -0.48224694
Si       5.75938473       3.83958982      13.35750000  F        5       0.01360753      -0.02436184      -0.47102606
Si       9.59897455       3.83958982      13.35750000  F        5      -0.01360750      -0.02436184      -0.47102608
Si       1.91979491       1.91979491      14.71500000  F        4      -0.00000001      -0.00000000      -0.17309026
Si       5.75938473       1.91979491      14.71500000  F        4      -0.33940550      -0.00000000       0.05155726
Si       9.59897455       1.91979491      14.71500000  F        4       0.33940551      -0.00000000       0.05155726
Si       1.91979491       5.75938473      14.71500000  F        4      -0.00000001       0.00000002       0.69798656
Si       5.75938473       5.75938473      14.71500000  F        4       0.33461688       0.00000002       0.51877439
Si       9.59897455       5.75938473      14.71500000  F        4      -0.33461687       0.00000002       0.51877439
Si       0.02959718       1.91979491      16.06486304  T        3       0.02168534      -0.00000000       0.04677228
Si       3.80999263       1.91979491      16.06486305  T        3      -0.02168534      -0.00000000       0.04677228
Si       7.67917964       1.91979491      16.01153636  T        3      -0.00000000      -0.00000000      -0.02296577
Si      -0.03464091       5.75938473      16.11852037  T        3      -0.00726063      -0.00000000      -0.01652597
Si       3.87423072       5.75938473      16.11852037  T        3       0.00726063      -0.00000000      -0.01652597
Si       7.67917964       5.75938473      16.19056341  T        3      -0.00000000      -0.00000000       0.06753803
Si       0.00279198       0.03303506      17.48674617  T        2       0.08813234      -0.15289682       0.00013593
Si       3.83679784       0.03303506      17.48674617  T        2      -0.08813234      -0.15289682       0.00013593
Si       7.67917964       0.12510223      17.50431288  T        2      -0.00000000      -0.05897060      -0.04550142
Si       0.00279198       3.80655476      17.48674617  T        2       0.08813234       0.15289682       0.00013593
Si       3.83679784       3.80655476      17.48674617  T        2      -0.08813234       0.15289682       0.00013593
Si       7.67917964       3.71448759      17.50431288  T        2      -0.00000000       0.05897060      -0.04550142
Si       1.91979491      -0.52649354      18.79984855  T        1      -0.00000000      -0.95436263      -0.13558871
Si       5.72065082       0.75882739      18.73399554  T        1       0.01374028      -0.85619702      -0.03083455
Si       9.63770846       0.75882739      18.73399554  T        1      -0.01374028      -0.85619702      -0.03083455
Si       1.91979491       4.36608336      18.79984855  T        1      -0.00000000       0.95436263      -0.13558871
Si       5.72065082       3.08076242      18.73399554  T        1       0.01374028       0.85619702      -0.03083455
Si       9.63770846       3.08076242      18.73399554  T        1      -0.01374028       0.85619702      -0.03083455
F        7.67917964       1.91979491      20.78186268  T        0       0.00000000      -0.00000000       0.09464672
H        7.67917964       1.91979491      21.73433578  T        0      -0.00000000       0.00000000       0.09505334
38
Lattice="11.518769465528859 0.0 0.0 0.0 7.679179643685906 0.0 0.0 0.0 30.7875" Properties=species:S:1:pos:R:3:move_mask:L:1:tags:I:1:forces:R:3 surface=Si100 species=HF site=hollow orientation=upright height_A=1.9 substrate_atoms=36 calculation_kind="Rigid evaluated approach scan; not NEB" energy=-191.34941566875764 pbc="T T F"
Si       0.00000000       0.00000000      12.00000000  F        6      -0.00151233      -0.01415370       0.22793407
Si       3.83958982       0.00000000      12.00000000  F        6       0.00151230      -0.01415370       0.22793405
Si       7.67917964       0.00000000      12.00000000  F        6       0.00000000      -0.00160229       0.22697790
Si       0.00000000       3.83958982      12.00000000  F        6      -0.00151233       0.01415370       0.22793407
Si       3.83958982       3.83958982      12.00000000  F        6       0.00151230       0.01415370       0.22793405
Si       7.67917964       3.83958982      12.00000000  F        6       0.00000000       0.00160229       0.22697790
Si       1.91979491       0.00000000      13.35750000  F        5       0.00000000       0.01025624      -0.48206449
Si       5.75938473       0.00000000      13.35750000  F        5       0.01507170       0.02672151      -0.47130891
Si       9.59897455       0.00000000      13.35750000  F        5      -0.01507167       0.02672151      -0.47130893
Si       1.91979491       3.83958982      13.35750000  F        5       0.00000000      -0.01025626      -0.48206450
Si       5.75938473       3.83958982      13.35750000  F        5       0.01507170      -0.02672153      -0.47130892
Si       9.59897455       3.83958982      13.35750000  F        5      -0.01507167      -0.02672153      -0.47130894
Si       1.91979491       1.91979491      14.71500000  F        4      -0.00000001      -0.00000000      -0.19742882
Si       5.75938473       1.91979491      14.71500000  F        4      -0.36468274      -0.00000000       0.04237609
Si       9.59897455       1.91979491      14.71500000  F        4       0.36468275      -0.00000000       0.04237609
Si       1.91979491       5.75938473      14.71500000  F        4      -0.00000001       0.00000002       0.72649980
Si       5.75938473       5.75938473      14.71500000  F        4       0.35276926       0.00000002       0.54356805
Si       9.59897455       5.75938473      14.71500000  F        4      -0.35276925       0.00000002       0.54356805
Si       0.03169707       1.91979491      16.06414071  T        3       0.01175457      -0.00000000       0.08442045
Si       3.80789275       1.91979491      16.06414071  T        3      -0.01175457      -0.00000000       0.08442045
Si       7.67917964       1.91979491      16.00682540  T        3       0.00000000      -0.00000000       0.01502828
Si      -0.03654135       5.75938473      16.12059465  T        3       0.00526695      -0.00000000      -0.05296631
Si       3.87613116       5.75938473      16.12059465  T        3      -0.00526695      -0.00000000      -0.05296631
Si       7.67917964       5.75938473      16.19985932  T        3      -0.00000000      -0.00000000       0.01526630
Si       0.00251698       0.03267378      17.48770883  T        2       0.14600451      -0.20534556      -0.00797587
Si       3.83707283       0.03267378      17.48770883  T        2      -0.14600451      -0.20534556      -0.00797587
Si       7.67917964       0.13247730      17.50685948  T        2      -0.00000000      -0.12783812      -0.09596675
Si       0.00251698       3.80691604      17.48770883  T        2       0.14600451       0.20534556      -0.00797587
Si       3.83707283       3.80691604      17.48770884  T        2      -0.14600451       0.20534556      -0.00797587
Si       7.67917964       3.70711251      17.50685948  T        2      -0.00000000       0.12783812      -0.09596675
Si       1.91979491      -0.58022717      18.79749206  T        1       0.00000000      -0.70690084      -0.19241239
Si       5.71795890       0.75518019      18.72663162  T        1       0.03619811      -0.75599978       0.03111272
Si       9.64040039       0.75518019      18.72663162  T        1      -0.03619811      -0.75599978       0.03111272
Si       1.91979491       4.41981699      18.79749206  T        1       0.00000000       0.70690084      -0.19241239
Si       5.71795890       3.08440962      18.72663162  T        1       0.03619811       0.75599978       0.03111272
Si       9.64040039       3.08440962      18.72663162  T        1      -0.03619811       0.75599978       0.03111272
F        7.67917964       1.91979491      20.78719855  T        0       0.00000000      -0.00000000       0.07621847
H        7.67917964       1.91979491      21.73944746  T        0       0.00000000       0.00000000       0.09750294
38
Lattice="11.518769465528859 0.0 0.0 0.0 7.679179643685906 0.0 0.0 0.0 30.7875" Properties=species:S:1:pos:R:3:move_mask:L:1:tags:I:1:forces:R:3 surface=Si100 species=HF site=hollow orientation=upright height_A=1.9 substrate_atoms=36 calculation_kind="Rigid evaluated approach scan; not NEB" energy=-191.4342972946911 pbc="T T F"
Si       0.00000000       0.00000000      12.00000000  F        6      -0.00207489      -0.01497858       0.22670418
Si       3.83958982       0.00000000      12.00000000  F        6       0.00207485      -0.01497858       0.22670416
Si       7.67917964       0.00000000      12.00000000  F        6       0.00000000      -0.00132733       0.22656170
Si       0.00000000       3.83958982      12.00000000  F        6      -0.00207489       0.01497858       0.22670418
Si       3.83958982       3.83958982      12.00000000  F        6       0.00207485       0.01497858       0.22670416
Si       7.67917964       3.83958982      12.00000000  F        6       0.00000000       0.00132733       0.22656170
Si       1.91979491       0.00000000      13.35750000  F        5       0.00000000       0.01050875      -0.48342276
Si       5.75938473       0.00000000      13.35750000  F        5       0.01592572       0.02929595      -0.47132102
Si       9.59897455       0.00000000      13.35750000  F        5      -0.01592569       0.02929595      -0.47132104
Si       1.91979491       3.83958982      13.35750000  F        5       0.00000000      -0.01050877      -0.48342277
Si       5.75938473       3.83958982      13.35750000  F        5       0.01592572      -0.02929597      -0.47132103
Si       9.59897455       3.83958982      13.35750000  F        5      -0.01592569      -0.02929597      -0.47132105
Si       1.91979491       1.91979491      14.71500000  F        4      -0.00000001      -0.00000000      -0.21418214
Si       5.75938473       1.91979491      14.71500000  F        4      -0.38871786      -0.00000000       0.03727630
Si       9.59897455       1.91979491      14.71500000  F        4       0.38871787      -0.00000000       0.03727629
Si       1.91979491       5.75938473      14.71500000  F        4      -0.00000001       0.00000002       0.75245502
Si       5.75938473       5.75938473      14.71500000  F        4       0.37032798       0.00000002       0.56632852
Si       9.59897455       5.75938473      14.71500000  F        4      -0.37032797       0.00000002       0.56632852
Si       0.03362531       1.91979491      16.06424328  T        3       0.00144440      -0.00000000       0.12551951
Si       3.80596451       1.91979491      16.06424328  T        3      -0.00144440      -0.00000000       0.12551951
Si       7.67917964       1.91979491      16.00285792  T        3       0.00000000      -0.00000000       0.05400221
Si      -0.03814875       5.75938473      16.12194030  T        3       0.02109970      -0.00000000      -0.09243183
Si       3.87773857       5.75938473      16.12194030  T        3      -0.02109970      -0.00000000      -0.09243183
Si       7.67917964       5.75938473      16.20807705  T        3      -0.00000000      -0.00000000      -0.04246335
Si       0.00354181       0.03058179      17.48847711  T        2       0.19487425      -0.24274577      -0.01495065
Si       3.83604801       0.03058179      17.48847711  T        2      -0.19487425      -0.24274577      -0.01495065
Si       7.67917964       0.13778539      17.50824369  T        2      -0.00000000      -0.18764522      -0.14373828
Si       0.00354181       3.80900803      17.48847711  T        2       0.19487425       0.24274577      -0.01495065
Si       3.83604801       3.80900803      17.48847711  T        2      -0.19487425       0.24274577      -0.01495065
Si       7.67917964       3.70180442      17.50824369  T        2      -0.00000000       0.18764522      -0.14373828
Si       1.91979491      -0.63308447      18.79377660  T        1       0.00000000      -0.38614504      -0.24718757
Si       5.71593084       0.74546291      18.72049584  T        1       0.04884611      -0.56298621       0.08948301
Si       9.64242844       0.74546291      18.72049584  T        1      -0.04884611      -0.56298621       0.08948301
Si       1.91979491       4.47267429      18.79377660  T        1       0.00000000       0.38614504      -0.24718757
Si       5.71593084       3.09412691      18.72049584  T        1       0.04884611       0.56298621       0.08948301
Si       9.64242844       3.09412691      18.72049584  T        1      -0.04884611       0.56298621       0.08948301
F        7.67917964       1.91979491      20.79249953  T        0       0.00000000      -0.00000000       0.06664494
H        7.67917964       1.91979491      21.74473770  T        0       0.00000000       0.00000000       0.08607020
38
Lattice="11.518769465528859 0.0 0.0 0.0 7.679179643685906 0.0 0.0 0.0 30.7875" Properties=species:S:1:pos:R:3:move_mask:L:1:tags:I:1:forces:R:3 surface=Si100 species=HF site=hollow orientation=upright height_A=1.9 substrate_atoms=36 calculation_kind="Rigid evaluated approach scan; not NEB" energy=-191.4847727372277 pbc="T T F"
Si       0.00000000       0.00000000      12.00000000  F        6      -0.00248758      -0.01530204       0.22608376
Si       3.83958982       0.00000000      12.00000000  F        6       0.00248755      -0.01530204       0.22608375
Si       7.67917964       0.00000000      12.00000000  F        6       0.00000000      -0.00074778       0.22642940
Si       0.00000000       3.83958982      12.00000000  F        6      -0.00248758       0.01530204       0.22608376
Si       3.83958982       3.83958982      12.00000000  F        6       0.00248755       0.01530204       0.22608375
Si       7.67917964       3.83958982      12.00000000  F        6       0.00000000       0.00074778       0.22642940
Si       1.91979491       0.00000000      13.35750000  F        5       0.00000000       0.01116921      -0.48619429
Si       5.75938473       0.00000000      13.35750000  F        5       0.01634081       0.03173099      -0.47091868
Si       9.59897455       0.00000000      13.35750000  F        5      -0.01634078       0.03173099      -0.47091870
Si       1.91979491       3.83958982      13.35750000  F        5       0.00000000      -0.01116923      -0.48619430
Si       5.75938473       3.83958982      13.35750000  F        5       0.01634081      -0.03173101      -0.47091869
Si       9.59897455       3.83958982      13.35750000  F        5      -0.01634078      -0.03173101      -0.47091871
Si       1.91979491       1.91979491      14.71500000  F        4      -0.00000001      -0.00000000      -0.22259155
Si       5.75938473       1.91979491      14.71500000  F        4      -0.41051885      -0.00000000       0.03672691
Si       9.59897455       1.91979491      14.71500000  F        4       0.41051886      -0.00000000       0.03672691
Si       1.91979491       5.75938473      14.71500000  F        4      -0.00000001       0.00000002       0.76954299
Si       5.75938473       5.75938473      14.71500000  F        4       0.38801966       0.00000002       0.58485809
Si       9.59897455       5.75938473      14.71500000  F        4      -0.38801965       0.00000002       0.58485809
Si       0.03537228       1.91979491      16.06549138  T        3      -0.00672576      -0.00000000       0.16479903
Si       3.80421753       1.91979491      16.06549138  T        3       0.00672576      -0.00000000       0.16479903
Si       7.67917964       1.91979491      15.99978806  T        3       0.00000000      -0.00000000       0.08862836
Si      -0.03939966       5.75938473      16.12229899  T        3       0.03811380      -0.00000000      -0.13386567
Si       3.87898948       5.75938473      16.12229899  T        3      -0.03811380      -0.00000000      -0.13386567
Si       7.67917964       5.75938473      16.21507456  T        3      -0.00000000      -0.00000000      -0.10707917
Si       0.00625777       0.02646551      17.48903018  T        2       0.22070009      -0.25570008      -0.01829972
Si       3.83333205       0.02646551      17.48903018  T        2      -0.22070009      -0.25570008      -0.01829972
Si       7.67917964       0.14082991      17.50816458  T        2      -0.00000000      -0.23263806      -0.18012750
Si       0.00625777       3.81312431      17.48903018  T        2       0.22070009       0.25570008      -0.01829972
Si       3.83333205       3.81312431      17.48903019  T        2      -0.22070009       0.25570008      -0.01829972
Si       7.67917964       3.69875991      17.50816458  T        2      -0.00000000       0.23263806      -0.18012750
Si       1.91979491      -0.68416426      18.78815975  T        1       0.00000000       0.02489431      -0.28879516
Si       5.71455724       0.73154173      18.71580321  T        1       0.04897558      -0.33298528       0.13695606
Si       9.64380205       0.73154173      18.71580321  T        1      -0.04897558      -0.33298528       0.13695606
Si       1.91979491       4.52375407      18.78815975  T        1       0.00000000      -0.02489431      -0.28879516
Si       5.71455724       3.10804809      18.71580321  T        1       0.04897558       0.33298528       0.13695606
Si       9.64380205       3.10804809      18.71580321  T        1      -0.04897558       0.33298528       0.13695606
F        7.67917964       1.91979491      20.79787935  T        0       0.00000000      -0.00000000       0.06532818
H        7.67917964       1.91979491      21.75028675  T        0       0.00000000       0.00000000       0.06322402
38
Lattice="11.518769465528859 0.0 0.0 0.0 7.679179643685906 0.0 0.0 0.0 30.7875" Properties=species:S:1:pos:R:3:move_mask:L:1:tags:I:1:forces:R:3 surface=Si100 species=HF site=hollow orientation=upright height_A=1.9 substrate_atoms=36 calculation_kind="Rigid evaluated approach scan; not NEB" energy=-191.48603134296866 pbc="T T F"
Si       0.00000000       0.00000000      12.00000000  F        6      -0.00248729      -0.01507135       0.22618639
Si       3.83958982       0.00000000      12.00000000  F        6       0.00248726      -0.01507135       0.22618637
Si       7.67917964       0.00000000      12.00000000  F        6       0.00000000       0.00017501       0.22664063
Si       0.00000000       3.83958982      12.00000000  F        6      -0.00248729       0.01507135       0.22618639
Si       3.83958982       3.83958982      12.00000000  F        6       0.00248726       0.01507135       0.22618637
Si       7.67917964       3.83958982      12.00000000  F        6       0.00000000      -0.00017501       0.22664063
Si       1.91979491       0.00000000      13.35750000  F        5       0.00000000       0.01236221      -0.49014131
Si       5.75938473       0.00000000      13.35750000  F        5       0.01636723       0.03378593      -0.46990408
Si       9.59897455       0.00000000      13.35750000  F        5      -0.01636720       0.03378593      -0.46990410
Si       1.91979491       3.83958982      13.35750000  F        5       0.00000000      -0.01236223      -0.49014133
Si       5.75938473       3.83958982      13.35750000  F        5       0.01636723      -0.03378595      -0.46990410
Si       9.59897455       3.83958982      13.35750000  F        5      -0.01636720      -0.03378595      -0.46990412
Si       1.91979491       1.91979491      14.71500000  F        4      -0.00000001      -0.00000000      -0.22045120
Si       5.75938473       1.91979491      14.71500000  F        4      -0.43001764      -0.00000000       0.04225733
Si       9.59897455       1.91979491      14.71500000  F        4       0.43001765      -0.00000000       0.04225732
Si       1.91979491       5.75938473      14.71500000  F        4      -0.00000001       0.00000002       0.77038783
Si       5.75938473       5.75938473      14.71500000  F        4       0.40683912       0.00000002       0.59680879
Si       9.59897455       5.75938473      14.71500000  F        4      -0.40683911       0.00000002       0.59680879
Si       0.03696783       1.91979491      16.06839658  T        3      -0.01113782      -0.00000000       0.19470099
Si       3.80262199       1.91979491      16.06839658  T        3       0.01113782      -0.00000000       0.19470099
Si       7.67917964       1.91979491      15.99778376  T        3       0.00000000      -0.00000000       0.11400784
Si      -0.04019556       5.75938473      16.12124765  T        3       0.05215576      -0.00000000      -0.17771932
Si       3.87978538       5.75938473      16.12124766  T        3      -0.05215576      -0.00000000      -0.17771932
Si       7.67917964       5.75938473      16.22063138  T        3      -0.00000000      -0.00000000      -0.17966670
Si       0.01114424       0.01987970      17.48936701  T        2       0.21079648      -0.23416360      -0.01480469
Si       3.82844557       0.01987970      17.48936701  T        2      -0.21079648      -0.23416360      -0.01480469
Si       7.67917964       0.14131115      17.50621434  T        2      -0.00000000      -0.25644379      -0.19545094
Si       0.01114424       3.81971012      17.48936701  T        2       0.21079648       0.23416360      -0.01480469
Si       3.82844557       3.81971012      17.48936701  T        2      -0.21079648       0.23416360      -0.01480469
Si       7.67917964       3.69827867      17.50621434  T        2      -0.00000000       0.25644379      -0.19545094
Si       1.91979491      -0.73260395      18.77979886  T        1       0.00000000       0.60545607      -0.30616348
Si       5.71375741       0.71480365      18.71275479  T        1       0.03569948      -0.10655563       0.16636019
Si       9.64460187       0.71480365      18.71275479  T        1      -0.03569948      -0.10655563       0.16636019
Si       1.91979491       4.57219377      18.77979886  T        1       0.00000000      -0.60545607      -0.30616348
Si       5.71375741       3.12478617      18.71275479  T        1       0.03569948       0.10655563       0.16636019
Si       9.64460187       3.12478617      18.71275479  T        1      -0.03569948       0.10655563       0.16636019
F        7.67917964       1.91979491      20.80368835  T        0       0.00000000      -0.00000000       0.06149503
H        7.67917964       1.91979491      21.75623520  T        0       0.00000000       0.00000000       0.04101075
38
Lattice="11.518769465528859 0.0 0.0 0.0 7.679179643685906 0.0 0.0 0.0 30.7875" Properties=species:S:1:pos:R:3:move_mask:L:1:tags:I:1:forces:R:3 surface=Si100 species=HF site=hollow orientation=upright height_A=1.9 substrate_atoms=36 calculation_kind="Rigid evaluated approach scan; not NEB" energy=-191.55279943939473 pbc="T T F"
Si       0.00000000       0.00000000      12.00000000  F        6      -0.00095148      -0.01292254       0.22613966
Si       3.83958982       0.00000000      12.00000000  F        6       0.00095144      -0.01292254       0.22613964
Si       7.67917964       0.00000000      12.00000000  F        6       0.00000000       0.00217892       0.22705556
Si       0.00000000       3.83958982      12.00000000  F        6      -0.00095148       0.01292254       0.22613966
Si       3.83958982       3.83958982      12.00000000  F        6       0.00095144       0.01292254       0.22613964
Si       7.67917964       3.83958982      12.00000000  F        6       0.00000000      -0.00217892       0.22705556
Si       1.91979491       0.00000000      13.35750000  F        5       0.00000000       0.00542077      -0.49193764
Si       5.75938473       0.00000000      13.35750000  F        5       0.01283018       0.03089704      -0.46965384
Si       9.59897455       0.00000000      13.35750000  F        5      -0.01283015       0.03089704      -0.46965385
Si       1.91979491       3.83958982      13.35750000  F        5       0.00000000      -0.00542079      -0.49193765
Si       5.75938473       3.83958982      13.35750000  F        5       0.01283018      -0.03089706      -0.46965385
Si       9.59897455       3.83958982      13.35750000  F        5      -0.01283015      -0.03089706      -0.46965387
Si       1.91979491       1.91979491      14.71500000  F        4      -0.00000001      -0.00000000      -0.14459941
Si       5.75938473       1.91979491      14.71500000  F        4      -0.43580232      -0.00000000       0.10044585
Si       9.59897455       1.91979491      14.71500000  F        4       0.43580233      -0.00000000       0.10044585
Si       1.91979491       5.75938473      14.71500000  F        4      -0.00000001       0.00000002       0.68026718
Si       5.75938473       5.75938473      14.71500000  F        4       0.41112055       0.00000002       0.56241527
Si       9.59897455       5.75938473      14.71500000  F        4      -0.41112054       0.00000002       0.56241527
Si       0.03631852       1.91979491      16.07974714  T        3       0.00544636      -0.00000000       0.12953893
Si       3.80327130       1.91979491      16.07974714  T        3      -0.00544636      -0.00000000       0.12953893
Si       7.67917964       1.91979491      16.00443012  T        3       0.00000000      -0.00000000       0.04670561
Si      -0.03715502       5.75938473      16.11088708  T        3       0.04425471      -0.00000000      -0.13971337
Si       3.87674483       5.75938473      16.11088708  T        3      -0.04425471      -0.00000000      -0.13971337
Si       7.67917964       5.75938473      16.21015728  T        3      -0.00000000      -0.00000000      -0.19557755
Si       0.02343313       0.00622857      17.48850393  T        2      -0.03378715      -0.03478050      -0.03619466
Si       3.81615669       0.00622857      17.48850394  T        2       0.03378715      -0.03478050      -0.03619466
Si       7.67917964       0.12636114      17.49482006  T        2       0.00000000      -0.11398930      -0.05167806
Si       0.02343313       3.83336125      17.48850394  T        2      -0.03378715       0.03478050      -0.03619466
Si       3.81615669       3.83336125      17.48850394  T        2       0.03378715       0.03478050      -0.03619466
Si       7.67917964       3.71322868      17.49482006  T        2       0.00000000       0.11398930      -0.05167806
Si       1.91979491      -0.69730743      18.76195033  T        1      -0.00000000       0.04448579      -0.10573273
Si       5.71583860       0.70859173      18.72245316  T        1      -0.02517629      -0.11219482       0.04510123
Si       9.64252068       0.70859173      18.72245316  T        1       0.02517629      -0.11219482       0.04510123
Si       1.91979491       4.53689725      18.76195033  T        1      -0.00000000      -0.04448579      -0.10573273
Si       5.71583860       3.13099809      18.72245316  T        1      -0.02517629       0.11219482       0.04510123
Si       9.64252068       3.13099809      18.72245316  T        1       0.02517629       0.11219482       0.04510123
F        7.67917964       1.91979491      20.80727335  T        0       0.00000000      -0.00000000      -0.00922447
H        7.67917964       1.91979491      21.75862602  T        0       0.00000000       0.00000000       0.10007154
38
Lattice="11.518769465528859 0.0 0.0 0.0 7.679179643685906 0.0 0.0 0.0 30.7875" Properties=species:S:1:pos:R:3:move_mask:L:1:tags:I:1:forces:R:3 surface=Si100 species=HF site=hollow orientation=upright height_A=1.9 substrate_atoms=36 calculation_kind="Rigid evaluated approach scan; not NEB" energy=-191.5534792352698 pbc="T T F"
Si       0.00000000       0.00000000      12.00000000  F        6       0.00028867      -0.00937333       0.22613710
Si       3.83958982       0.00000000      12.00000000  F        6      -0.00028871      -0.00937333       0.22613708
Si       7.67917964       0.00000000      12.00000000  F        6       0.00000000       0.00515519       0.22779806
Si       0.00000000       3.83958982      12.00000000  F        6       0.00028867       0.00937333       0.22613710
Si       3.83958982       3.83958982      12.00000000  F        6      -0.00028871       0.00937333       0.22613708
Si       7.67917964       3.83958982      12.00000000  F        6       0.00000000      -0.00515519       0.22779806
Si       1.91979491       0.00000000      13.35750000  F        5       0.00000000      -0.00385519      -0.49335540
Si       5.75938473       0.00000000      13.35750000  F        5       0.00799906       0.02568949      -0.47104446
Si       9.59897455       0.00000000      13.35750000  F        5      -0.00799902       0.02568949      -0.47104448
Si       1.91979491       3.83958982      13.35750000  F        5       0.00000000       0.00385517      -0.49335541
Si       5.75938473       3.83958982      13.35750000  F        5       0.00799906      -0.02568951      -0.47104447
Si       9.59897455       3.83958982      13.35750000  F        5      -0.00799903      -0.02568951      -0.47104449
Si       1.91979491       1.91979491      14.71500000  F        4      -0.00000001      -0.00000000      -0.03459834
Si       5.75938473       1.91979491      14.71500000  F        4      -0.45040564      -0.00000000       0.17277222
Si       9.59897455       1.91979491      14.71500000  F        4       0.45040565      -0.00000000       0.17277222
Si       1.91979491       5.75938473      14.71500000  F        4      -0.00000001       0.00000002       0.54719362
Si       5.75938473       5.75938473      14.71500000  F        4       0.40794090       0.00000002       0.48318938
Si       9.59897455       5.75938473      14.71500000  F        4      -0.40794089       0.00000002       0.48318938
Si       0.03617274       1.91979491      16.09565046  T        3       0.00642073      -0.00000000      -0.01360844
Si       3.80341708       1.91979491      16.09565046  T        3      -0.00642073      -0.00000000      -0.01360844
Si       7.67917964       1.91979491      16.01201044  T        3      -0.00000000      -0.00000000      -0.00878341
Si      -0.03232716       5.75938473      16.09509489  T        3       0.00993847      -0.00000000      -0.03777377
Si       3.87191698       5.75938473      16.09509489  T        3      -0.00993847      -0.00000000      -0.03777377
Si       7.67917964       5.75938473      16.19096347  T        3       0.00000000      -0.00000000      -0.14031427
Si       0.03030970      -0.00570724      17.48572923  T        2      -0.20523944       0.09139483      -0.06241040
Si       3.80928012      -0.00570724      17.48572923  T        2       0.20523944       0.09139483      -0.06241040
Si       7.67917964       0.10877958      17.48351176  T        2       0.00000000       0.04249501       0.08512029
Si       0.03030970       3.84529706      17.48572923  T        2      -0.20523944      -0.09139483      -0.06241040
Si       3.80928012       3.84529706      17.48572923  T        2       0.20523944      -0.09139483      -0.06241040
Si       7.67917964       3.73081023      17.48351176  T        2       0.00000000      -0.04249501       0.08512029
Si       1.91979491      -0.66914637      18.74276390  T        1      -0.00000000      -0.33223251       0.08221211
Si       5.71584718       0.69743401      18.73214459  T        1      -0.03369915      -0.05752049      -0.05440587
Si       9.64251211       0.69743401      18.73214459  T        1       0.03369915      -0.05752049      -0.05440587
Si       1.91979491       4.50873619      18.74276390  T        1      -0.00000000       0.33223251       0.08221211
Si       5.71584718       3.14215581      18.73214459  T        1      -0.03369915       0.05752049      -0.05440587
Si       9.64251211       3.14215581      18.73214459  T        1       0.03369915       0.05752049      -0.05440587
F        7.67917964       1.91979491      20.80931699  T        0      -0.00000000      -0.00000000       0.29404438
H        7.67917964       1.91979491      21.76630088  T        0       0.00000000       0.00000000      -0.22335626
38
Lattice="11.518769465528859 0.0 0.0 0.0 7.679179643685906 0.0 0.0 0.0 30.7875" Properties=species:S:1:pos:R:3:move_mask:L:1:tags:I:1:forces:R:3 surface=Si100 species=HF site=hollow orientation=upright height_A=1.9 substrate_atoms=36 calculation_kind="Rigid evaluated approach scan; not NEB" energy=-191.5469391110364 pbc="T T F"
Si       0.00000000       0.00000000      12.00000000  F        6      -0.00087134      -0.00886582       0.22495522
Si       3.83958982       0.00000000      12.00000000  F        6       0.00087131      -0.00886582       0.22495520
Si       7.67917964       0.00000000      12.00000000  F        6       0.00000000       0.00527361       0.22726379
Si       0.00000000       3.83958982      12.00000000  F        6      -0.00087134       0.00886582       0.22495522
Si       3.83958982       3.83958982      12.00000000  F        6       0.00087131       0.00886582       0.22495520
Si       7.67917964       3.83958982      12.00000000  F        6       0.00000000      -0.00527361       0.22726379
Si       1.91979491       0.00000000      13.35750000  F        5       0.00000000      -0.00469388      -0.49126496
Si       5.75938473       0.00000000      13.35750000  F        5       0.00832787       0.02408004      -0.47421731
Si       9.59897455       0.00000000      13.35750000  F        5      -0.00832784       0.02408004      -0.47421733
Si       1.91979491       3.83958982      13.35750000  F        5       0.00000000       0.00469386      -0.49126498
Si       5.75938473       3.83958982      13.35750000  F        5       0.00832787      -0.02408007      -0.47421733
Si       9.59897455       3.83958982      13.35750000  F        5      -0.00832784      -0.02408007      -0.47421735
Si       1.91979491       1.91979491      14.71500000  F        4      -0.00000001      -0.00000000      -0.02912280
Si       5.75938473       1.91979491      14.71500000  F        4      -0.45370346      -0.00000000       0.16440277
Si       9.59897455       1.91979491      14.71500000  F        4       0.45370347      -0.00000000       0.16440277
Si       1.91979491       5.75938473      14.71500000  F        4      -0.00000001       0.00000002       0.54745264
Si       5.75938473       5.75938473      14.71500000  F        4       0.39319418       0.00000002       0.44252350
Si       9.59897455       5.75938473      14.71500000  F        4      -0.39319417       0.00000002       0.44252350
Si       0.03657403       1.91979491      16.09479993  T        3      -0.00714181      -0.00000000      -0.05865649
Si       3.80301579       1.91979491      16.09479993  T        3       0.00714181      -0.00000000      -0.05865649
Si       7.67917964       1.91979491      16.01146148  T        3       0.00000000      -0.00000000       0.02827036
Si      -0.03170601       5.75938473      16.09273402  T        3      -0.01652430      -0.00000000      -0.00046525
Si       3.87129582       5.75938473      16.09273403  T        3       0.01652430      -0.00000000      -0.00046525
Si       7.67917964       5.75938473      16.18219382  T        3       0.00000000      -0.00000000      -0.00758510
Si       0.01748223       0.00000493      17.48182858  T        2       0.00797489      -0.05678629      -0.01519308
Si       3.82210758       0.00000493      17.48182858  T        2      -0.00797489      -0.05678629      -0.01519308
Si       7.67917964       0.11143552      17.48883178  T        2       0.00000000      -0.02117037      -0.00270482
Si       0.01748223       3.83958489      17.48182858  T        2       0.00797489       0.05678629      -0.01519308
Si       3.82210758       3.83958489      17.48182858  T        2      -0.00797489       0.05678629      -0.01519308
Si       7.67917964       3.72815430      17.48883178  T        2       0.00000000       0.02117037      -0.00270482
Si       1.91979491      -0.68991091      18.74790215  T        1       0.00000000      -0.06507969      -0.07146621
Si       5.71374098       0.69383898      18.72874422  T        1       0.03912817       0.01058866       0.00496349
Si       9.64461830       0.69383898      18.72874422  T        1      -0.03912817       0.01058866       0.00496349
Si       1.91979491       4.52950072      18.74790215  T        1       0.00000000       0.06507969      -0.07146621
Si       5.71374098       3.14575084      18.72874422  T        1       0.03912817      -0.01058866       0.00496349
Si       9.64461830       3.14575084      18.72874422  T        1      -0.03912817      -0.01058866       0.00496349
F        7.67917964       1.91979491      20.82769477  T        0       0.00000000       0.00000000      -1.75399522
H        7.67917964       1.91979491      21.75234112  T        0      -0.00000000      -0.00000000       1.83368232
38
Lattice="11.518769465528859 0.0 0.0 0.0 7.679179643685906 0.0 0.0 0.0 30.7875" Properties=species:S:1:pos:R:3:move_mask:L:1:tags:I:1:forces:R:3 surface=Si100 species=HF site=hollow orientation=upright height_A=1.9 substrate_atoms=36 calculation_kind="Rigid evaluated approach scan; not NEB" energy=-191.55074042481274 pbc="T T F"
Si       0.00000000       0.00000000      12.00000000  F        6      -0.00089479      -0.00887918       0.22475935
Si       3.83958982       0.00000000      12.00000000  F        6       0.00089475      -0.00887918       0.22475934
Si       7.67917964       0.00000000      12.00000000  F        6       0.00000000       0.00514125       0.22718570
Si       0.00000000       3.83958982      12.00000000  F        6      -0.00089479       0.00887918       0.22475935
Si       3.83958982       3.83958982      12.00000000  F        6       0.00089475       0.00887918       0.22475934
Si       7.67917964       3.83958982      12.00000000  F        6       0.00000000      -0.00514125       0.22718570
Si       1.91979491       0.00000000      13.35750000  F        5       0.00000000      -0.00422830      -0.49177205
Si       5.75938473       0.00000000      13.35750000  F        5       0.00886508       0.02416151      -0.47330768
Si       9.59897455       0.00000000      13.35750000  F        5      -0.00886505       0.02416151      -0.47330770
Si       1.91979491       3.83958982      13.35750000  F        5       0.00000000       0.00422828      -0.49177206
Si       5.75938473       3.83958982      13.35750000  F        5       0.00886508      -0.02416153      -0.47330769
Si       9.59897455       3.83958982      13.35750000  F        5      -0.00886505      -0.02416153      -0.47330771
Si       1.91979491       1.91979491      14.71500000  F        4      -0.00000001      -0.00000000      -0.03551544
Si       5.75938473       1.91979491      14.71500000  F        4      -0.44892069      -0.00000000       0.16627852
Si       9.59897455       1.91979491      14.71500000  F        4       0.44892070      -0.00000000       0.16627852
Si       1.91979491       5.75938473      14.71500000  F        4      -0.00000001       0.00000002       0.55019822
Si       5.75938473       5.75938473      14.71500000  F        4       0.39438708       0.00000002       0.44168050
Si       9.59897455       5.75938473      14.71500000  F        4      -0.39438707       0.00000002       0.44168050
Si       0.03646244       1.91979491      16.09388342  T        3      -0.00955264      -0.00000000      -0.04052121
Si       3.80312738       1.91979491      16.09388343  T        3       0.00955264      -0.00000000      -0.04052121
Si       7.67917964       1.91979491      16.01190320  T        3       0.00000000      -0.00000000       0.01210890
Si      -0.03196420       5.75938473      16.09272676  T        3      -0.01416320      -0.00000000      -0.00844418
Si       3.87155402       5.75938473      16.09272676  T        3       0.01416320      -0.00000000      -0.00844418
Si       7.67917964       5.75938473      16.18207531  T        3       0.00000000      -0.00000000      -0.01442999
Si       0.01760684      -0.00088235      17.48159118  T        2      -0.00057848      -0.04076230      -0.01673714
Si       3.82198298      -0.00088235      17.48159119  T        2       0.00057848      -0.04076230      -0.01673714
Si       7.67917964       0.11110474      17.48878951  T        2       0.00000000      -0.01597051       0.00414897
Si       0.01760684       3.84047217      17.48159118  T        2      -0.00057848       0.04076230      -0.01673714
Si       3.82198298       3.84047217      17.48159119  T        2       0.00057848       0.04076230      -0.01673714
Si       7.67917964       3.72848508      17.48878951  T        2       0.00000000       0.01597051       0.00414897
Si       1.91979491      -0.69092778      18.74678549  T        1       0.00000000      -0.05941401      -0.06743438
Si       5.71435236       0.69400443      18.72882178  T        1       0.02123125       0.00817053       0.00904066
Si       9.64400693       0.69400443      18.72882178  T        1      -0.02123125       0.00817053       0.00904066
Si       1.91979491       4.53051760      18.74678549  T        1       0.00000000       0.05941401      -0.06743438
Si       5.71435236       3.14558539      18.72882178  T        1       0.02123125      -0.00817053       0.00904066
Si       9.64400693       3.14558539      18.72882178  T        1      -0.02123125      -0.00817053       0.00904066
F        7.67917964       1.91979491      20.80028859  T        0      -0.00000000      -0.00000000       1.41044601
H        7.67917964       1.91979491      21.78099240  T        0       0.00000000       0.00000000      -1.36007208
38
Lattice="11.518769465528859 0.0 0.0 0.0 7.679179643685906 0.0 0.0 0.0 30.7875" Properties=species:S:1:pos:R:3:move_mask:L:1:tags:I:1:forces:R:3 surface=Si100 species=HF site=hollow orientation=upright height_A=1.9 substrate_atoms=36 calculation_kind="Rigid evaluated approach scan; not NEB" energy=-191.56330995295215 pbc="T T F"
Si       0.00000000       0.00000000      12.00000000  F        6      -0.00088148      -0.00888383       0.22474825
Si       3.83958982       0.00000000      12.00000000  F        6       0.00088144      -0.00888383       0.22474824
Si       7.67917964       0.00000000      12.00000000  F        6       0.00000000       0.00513390       0.22719900
Si       0.00000000       3.83958982      12.00000000  F        6      -0.00088148       0.00888383       0.22474825
Si       3.83958982       3.83958982      12.00000000  F        6       0.00088144       0.00888383       0.22474824
Si       7.67917964       3.83958982      12.00000000  F        6       0.00000000      -0.00513390       0.22719900
Si       1.91979491       0.00000000      13.35750000  F        5       0.00000000      -0.00418169      -0.49181619
Si       5.75938473       0.00000000      13.35750000  F        5       0.00889493       0.02418069      -0.47350197
Si       9.59897455       0.00000000      13.35750000  F        5      -0.00889490       0.02418069      -0.47350199
Si       1.91979491       3.83958982      13.35750000  F        5       0.00000000       0.00418167      -0.49181620
Si       5.75938473       3.83958982      13.35750000  F        5       0.00889493      -0.02418071      -0.47350198
Si       9.59897455       3.83958982      13.35750000  F        5      -0.00889490      -0.02418071      -0.47350200
Si       1.91979491       1.91979491      14.71500000  F        4      -0.00000001      -0.00000000      -0.03651095
Si       5.75938473       1.91979491      14.71500000  F        4      -0.44813973      -0.00000000       0.16511746
Si       9.59897455       1.91979491      14.71500000  F        4       0.44813974      -0.00000000       0.16511745
Si       1.91979491       5.75938473      14.71500000  F        4      -0.00000001       0.00000002       0.55014686
Si       5.75938473       5.75938473      14.71500000  F        4       0.39456825       0.00000002       0.44127694
Si       9.59897455       5.75938473      14.71500000  F        4      -0.39456823       0.00000002       0.44127693
Si       0.03642513       1.91979491      16.09372514  T        3      -0.00869635      -0.00000000      -0.03808446
Si       3.80316469       1.91979491      16.09372514  T        3       0.00869635      -0.00000000      -0.03808446
Si       7.67917964       1.91979491      16.01195050  T        3       0.00000000      -0.00000000       0.01482916
Si      -0.03201952       5.75938473      16.09269377  T        3      -0.01364818      -0.00000000      -0.00927985
Si       3.87160934       5.75938473      16.09269377  T        3       0.01364818      -0.00000000      -0.00927985
Si       7.67917964       5.75938473      16.18201894  T        3       0.00000000      -0.00000000      -0.01293256
Si       0.01760458      -0.00104158      17.48152580  T        2      -0.00180500      -0.03797395      -0.01621827
Si       3.82198524      -0.00104158      17.48152581  T        2       0.00180500      -0.03797395      -0.01621827
Si       7.67917964       0.11104235      17.48880572  T        2       0.00000000      -0.01600033       0.00285732
Si       0.01760458       3.84063140      17.48152580  T        2      -0.00180500       0.03797395      -0.01621827
Si       3.82198524       3.84063140      17.48152581  T        2       0.00180500       0.03797395      -0.01621827
Si       7.67917964       3.72854747      17.48880572  T        2       0.00000000       0.01600033       0.00285732
Si       1.91979491      -0.69115986      18.74652208  T        1       0.00000000      -0.05705471      -0.06650523
Si       5.71443529       0.69403635      18.72885709  T        1       0.02146880       0.00670486       0.00618162
Si       9.64392399       0.69403635      18.72885709  T        1      -0.02146880       0.00670486       0.00618162
Si       1.91979491       4.53074968      18.74652208  T        1       0.00000000       0.05705471      -0.06650523
Si       5.71443529       3.14555347      18.72885709  T        1       0.02146880      -0.00670486       0.00618162
Si       9.64392399       3.14555347      18.72885709  T        1      -0.02146880      -0.00670486       0.00618162
F        7.67917964       1.91979491      20.80579815  T        0      -0.00000000      -0.00000000       0.93438928
H        7.67917964       1.91979491      21.77567962  T        0       0.00000000       0.00000000      -0.87629021
38
Lattice="11.518769465528859 0.0 0.0 0.0 7.679179643685906 0.0 0.0 0.0 30.7875" Properties=species:S:1:pos:R:3:move_mask:L:1:tags:I:1:forces:R:3 surface=Si100 species=HF site=hollow orientation=upright height_A=1.9 substrate_atoms=36 calculation_kind="Rigid evaluated approach scan; not NEB" energy=-191.57174245276002 pbc="T T F"
Si       0.00000000       0.00000000      12.00000000  F        6      -0.00085704      -0.00889098       0.22471892
Si       3.83958982       0.00000000      12.00000000  F        6       0.00085700      -0.00889098       0.22471891
Si       7.67917964       0.00000000      12.00000000  F        6       0.00000000       0.00511746       0.22721786
Si       0.00000000       3.83958982      12.00000000  F        6      -0.00085704       0.00889098       0.22471892
Si       3.83958982       3.83958982      12.00000000  F        6       0.00085700       0.00889098       0.22471891
Si       7.67917964       3.83958982      12.00000000  F        6       0.00000000      -0.00511746       0.22721786
Si       1.91979491       0.00000000      13.35750000  F        5       0.00000000      -0.00409197      -0.49191503
Si       5.75938473       0.00000000      13.35750000  F        5       0.00897914       0.02421472      -0.47381974
Si       9.59897455       0.00000000      13.35750000  F        5      -0.00897910       0.02421472      -0.47381976
Si       1.91979491       3.83958982      13.35750000  F        5       0.00000000       0.00409195      -0.49191504
Si       5.75938473       3.83958982      13.35750000  F        5       0.00897914      -0.02421474      -0.47381975
Si       9.59897455       3.83958982      13.35750000  F        5      -0.00897911      -0.02421474      -0.47381977
Si       1.91979491       1.91979491      14.71500000  F        4      -0.00000001      -0.00000000      -0.03847333
Si       5.75938473       1.91979491      14.71500000  F        4      -0.44660057      -0.00000000       0.16319217
Si       9.59897455       1.91979491      14.71500000  F        4       0.44660058      -0.00000000       0.16319217
Si       1.91979491       5.75938473      14.71500000  F        4      -0.00000001       0.00000002       0.55007946
Si       5.75938473       5.75938473      14.71500000  F        4       0.39496416       0.00000002       0.44044787
Si       9.59897455       5.75938473      14.71500000  F        4      -0.39496415       0.00000002       0.44044786
Si       0.03635240       1.91979491      16.09341126  T        3      -0.00711084      -0.00000000      -0.03334695
Si       3.80323742       1.91979491      16.09341127  T        3       0.00711084      -0.00000000      -0.03334695
Si       7.67917964       1.91979491      16.01205982  T        3       0.00000000      -0.00000000       0.01828583
Si      -0.03213075       5.75938473      16.09262232  T        3      -0.01270317      -0.00000000      -0.01087613
Si       3.87172056       5.75938473      16.09262232  T        3       0.01270317      -0.00000000      -0.01087613
Si       7.67917964       5.75938473      16.18191000  T        3       0.00000000      -0.00000000      -0.01022156
Si       0.01759442      -0.00135580      17.48139396  T        2      -0.00424598      -0.03247733      -0.01532596
Si       3.82199539      -0.00135580      17.48139397  T        2       0.00424598      -0.03247733      -0.01532596
Si       7.67917964       0.11091419      17.48883317  T        2       0.00000000      -0.01629843       0.00030132
Si       0.01759442       3.84094562      17.48139397  T        2      -0.00424598       0.03247733      -0.01532596
Si       3.82199539       3.84094562      17.48139397  T        2       0.00424598       0.03247733      -0.01532596
Si       7.67917964       3.72867563      17.48883317  T        2       0.00000000       0.01629843       0.00030132
Si       1.91979491      -0.69162554      18.74598567  T        1       0.00000000      -0.05242142      -0.06465691
Si       5.71460656       0.69409525      18.72891670  T        1       0.02155119       0.00446399       0.00218234
Si       9.64375272       0.69409525      18.72891670  T        1      -0.02155119       0.00446399       0.00218234
Si       1.91979491       4.53121536      18.74598567  T        1       0.00000000       0.05242142      -0.06465691
Si       5.71460656       3.14549457      18.72891670  T        1       0.02155119      -0.00446399       0.00218234
Si       9.64375272       3.14549457      18.72891670  T        1      -0.02155119      -0.00446399       0.00218234
F        7.67917964       1.91979491      20.81496239  T        0       0.00000000      -0.00000000       0.01616764
H        7.67917964       1.91979491      21.76695398  T        0       0.00000000       0.00000000       0.05241142
38
Lattice="11.518769465528859 0.0 0.0 0.0 7.679179643685906 0.0 0.0 0.0 30.7875" Properties=species:S:1:pos:R:3:move_mask:L:1:tags:I:1:forces:R:3 surface=Si100 species=HF site=hollow orientation=upright height_A=1.9 substrate_atoms=36 calculation_kind="Rigid evaluated approach scan; not NEB" energy=-191.57176956913315 pbc="T T F"
Si       0.00000000       0.00000000      12.00000000  F        6      -0.00085650      -0.00889055       0.22471242
Si       3.83958982       0.00000000      12.00000000  F        6       0.00085646      -0.00889055       0.22471240
Si       7.67917964       0.00000000      12.00000000  F        6       0.00000000       0.00511512       0.22721792
Si       0.00000000       3.83958982      12.00000000  F        6      -0.00085650       0.00889055       0.22471242
Si       3.83958982       3.83958982      12.00000000  F        6       0.00085646       0.00889055       0.22471240
Si       7.67917964       3.83958982      12.00000000  F        6       0.00000000      -0.00511512       0.22721792
Si       1.91979491       0.00000000      13.35750000  F        5       0.00000000      -0.00408098      -0.49192990
Si       5.75938473       0.00000000      13.35750000  F        5       0.00899695       0.02421690      -0.47382216
Si       9.59897455       0.00000000      13.35750000  F        5      -0.00899692       0.02421690      -0.47382217
Si       1.91979491       3.83958982      13.35750000  F        5       0.00000000       0.00408096      -0.49192991
Si       5.75938473       3.83958982      13.35750000  F        5       0.00899695      -0.02421692      -0.47382217
Si       9.59897455       3.83958982      13.35750000  F        5      -0.00899692      -0.02421692      -0.47382219
Si       1.91979491       1.91979491      14.71500000  F        4      -0.00000001      -0.00000000      -0.03867297
Si       5.75938473       1.91979491      14.71500000  F        4      -0.44641732      -0.00000000       0.16313381
Si       9.59897455       1.91979491      14.71500000  F        4       0.44641733      -0.00000000       0.16313381
Si       1.91979491       5.75938473      14.71500000  F        4      -0.00000001       0.00000002       0.55009788
Si       5.75938473       5.75938473      14.71500000  F        4       0.39503736       0.00000002       0.44034870
Si       9.59897455       5.75938473      14.71500000  F        4      -0.39503735       0.00000002       0.44034870
Si       0.03634546       1.91979491      16.09337870  T        3      -0.00705913      -0.00000000      -0.03281103
Si       3.80324436       1.91979491      16.09337870  T        3       0.00705913      -0.00000000      -0.03281103
Si       7.67917964       1.91979491      16.01207768  T        3       0.00000000      -0.00000000       0.01811813
Si      -0.03214315       5.75938473      16.09261169  T        3      -0.01259380      -0.00000000      -0.01103498
Si       3.87173297       5.75938473      16.09261170  T        3       0.01259380      -0.00000000      -0.01103498
Si       7.67917964       5.75938473      16.18190002  T        3       0.00000000      -0.00000000      -0.01018959
Si       0.01759028      -0.00138752      17.48137900  T        2      -0.00448225      -0.03194075      -0.01531415
Si       3.82199954      -0.00138752      17.48137900  T        2       0.00448225      -0.03194075      -0.01531415
Si       7.67917964       0.11089827      17.48883346  T        2       0.00000000      -0.01621798       0.00028445
Si       0.01759028       3.84097734      17.48137900  T        2      -0.00448225       0.03194075      -0.01531415
Si       3.82199954       3.84097734      17.48137900  T        2       0.00448225       0.03194075      -0.01531415
Si       7.67917964       3.72869155      17.48883346  T        2       0.00000000       0.01621798       0.00028445
Si       1.91979491      -0.69167673      18.74592253  T        1       0.00000000      -0.05198841      -0.06447567
Si       5.71462761       0.69409961      18.72891883  T        1       0.02125637       0.00433459       0.00208570
Si       9.64373167       0.69409961      18.72891883  T        1      -0.02125637       0.00433459       0.00208570
Si       1.91979491       4.53126655      18.74592253  T        1       0.00000000       0.05198841      -0.06447567
Si       5.71462761       3.14549021      18.72891883  T        1       0.02125637      -0.00433459       0.00208570
Si       9.64373167       3.14549021      18.72891883  T        1      -0.02125637      -0.00433459       0.00208570
F        7.67917964       1.91979491      20.81497818  T        0       0.00000000      -0.00000000       0.01817200
H        7.67917964       1.91979491      21.76700516  T        0       0.00000000       0.00000000       0.05036078
38
Lattice="11.518769465528859 0.0 0.0 0.0 7.679179643685906 0.0 0.0 0.0 30.7875" Properties=species:S:1:pos:R:3:move_mask:L:1:tags:I:1:forces:R:3 surface=Si100 species=HF site=hollow orientation=upright height_A=1.9 substrate_atoms=36 calculation_kind="Rigid evaluated approach scan; not NEB" energy=-191.57182273961354 pbc="T T F"
Si       0.00000000       0.00000000      12.00000000  F        6      -0.00085543      -0.00888963       0.22469945
Si       3.83958982       0.00000000      12.00000000  F        6       0.00085540      -0.00888963       0.22469943
Si       7.67917964       0.00000000      12.00000000  F        6       0.00000000       0.00511053       0.22721807
Si       0.00000000       3.83958982      12.00000000  F        6      -0.00085543       0.00888963       0.22469945
Si       3.83958982       3.83958982      12.00000000  F        6       0.00085540       0.00888963       0.22469943
Si       7.67917964       3.83958982      12.00000000  F        6       0.00000000      -0.00511053       0.22721807
Si       1.91979491       0.00000000      13.35750000  F        5       0.00000000      -0.00405928      -0.49195944
Si       5.75938473       0.00000000      13.35750000  F        5       0.00903245       0.02422117      -0.47382714
Si       9.59897455       0.00000000      13.35750000  F        5      -0.00903242       0.02422117      -0.47382716
Si       1.91979491       3.83958982      13.35750000  F        5       0.00000000       0.00405926      -0.49195945
Si       5.75938473       3.83958982      13.35750000  F        5       0.00903245      -0.02422119      -0.47382716
Si       9.59897455       3.83958982      13.35750000  F        5      -0.00903242      -0.02422119      -0.47382717
Si       1.91979491       1.91979491      14.71500000  F        4      -0.00000001      -0.00000000      -0.03906806
Si       5.75938473       1.91979491      14.71500000  F        4      -0.44605312      -0.00000000       0.16301787
Si       9.59897455       1.91979491      14.71500000  F        4       0.44605313      -0.00000000       0.16301787
Si       1.91979491       5.75938473      14.71500000  F        4      -0.00000001       0.00000002       0.55013288
Si       5.75938473       5.75938473      14.71500000  F        4       0.39518415       0.00000002       0.44014978
Si       9.59897455       5.75938473      14.71500000  F        4      -0.39518414       0.00000002       0.44014977
Si       0.03633162       1.91979491      16.09331411  T        3      -0.00695602      -0.00000000      -0.03174995
Si       3.80325820       1.91979491      16.09331411  T        3       0.00695602      -0.00000000      -0.03174995
Si       7.67917964       1.91979491      16.01211323  T        3       0.00000000      -0.00000000       0.01778565
Si      -0.03216786       5.75938473      16.09259027  T        3      -0.01237592      -0.00000000      -0.01134694
Si       3.87175767       5.75938473      16.09259027  T        3       0.01237592      -0.00000000      -0.01134694
Si       7.67917964       5.75938473      16.18188008  T        3       0.00000000      -0.00000000      -0.01012536
Si       0.01758172      -0.00145041      17.48134906  T        2      -0.00494858      -0.03087818      -0.01529070
Si       3.82200809      -0.00145041      17.48134906  T        2       0.00494858      -0.03087818      -0.01529070
Si       7.67917964       0.11086651      17.48883403  T        2       0.00000000      -0.01605723       0.00025071
Si       0.01758172       3.84104023      17.48134906  T        2      -0.00494858       0.03087818      -0.01529070
Si       3.82200809       3.84104023      17.48134906  T        2       0.00494858       0.03087818      -0.01529070
Si       7.67917964       3.72872331      17.48883403  T        2       0.00000000       0.01605723       0.00025071
Si       1.91979491      -0.69177870      18.74579637  T        1       0.00000000      -0.05112461      -0.06411524
Si       5.71466940       0.69410819      18.72892299  T        1       0.02067293       0.00407852       0.00189420
Si       9.64368988       0.69410819      18.72892299  T        1      -0.02067293       0.00407852       0.00189420
Si       1.91979491       4.53136852      18.74579637  T        1       0.00000000       0.05112461      -0.06411524
Si       5.71466940       3.14548163      18.72892299  T        1       0.02067293      -0.00407852       0.00189420
Si       9.64368988       3.14548163      18.72892299  T        1      -0.02067293      -0.00407852       0.00189420
F        7.67917964       1.91979491      20.81501192  T        0       0.00000000      -0.00000000       0.02193511
H        7.67917964       1.91979491      21.76710538  T        0       0.00000000       0.00000000       0.04650695
38
Lattice="11.518769465528859 0.0 0.0 0.0 7.679179643685906 0.0 0.0 0.0 30.7875" Properties=species:S:1:pos:R:3:move_mask:L:1:tags:I:1:forces:R:3 surface=Si100 species=HF site=hollow orientation=upright height_A=1.9 substrate_atoms=36 calculation_kind="Rigid evaluated approach scan; not NEB" energy=-191.57190001356662 pbc="T T F"
Si       0.00000000       0.00000000      12.00000000  F        6      -0.00085390      -0.00888814       0.22468007
Si       3.83958982       0.00000000      12.00000000  F        6       0.00085386      -0.00888814       0.22468005
Si       7.67917964       0.00000000      12.00000000  F        6       0.00000000       0.00510386       0.22721836
Si       0.00000000       3.83958982      12.00000000  F        6      -0.00085390       0.00888814       0.22468007
Si       3.83958982       3.83958982      12.00000000  F        6       0.00085386       0.00888814       0.22468005
Si       7.67917964       3.83958982      12.00000000  F        6       0.00000000      -0.00510386       0.22721836
Si       1.91979491       0.00000000      13.35750000  F        5       0.00000000      -0.00402748      -0.49200327
Si       5.75938473       0.00000000      13.35750000  F        5       0.00908535       0.02422736      -0.47383501
Si       9.59897455       0.00000000      13.35750000  F        5      -0.00908532       0.02422736      -0.47383503
Si       1.91979491       3.83958982      13.35750000  F        5       0.00000000       0.00402746      -0.49200328
Si       5.75938473       3.83958982      13.35750000  F        5       0.00908535      -0.02422738      -0.47383503
Si       9.59897455       3.83958982      13.35750000  F        5      -0.00908532      -0.02422738      -0.47383505
Si       1.91979491       1.91979491      14.71500000  F        4      -0.00000001      -0.00000000      -0.03964989
Si       5.75938473       1.91979491      14.71500000  F        4      -0.44551269      -0.00000000       0.16284596
Si       9.59897455       1.91979491      14.71500000  F        4       0.44551270      -0.00000000       0.16284595
Si       1.91979491       5.75938473      14.71500000  F        4      -0.00000001       0.00000002       0.55018052
Si       5.75938473       5.75938473      14.71500000  F        4       0.39540550       0.00000002       0.43984968
Si       9.59897455       5.75938473      14.71500000  F        4      -0.39540549       0.00000002       0.43984968
Si       0.03631098       1.91979491      16.09321863  T        3      -0.00680217      -0.00000000      -0.03018609
Si       3.80327884       1.91979491      16.09321863  T        3       0.00680217      -0.00000000      -0.03018609
Si       7.67917964       1.91979491      16.01216615  T        3       0.00000000      -0.00000000       0.01729433
Si      -0.03220465       5.75938473      16.09255764  T        3      -0.01205121      -0.00000000      -0.01179990
Si       3.87179447       5.75938473      16.09255764  T        3       0.01205121      -0.00000000      -0.01179990
Si       7.67917964       5.75938473      16.18185022  T        3       0.00000000      -0.00000000      -0.01002826
Si       0.01756821      -0.00154334      17.48130413  T        2      -0.00563202      -0.02931159      -0.01525596
Si       3.82202161      -0.00154334      17.48130413  T        2       0.00563202      -0.02931159      -0.01525596
Si       7.67917964       0.11081903      17.48883484  T        2       0.00000000      -0.01581633       0.00020015
Si       0.01756821       3.84113316      17.48130413  T        2      -0.00563202       0.02931159      -0.01525596
Si       3.82202161       3.84113316      17.48130413  T        2       0.00563202       0.02931159      -0.01525596
Si       7.67917964       3.72877079      17.48883484  T        2       0.00000000       0.01581633       0.00020015
Si       1.91979491      -0.69193063      18.74560740  T        1       0.00000000      -0.04983435      -0.06357979
Si       5.71473134       0.69412072      18.72892897  T        1       0.01981372       0.00370153       0.00161158
Si       9.64362794       0.69412072      18.72892896  T        1      -0.01981372       0.00370153       0.00161158
Si       1.91979491       4.53152045      18.74560740  T        1       0.00000000       0.04983435      -0.06357979
Si       5.71473134       3.14546910      18.72892897  T        1       0.01981372      -0.00370153       0.00161158
Si       9.64362794       3.14546910      18.72892896  T        1      -0.01981372      -0.00370153       0.00161158
F        7.67917964       1.91979491      20.81506811  T        0       0.00000000      -0.00000000       0.02695811
H        7.67917964       1.91979491      21.76725029  T        0       0.00000000       0.00000000       0.04135243
38
Lattice="11.518769465528859 0.0 0.0 0.0 7.679179643685906 0.0 0.0 0.0 30.7875" Properties=species:S:1:pos:R:3:move_mask:L:1:tags:I:1:forces:R:3 surface=Si100 species=HF site=hollow orientation=upright height_A=1.9 substrate_atoms=36 calculation_kind="Rigid evaluated approach scan; not NEB" energy=-191.57199884883863 pbc="T T F"
Si       0.00000000       0.00000000      12.00000000  F        6      -0.00085198      -0.00888591       0.22465438
Si       3.83958982       0.00000000      12.00000000  F        6       0.00085194      -0.00888591       0.22465436
Si       7.67917964       0.00000000      12.00000000  F        6       0.00000000       0.00509539       0.22721890
Si       0.00000000       3.83958982      12.00000000  F        6      -0.00085198       0.00888591       0.22465438
Si       3.83958982       3.83958982      12.00000000  F        6       0.00085194       0.00888591       0.22465436
Si       7.67917964       3.83958982      12.00000000  F        6       0.00000000      -0.00509539       0.22721890
Si       1.91979491       0.00000000      13.35750000  F        5       0.00000000      -0.00398651      -0.49206078
Si       5.75938473       0.00000000      13.35750000  F        5       0.00915525       0.02423518      -0.47384626
Si       9.59897455       0.00000000      13.35750000  F        5      -0.00915522       0.02423518      -0.47384628
Si       1.91979491       3.83958982      13.35750000  F        5       0.00000000       0.00398649      -0.49206079
Si       5.75938473       3.83958982      13.35750000  F        5       0.00915525      -0.02423520      -0.47384627
Si       9.59897455       3.83958982      13.35750000  F        5      -0.00915522      -0.02423520      -0.47384629
Si       1.91979491       1.91979491      14.71500000  F        4      -0.00000001      -0.00000000      -0.04040485
Si       5.75938473       1.91979491      14.71500000  F        4      -0.44480332      -0.00000000       0.16262066
Si       9.59897455       1.91979491      14.71500000  F        4       0.44480334      -0.00000000       0.16262065
Si       1.91979491       5.75938473      14.71500000  F        4      -0.00000001       0.00000002       0.55023461
Si       5.75938473       5.75938473      14.71500000  F        4       0.39570303       0.00000002       0.43944607
Si       9.59897455       5.75938473      14.71500000  F        4      -0.39570302       0.00000002       0.43944607
Si       0.03628368       1.91979491      16.09309399  T        3      -0.00659865      -0.00000000      -0.02815431
Si       3.80330614       1.91979491      16.09309399  T        3       0.00659865      -0.00000000      -0.02815431
Si       7.67917964       1.91979491      16.01223595  T        3       0.00000000      -0.00000000       0.01665311
Si      -0.03225322       5.75938473      16.09251314  T        3      -0.01162226      -0.00000000      -0.01237482
Si       3.87184304       5.75938473      16.09251314  T        3       0.01162226      -0.00000000      -0.01237482
Si       7.67917964       5.75938473      16.18181049  T        3       0.00000000      -0.00000000      -0.00989745
Si       0.01754882      -0.00166455      17.48124413  T        2      -0.00651228      -0.02727525      -0.01521055
Si       3.82204100      -0.00166455      17.48124413  T        2       0.00651228      -0.02727525      -0.01521055
Si       7.67917964       0.11075602      17.48883582  T        2       0.00000000      -0.01549541       0.00013296
Si       0.01754882       3.84125437      17.48124413  T        2      -0.00651228       0.02727525      -0.01521055
Si       3.82204100       3.84125437      17.48124413  T        2       0.00651228       0.02727525      -0.01521055
Si       7.67917964       3.72883380      17.48883583  T        2       0.00000000       0.01549541       0.00013296
Si       1.91979491      -0.69213126      18.74535581  T        1       0.00000000      -0.04812439      -0.06287566
Si       5.71481249       0.69413673      18.72893641  T        1       0.01869855       0.00321257       0.00124376
Si       9.64354679       0.69413673      18.72893641  T        1      -0.01869855       0.00321257       0.00124376
Si       1.91979491       4.53172107      18.74535581  T        1       0.00000000       0.04812439      -0.06287566
Si       5.71481249       3.14545308      18.72893641  T        1       0.01869855      -0.00321257       0.00124376
Si       9.64354679       3.14545308      18.72893641  T        1      -0.01869855      -0.00321257       0.00124376
F        7.67917964       1.91979491      20.81515323  T        0       0.00000000      -0.00000000       0.03252483
H        7.67917964       1.91979491      21.76743372  T        0       0.00000000       0.00000000       0.03561851
38
Lattice="11.518769465528859 0.0 0.0 0.0 7.679179643685906 0.0 0.0 0.0 30.7875" Properties=species:S:1:pos:R:3:move_mask:L:1:tags:I:1:forces:R:3 surface=Si100 species=HF site=hollow orientation=upright height_A=1.9 substrate_atoms=36 calculation_kind="Rigid evaluated approach scan; not NEB" energy=-191.5721164269504 pbc="T T F"
Si       0.00000000       0.00000000      12.00000000  F        6      -0.00084978      -0.00888272       0.22462250
Si       3.83958982       0.00000000      12.00000000  F        6       0.00084975      -0.00888272       0.22462248
Si       7.67917964       0.00000000      12.00000000  F        6       0.00000000       0.00508549       0.22721980
Si       0.00000000       3.83958982      12.00000000  F        6      -0.00084978       0.00888272       0.22462250
Si       3.83958982       3.83958982      12.00000000  F        6       0.00084975       0.00888272       0.22462248
Si       7.67917964       3.83958982      12.00000000  F        6       0.00000000      -0.00508549       0.22721980
Si       1.91979491       0.00000000      13.35750000  F        5       0.00000000      -0.00393769      -0.49213113
Si       5.75938473       0.00000000      13.35750000  F        5       0.00924160       0.02424423      -0.47386151
Si       9.59897455       0.00000000      13.35750000  F        5      -0.00924157       0.02424423      -0.47386153
Si       1.91979491       3.83958982      13.35750000  F        5       0.00000000       0.00393767      -0.49213114
Si       5.75938473       3.83958982      13.35750000  F        5       0.00924160      -0.02424425      -0.47386152
Si       9.59897455       3.83958982      13.35750000  F        5      -0.00924157      -0.02424425      -0.47386154
Si       1.91979491       1.91979491      14.71500000  F        4      -0.00000001      -0.00000000      -0.04131407
Si       5.75938473       1.91979491      14.71500000  F        4      -0.44393511      -0.00000000       0.16234572
Si       9.59897455       1.91979491      14.71500000  F        4       0.44393512      -0.00000000       0.16234571
Si       1.91979491       5.75938473      14.71500000  F        4      -0.00000001       0.00000002       0.55028660
Si       5.75938473       5.75938473      14.71500000  F        4       0.39607898       0.00000002       0.43893569
Si       9.59897455       5.75938473      14.71500000  F        4      -0.39607897       0.00000002       0.43893568
Si       0.03624993       1.91979491      16.09294262  T        3      -0.00634715      -0.00000000      -0.02570279
Si       3.80333989       1.91979491      16.09294262  T        3       0.00634715      -0.00000000      -0.02570279
Si       7.67917964       1.91979491      16.01232196  T        3       0.00000000      -0.00000000       0.01587381
Si      -0.03231311       5.75938473      16.09245586  T        3      -0.01109266      -0.00000000      -0.01304536
Si       3.87190293       5.75938473      16.09245587  T        3       0.01109266      -0.00000000      -0.01304536
Si       7.67917964       5.75938473      16.18176095  T        3       0.00000000      -0.00000000      -0.00973202
Si       0.01752230      -0.00181162      17.48116895  T        2      -0.00756135      -0.02481655      -0.01515545
Si       3.82206751      -0.00181162      17.48116896  T        2       0.00756135      -0.02481655      -0.01515545
Si       7.67917964       0.11067774      17.48883690  T        2       0.00000000      -0.01509442       0.00004976
Si       0.01752230       3.84140144      17.48116895  T        2      -0.00756135       0.02481655      -0.01515545
Si       3.82206751       3.84140144      17.48116896  T        2       0.00756135       0.02481655      -0.01515545
Si       7.67917964       3.72891208      17.48883690  T        2       0.00000000       0.01509442       0.00004976
Si       1.91979491      -0.69237882      18.74504184  T        1      -0.00000000      -0.04600465      -0.06201152
Si       5.71491156       0.69415562      18.72894484  T        1       0.01735430       0.00262415       0.00079925
Si       9.64344772       0.69415562      18.72894484  T        1      -0.01735430       0.00262415       0.00079925
Si       1.91979491       4.53196864      18.74504184  T        1      -0.00000000       0.04600465      -0.06201152
Si       5.71491156       3.14543420      18.72894484  T        1       0.01735430      -0.00262415       0.00079925
Si       9.64344772       3.14543420      18.72894484  T        1      -0.01735430      -0.00262415       0.00079925
F        7.67917964       1.91979491      20.81527513  T        0       0.00000000      -0.00000000       0.03778537
H        7.67917964       1.91979491      21.76764841  T        0       0.00000000       0.00000000       0.03016096
38
Lattice="11.518769465528859 0.0 0.0 0.0 7.679179643685906 0.0 0.0 0.0 30.7875" Properties=species:S:1:pos:R:3:move_mask:L:1:tags:I:1:forces:R:3 surface=Si100 species=HF site=hollow orientation=upright height_A=1.9 substrate_atoms=36 calculation_kind="Rigid evaluated approach scan; not NEB" energy=-191.57224987274964 pbc="T T F"
Si       0.00000000       0.00000000      12.00000000  F        6      -0.00084747      -0.00887828       0.22458457
Si       3.83958982       0.00000000      12.00000000  F        6       0.00084743      -0.00887828       0.22458455
Si       7.67917964       0.00000000      12.00000000  F        6       0.00000000       0.00507467       0.22722121
Si       0.00000000       3.83958982      12.00000000  F        6      -0.00084747       0.00887828       0.22458457
Si       3.83958982       3.83958982      12.00000000  F        6       0.00084743       0.00887828       0.22458455
Si       7.67917964       3.83958982      12.00000000  F        6       0.00000000      -0.00507467       0.22722121
Si       1.91979491       0.00000000      13.35750000  F        5       0.00000000      -0.00388270      -0.49221324
Si       5.75938473       0.00000000      13.35750000  F        5       0.00934369       0.02425402      -0.47388151
Si       9.59897455       0.00000000      13.35750000  F        5      -0.00934366       0.02425402      -0.47388153
Si       1.91979491       3.83958982      13.35750000  F        5       0.00000000       0.00388268      -0.49221325
Si       5.75938473       3.83958982      13.35750000  F        5       0.00934369      -0.02425404      -0.47388153
Si       9.59897455       3.83958982      13.35750000  F        5      -0.00934366      -0.02425404      -0.47388155
Si       1.91979491       1.91979491      14.71500000  F        4      -0.00000001      -0.00000000      -0.04235320
Si       5.75938473       1.91979491      14.71500000  F        4      -0.44292114      -0.00000000       0.16202627
Si       9.59897455       1.91979491      14.71500000  F        4       0.44292115      -0.00000000       0.16202627
Si       1.91979491       5.75938473      14.71500000  F        4      -0.00000001       0.00000002       0.55032561
Si       5.75938473       5.75938473      14.71500000  F        4       0.39653613       0.00000002       0.43831447
Si       9.59897455       5.75938473      14.71500000  F        4      -0.39653612       0.00000002       0.43831447
Si       0.03620998       1.91979491      16.09276763  T        3      -0.00605023      -0.00000000      -0.02289359
Si       3.80337984       1.91979491      16.09276764  T        3       0.00605023      -0.00000000      -0.02289359
Si       7.67917964       1.91979491      16.01242330  T        3       0.00000000      -0.00000000       0.01497077
Si      -0.03238374       5.75938473      16.09238465  T        3      -0.01046724      -0.00000000      -0.01377779
Si       3.87197356       5.75938473      16.09238465  T        3       0.01046724      -0.00000000      -0.01377779
Si       7.67917964       5.75938473      16.18170170  T        3       0.00000000      -0.00000000      -0.00953133
Si       0.01748704      -0.00198140      17.48107845  T        2      -0.00874326      -0.02199655      -0.01509206
Si       3.82210278      -0.00198140      17.48107845  T        2       0.00874326      -0.02199655      -0.01509206
Si       7.67917964       0.11058453      17.48883793  T        2       0.00000000      -0.01461321      -0.00004813
Si       0.01748704       3.84157122      17.48107845  T        2      -0.00874326       0.02199655      -0.01509206
Si       3.82210278       3.84157122      17.48107845  T        2       0.00874326       0.02199655      -0.01509206
Si       7.67917964       3.72900529      17.48883794  T        2       0.00000000       0.01461321      -0.00004813
Si       1.91979491      -0.69267099      18.74466578  T        1      -0.00000000      -0.04348918      -0.06099847
Si       5.71502688       0.69417658      18.72895363  T        1       0.01581488       0.00195249       0.00028949
Si       9.64333240       0.69417658      18.72895363  T        1      -0.01581488       0.00195249       0.00028949
Si       1.91979491       4.53226080      18.74466578  T        1      -0.00000000       0.04348918      -0.06099847
Si       5.71502688       3.14541324      18.72895363  T        1       0.01581488      -0.00195249       0.00028949
Si       9.64333240       3.14541324      18.72895363  T        1      -0.01581488      -0.00195249       0.00028949
F        7.67917964       1.91979491      20.81544180  T        0       0.00000000      -0.00000000       0.04188438
H        7.67917964       1.91979491      21.76788709  T        0       0.00000000       0.00000000       0.02584048
38
Lattice="11.518769465528859 0.0 0.0 0.0 7.679179643685906 0.0 0.0 0.0 30.7875" Properties=species:S:1:pos:R:3:move_mask:L:1:tags:I:1:forces:R:3 surface=Si100 species=HF site=hollow orientation=upright height_A=1.9 substrate_atoms=36 calculation_kind="Rigid evaluated approach scan; not NEB" energy=-191.572396324726 pbc="T T F"
Si       0.00000000       0.00000000      12.00000000  F        6      -0.00084522      -0.00887225       0.22454077
Si       3.83958982       0.00000000      12.00000000  F        6       0.00084518      -0.00887225       0.22454076
Si       7.67917964       0.00000000      12.00000000  F        6       0.00000000       0.00506349       0.22722333
Si       0.00000000       3.83958982      12.00000000  F        6      -0.00084522       0.00887225       0.22454077
Si       3.83958982       3.83958982      12.00000000  F        6       0.00084518       0.00887225       0.22454076
Si       7.67917964       3.83958982      12.00000000  F        6       0.00000000      -0.00506349       0.22722333
Si       1.91979491       0.00000000      13.35750000  F        5       0.00000000      -0.00382361      -0.49230579
Si       5.75938473       0.00000000      13.35750000  F        5       0.00946066       0.02426394      -0.47390709
Si       9.59897455       0.00000000      13.35750000  F        5      -0.00946063       0.02426394      -0.47390711
Si       1.91979491       3.83958982      13.35750000  F        5       0.00000000       0.00382359      -0.49230580
Si       5.75938473       3.83958982      13.35750000  F        5       0.00946066      -0.02426396      -0.47390710
Si       9.59897455       3.83958982      13.35750000  F        5      -0.00946063      -0.02426396      -0.47390712
Si       1.91979491       1.91979491      14.71500000  F        4      -0.00000001      -0.00000000      -0.04349251
Si       5.75938473       1.91979491      14.71500000  F        4      -0.44177756      -0.00000000       0.16166900
Si       9.59897455       1.91979491      14.71500000  F        4       0.44177757      -0.00000000       0.16166899
Si       1.91979491       5.75938473      14.71500000  F        4      -0.00000001       0.00000002       0.55033854
Si       5.75938473       5.75938473      14.71500000  F        4       0.39707767       0.00000002       0.43757776
Si       9.59897455       5.75938473      14.71500000  F        4      -0.39707766       0.00000002       0.43757776
Si       0.03616417       1.91979491      16.09257286  T        3      -0.00571153      -0.00000000      -0.01980243
Si       3.80342565       1.91979491      16.09257286  T        3       0.00571153      -0.00000000      -0.01980243
Si       7.67917964       1.91979491      16.01253889  T        3       0.00000000      -0.00000000       0.01396020
Si      -0.03246435       5.75938473      16.09229811  T        3      -0.00975218      -0.00000000      -0.01453141
Si       3.87205417       5.75938473      16.09229812  T        3       0.00975218      -0.00000000      -0.01453141
Si       7.67917964       5.75938473      16.18163285  T        3       0.00000000      -0.00000000      -0.00929527
Si       0.01744106      -0.00217002      17.48097241  T        2      -0.01001441      -0.01888972      -0.01502231
Si       3.82214875      -0.00217002      17.48097241  T        2       0.01001441      -0.01888972      -0.01502231
Si       7.67917964       0.11047684      17.48883879  T        2       0.00000000      -0.01405143      -0.00015831
Si       0.01744106       3.84175984      17.48097241  T        2      -0.01001441       0.01888972      -0.01502231
Si       3.82214875       3.84175984      17.48097241  T        2       0.01001441       0.01888972      -0.01502231
Si       7.67917964       3.72911298      17.48883879  T        2       0.00000000       0.01405143      -0.00015831
Si       1.91979491      -0.69300476      18.74422797  T        1      -0.00000000      -0.04059721      -0.05984989
Si       5.71515643       0.69419862      18.72896201  T        1       0.01412052       0.00121762      -0.00027081
Si       9.64320285       0.69419862      18.72896201  T        1      -0.01412052       0.00121762      -0.00027081
Si       1.91979491       4.53259458      18.74422797  T        1      -0.00000000       0.04059721      -0.05984989
Si       5.71515643       3.14539120      18.72896201  T        1       0.01412052      -0.00121762      -0.00027081
Si       9.64320285       3.14539120      18.72896201  T        1      -0.01412052      -0.00121762      -0.00027081
F        7.67917964       1.91979491      20.81566002  T        0       0.00000000      -0.00000000       0.04411878
H        7.67917964       1.91979491      21.76814399  T        0       0.00000000       0.00000000       0.02336358
38
Lattice="11.518769465528859 0.0 0.0 0.0 7.679179643685906 0.0 0.0 0.0 30.7875" Properties=species:S:1:pos:R:3:move_mask:L:1:tags:I:1:forces:R:3 surface=Si100 species=HF site=hollow orientation=upright height_A=1.9 substrate_atoms=36 calculation_kind="Rigid evaluated approach scan; not NEB" energy=-191.5725699683755 pbc="T T F"
Si       0.00000000       0.00000000      12.00000000  F        6      -0.00084308      -0.00886326       0.22448575
Si       3.83958982       0.00000000      12.00000000  F        6       0.00084305      -0.00886326       0.22448574
Si       7.67917964       0.00000000      12.00000000  F        6       0.00000000       0.00505151       0.22722669
Si       0.00000000       3.83958982      12.00000000  F        6      -0.00084308       0.00886326       0.22448575
Si       3.83958982       3.83958982      12.00000000  F        6       0.00084305       0.00886326       0.22448574
Si       7.67917964       3.83958982      12.00000000  F        6       0.00000000      -0.00505151       0.22722669
Si       1.91979491       0.00000000      13.35750000  F        5       0.00000000      -0.00375631      -0.49241850
Si       5.75938473       0.00000000      13.35750000  F        5       0.00960612       0.02427424      -0.47394279
Si       9.59897455       0.00000000      13.35750000  F        5      -0.00960609       0.02427424      -0.47394281
Si       1.91979491       3.83958982      13.35750000  F        5       0.00000000       0.00375628      -0.49241852
Si       5.75938473       3.83958982      13.35750000  F        5       0.00960612      -0.02427426      -0.47394281
Si       9.59897455       3.83958982      13.35750000  F        5      -0.00960609      -0.02427426      -0.47394282
Si       1.91979491       1.91979491      14.71500000  F        4      -0.00000001      -0.00000000      -0.04482872
Si       5.75938473       1.91979491      14.71500000  F        4      -0.44038425      -0.00000000       0.16123950
Si       9.59897455       1.91979491      14.71500000  F        4       0.44038426      -0.00000000       0.16123950
Si       1.91979491       5.75938473      14.71500000  F        4      -0.00000001       0.00000002       0.55030506
Si       5.75938473       5.75938473      14.71500000  F        4       0.39777859       0.00000002       0.43662283
Si       9.59897455       5.75938473      14.71500000  F        4      -0.39777858       0.00000002       0.43662283
Si       0.03610717       1.91979491      16.09233964  T        3      -0.00529419      -0.00000000      -0.01615853
Si       3.80348265       1.91979491      16.09233964  T        3       0.00529419      -0.00000000      -0.01615853
Si       7.67917964       1.91979491      16.01268180  T        3       0.00000000      -0.00000000       0.01273768
Si      -0.03256405       5.75938473      16.09218280  T        3      -0.00886607      -0.00000000      -0.01533522
Si       3.87215387       5.75938473      16.09218280  T        3       0.00886607      -0.00000000      -0.01533522
Si       7.67917964       5.75938473      16.18154572  T        3       0.00000000      -0.00000000      -0.00899397
Si       0.01737512      -0.00239529      17.48083679  T        2      -0.01146541      -0.01522089      -0.01494055
Si       3.82221470      -0.00239529      17.48083679  T        2       0.01146541      -0.01522089      -0.01494055
Si       7.67917964       0.11034156      17.48883932  T        2       0.00000000      -0.01333585      -0.00029007
Si       0.01737512       3.84198511      17.48083679  T        2      -0.01146541       0.01522089      -0.01494055
Si       3.82221470       3.84198511      17.48083679  T        2       0.01146541       0.01522089      -0.01494055
Si       7.67917964       3.72924825      17.48883932  T        2       0.00000000       0.01333585      -0.00029007
Si       1.91979491      -0.69341803      18.74367245  T        1      -0.00000000      -0.03699028      -0.05843982
Si       5.71531349       0.69422292      18.72896976  T        1       0.01211935       0.00035880      -0.00092823
Si       9.64304579       0.69422292      18.72896976  T        1      -0.01211935       0.00035880      -0.00092823
Si       1.91979491       4.53300784      18.74367245  T        1      -0.00000000       0.03699028      -0.05843982
Si       5.71531349       3.14536690      18.72896976  T        1       0.01211935      -0.00035880      -0.00092823
Si       9.64304579       3.14536690      18.72896976  T        1      -0.01211935      -0.00035880      -0.00092823
F        7.67917964       1.91979491      20.81596607  T        0       0.00000000      -0.00000000       0.04396917
H        7.67917964       1.91979491      21.76844599  T        0       0.00000000       0.00000000       0.02322044
38
Lattice="11.518769465528859 0.0 0.0 0.0 7.679179643685906 0.0 0.0 0.0 30.7875" Properties=species:S:1:pos:R:3:move_mask:L:1:tags:I:1:forces:R:3 surface=Si100 species=HF site=hollow orientation=upright height_A=1.9 substrate_atoms=36 calculation_kind="Rigid evaluated approach scan; not NEB" energy=-191.57277139793652 pbc="T T F"
Si       0.00000000       0.00000000      12.00000000  F        6      -0.00084151      -0.00884991       0.22441733
Si       3.83958982       0.00000000      12.00000000  F        6       0.00084147      -0.00884991       0.22441731
Si       7.67917964       0.00000000      12.00000000  F        6       0.00000000       0.00503976       0.22723191
Si       0.00000000       3.83958982      12.00000000  F        6      -0.00084151       0.00884991       0.22441733
Si       3.83958982       3.83958982      12.00000000  F        6       0.00084147       0.00884991       0.22441731
Si       7.67917964       3.83958982      12.00000000  F        6       0.00000000      -0.00503976       0.22723191
Si       1.91979491       0.00000000      13.35750000  F        5       0.00000000      -0.00368328      -0.49255319
Si       5.75938473       0.00000000      13.35750000  F        5       0.00978472       0.02428376      -0.47399224
Si       9.59897455       0.00000000      13.35750000  F        5      -0.00978469       0.02428376      -0.47399225
Si       1.91979491       3.83958982      13.35750000  F        5       0.00000000       0.00368326      -0.49255321
Si       5.75938473       3.83958982      13.35750000  F        5       0.00978472      -0.02428378      -0.47399225
Si       9.59897455       3.83958982      13.35750000  F        5      -0.00978469      -0.02428378      -0.47399227
Si       1.91979491       1.91979491      14.71500000  F        4      -0.00000001      -0.00000000      -0.04634389
Si       5.75938473       1.91979491      14.71500000  F        4      -0.43871924      -0.00000000       0.16073708
Si       9.59897455       1.91979491      14.71500000  F        4       0.43871925      -0.00000000       0.16073707
Si       1.91979491       5.75938473      14.71500000  F        4      -0.00000001       0.00000002       0.55018771
Si       5.75938473       5.75938473      14.71500000  F        4       0.39868057       0.00000002       0.43539155
Si       9.59897455       5.75938473      14.71500000  F        4      -0.39868056       0.00000002       0.43539155
Si       0.03603719       1.91979491      16.09206734  T        3      -0.00479056      -0.00000000      -0.01199649
Si       3.80355262       1.91979491      16.09206734  T        3       0.00479056      -0.00000000      -0.01199649
Si       7.67917964       1.91979491      16.01285588  T        3       0.00000000      -0.00000000       0.01128393
Si      -0.03268544       5.75938473      16.09202946  T        3      -0.00778496      -0.00000000      -0.01611757
Si       3.87227526       5.75938473      16.09202946  T        3       0.00778496      -0.00000000      -0.01611756
Si       7.67917964       5.75938473      16.18143646  T        3       0.00000000      -0.00000000      -0.00861517
Si       0.01728056      -0.00265732      17.48066432  T        2      -0.01304653      -0.01101887      -0.01484841
Si       3.82230926      -0.00265732      17.48066433  T        2       0.01304653      -0.01101887      -0.01484841
Si       7.67917964       0.11017353      17.48883910  T        2       0.00000000      -0.01243053      -0.00044003
Si       0.01728056       3.84224714      17.48066432  T        2      -0.01304653       0.01101887      -0.01484841
Si       3.82230926       3.84224714      17.48066433  T        2       0.01304653       0.01101887      -0.01484841
Si       7.67917964       3.72941629      17.48883910  T        2       0.00000000       0.01243053      -0.00044003
Si       1.91979491      -0.69392181      18.74297305  T        1      -0.00000000      -0.03255595      -0.05673582
Si       5.71550002       0.69424792      18.72897507  T        1       0.00982168      -0.00060893      -0.00167061
Si       9.64285926       0.69424792      18.72897507  T        1      -0.00982168      -0.00060893      -0.00167061
Si       1.91979491       4.53351163      18.74297305  T        1      -0.00000000       0.03255595      -0.05673582
Si       5.71550002       3.14534189      18.72897507  T        1       0.00982168       0.00060893      -0.00167061
Si       9.64285926       3.14534189      18.72897507  T        1      -0.00982168       0.00060893      -0.00167061
F        7.67917964       1.91979491      20.81638136  T        0       0.00000000      -0.00000000       0.04086749
H        7.67917964       1.91979491      21.76880444  T        0       0.00000000       0.00000000       0.02596091
38
Lattice="11.518769465528859 0.0 0.0 0.0 7.679179643685906 0.0 0.0 0.0 30.7875" Properties=species:S:1:pos:R:3:move_mask:L:1:tags:I:1:forces:R:3 surface=Si100 species=HF site=hollow orientation=upright height_A=1.9 substrate_atoms=36 calculation_kind="Rigid evaluated approach scan; not NEB" energy=-191.57299976215242 pbc="T T F"
Si       0.00000000       0.00000000      12.00000000  F        6      -0.00084125      -0.00883021       0.22433307
Si       3.83958982       0.00000000      12.00000000  F        6       0.00084121      -0.00883021       0.22433305
Si       7.67917964       0.00000000      12.00000000  F        6       0.00000000       0.00502997       0.22723981
Si       0.00000000       3.83958982      12.00000000  F        6      -0.00084125       0.00883021       0.22433307
Si       3.83958982       3.83958982      12.00000000  F        6       0.00084121       0.00883021       0.22433305
Si       7.67917964       3.83958982      12.00000000  F        6       0.00000000      -0.00502997       0.22723981
Si       1.91979491       0.00000000      13.35750000  F        5       0.00000000      -0.00360960      -0.49271077
Si       5.75938473       0.00000000      13.35750000  F        5       0.01000106       0.02429058      -0.47406005
Si       9.59897455       0.00000000      13.35750000  F        5      -0.01000103       0.02429058      -0.47406007
Si       1.91979491       3.83958982      13.35750000  F        5       0.00000000       0.00360958      -0.49271079
Si       5.75938473       3.83958982      13.35750000  F        5       0.01000106      -0.02429060      -0.47406006
Si       9.59897455       3.83958982      13.35750000  F        5      -0.01000103      -0.02429060      -0.47406008
Si       1.91979491       1.91979491      14.71500000  F        4      -0.00000001      -0.00000000      -0.04798778
Si       5.75938473       1.91979491      14.71500000  F        4      -0.43677325      -0.00000000       0.16016908
Si       9.59897455       1.91979491      14.71500000  F        4       0.43677326      -0.00000000       0.16016907
Si       1.91979491       5.75938473      14.71500000  F        4      -0.00000001       0.00000002       0.54992995
Si       5.75938473       5.75938473      14.71500000  F        4       0.39983426       0.00000002       0.43381206
Si       9.59897455       5.75938473      14.71500000  F        4      -0.39983425       0.00000002       0.43381205
Si       0.03595252       1.91979491      16.09175900  T        3      -0.00419837      -0.00000000      -0.00743227
Si       3.80363730       1.91979491      16.09175900  T        3       0.00419837      -0.00000000      -0.00743227
Si       7.67917964       1.91979491      16.01306451  T        3       0.00000000      -0.00000000       0.00958599
Si      -0.03283066       5.75938473      16.09182603  T        3      -0.00648934      -0.00000000      -0.01675781
Si       3.87242048       5.75938473      16.09182603  T        3       0.00648934      -0.00000000      -0.01675781
Si       7.67917964       5.75938473      16.18130064  T        3       0.00000000      -0.00000000      -0.00814692
Si       0.01714522      -0.00295237      17.48044596  T        2      -0.01465833      -0.00638928      -0.01474975
Si       3.82244460      -0.00295237      17.48044596  T        2       0.01465833      -0.00638928      -0.01474975
Si       7.67917964       0.10996725      17.48883748  T        2       0.00000000      -0.01129263      -0.00059817
Si       0.01714522       3.84254219      17.48044596  T        2      -0.01465833       0.00638928      -0.01474975
Si       3.82244460       3.84254219      17.48044596  T        2       0.01465833       0.00638928      -0.01474975
Si       7.67917964       3.72962257      17.48883748  T        2       0.00000000       0.01129263      -0.00059817
Si       1.91979491      -0.69452526      18.74209856  T        1      -0.00000000      -0.02719406      -0.05470983
Si       5.71571634       0.69427079      18.72897503  T        1       0.00727313      -0.00164711      -0.00246559
Si       9.64264294       0.69427079      18.72897503  T        1      -0.00727313      -0.00164711      -0.00246559
Si       1.91979491       4.53411508      18.74209856  T        1      -0.00000000       0.02719406      -0.05470983
Si       5.71571634       3.14531903      18.72897503  T        1       0.00727313       0.00164711      -0.00246559
Si       9.64264294       3.14531903      18.72897503  T        1      -0.00727313       0.00164711      -0.00246559
F        7.67917964       1.91979491      20.81692346  T        0       0.00000000      -0.00000000       0.03512861
H        7.67917964       1.91979491      21.76924269  T        0       0.00000000       0.00000000       0.03123538
38
Lattice="11.518769465528859 0.0 0.0 0.0 7.679179643685906 0.0 0.0 0.0 30.7875" Properties=species:S:1:pos:R:3:move_mask:L:1:tags:I:1:forces:R:3 surface=Si100 species=HF site=hollow orientation=upright height_A=1.9 substrate_atoms=36 calculation_kind="Rigid evaluated approach scan; not NEB" energy=-191.5732534904109 pbc="T T F"
Si       0.00000000       0.00000000      12.00000000  F        6      -0.00084345      -0.00880144       0.22423045
Si       3.83958982       0.00000000      12.00000000  F        6       0.00084341      -0.00880144       0.22423043
Si       7.67917964       0.00000000      12.00000000  F        6       0.00000000       0.00502482       0.22725150
Si       0.00000000       3.83958982      12.00000000  F        6      -0.00084345       0.00880144       0.22423045
Si       3.83958982       3.83958982      12.00000000  F        6       0.00084341       0.00880144       0.22423043
Si       7.67917964       3.83958982      12.00000000  F        6       0.00000000      -0.00502482       0.22725150
Si       1.91979491       0.00000000      13.35750000  F        5       0.00000000      -0.00354393      -0.49289059
Si       5.75938473       0.00000000      13.35750000  F        5       0.01025912       0.02429179      -0.47415206
Si       9.59897455       0.00000000      13.35750000  F        5      -0.01025909       0.02429179      -0.47415208
Si       1.91979491       3.83958982      13.35750000  F        5       0.00000000       0.00354391      -0.49289060
Si       5.75938473       3.83958982      13.35750000  F        5       0.01025912      -0.02429181      -0.47415207
Si       9.59897455       3.83958982      13.35750000  F        5      -0.01025909      -0.02429181      -0.47415209
Si       1.91979491       1.91979491      14.71500000  F        4      -0.00000001      -0.00000000      -0.04966364
Si       5.75938473       1.91979491      14.71500000  F        4      -0.43455942      -0.00000000       0.15955477
Si       9.59897455       1.91979491      14.71500000  F        4       0.43455943      -0.00000000       0.15955476
Si       1.91979491       5.75938473      14.71500000  F        4      -0.00000001       0.00000002       0.54945075
Si       5.75938473       5.75938473      14.71500000  F        4       0.40129748       0.00000002       0.43179964
Si       9.59897455       5.75938473      14.71500000  F        4      -0.40129747       0.00000002       0.43179964
Si       0.03585175       1.91979491      16.09142323  T        3      -0.00352528      -0.00000000      -0.00270244
Si       3.80373807       1.91979491      16.09142323  T        3       0.00352528      -0.00000000      -0.00270244
Si       7.67917964       1.91979491      16.01330978  T        3       0.00000000      -0.00000000       0.00764336
Si      -0.03300066       5.75938473      16.09155745  T        3      -0.00497150      -0.00000000      -0.01707268
Si       3.87259047       5.75938473      16.09155745  T        3       0.00497150      -0.00000000      -0.01707268
Si       7.67917964       5.75938473      16.18113340  T        3       0.00000000      -0.00000000      -0.00757828
Si       0.01695261      -0.00327079      17.48017051  T        2      -0.01613339      -0.00154947      -0.01465055
Si       3.82263720      -0.00327079      17.48017052  T        2       0.01613339      -0.00154947      -0.01465055
Si       7.67917964       0.10971753      17.48883350  T        2       0.00000000      -0.00987448      -0.00074510
Si       0.01695261       3.84286061      17.48017051  T        2      -0.01613339       0.00154947      -0.01465055
Si       3.82263720       3.84286061      17.48017052  T        2       0.01613339       0.00154947      -0.01465055
Si       7.67917964       3.72987228      17.48883350  T        2       0.00000000       0.00987448      -0.00074510
Si       1.91979491      -0.69523259      18.74101281  T        1      -0.00000000      -0.02084604      -0.05234196
Si       5.71596008       0.69428697      18.72896520  T        1       0.00457074      -0.00268355      -0.00325180
Si       9.64239920       0.69428697      18.72896520  T        1      -0.00457074      -0.00268355      -0.00325180
Si       1.91979491       4.53482241      18.74101281  T        1      -0.00000000       0.02084604      -0.05234196
Si       5.71596008       3.14530285      18.72896520  T        1       0.00457074       0.00268355      -0.00325180
Si       9.64239920       3.14530285      18.72896520  T        1      -0.00457074       0.00268355      -0.00325180
F        7.67917964       1.91979491      20.81760135  T        0       0.00000000      -0.00000000       0.02854519
H        7.67917964       1.91979491      21.76980198  T        0       0.00000000       0.00000000       0.03719230
38
Lattice="11.518769465528859 0.0 0.0 0.0 7.679179643685906 0.0 0.0 0.0 30.7875" Properties=species:S:1:pos:R:3:move_mask:L:1:tags:I:1:forces:R:3 surface=Si100 species=HF site=hollow orientation=upright height_A=1.9 substrate_atoms=36 calculation_kind="Rigid evaluated approach scan; not NEB" energy=-191.57353196513554 pbc="T T F"
Si       0.00000000       0.00000000      12.00000000  F        6      -0.00084968      -0.00876018       0.22410719
Si       3.83958982       0.00000000      12.00000000  F        6       0.00084964      -0.00876018       0.22410718
Si       7.67917964       0.00000000      12.00000000  F        6       0.00000000       0.00502800       0.22726829
Si       0.00000000       3.83958982      12.00000000  F        6      -0.00084968       0.00876018       0.22410719
Si       3.83958982       3.83958982      12.00000000  F        6       0.00084964       0.00876018       0.22410718
Si       7.67917964       3.83958982      12.00000000  F        6       0.00000000      -0.00502800       0.22726829
Si       1.91979491       0.00000000      13.35750000  F        5       0.00000000      -0.00349952      -0.49308969
Si       5.75938473       0.00000000      13.35750000  F        5       0.01056113       0.02428349      -0.47427545
Si       9.59897455       0.00000000      13.35750000  F        5      -0.01056110       0.02428349      -0.47427546
Si       1.91979491       3.83958982      13.35750000  F        5       0.00000000       0.00349950      -0.49308971
Si       5.75938473       3.83958982      13.35750000  F        5       0.01056113      -0.02428351      -0.47427546
Si       9.59897455       3.83958982      13.35750000  F        5      -0.01056110      -0.02428351      -0.47427548
Si       1.91979491       1.91979491      14.71500000  F        4      -0.00000001      -0.00000000      -0.05121688
Si       5.75938473       1.91979491      14.71500000  F        4      -0.43212511      -0.00000000       0.15892731
Si       9.59897455       1.91979491      14.71500000  F        4       0.43212512      -0.00000000       0.15892731
Si       1.91979491       5.75938473      14.71500000  F        4      -0.00000001       0.00000002       0.54864218
Si       5.75938473       5.75938473      14.71500000  F        4       0.40312787       0.00000002       0.42926359
Si       9.59897455       5.75938473      14.71500000  F        4      -0.40312786       0.00000002       0.42926358
Si       0.03573423       1.91979491      16.09107608  T        3      -0.00279417      -0.00000000       0.00179929
Si       3.80385559       1.91979491      16.09107608  T        3       0.00279417      -0.00000000       0.00179929
Si       7.67917964       1.91979491      16.01359122  T        3       0.00000000      -0.00000000       0.00547931
Si      -0.03319412       5.75938473      16.09120649  T        3      -0.00324759      -0.00000000      -0.01681356
Si       3.87278394       5.75938473      16.09120650  T        3       0.00324759      -0.00000000      -0.01681356
Si       7.67917964       5.75938473      16.18092987  T        3       0.00000000      -0.00000000      -0.00689792
Si       0.01668181      -0.00359503      17.47982464  T        2      -0.01722490       0.00314282      -0.01455656
Si       3.82290800      -0.00359503      17.47982464  T        2       0.01722490       0.00314282      -0.01455656
Si       7.67917964       0.10942071      17.48882588  T        2       0.00000000      -0.00813140      -0.00085179
Si       0.01668181       3.84318485      17.47982464  T        2      -0.01722490      -0.00314282      -0.01455656
Si       3.82290800       3.84318485      17.47982464  T        2       0.01722490      -0.00314282      -0.01455656
Si       7.67917964       3.73016911      17.48882588  T        2       0.00000000       0.00813140      -0.00085179
Si       1.91979491      -0.69603835      18.73967599  T        1      -0.00000000      -0.01354390      -0.04962289
Si       5.71622490       0.69428987      18.72893945  T        1       0.00187857      -0.00360415      -0.00393343
Si       9.64213439       0.69428987      18.72893945  T        1      -0.00187857      -0.00360415      -0.00393343
Si       1.91979491       4.53562816      18.73967599  T        1      -0.00000000       0.01354390      -0.04962289
Si       5.71622490       3.14529995      18.72893945  T        1       0.00187857       0.00360415      -0.00393343
Si       9.64213439       3.14529995      18.72893945  T        1      -0.00187857       0.00360415      -0.00393343
F        7.67917964       1.91979491      20.81841566  T        0       0.00000000      -0.00000000       0.02435669
H        7.67917964       1.91979491      21.77054086  T        0       0.00000000       0.00000000       0.04050863
38
Lattice="11.518769465528859 0.0 0.0 0.0 7.679179643685906 0.0 0.0 0.0 30.7875" Properties=species:S:1:pos:R:3:move_mask:L:1:tags:I:1:forces:R:3 surface=Si100 species=HF site=hollow orientation=upright height_A=1.9 substrate_atoms=36 calculation_kind="Rigid evaluated approach scan; not NEB" energy=-191.57383620757744 pbc="T T F"
Si       0.00000000       0.00000000      12.00000000  F        6      -0.00086187      -0.00870257       0.22396180
Si       3.83958982       0.00000000      12.00000000  F        6       0.00086184      -0.00870257       0.22396179
Si       7.67917964       0.00000000      12.00000000  F        6       0.00000000       0.00504400       0.22729166
Si       0.00000000       3.83958982      12.00000000  F        6      -0.00086187       0.00870257       0.22396180
Si       3.83958982       3.83958982      12.00000000  F        6       0.00086184       0.00870257       0.22396179
Si       7.67917964       3.83958982      12.00000000  F        6       0.00000000      -0.00504400       0.22729166
Si       1.91979491       0.00000000      13.35750000  F        5       0.00000000      -0.00349436      -0.49330261
Si       5.75938473       0.00000000      13.35750000  F        5       0.01090638       0.02426108      -0.47443919
Si       9.59897455       0.00000000      13.35750000  F        5      -0.01090635       0.02426108      -0.47443921
Si       1.91979491       3.83958982      13.35750000  F        5       0.00000000       0.00349434      -0.49330262
Si       5.75938473       3.83958982      13.35750000  F        5       0.01090638      -0.02426110      -0.47443920
Si       9.59897455       3.83958982      13.35750000  F        5      -0.01090635      -0.02426110      -0.47443922
Si       1.91979491       1.91979491      14.71500000  F        4      -0.00000001      -0.00000000      -0.05243642
Si       5.75938473       1.91979491      14.71500000  F        4      -0.42955995      -0.00000000       0.15832964
Si       9.59897455       1.91979491      14.71500000  F        4       0.42955996      -0.00000000       0.15832964
Si       1.91979491       5.75938473      14.71500000  F        4      -0.00000001       0.00000002       0.54737268
Si       5.75938473       5.75938473      14.71500000  F        4       0.40536933       0.00000002       0.42612045
Si       9.59897455       5.75938473      14.71500000  F        4      -0.40536932       0.00000002       0.42612045
Si       0.03560042       1.91979491      16.09074137  T        3      -0.00204661      -0.00000000       0.00551079
Si       3.80398940       1.91979491      16.09074137  T        3       0.00204661      -0.00000000       0.00551079
Si       7.67917964       1.91979491      16.01390437  T        3       0.00000000      -0.00000000       0.00315669
Si      -0.03340626       5.75938473      16.09075586  T        3      -0.00137280      -0.00000000      -0.01568759
Si       3.87299607       5.75938473      16.09075586  T        3       0.00137280      -0.00000000      -0.01568759
Si       7.67917964       5.75938473      16.18068571  T        3       0.00000000      -0.00000000      -0.00608718
Si       0.01630849      -0.00389883      17.47939266  T        2      -0.01761550       0.00719107      -0.01446647
Si       3.82328133      -0.00389883      17.47939266  T        2       0.01761550       0.00719107      -0.01446647
Si       7.67917964       0.10907627      17.48881317  T        2       0.00000000      -0.00603661      -0.00088554
Si       0.01630849       3.84348865      17.47939266  T        2      -0.01761550      -0.00719107      -0.01446647
Si       3.82328133       3.84348865      17.47939266  T        2       0.01761550      -0.00719107      -0.01446647
Si       7.67917964       3.73051355      17.48881317  T        2       0.00000000       0.00603661      -0.00088554
Si       1.91979491      -0.69692199      18.73804637  T        1      -0.00000000      -0.00547271      -0.04654868
Si       5.71649981       0.69427104      18.72889012  T        1      -0.00056635      -0.00425375      -0.00438520
Si       9.64185947       0.69427104      18.72889012  T        1       0.00056635      -0.00425375      -0.00438520
Si       1.91979491       4.53651181      18.73804637  T        1      -0.00000000       0.00547271      -0.04654868
Si       5.71649981       3.14531878      18.72889012  T        1      -0.00056635       0.00425375      -0.00438520
Si       9.64185947       3.14531878      18.72889012  T        1       0.00056635       0.00425375      -0.00438520
F        7.67917964       1.91979491      20.81937297  T        0       0.00000000      -0.00000000       0.02561362
H        7.67917964       1.91979491      21.77152039  T        0       0.00000000       0.00000000       0.03804074
38
Lattice="11.518769465528859 0.0 0.0 0.0 7.679179643685906 0.0 0.0 0.0 30.7875" Properties=species:S:1:pos:R:3:move_mask:L:1:tags:I:1:forces:R:3 surface=Si100 species=HF site=hollow orientation=upright height_A=1.9 substrate_atoms=36 calculation_kind="Rigid evaluated approach scan; not NEB" energy=-191.57416738587824 pbc="T T F"
Si       0.00000000       0.00000000      12.00000000  F        6      -0.00088206      -0.00862485       0.22379399
Si       3.83958982       0.00000000      12.00000000  F        6       0.00088202      -0.00862485       0.22379397
Si       7.67917964       0.00000000      12.00000000  F        6       0.00000000       0.00507740       0.22732307
Si       0.00000000       3.83958982      12.00000000  F        6      -0.00088206       0.00862485       0.22379399
Si       3.83958982       3.83958982      12.00000000  F        6       0.00088202       0.00862485       0.22379397
Si       7.67917964       3.83958982      12.00000000  F        6       0.00000000      -0.00507740       0.22732307
Si       1.91979491       0.00000000      13.35750000  F        5       0.00000000      -0.00355030      -0.49352205
Si       5.75938473       0.00000000      13.35750000  F        5       0.01129032       0.02422013      -0.47465486
Si       9.59897455       0.00000000      13.35750000  F        5      -0.01129029       0.02422013      -0.47465488
Si       1.91979491       3.83958982      13.35750000  F        5       0.00000000       0.00355028      -0.49352207
Si       5.75938473       3.83958982      13.35750000  F        5       0.01129032      -0.02422015      -0.47465487
Si       9.59897455       3.83958982      13.35750000  F        5      -0.01129029      -0.02422015      -0.47465489
Si       1.91979491       1.91979491      14.71500000  F        4      -0.00000001      -0.00000000      -0.05307691
Si       5.75938473       1.91979491      14.71500000  F        4      -0.42699456      -0.00000000       0.15780098
Si       9.59897455       1.91979491      14.71500000  F        4       0.42699457      -0.00000000       0.15780097
Si       1.91979491       5.75938473      14.71500000  F        4      -0.00000001       0.00000002       0.54549770
Si       5.75938473       5.75938473      14.71500000  F        4       0.40803275       0.00000002       0.42231277
Si       9.59897455       5.75938473      14.71500000  F        4      -0.40803274       0.00000002       0.42231277
Si       0.03545204       1.91979491      16.09044835  T        3      -0.00134277      -0.00000000       0.00773305
Si       3.80413778       1.91979491      16.09044836  T        3       0.00134277      -0.00000000       0.00773305
Si       7.67917964       1.91979491      16.01423961  T        3       0.00000000      -0.00000000       0.00079416
Si      -0.03362773       5.75938473      16.09019154  T        3       0.00054198      -0.00000000      -0.01341171
Si       3.87321755       5.75938473      16.09019155  T        3      -0.00054198      -0.00000000      -0.01341171
Si       7.67917964       5.75938473      16.18039769  T        3       0.00000000      -0.00000000      -0.00510696
Si       0.01580704      -0.00414870      17.47885590  T        2      -0.01695492       0.01000934      -0.01435889
Si       3.82378278      -0.00414870      17.47885590  T        2       0.01695492       0.01000934      -0.01435889
Si       7.67917964       0.10868868      17.48879399  T        2       0.00000000      -0.00360262      -0.00082321
Si       0.01580704       3.84373852      17.47885590  T        2      -0.01695492      -0.01000934      -0.01435889
Si       3.82378278       3.84373852      17.47885590  T        2       0.01695492      -0.01000934      -0.01435889
Si       7.67917964       3.73090113      17.48879399  T        2       0.00000000       0.00360262      -0.00082321
Si       1.91979491      -0.69784270      18.73608047  T        1      -0.00000000       0.00296011      -0.04310154
Si       5.71676958       0.69422101      18.72880873  T        1      -0.00246677      -0.00445020      -0.00447090
Si       9.64158970       0.69422101      18.72880873  T        1       0.00246677      -0.00445020      -0.00447090
Si       1.91979491       4.53743252      18.73608047  T        1      -0.00000000      -0.00296011      -0.04310154
Si       5.71676958       3.14536881      18.72880873  T        1      -0.00246677       0.00445020      -0.00447090
Si       9.64158970       3.14536881      18.72880873  T        1       0.00246677       0.00445020      -0.00447090
F        7.67917964       1.91979491      20.82051510  T        0       0.00000000      -0.00000000       0.03192847
H        7.67917964       1.91979491      21.77277600  T        0       0.00000000       0.00000000       0.03010359
38
Lattice="11.518769465528859 0.0 0.0 0.0 7.679179643685906 0.0 0.0 0.0 30.7875" Properties=species:S:1:pos:R:3:move_mask:L:1:tags:I:1:forces:R:3 surface=Si100 species=HF site=hollow orientation=upright height_A=1.9 substrate_atoms=36 calculation_kind="Rigid evaluated approach scan; not NEB" energy=-191.5745263036013 pbc="T T F"
Si       0.00000000       0.00000000      12.00000000  F        6      -0.00091187      -0.00852444       0.22360525
Si       3.83958982       0.00000000      12.00000000  F        6       0.00091184      -0.00852444       0.22360524
Si       7.67917964       0.00000000      12.00000000  F        6       0.00000000       0.00513137       0.22736360
Si       0.00000000       3.83958982      12.00000000  F        6      -0.00091187       0.00852444       0.22360525
Si       3.83958982       3.83958982      12.00000000  F        6       0.00091184       0.00852444       0.22360524
Si       7.67917964       3.83958982      12.00000000  F        6       0.00000000      -0.00513137       0.22736360
Si       1.91979491       0.00000000      13.35750000  F        5       0.00000000      -0.00368982      -0.49374115
Si       5.75938473       0.00000000      13.35750000  F        5       0.01170423       0.02415801      -0.47493658
Si       9.59897455       0.00000000      13.35750000  F        5      -0.01170420       0.02415801      -0.47493660
Si       1.91979491       3.83958982      13.35750000  F        5       0.00000000       0.00368980      -0.49374116
Si       5.75938473       3.83958982      13.35750000  F        5       0.01170423      -0.02415803      -0.47493659
Si       9.59897455       3.83958982      13.35750000  F        5      -0.01170420      -0.02415803      -0.47493661
Si       1.91979491       1.91979491      14.71500000  F        4      -0.00000001      -0.00000000      -0.05291515
Si       5.75938473       1.91979491      14.71500000  F        4      -0.42458562      -0.00000000       0.15735292
Si       9.59897455       1.91979491      14.71500000  F        4       0.42458563      -0.00000000       0.15735292
Si       1.91979491       5.75938473      14.71500000  F        4      -0.00000001       0.00000002       0.54288627
Si       5.75938473       5.75938473      14.71500000  F        4       0.41106731       0.00000002       0.41784052
Si       9.59897455       5.75938473      14.71500000  F        4      -0.41106730       0.00000002       0.41784052
Si       0.03529204       1.91979491      16.09022519  T        3      -0.00075937      -0.00000000       0.00773554
Si       3.80429778       1.91979491      16.09022519  T        3       0.00075937      -0.00000000       0.00773554
Si       7.67917964       1.91979491      16.01458110  T        3       0.00000000      -0.00000000      -0.00142891
Si      -0.03384380       5.75938473      16.08950880  T        3       0.00231271      -0.00000000      -0.00981934
Si       3.87343361       5.75938473      16.08950880  T        3      -0.00231271      -0.00000000      -0.00981934
Si       7.67917964       5.75938473      16.18006476  T        3       0.00000000      -0.00000000      -0.00388724
Si       0.01515533      -0.00430850      17.47819218  T        2      -0.01494378       0.01104335      -0.01417374
Si       3.82443448      -0.00430850      17.47819218  T        2       0.01494378       0.01104335      -0.01417374
Si       7.67917964       0.10826989      17.48876750  T        2       0.00000000      -0.00090987      -0.00066550
Si       0.01515533       3.84389831      17.47819218  T        2      -0.01494378      -0.01104335      -0.01417374
Si       3.82443448       3.84389831      17.47819218  T        2       0.01494378      -0.01104335      -0.01417374
Si       7.67917964       3.73131993      17.48876750  T        2       0.00000000       0.00090987      -0.00066550
Si       1.91979491      -0.69873464      18.73373435  T        1      -0.00000000       0.01104820      -0.03921784
Si       5.71701663       0.69413135      18.72868760  T        1      -0.00351526      -0.00401820      -0.00407601
Si       9.64134266       0.69413135      18.72868760  T        1       0.00351526      -0.00401820      -0.00407601
Si       1.91979491       4.53832445      18.73373435  T        1      -0.00000000      -0.01104820      -0.03921784
Si       5.71701663       3.14545847      18.72868760  T        1      -0.00351526       0.00401820      -0.00407601
Si       9.64134266       3.14545847      18.72868760  T        1       0.00351526       0.00401820      -0.00407601
F        7.67917964       1.91979491      20.82193968  T        0       0.00000000      -0.00000000       0.03720709
H        7.67917964       1.91979491      21.77429746  T        0       0.00000000       0.00000000       0.02276488
38
Lattice="11.518769465528859 0.0 0.0 0.0 7.679179643685906 0.0 0.0 0.0 30.7875" Properties=species:S:1:pos:R:3:move_mask:L:1:tags:I:1:forces:R:3 surface=Si100 species=HF site=hollow orientation=upright height_A=1.9 substrate_atoms=36 calculation_kind="Rigid evaluated approach scan; not NEB" energy=-191.57491192149058 pbc="T T F"
Si       0.00000000       0.00000000      12.00000000  F        6      -0.00095197      -0.00840174       0.22339911
Si       3.83958982       0.00000000      12.00000000  F        6       0.00095193      -0.00840174       0.22339910
Si       7.67917964       0.00000000      12.00000000  F        6       0.00000000       0.00520519       0.22741320
Si       0.00000000       3.83958982      12.00000000  F        6      -0.00095197       0.00840174       0.22339911
Si       3.83958982       3.83958982      12.00000000  F        6       0.00095193       0.00840174       0.22339910
Si       7.67917964       3.83958982      12.00000000  F        6       0.00000000      -0.00520519       0.22741320
Si       1.91979491       0.00000000      13.35750000  F        5       0.00000000      -0.00392957      -0.49395790
Si       5.75938473       0.00000000      13.35750000  F        5       0.01213638       0.02407653      -0.47529856
Si       9.59897455       0.00000000      13.35750000  F        5      -0.01213635       0.02407653      -0.47529858
Si       1.91979491       3.83958982      13.35750000  F        5       0.00000000       0.00392955      -0.49395791
Si       5.75938473       3.83958982      13.35750000  F        5       0.01213638      -0.02407655      -0.47529857
Si       9.59897455       3.83958982      13.35750000  F        5      -0.01213635      -0.02407655      -0.47529859
Si       1.91979491       1.91979491      14.71500000  F        4      -0.00000001      -0.00000000      -0.05185402
Si       5.75938473       1.91979491      14.71500000  F        4      -0.42247807      -0.00000000       0.15693671
Si       9.59897455       1.91979491      14.71500000  F        4       0.42247808      -0.00000000       0.15693670
Si       1.91979491       5.75938473      14.71500000  F        4      -0.00000001       0.00000002       0.53946988
Si       5.75938473       5.75938473      14.71500000  F        4       0.41432784       0.00000002       0.41280447
Si       9.59897455       5.75938473      14.71500000  F        4      -0.41432783       0.00000002       0.41280447
Si       0.03512404       1.91979491      16.09008627  T        3      -0.00038681      -0.00000000       0.00497154
Si       3.80446578       1.91979491      16.09008627  T        3       0.00038681      -0.00000000       0.00497154
Si       7.67917964       1.91979491      16.01490658  T        3       0.00000000      -0.00000000      -0.00330496
Si      -0.03403445       5.75938473      16.08872056  T        3       0.00367325      -0.00000000      -0.00502521
Si       3.87362427       5.75938473      16.08872056  T        3      -0.00367325      -0.00000000      -0.00502521
Si       7.67917964       5.75938473      16.17969017  T        3       0.00000000      -0.00000000      -0.00233692
Si       0.01434250      -0.00434826      17.47737571  T        2      -0.01147332       0.00998147      -0.01379269
Si       3.82524731      -0.00434826      17.47737571  T        2       0.01147332       0.00998147      -0.01379269
Si       7.67917964       0.10784185      17.48873384  T        2       0.00000000       0.00186778      -0.00043767
Si       0.01434250       3.84393807      17.47737571  T        2      -0.01147332      -0.00998147      -0.01379269
Si       3.82524731       3.84393807      17.47737571  T        2       0.01147332      -0.00998147      -0.01379269
Si       7.67917964       3.73174797      17.48873384  T        2       0.00000000      -0.00186778      -0.00043767
Si       1.91979491      -0.69950538      18.73096634  T        1       0.00000000       0.01773368      -0.03474626
Si       5.71722517       0.69399823      18.72852243  T        1      -0.00350752      -0.00284719      -0.00314721
Si       9.64113411       0.69399823      18.72852243  T        1       0.00350752      -0.00284719      -0.00314721
Si       1.91979491       4.53909520      18.73096634  T        1       0.00000000      -0.01773368      -0.03474626
Si       5.71722517       3.14559159      18.72852243  T        1      -0.00350752       0.00284719      -0.00314721
Si       9.64113411       3.14559159      18.72852243  T        1       0.00350752       0.00284719      -0.00314721
F        7.67917964       1.91979491      20.82376572  T        0       0.00000000      -0.00000000       0.03355283
H        7.67917964       1.91979491      21.77606357  T        0       0.00000000       0.00000000       0.02391293
