40
Lattice="9.8418 0.0 0.0 -2.460449999999999 4.261624409482844 0.0 0.0 -0.0 34.16586254" Properties=species:S:1:pos:R:3:move_mask:L:1:spacegroup_kinds:I:1:tags:I:1:forces:R:3 spacegroup="P 32 2 1" unit_cell=conventional surface=alpha_quartz_001 species=HF site=bridge_Si_O orientation=parallel height_A=2.25 substrate_atoms=36 calculation_kind="Rigid evaluated approach scan; not NEB" energy=-282.84847370013966 pbc="T T F"
Si       2.31725181       0.00000000      12.00000000  F        0        2      -0.13314750      -0.36666561      -1.70088403
Si      -1.15862590       2.00679893      15.60606667  F        0        2      -0.12537563       0.06375793       1.23376591
Si       1.30182410       2.25482548      13.80303333  F        0        2       0.03278786      -0.16125891       1.02371488
O        1.38326499       1.13103512      12.65233746  F        1        2      -0.50565280       0.21459713      -0.22094419
O        0.28787265       1.76346018      14.95372921  F        1        2       0.44151564      -0.24572198      -0.38350595
O        3.24976236       0.63242506      16.25840413  F        1        2      -0.17264966      -0.53668886       0.05266648
O        0.78931236       3.62919935      13.15069587  F        1        2       0.42580945       0.28630125       0.53355006
O        2.74832265       2.49816423      14.45537079  F        1        2       0.01170346       0.38543560      -0.73530399
O       -1.07718501       3.13058929      16.75676254  F        1        2       0.05453178       0.33946691       0.18259812
Si       2.32351149       0.00144775      17.46265399  T        0        1      -0.00089600       0.00115154       0.00030424
Si      -1.22952765       1.77894540      21.11460102  T        0        1       0.00235329       0.00064603      -0.00418061
Si       1.28113406       2.23969817      19.31626488  T        0        1       0.00033747       0.00152884      -0.00303733
O        1.38369704       1.15646952      18.08681829  T        1        1      -0.00051687       0.00242785      -0.00372199
O        0.23294629       1.70026734      20.41727754  T        1        1      -0.00111739      -0.00170341      -0.00068172
O        3.11571046       0.26518213      21.61073677  T        1        1      -0.00155580      -0.00014679      -0.00051208
O        0.80453311       3.63419262      18.61671078  T        1        1      -0.00220878       0.00236701       0.00082643
O        2.72686010       2.47147039      20.02006015  T        1        1       0.00177693       0.00017525      -0.00138581
O       -1.26249119       2.36813910      22.64100390  T        1        1       0.00440341       0.00007057      -0.00122905
Si       7.23815181       0.00000000      12.00000000  F        0        2      -0.13320100      -0.36671038      -1.70085633
Si       3.76227409       2.00679893      15.60606667  F        0        2      -0.11915328       0.07006701       1.24778774
Si       6.22272410       2.25482548      13.80303333  F        0        2       0.03029242      -0.16029455       1.02724211
O        6.30416499       1.13103512      12.65233746  F        1        2      -0.50520483       0.21438763      -0.22123749
O        5.20877265       1.76346018      14.95372921  F        1        2       0.44163646      -0.24493595      -0.39021318
O        8.17066236       0.63242506      16.25840413  F        1        2      -0.21261626      -0.57695847       0.13374319
O        5.71021236       3.62919935      13.15069587  F        1        2       0.42567408       0.28702957       0.53282179
O        7.66922265       2.49816423      14.45537079  F        1        2       0.01369649       0.38593560      -0.73401263
O        3.84371499       3.13058929      16.75676254  F        1        2       0.01416533       0.34670537       0.15171323
Si       7.23248091       0.01094419      17.46277884  T        0        1      -0.00036468       0.00074931       0.00112980
Si       3.69353060       1.72166846      21.10856218  T        0        1       0.00203099       0.00146305      -0.00573056
Si       6.18461204       2.24565090      19.31574654  T        0        1       0.00094333       0.00167252      -0.00160973
O        6.29188794       1.17551244      18.07238642  T        1        1       0.00022271       0.00002714      -0.00034571
O        5.16219601       1.68219883      20.43212605  T        1        1      -0.00305340       0.00133868       0.00319543
O        8.05869166       0.34335325      21.67100202  T        1        1       0.00115860      -0.00026737      -0.00122050
O        5.68886260       3.64207120      18.63535476  T        1        1      -0.00013306       0.00143824      -0.00064795
O        7.63767255       2.48437795      20.00068578  T        1        1       0.00283944       0.00057364       0.00011075
O        3.60912384       2.23618782      22.64617220  T        1        1      -0.00192780       0.00085971      -0.00013946
F        4.32361269       1.27671095      24.73807397  T        0        0       0.01011017       0.00444713      -0.00849356
H        3.99605617       1.68164235      23.82640897  T        0        0       0.00501085      -0.00044958      -0.01220234
F        1.37722657       3.16986369      25.41689260  T        0        0      -0.00424322       0.02390985       0.00524588
H        1.56964717       4.08876763      25.07984194  T        0        0       0.00001781       0.02327148       0.00168017
