36
Lattice="9.8418 0.0 0.0 -2.460449999999999 4.261624409482844 0.0 0.0 -0.0 34.16586254" Properties=species:S:1:pos:R:3:move_mask:L:1:spacegroup_kinds:I:1:tags:I:1:forces:R:3 spacegroup="P 32 2 1" unit_cell=conventional energy=-265.304106624323 pbc="T T F"
Si       2.31725181       0.00000000      12.00000000  F        0        2      -0.13649157      -0.37989802      -1.75845993
Si      -1.15862590       2.00679893      15.60606667  F        0        2      -0.14269403       0.05752763       1.16918857
Si       1.30182410       2.25482548      13.80303333  F        0        2       0.03365952      -0.16390327       0.98673449
O        1.38326499       1.13103512      12.65233746  F        1        2      -0.52978608       0.24144030      -0.19587315
O        0.28787265       1.76346018      14.95372921  F        1        2       0.43595743      -0.25102752      -0.36263200
O        3.24976236       0.63242506      16.25840413  F        1        2       0.32131471      -0.09409926      -0.78723906
O        0.78931236       3.62919935      13.15069587  F        1        2       0.45451070       0.27117013       0.57270972
O        2.74832265       2.49816423      14.45537079  F        1        2       0.00844212       0.38365658      -0.73059487
O       -1.07718501       3.13058929      16.75676254  F        1        2      -0.43600604      -0.29499103      -0.45509614
Si       2.31725181       0.00000000      17.40910000  F        0        1       0.03135151       0.03049999       1.06444548
Si      -1.15862590       2.00679893      21.01516667  F        0        1       0.20544838       0.24346044      -0.24892525
Si       1.30182410       2.25482548      19.21213333  F        0        1      -0.04671737       0.03282568       0.51671959
O        1.38326499       1.13103512      18.06143746  F        1        1      -0.25708786      -0.13270469      -0.58762912
O        0.28787265       1.76346018      20.36282921  F        1        1       0.49053214      -0.17439019      -0.26449994
O        3.24976236       0.63242506      21.66750413  F        1        1      -0.36047522      -0.95065507       0.88300299
O        0.78931236       3.62919935      18.55979587  F        1        1       0.02140854       0.42052298      -0.24199233
O        2.74832265       2.49816423      19.86447079  F        1        1      -0.05603693       0.34620394      -0.75998076
O       -1.07718501       3.13058929      22.16586254  F        1        1      -0.03732994       0.41436138       1.20012171
Si       7.23815181       0.00000000      12.00000000  F        0        2      -0.13649157      -0.37989802      -1.75845993
Si       3.76227409       2.00679893      15.60606667  F        0        2      -0.14269403       0.05752763       1.16918857
Si       6.22272410       2.25482548      13.80303333  F        0        2       0.03365952      -0.16390327       0.98673449
O        6.30416499       1.13103512      12.65233746  F        1        2      -0.52978608       0.24144030      -0.19587315
O        5.20877265       1.76346018      14.95372921  F        1        2       0.43595743      -0.25102752      -0.36263200
O        8.17066236       0.63242506      16.25840413  F        1        2       0.32131471      -0.09409926      -0.78723906
O        5.71021236       3.62919935      13.15069587  F        1        2       0.45451070       0.27117013       0.57270972
O        7.66922265       2.49816423      14.45537079  F        1        2       0.00844212       0.38365658      -0.73059487
O        3.84371499       3.13058929      16.75676254  F        1        2      -0.43600604      -0.29499103      -0.45509614
Si       7.23815181       0.00000000      17.40910000  F        0        1       0.03135151       0.03049999       1.06444548
Si       3.76227409       2.00679893      21.01516667  F        0        1       0.20544838       0.24346044      -0.24892525
Si       6.22272410       2.25482548      19.21213333  F        0        1      -0.04671737       0.03282568       0.51671959
O        6.30416499       1.13103512      18.06143746  F        1        1      -0.25708786      -0.13270469      -0.58762912
O        5.20877265       1.76346018      20.36282921  F        1        1       0.49053214      -0.17439019      -0.26449994
O        8.17066236       0.63242506      21.66750413  F        1        1      -0.36047522      -0.95065507       0.88300299
O        5.71021236       3.62919935      18.55979587  F        1        1       0.02140854       0.42052298      -0.24199233
O        7.66922265       2.49816423      19.86447079  F        1        1      -0.05603693       0.34620394      -0.75998076
O        3.84371499       3.13058929      22.16586254  F        1        1      -0.03732994       0.41436138       1.20012171
