41
Lattice="11.518769465528859 0.0 0.0 0.0 7.679179643685906 0.0 0.0 0.0 30.7875" Properties=species:S:1:pos:R:3:move_mask:L:1:tags:I:1:forces:R:3 surface=Si100 species=SiF4 site=hollow orientation=upright height_A=6.5 substrate_atoms=36 calculation_kind="Rigid evaluated approach scan; not NEB" energy=-208.21619064940802 pbc="T T F"
Si       0.00000000       0.00000000      12.00000000  F        6      -0.00000004       0.00000000       0.24903484
Si       3.83958982       0.00000000      12.00000000  F        6      -0.00000000       0.00000000       0.24903482
Si       7.67917964       0.00000000      12.00000000  F        6       0.00000000       0.00000000       0.24903482
Si       0.00000000       3.83958982      12.00000000  F        6      -0.00000004      -0.00000000       0.24903484
Si       3.83958982       3.83958982      12.00000000  F        6      -0.00000000      -0.00000000       0.24903482
Si       7.67917964       3.83958982      12.00000000  F        6       0.00000000      -0.00000000       0.24903482
Si       1.91979491       0.00000000      13.35750000  F        5       0.00000000      -0.00000002      -0.52822352
Si       5.75938473       0.00000000      13.35750000  F        5       0.00000000      -0.00000002      -0.52822353
Si       9.59897455       0.00000000      13.35750000  F        5       0.00000003      -0.00000002      -0.52822354
Si       1.91979491       3.83958982      13.35750000  F        5       0.00000000       0.00000000      -0.52822354
Si       5.75938473       3.83958982      13.35750000  F        5       0.00000000       0.00000000      -0.52822354
Si       9.59897455       3.83958982      13.35750000  F        5       0.00000003       0.00000000      -0.52822356
Si       1.91979491       1.91979491      14.71500000  F        4      -0.00000000       0.00000000       0.14537709
Si       5.75938473       1.91979491      14.71500000  F        4       0.00000000       0.00000000       0.14537709
Si       9.59897455       1.91979491      14.71500000  F        4       0.00000004       0.00000000       0.14537711
Si       1.91979491       5.75938473      14.71500000  F        4      -0.00000000       0.00000002       0.14537707
Si       5.75938473       5.75938473      14.71500000  F        4       0.00000000       0.00000002       0.14537707
Si       9.59897455       5.75938473      14.71500000  F        4       0.00000004       0.00000002       0.14537709
Si       0.00000000       1.91979491      16.07250000  F        3      -0.00000004       0.00000000      -0.14537711
Si       3.83958982       1.91979491      16.07250000  F        3      -0.00000000       0.00000000      -0.14537709
Si       7.67917964       1.91979491      16.07250000  F        3       0.00000000       0.00000000      -0.14537709
Si       0.00000000       5.75938473      16.07250000  F        3      -0.00000004       0.00000002      -0.14537709
Si       3.83958982       5.75938473      16.07250000  F        3      -0.00000000       0.00000002      -0.14537707
Si       7.67917964       5.75938473      16.07250000  F        3       0.00000000       0.00000002      -0.14537707
Si       0.00000000       0.00000000      17.43000000  F        2      -0.00000003      -0.00000002       0.52822354
Si       3.83958982       0.00000000      17.43000000  F        2      -0.00000000      -0.00000002       0.52822353
Si       7.67917964       0.00000000      17.43000000  F        2      -0.00000000      -0.00000002       0.52822352
Si       0.00000000       3.83958982      17.43000000  F        2      -0.00000003       0.00000000       0.52822356
Si       3.83958982       3.83958982      17.43000000  F        2      -0.00000000       0.00000000       0.52822354
Si       7.67917964       3.83958982      17.43000000  F        2      -0.00000000       0.00000000       0.52822354
Si       1.91979491       0.00000000      18.78750000  F        1      -0.00000000       0.00000000      -0.24903482
Si       5.75938473       0.00000000      18.78750000  F        1       0.00000000       0.00000000      -0.24903482
Si       9.59897455       0.00000000      18.78750000  F        1       0.00000004       0.00000000      -0.24903484
Si       1.91979491       3.83958982      18.78750000  F        1      -0.00000000      -0.00000000      -0.24903482
Si       5.75938473       3.83958982      18.78750000  F        1       0.00000000      -0.00000000      -0.24903482
Si       9.59897455       3.83958982      18.78750000  F        1       0.00000004      -0.00000000      -0.24903484
Si       7.67917964       1.91979491      26.86950185  T        0       0.00000017       0.00000000      -0.00000004
F        7.67917964       1.91979491      25.28750000  T        0      -0.00000000      -0.00000000      -0.00049033
F        9.17070529       1.91979491      27.39683580  T        0       0.00046224       0.00000000       0.00016342
F        6.93341682       3.21149401      27.39683580  T        0      -0.00023120       0.00040043       0.00016348
F        6.93341682       0.62809581      27.39683580  T        0      -0.00023120      -0.00040043       0.00016348
41
Lattice="11.518769465528859 0.0 0.0 0.0 7.679179643685906 0.0 0.0 0.0 30.7875" Properties=species:S:1:pos:R:3:move_mask:L:1:tags:I:1:forces:R:3 surface=Si100 species=SiF4 site=hollow orientation=upright height_A=5.0 substrate_atoms=36 calculation_kind="Rigid evaluated approach scan; not NEB" energy=-208.21619064940802 pbc="T T F"
Si       0.00000000       0.00000000      12.00000000  F        6      -0.00000004       0.00000000       0.24903484
Si       3.83958982       0.00000000      12.00000000  F        6      -0.00000000       0.00000000       0.24903482
Si       7.67917964       0.00000000      12.00000000  F        6       0.00000000       0.00000000       0.24903482
Si       0.00000000       3.83958982      12.00000000  F        6      -0.00000004      -0.00000000       0.24903484
Si       3.83958982       3.83958982      12.00000000  F        6      -0.00000000      -0.00000000       0.24903482
Si       7.67917964       3.83958982      12.00000000  F        6       0.00000000      -0.00000000       0.24903482
Si       1.91979491       0.00000000      13.35750000  F        5       0.00000000      -0.00000002      -0.52822352
Si       5.75938473       0.00000000      13.35750000  F        5       0.00000000      -0.00000002      -0.52822353
Si       9.59897455       0.00000000      13.35750000  F        5       0.00000003      -0.00000002      -0.52822354
Si       1.91979491       3.83958982      13.35750000  F        5       0.00000000       0.00000000      -0.52822354
Si       5.75938473       3.83958982      13.35750000  F        5       0.00000000       0.00000000      -0.52822354
Si       9.59897455       3.83958982      13.35750000  F        5       0.00000003       0.00000000      -0.52822356
Si       1.91979491       1.91979491      14.71500000  F        4      -0.00000000       0.00000000       0.14537709
Si       5.75938473       1.91979491      14.71500000  F        4       0.00000000       0.00000000       0.14537709
Si       9.59897455       1.91979491      14.71500000  F        4       0.00000004       0.00000000       0.14537711
Si       1.91979491       5.75938473      14.71500000  F        4      -0.00000000       0.00000002       0.14537707
Si       5.75938473       5.75938473      14.71500000  F        4       0.00000000       0.00000002       0.14537707
Si       9.59897455       5.75938473      14.71500000  F        4       0.00000004       0.00000002       0.14537709
Si       0.00000000       1.91979491      16.07250000  F        3      -0.00000004       0.00000000      -0.14537711
Si       3.83958982       1.91979491      16.07250000  F        3      -0.00000000       0.00000000      -0.14537709
Si       7.67917964       1.91979491      16.07250000  F        3       0.00000000       0.00000000      -0.14537709
Si       0.00000000       5.75938473      16.07250000  F        3      -0.00000004       0.00000002      -0.14537709
Si       3.83958982       5.75938473      16.07250000  F        3      -0.00000000       0.00000002      -0.14537707
Si       7.67917964       5.75938473      16.07250000  F        3       0.00000000       0.00000002      -0.14537707
Si       0.00000000       0.00000000      17.43000000  F        2      -0.00000003      -0.00000002       0.52822354
Si       3.83958982       0.00000000      17.43000000  F        2      -0.00000000      -0.00000002       0.52822353
Si       7.67917964       0.00000000      17.43000000  F        2      -0.00000000      -0.00000002       0.52822352
Si       0.00000000       3.83958982      17.43000000  F        2      -0.00000003       0.00000000       0.52822356
Si       3.83958982       3.83958982      17.43000000  F        2      -0.00000000       0.00000000       0.52822354
Si       7.67917964       3.83958982      17.43000000  F        2      -0.00000000       0.00000000       0.52822354
Si       1.91979491       0.00000000      18.78750000  F        1      -0.00000000       0.00000000      -0.24903482
Si       5.75938473       0.00000000      18.78750000  F        1       0.00000000       0.00000000      -0.24903482
Si       9.59897455       0.00000000      18.78750000  F        1       0.00000004       0.00000000      -0.24903484
Si       1.91979491       3.83958982      18.78750000  F        1      -0.00000000      -0.00000000      -0.24903482
Si       5.75938473       3.83958982      18.78750000  F        1       0.00000000      -0.00000000      -0.24903482
Si       9.59897455       3.83958982      18.78750000  F        1       0.00000004      -0.00000000      -0.24903484
Si       7.67917964       1.91979491      25.36950185  T        0       0.00000017       0.00000000      -0.00000004
F        7.67917964       1.91979491      23.78750000  T        0      -0.00000000      -0.00000000      -0.00049033
F        9.17070529       1.91979491      25.89683580  T        0       0.00046224       0.00000000       0.00016342
F        6.93341682       3.21149401      25.89683580  T        0      -0.00023120       0.00040043       0.00016348
F        6.93341682       0.62809581      25.89683580  T        0      -0.00023120      -0.00040043       0.00016348
41
Lattice="11.518769465528859 0.0 0.0 0.0 7.679179643685906 0.0 0.0 0.0 30.7875" Properties=species:S:1:pos:R:3:move_mask:L:1:tags:I:1:forces:R:3 surface=Si100 species=SiF4 site=hollow orientation=upright height_A=4.0 substrate_atoms=36 calculation_kind="Rigid evaluated approach scan; not NEB" energy=-208.22053053792732 pbc="T T F"
Si       0.00000000       0.00000000      12.00000000  F        6       0.00001194      -0.00000055       0.24905929
Si       3.83958982       0.00000000      12.00000000  F        6      -0.00001198      -0.00000055       0.24905927
Si       7.67917964       0.00000000      12.00000000  F        6       0.00000000       0.00000077       0.24906740
Si       0.00000000       3.83958982      12.00000000  F        6       0.00001194       0.00000055       0.24905929
Si       3.83958982       3.83958982      12.00000000  F        6      -0.00001198       0.00000055       0.24905927
Si       7.67917964       3.83958982      12.00000000  F        6       0.00000000      -0.00000077       0.24906740
Si       1.91979491       0.00000000      13.35750000  F        5       0.00000000      -0.00000567      -0.52811784
Si       5.75938473       0.00000000      13.35750000  F        5       0.00000325       0.00000889      -0.52817185
Si       9.59897455       0.00000000      13.35750000  F        5      -0.00000322       0.00000889      -0.52817187
Si       1.91979491       3.83958982      13.35750000  F        5       0.00000000       0.00000565      -0.52811786
Si       5.75938473       3.83958982      13.35750000  F        5       0.00000325      -0.00000892      -0.52817187
Si       9.59897455       3.83958982      13.35750000  F        5      -0.00000322      -0.00000892      -0.52817189
Si       1.91979491       1.91979491      14.71500000  F        4      -0.00000000       0.00000000       0.14549395
Si       5.75938473       1.91979491      14.71500000  F        4       0.00015502       0.00000000       0.14541463
Si       9.59897455       1.91979491      14.71500000  F        4      -0.00015499       0.00000000       0.14541401
Si       1.91979491       5.75938473      14.71500000  F        4      -0.00000000       0.00000002       0.14542688
Si       5.75938473       5.75938473      14.71500000  F        4       0.00017647       0.00000002       0.14535285
Si       9.59897455       5.75938473      14.71500000  F        4      -0.00017643       0.00000002       0.14535222
Si       0.00000000       1.91979491      16.07250000  F        3       0.00003552       0.00000000      -0.14525416
Si       3.83958982       1.91979491      16.07250000  F        3      -0.00003556       0.00000000      -0.14525361
Si       7.67917964       1.91979491      16.07250000  F        3       0.00000001       0.00000000      -0.14575495
Si       0.00000000       5.75938473      16.07250000  F        3      -0.00015663       0.00000002      -0.14493171
Si       3.83958982       5.75938473      16.07250000  F        3       0.00015659       0.00000002      -0.14493116
Si       7.67917964       5.75938473      16.07250000  F        3       0.00000001       0.00000002      -0.14496840
Si       0.00000000       0.00000000      17.43000000  F        2       0.00015046       0.00041902       0.52834788
Si       3.83958982       0.00000000      17.43000000  F        2      -0.00015234       0.00041902       0.52834627
Si       7.67917964       0.00000000      17.43000000  F        2       0.00000185      -0.00035092       0.52850209
Si       0.00000000       3.83958982      17.43000000  F        2       0.00015046      -0.00041904       0.52834789
Si       3.83958982       3.83958982      17.43000000  F        2      -0.00015234      -0.00041904       0.52834629
Si       7.67917964       3.83958982      17.43000000  F        2       0.00000185       0.00035090       0.52850210
Si       1.91979491       0.00000000      18.78750000  F        1      -0.00000025      -0.00002913      -0.24907529
Si       5.75938473       0.00000000      18.78750000  F        1       0.00808849       0.00688727      -0.23426519
Si       9.59897455       0.00000000      18.78750000  F        1      -0.00801112       0.00682724      -0.23442867
Si       1.91979491       3.83958982      18.78750000  F        1      -0.00000025       0.00002913      -0.24907529
Si       5.75938473       3.83958982      18.78750000  F        1       0.00808849      -0.00688727      -0.23426519
Si       9.59897455       3.83958982      18.78750000  F        1      -0.00801112      -0.00682724      -0.23442867
Si       7.67917964       1.91979491      24.36950185  T        0       0.00000017      -0.00000000      -0.01878681
F        7.67917964       1.91979491      22.78750000  T        0      -0.00015417       0.00000000      -0.05417026
F        9.17070529       1.91979491      24.89683580  T        0       0.00309599       0.00000000       0.00376449
F        6.93341682       3.21149401      24.89683580  T        0      -0.00154807       0.00268133       0.00376454
F        6.93341682       0.62809581      24.89683580  T        0      -0.00154807      -0.00268133       0.00376454
41
Lattice="11.518769465528859 0.0 0.0 0.0 7.679179643685906 0.0 0.0 0.0 30.7875" Properties=species:S:1:pos:R:3:move_mask:L:1:tags:I:1:forces:R:3 surface=Si100 species=SiF4 site=hollow orientation=upright height_A=3.25 substrate_atoms=36 calculation_kind="Rigid evaluated approach scan; not NEB" energy=-208.3681639564736 pbc="T T F"
Si       0.00000000       0.00000000      12.00000000  F        6       0.00035529      -0.00002710       0.24953542
Si       3.83958982       0.00000000      12.00000000  F        6      -0.00035533      -0.00002710       0.24953540
Si       7.67917964       0.00000000      12.00000000  F        6       0.00000000       0.00001512       0.24969923
Si       0.00000000       3.83958982      12.00000000  F        6       0.00035529       0.00002710       0.24953542
Si       3.83958982       3.83958982      12.00000000  F        6      -0.00035533       0.00002710       0.24953540
Si       7.67917964       3.83958982      12.00000000  F        6       0.00000000      -0.00001512       0.24969923
Si       1.91979491       0.00000000      13.35750000  F        5       0.00000000      -0.00005560      -0.52566932
Si       5.75938473       0.00000000      13.35750000  F        5       0.00012121       0.00016668      -0.52651750
Si       9.59897455       0.00000000      13.35750000  F        5      -0.00012118       0.00016668      -0.52651752
Si       1.91979491       3.83958982      13.35750000  F        5       0.00000000       0.00005558      -0.52566933
Si       5.75938473       3.83958982      13.35750000  F        5       0.00012121      -0.00016670      -0.52651751
Si       9.59897455       3.83958982      13.35750000  F        5      -0.00012118      -0.00016670      -0.52651753
Si       1.91979491       1.91979491      14.71500000  F        4      -0.00000000       0.00000000       0.15004541
Si       5.75938473       1.91979491      14.71500000  F        4       0.00472967      -0.00000000       0.15027706
Si       9.59897455       1.91979491      14.71500000  F        4      -0.00473005      -0.00000000       0.15028147
Si       1.91979491       5.75938473      14.71500000  F        4      -0.00000000       0.00000002       0.14839621
Si       5.75938473       5.75938473      14.71500000  F        4       0.00516846       0.00000002       0.15002349
Si       9.59897455       5.75938473      14.71500000  F        4      -0.00516992       0.00000002       0.15001885
Si       0.00000000       1.91979491      16.07250000  F        3       0.00220344       0.00000000      -0.14376157
Si       3.83958982       1.91979491      16.07250000  F        3      -0.00220375       0.00000000      -0.14374697
Si       7.67917964       1.91979491      16.07250000  F        3       0.00000016       0.00000000      -0.16005841
Si       0.00000000       5.75938473      16.07250000  F        3      -0.00811809       0.00000002      -0.12882845
Si       3.83958982       5.75938473      16.07250000  F        3       0.00811782       0.00000002      -0.12881497
Si       7.67917964       5.75938473      16.07250000  F        3      -0.00000128       0.00000002      -0.13888230
Si       0.00000000       0.00000000      17.43000000  F        2       0.00403407       0.00721157       0.52241870
Si       3.83958982       0.00000000      17.43000000  F        2      -0.00407423       0.00720721       0.52238325
Si       7.67917964       0.00000000      17.43000000  F        2       0.00004998      -0.01123494       0.51732584
Si       0.00000000       3.83958982      17.43000000  F        2       0.00403407      -0.00721159       0.52241872
Si       3.83958982       3.83958982      17.43000000  F        2      -0.00407423      -0.00720723       0.52238327
Si       7.67917964       3.83958982      17.43000000  F        2       0.00004998       0.01123492       0.51732586
Si       1.91979491       0.00000000      18.78750000  F        1      -0.00000631      -0.00134922      -0.24764094
Si       5.75938473       0.00000000      18.78750000  F        1       0.05381824       0.03313774      -0.18382496
Si       9.59897455       0.00000000      18.78750000  F        1      -0.05409517       0.03356036      -0.18343383
Si       1.91979491       3.83958982      18.78750000  F        1      -0.00000631       0.00134921      -0.24764094
Si       5.75938473       3.83958982      18.78750000  F        1       0.05381824      -0.03313774      -0.18382496
Si       9.59897455       3.83958982      18.78750000  F        1      -0.05409517      -0.03356036      -0.18343383
Si       7.67917964       1.91979491      23.61950185  T        0       0.00000016      -0.00000000      -0.29687893
F        7.67917964       1.91979491      22.03750000  T        0       0.00055035       0.00000000      -0.17558921
F        9.17070529       1.91979491      24.14683580  T        0       0.03963894       0.00000000       0.06097689
F        6.93341682       3.21149401      24.14683580  T        0      -0.01981955       0.03432844       0.06097693
F        6.93341682       0.62809581      24.14683580  T        0      -0.01981955      -0.03432844       0.06097693
41
Lattice="11.518769465528859 0.0 0.0 0.0 7.679179643685906 0.0 0.0 0.0 30.7875" Properties=species:S:1:pos:R:3:move_mask:L:1:tags:I:1:forces:R:3 surface=Si100 species=SiF4 site=hollow orientation=upright height_A=2.75 substrate_atoms=36 calculation_kind="Rigid evaluated approach scan; not NEB" energy=-208.50180302809846 pbc="T T F"
Si       0.00000000       0.00000000      12.00000000  F        6       0.00049156      -0.00001763       0.24934949
Si       3.83958982       0.00000000      12.00000000  F        6      -0.00049160      -0.00001763       0.24934947
Si       7.67917964       0.00000000      12.00000000  F        6       0.00000000       0.00003632       0.24948325
Si       0.00000000       3.83958982      12.00000000  F        6       0.00049156       0.00001763       0.24934949
Si       3.83958982       3.83958982      12.00000000  F        6      -0.00049160       0.00001763       0.24934947
Si       7.67917964       3.83958982      12.00000000  F        6       0.00000000      -0.00003632       0.24948325
Si       1.91979491       0.00000000      13.35750000  F        5       0.00000000       0.00006679      -0.52463824
Si       5.75938473       0.00000000      13.35750000  F        5      -0.00036891       0.00069852      -0.52592008
Si       9.59897455       0.00000000      13.35750000  F        5       0.00036894       0.00069852      -0.52592010
Si       1.91979491       3.83958982      13.35750000  F        5       0.00000000      -0.00006681      -0.52463826
Si       5.75938473       3.83958982      13.35750000  F        5      -0.00036891      -0.00069855      -0.52592010
Si       9.59897455       3.83958982      13.35750000  F        5       0.00036894      -0.00069855      -0.52592011
Si       1.91979491       1.91979491      14.71500000  F        4      -0.00000000       0.00000000       0.15192299
Si       5.75938473       1.91979491      14.71500000  F        4       0.00962344      -0.00000000       0.15774999
Si       9.59897455       1.91979491      14.71500000  F        4      -0.00962482      -0.00000000       0.15784373
Si       1.91979491       5.75938473      14.71500000  F        4      -0.00000000       0.00000002       0.15011806
Si       5.75938473       5.75938473      14.71500000  F        4       0.00582826       0.00000002       0.16005725
Si       9.59897455       5.75938473      14.71500000  F        4      -0.00583227       0.00000002       0.16012103
Si       0.00000000       1.91979491      16.07250000  F        3       0.00120286      -0.00000000      -0.14293688
Si       3.83958982       1.91979491      16.07250000  F        3      -0.00122482      -0.00000000      -0.14291755
Si       7.67917964       1.91979491      16.07250000  F        3       0.00002117      -0.00000000      -0.16432605
Si       0.00000000       5.75938473      16.07250000  F        3      -0.01385860       0.00000002      -0.11878737
Si       3.83958982       5.75938473      16.07250000  F        3       0.01384367       0.00000002      -0.11876023
Si       7.67917964       5.75938473      16.07250000  F        3       0.00001121       0.00000002      -0.14617173
Si       0.00000000       0.00000000      17.43000000  F        2      -0.00033445      -0.00347807       0.51281725
Si       3.83958982       0.00000000      17.43000000  F        2       0.00037532      -0.00350689       0.51283763
Si       7.67917964       0.00000000      17.43000000  F        2      -0.00003043       0.00733501       0.51700087
Si       0.00000000       3.83958982      17.43000000  F        2      -0.00033445       0.00347805       0.51281726
Si       3.83958982       3.83958982      17.43000000  F        2       0.00037532       0.00350687       0.51283764
Si       7.67917964       3.83958982      17.43000000  F        2      -0.00003043      -0.00733503       0.51700089
Si       1.91979491       0.00000000      18.78750000  F        1      -0.00000186      -0.00422633      -0.24672093
Si       5.75938473       0.00000000      18.78750000  F        1       0.02368489       0.02036350      -0.21328667
Si       9.59897455       0.00000000      18.78750000  F        1      -0.02393198       0.02017109      -0.21303183
Si       1.91979491       3.83958982      18.78750000  F        1      -0.00000186       0.00422633      -0.24672093
Si       5.75938473       3.83958982      18.78750000  F        1       0.02368489      -0.02036350      -0.21328667
Si       9.59897455       3.83958982      18.78750000  F        1      -0.02393198      -0.02017109      -0.21303183
Si       7.67917964       1.91979491      23.11950185  T        0      -0.00077330      -0.00000000      -0.23390776
F        7.67917964       1.91979491      21.53750000  T        0      -0.00011665       0.00000000      -0.12072492
F        9.17070529       1.91979491      23.64683580  T        0       0.03537882       0.00000000       0.05688685
F        6.93341682       3.21149401      23.64683580  T        0      -0.01700097       0.02894051       0.05559619
F        6.93341682       0.62809581      23.64683580  T        0      -0.01700097      -0.02894051       0.05559619
41
Lattice="11.518769465528859 0.0 0.0 0.0 7.679179643685906 0.0 0.0 0.0 30.7875" Properties=species:S:1:pos:R:3:move_mask:L:1:tags:I:1:forces:R:3 surface=Si100 species=SiF4 site=hollow orientation=upright height_A=2.25 substrate_atoms=36 calculation_kind="Rigid evaluated approach scan; not NEB" energy=-208.5632277736931 pbc="T T F"
Si       0.00000000       0.00000000      12.00000000  F        6       0.00040629      -0.00003591       0.24961985
Si       3.83958982       0.00000000      12.00000000  F        6      -0.00042398      -0.00003634       0.24980524
Si       7.67917964       0.00000000      12.00000000  F        6       0.00001776       0.00008202       0.24959937
Si       0.00000000       3.83958982      12.00000000  F        6       0.00040629       0.00003591       0.24961985
Si       3.83958982       3.83958982      12.00000000  F        6      -0.00042398       0.00003634       0.24980524
Si       7.67917964       3.83958982      12.00000000  F        6       0.00001776      -0.00008202       0.24959937
Si       1.91979491       0.00000000      13.35750000  F        5       0.00030017       0.00036126      -0.52463309
Si       5.75938473       0.00000000      13.35750000  F        5       0.00002535       0.00052992      -0.52334433
Si       9.59897455       0.00000000      13.35750000  F        5      -0.00032414       0.00050146      -0.52372521
Si       1.91979491       3.83958982      13.35750000  F        5       0.00030017      -0.00036129      -0.52463310
Si       5.75938473       3.83958982      13.35750000  F        5       0.00002535      -0.00052994      -0.52334434
Si       9.59897455       3.83958982      13.35750000  F        5      -0.00032414      -0.00050148      -0.52372522
Si       1.91979491       1.91979491      14.71500000  F        4       0.00062542      -0.00000000       0.15473960
Si       5.75938473       1.91979491      14.71500000  F        4       0.01507363       0.00000000       0.15990106
Si       9.59897455       1.91979491      14.71500000  F        4      -0.01520625      -0.00000000       0.16507827
Si       1.91979491       5.75938473      14.71500000  F        4       0.00048037       0.00000002       0.15302677
Si       5.75938473       5.75938473      14.71500000  F        4       0.01484878       0.00000002       0.16851696
Si       9.59897455       5.75938473      14.71500000  F        4      -0.01478410       0.00000002       0.17317037
Si       0.00000000       1.91979491      16.07250000  F        3      -0.00598183      -0.00000000      -0.13443733
Si       3.83958982       1.91979491      16.07250000  F        3       0.00560453      -0.00000000      -0.13094471
Si       7.67917964       1.91979491      16.07250000  F        3       0.00208132      -0.00000000      -0.17025194
Si       0.00000000       5.75938473      16.07250000  F        3      -0.00847756       0.00000002      -0.12173120
Si       3.83958982       5.75938473      16.07250000  F        3       0.00827826       0.00000002      -0.11811382
Si       7.67917964       5.75938473      16.07250000  F        3       0.00147225       0.00000002      -0.13258969
Si       0.00000000       0.00000000      17.43000000  F        2      -0.01062736      -0.02212619       0.51087102
Si       3.83958982       0.00000000      17.43000000  F        2       0.00913914      -0.02114631       0.51327042
Si       7.67917964       0.00000000      17.43000000  F        2      -0.00698494       0.01724378       0.53306912
Si       0.00000000       3.83958982      17.43000000  F        2      -0.01062736       0.02212616       0.51087103
Si       3.83958982       3.83958982      17.43000000  F        2       0.00913914       0.02114629       0.51327043
Si       7.67917964       3.83958982      17.43000000  F        2      -0.00698494      -0.01724380       0.53306914
Si       1.91979491       0.00000000      18.78750000  F        1       0.00257555      -0.00743466      -0.25031519
Si       5.75938473       0.00000000      18.78750000  F        1      -0.03257384      -0.02898160      -0.25362574
Si       9.59897455       0.00000000      18.78750000  F        1       0.05790425      -0.02012743      -0.28951793
Si       1.91979491       3.83958982      18.78750000  F        1       0.00257555       0.00743466      -0.25031519
Si       5.75938473       3.83958982      18.78750000  F        1      -0.03257384       0.02898160      -0.25362574
Si       9.59897455       3.83958982      18.78750000  F        1       0.05790425       0.02012743      -0.28951793
Si       7.67917964       1.91979491      22.61950185  T        0      -0.01601603      -0.00000000       0.06685299
F        7.67917964       1.91979491      21.03750000  T        0       0.00218327       0.00000000       0.03350314
F        9.17070529       1.91979491      23.14683580  T        0       0.04590401       0.00000000      -0.04598734
F        6.93341682       3.21149401      23.14683580  T        0      -0.03747729       0.03719379      -0.05144009
F        6.93341682       0.62809581      23.14683580  T        0      -0.03747729      -0.03719379      -0.05144009
41
Lattice="11.518769465528859 0.0 0.0 0.0 7.679179643685906 0.0 0.0 0.0 30.7875" Properties=species:S:1:pos:R:3:move_mask:L:1:tags:I:1:forces:R:3 surface=Si100 species=SiF4 site=hollow orientation=upright height_A=1.9 substrate_atoms=36 calculation_kind="Rigid evaluated approach scan; not NEB" energy=-208.55872812819464 pbc="T T F"
Si       0.00000000       0.00000000      12.00000000  F        6       0.00042436      -0.00013767       0.25050637
Si       3.83958982       0.00000000      12.00000000  F        6      -0.00061999      -0.00013917       0.25063459
Si       7.67917964       0.00000000      12.00000000  F        6       0.00019627      -0.00091019       0.24865214
Si       0.00000000       3.83958982      12.00000000  F        6       0.00042436       0.00013767       0.25050637
Si       3.83958982       3.83958982      12.00000000  F        6      -0.00061999       0.00013917       0.25063459
Si       7.67917964       3.83958982      12.00000000  F        6       0.00019627       0.00091019       0.24865214
Si       1.91979491       0.00000000      13.35750000  F        5       0.00037577       0.00062632      -0.52503721
Si       5.75938473       0.00000000      13.35750000  F        5       0.00099193       0.00018031      -0.51977925
Si       9.59897455       0.00000000      13.35750000  F        5      -0.00137038       0.00028128      -0.51988604
Si       1.91979491       3.83958982      13.35750000  F        5       0.00037577      -0.00062634      -0.52503722
Si       5.75938473       3.83958982      13.35750000  F        5       0.00099193      -0.00018034      -0.51977926
Si       9.59897455       3.83958982      13.35750000  F        5      -0.00137038      -0.00028131      -0.51988605
Si       1.91979491       1.91979491      14.71500000  F        4       0.00027779      -0.00000000       0.15996452
Si       5.75938473       1.91979491      14.71500000  F        4       0.02252282      -0.00000000       0.17036506
Si       9.59897455       1.91979491      14.71500000  F        4      -0.02218895      -0.00000000       0.17542594
Si       1.91979491       5.75938473      14.71500000  F        4       0.00053079       0.00000002       0.15830180
Si       5.75938473       5.75938473      14.71500000  F        4       0.02691165       0.00000002       0.17993101
Si       9.59897455       5.75938473      14.71500000  F        4      -0.02681994       0.00000002       0.18176887
Si       0.00000000       1.91979491      16.07250000  F        3      -0.00946635      -0.00000000      -0.12744376
Si       3.83958982       1.91979491      16.07250000  F        3       0.01148485      -0.00000000      -0.12183395
Si       7.67917964       1.91979491      16.07250000  F        3       0.00215372      -0.00000000      -0.20189901
Si       0.00000000       5.75938473      16.07250000  F        3      -0.00291823       0.00000002      -0.12381733
Si       3.83958982       5.75938473      16.07250000  F        3       0.00497364       0.00000002      -0.12092010
Si       7.67917964       5.75938473      16.07250000  F        3       0.00198092       0.00000002      -0.11102466
Si       0.00000000       0.00000000      17.43000000  F        2      -0.00812117      -0.03436478       0.49904503
Si       3.83958982       0.00000000      17.43000000  F        2       0.00271710      -0.03577423       0.49787334
Si       7.67917964       0.00000000      17.43000000  F        2      -0.00655706      -0.01251055       0.49143350
Si       0.00000000       3.83958982      17.43000000  F        2      -0.00812117       0.03436476       0.49904505
Si       3.83958982       3.83958982      17.43000000  F        2       0.00271710       0.03577421       0.49787335
Si       7.67917964       3.83958982      17.43000000  F        2      -0.00655706       0.01251053       0.49143351
Si       1.91979491       0.00000000      18.78750000  F        1       0.00287522      -0.00975576      -0.24604803
Si       5.75938473       0.00000000      18.78750000  F        1      -0.03803100      -0.04201662      -0.29711862
Si       9.59897455       0.00000000      18.78750000  F        1       0.04703078      -0.00997792      -0.25916536
Si       1.91979491       3.83958982      18.78750000  F        1       0.00287522       0.00975576      -0.24604803
Si       5.75938473       3.83958982      18.78750000  F        1      -0.03803100       0.04201662      -0.29711862
Si       9.59897455       3.83958982      18.78750000  F        1       0.04703078       0.00997792      -0.25916536
Si       7.67917964       1.91979491      22.26950185  T        0       0.02546680      -0.00000000       0.12439551
F        7.67917964       1.91979491      20.68750000  T        0      -0.00466493       0.00000000       0.13993522
F        9.17070529       1.91979491      22.79683580  T        0       0.06734070       0.00000000      -0.14056825
F        6.93341682       3.21149401      22.79683580  T        0      -0.04870446       0.06569175      -0.04240091
F        6.93341682       0.62809581      22.79683580  T        0      -0.04870446      -0.06569175      -0.04240091
41
Lattice="11.518769465528859 0.0 0.0 0.0 7.679179643685906 0.0 0.0 0.0 30.7875" Properties=species:S:1:pos:R:3:move_mask:L:1:tags:I:1:forces:R:3 surface=Si100 species=SiF4 site=hollow orientation=upright height_A=1.6 substrate_atoms=36 calculation_kind="Rigid evaluated approach scan; not NEB" energy=-208.54859859780692 pbc="T T F"
Si       0.00000000       0.00000000      12.00000000  F        6       0.00068316      -0.00021499       0.25059603
Si       3.83958982       0.00000000      12.00000000  F        6      -0.00102449      -0.00021504       0.25042167
Si       7.67917964       0.00000000      12.00000000  F        6       0.00034280      -0.00249599       0.24629916
Si       0.00000000       3.83958982      12.00000000  F        6       0.00068316       0.00021499       0.25059603
Si       3.83958982       3.83958982      12.00000000  F        6      -0.00102449       0.00021504       0.25042167
Si       7.67917964       3.83958982      12.00000000  F        6       0.00034280       0.00249599       0.24629916
Si       1.91979491       0.00000000      13.35750000  F        5       0.00023850       0.00095522      -0.52471321
Si       5.75938473       0.00000000      13.35750000  F        5       0.00238362       0.00066712      -0.51531001
Si       9.59897455       0.00000000      13.35750000  F        5      -0.00262839       0.00086199      -0.51364719
Si       1.91979491       3.83958982      13.35750000  F        5       0.00023850      -0.00095524      -0.52471323
Si       5.75938473       3.83958982      13.35750000  F        5       0.00238362      -0.00066714      -0.51531002
Si       9.59897455       3.83958982      13.35750000  F        5      -0.00262839      -0.00086201      -0.51364721
Si       1.91979491       1.91979491      14.71500000  F        4      -0.00127780      -0.00000000       0.16521977
Si       5.75938473       1.91979491      14.71500000  F        4       0.03085500      -0.00000000       0.19046502
Si       9.59897455       1.91979491      14.71500000  F        4      -0.02994376      -0.00000000       0.19066776
Si       1.91979491       5.75938473      14.71500000  F        4      -0.00058167       0.00000002       0.16383884
Si       5.75938473       5.75938473      14.71500000  F        4       0.03563537       0.00000002       0.19095065
Si       9.59897455       5.75938473      14.71500000  F        4      -0.03565375       0.00000002       0.18665059
Si       0.00000000       1.91979491      16.07250000  F        3      -0.00490956      -0.00000000      -0.13159497
Si       3.83958982       1.91979491      16.07250000  F        3       0.00730995      -0.00000000      -0.12757206
Si       7.67917964       1.91979491      16.07250000  F        3       0.00015738      -0.00000000      -0.19464030
Si       0.00000000       5.75938473      16.07250000  F        3      -0.00039671       0.00000002      -0.12933496
Si       3.83958982       5.75938473      16.07250000  F        3       0.00022206       0.00000002      -0.13202122
Si       7.67917964       5.75938473      16.07250000  F        3       0.00266992       0.00000002      -0.11981490
Si       0.00000000       0.00000000      17.43000000  F        2       0.01371566      -0.04764338       0.46695507
Si       3.83958982       0.00000000      17.43000000  F        2      -0.00558940      -0.05377934       0.46957105
Si       7.67917964       0.00000000      17.43000000  F        2      -0.00658535      -0.03660739       0.42830745
Si       0.00000000       3.83958982      17.43000000  F        2       0.01371566       0.04764336       0.46695508
Si       3.83958982       3.83958982      17.43000000  F        2      -0.00558940       0.05377932       0.46957107
Si       7.67917964       3.83958982      17.43000000  F        2      -0.00658535       0.03660736       0.42830747
Si       1.91979491       0.00000000      18.78750000  F        1       0.00175143      -0.01056572      -0.23749583
Si       5.75938473       0.00000000      18.78750000  F        1      -0.04171467      -0.02350845      -0.27176203
Si       9.59897455       0.00000000      18.78750000  F        1       0.00458254       0.00199902      -0.20357941
Si       1.91979491       3.83958982      18.78750000  F        1       0.00175143       0.01056572      -0.23749583
Si       5.75938473       3.83958982      18.78750000  F        1      -0.04171467       0.02350845      -0.27176203
Si       9.59897455       3.83958982      18.78750000  F        1       0.00458254      -0.00199902      -0.20357941
Si       7.67917964       1.91979491      21.96950185  T        0       0.02921353      -0.00000000       0.15503888
F        7.67917964       1.91979491      20.38750000  T        0      -0.00295899       0.00000000       0.13268059
F        9.17070529       1.91979491      22.49683580  T        0       0.08516379       0.00000000      -0.09392348
F        6.93341682       3.21149401      22.49683580  T        0      -0.02390778       0.10218991      -0.06894783
F        6.93341682       0.62809581      22.49683580  T        0      -0.02390778      -0.10218991      -0.06894783
41
Lattice="11.518769465528859 0.0 0.0 0.0 7.679179643685906 0.0 0.0 0.0 30.7875" Properties=species:S:1:pos:R:3:move_mask:L:1:tags:I:1:forces:R:3 surface=Si100 species=SiF4 site=hollow orientation=upright height_A=1.3 substrate_atoms=36 calculation_kind="Rigid evaluated approach scan; not NEB" energy=-208.50726500172934 pbc="T T F"
Si       0.00000000       0.00000000      12.00000000  F        6       0.00123819      -0.00014483       0.25001359
Si       3.83958982       0.00000000      12.00000000  F        6      -0.00138451      -0.00014920       0.24978459
Si       7.67917964       0.00000000      12.00000000  F        6       0.00014781      -0.00223715       0.24624589
Si       0.00000000       3.83958982      12.00000000  F        6       0.00123819       0.00014483       0.25001359
Si       3.83958982       3.83958982      12.00000000  F        6      -0.00138451       0.00014920       0.24978459
Si       7.67917964       3.83958982      12.00000000  F        6       0.00014781       0.00223715       0.24624589
Si       1.91979491       0.00000000      13.35750000  F        5      -0.00008572       0.00150840      -0.52316638
Si       5.75938473       0.00000000      13.35750000  F        5       0.00458375       0.00202158      -0.51070946
Si       9.59897455       0.00000000      13.35750000  F        5      -0.00447449       0.00224168      -0.50726265
Si       1.91979491       3.83958982      13.35750000  F        5      -0.00008572      -0.00150843      -0.52316640
Si       5.75938473       3.83958982      13.35750000  F        5       0.00458375      -0.00202160      -0.51070947
Si       9.59897455       3.83958982      13.35750000  F        5      -0.00447449      -0.00224170      -0.50726267
Si       1.91979491       1.91979491      14.71500000  F        4      -0.00320271      -0.00000000       0.16886804
Si       5.75938473       1.91979491      14.71500000  F        4       0.03172225      -0.00000000       0.19860936
Si       9.59897455       1.91979491      14.71500000  F        4      -0.02967301      -0.00000000       0.19617172
Si       1.91979491       5.75938473      14.71500000  F        4      -0.00221236       0.00000002       0.16823266
Si       5.75938473       5.75938473      14.71500000  F        4       0.04057726       0.00000002       0.20245744
Si       9.59897455       5.75938473      14.71500000  F        4      -0.03989160       0.00000002       0.19819564
Si       0.00000000       1.91979491      16.07250000  F        3       0.00014199      -0.00000000      -0.14280924
Si       3.83958982       1.91979491      16.07250000  F        3       0.00038670      -0.00000000      -0.13814011
Si       7.67917964       1.91979491      16.07250000  F        3      -0.00384400      -0.00000000      -0.21140280
Si       0.00000000       5.75938473      16.07250000  F        3      -0.00590414       0.00000002      -0.13592525
Si       3.83958982       5.75938473      16.07250000  F        3      -0.00259967       0.00000002      -0.14517853
Si       7.67917964       5.75938473      16.07250000  F        3       0.00321918       0.00000002      -0.15993281
Si       0.00000000       0.00000000      17.43000000  F        2       0.05097530      -0.05860800       0.42472791
Si       3.83958982       0.00000000      17.43000000  F        2      -0.02161453      -0.06605358       0.43594214
Si       7.67917964       0.00000000      17.43000000  F        2      -0.01975484      -0.01563353       0.42868470
Si       0.00000000       3.83958982      17.43000000  F        2       0.05097530       0.05860798       0.42472793
Si       3.83958982       3.83958982      17.43000000  F        2      -0.02161453       0.06605355       0.43594215
Si       7.67917964       3.83958982      17.43000000  F        2      -0.01975484       0.01563351       0.42868471
Si       1.91979491       0.00000000      18.78750000  F        1       0.00090299      -0.00942777      -0.23140334
Si       5.75938473       0.00000000      18.78750000  F        1      -0.08426857      -0.04215040      -0.27874934
Si       9.59897455       0.00000000      18.78750000  F        1       0.02177451      -0.03494657      -0.19502352
Si       1.91979491       3.83958982      18.78750000  F        1       0.00090299       0.00942777      -0.23140334
Si       5.75938473       3.83958982      18.78750000  F        1      -0.08426857       0.04215040      -0.27874934
Si       9.59897455       3.83958982      18.78750000  F        1       0.02177451       0.03494656      -0.19502352
Si       7.67917964       1.91979491      21.66950185  T        0       0.05641462       0.00000000       0.24116630
F        7.67917964       1.91979491      20.08750000  T        0      -0.00032754       0.00000000       0.09931926
F        9.17070529       1.91979491      22.19683580  T        0       0.14391297       0.00000000      -0.01873881
F        6.93341682       3.21149401      22.19683580  T        0      -0.04239986       0.14384580      -0.04953056
F        6.93341682       0.62809581      22.19683580  T        0      -0.04239986      -0.14384580      -0.04953056
