41
Lattice="9.8418 0.0 0.0 -2.460449999999999 4.261624409482844 0.0 0.0 -0.0 34.16586254" Properties=species:S:1:pos:R:3:move_mask:L:1:spacegroup_kinds:I:1:tags:I:1:forces:R:3 surface=alpha_quartz_001 coadsorbate=H2O start=1 calculation_kind="Local coadsorbate relaxation; not a reaction path" host_atoms=36 energy=-289.5095140746213 pbc="T T F"
Si       2.31725181       0.00000000      12.00000000  F        0        2      -0.13425627      -0.36638667      -1.70785342
Si      -1.15862590       2.00679893      15.60606667  F        0        2      -0.12886788       0.04973420       1.22784760
Si       1.30182410       2.25482548      13.80303333  F        0        2       0.03428971      -0.15835399       1.00294756
O        1.38326499       1.13103512      12.65233746  F        1        2      -0.50605501       0.21752471      -0.21364949
O        0.28787265       1.76346018      14.95372921  F        1        2       0.43986852      -0.24572279      -0.37536927
O        3.24976236       0.63242506      16.25840413  F        1        2      -0.18503022      -0.53460096       0.04182355
O        0.78931236       3.62919935      13.15069587  F        1        2       0.42696033       0.28339622       0.54207415
O        2.74832265       2.49816423      14.45537079  F        1        2       0.01398621       0.38457027      -0.72418826
O       -1.07718501       3.13058929      16.75676254  F        1        2       0.06535344       0.39307436       0.21847266
Si       2.31849399       0.00839019      17.46326865  T        0        1       0.00138882      -0.00006464      -0.00277063
Si      -1.20941241       1.77092974      21.10848884  T        0        1      -0.00143143      -0.00131870      -0.00241657
Si       1.29616660       2.25783482      19.31036226  T        0        1      -0.00333114       0.00048985      -0.00169543
O        1.37980070       1.16803871      18.08397413  T        1        1      -0.00157298      -0.00487411       0.00236734
O        0.26459993       1.73865294      20.43624531  T        1        1      -0.00198081       0.00198730      -0.00023425
O        3.13833261       0.60344274      21.93764488  T        1        1      -0.00344905      -0.00069777      -0.00220402
O        0.79540331       3.64904395      18.62205934  T        1        1      -0.00232924       0.00430802       0.00302166
O        2.74758647       2.50154904      19.98766630  T        1        1      -0.00085976      -0.00022021      -0.00334121
O       -1.24421415       2.34618357      22.63911330  T        1        1      -0.00259321      -0.00313960      -0.00244836
Si       7.23815181       0.00000000      12.00000000  F        0        2      -0.13366852      -0.36638272      -1.70466183
Si       3.76227409       2.00679893      15.60606667  F        0        2      -0.11208694       0.07400621       1.22773266
Si       6.22272410       2.25482548      13.80303333  F        0        2       0.02818651      -0.16146923       1.01346039
O        6.30416499       1.13103512      12.65233746  F        1        2      -0.50529256       0.21550516      -0.21764676
O        5.20877265       1.76346018      14.95372921  F        1        2       0.43194885      -0.24681374      -0.37744456
O        8.17066236       0.63242506      16.25840413  F        1        2      -0.18945068      -0.54860644       0.08576302
O        5.71021236       3.62919935      13.15069587  F        1        2       0.42660627       0.28588129       0.53685031
O        7.66922265       2.49816423      14.45537079  F        1        2       0.02238831       0.38741835      -0.72186749
O        3.84371499       3.13058929      16.75676254  F        1        2       0.04809044       0.33810402       0.15385444
Si       7.24076929       0.00408177      17.46408385  T        0        1      -0.00120261       0.00030803       0.00161035
Si       3.72905722       1.90831792      21.15618659  T        0        1      -0.00089185       0.00215634       0.00023179
Si       6.19751159       2.24061667      19.31313798  T        0        1       0.00111605      -0.00043505       0.00208321
O        6.29778311       1.16201199      18.07965817  T        1        1      -0.00342398      -0.00118725       0.00159158
O        5.16150437       1.69070186      20.42486969  T        1        1      -0.00192970      -0.00038371      -0.00102895
O        8.11684362       0.31731911      21.66229910  T        1        1      -0.00681516       0.00435857       0.00175255
O        5.71575428       3.63968155      18.62444304  T        1        1      -0.00426834      -0.00219062       0.00288256
O        7.65226262       2.46956722      19.99825803  T        1        1       0.00033723      -0.00144618      -0.00035395
O        3.78004324       2.74106467      22.55936657  T        1        1       0.00187663      -0.00110195       0.00122681
F        2.80556519       0.16282604      24.34938511  T        0        0      -0.00613691       0.00109208       0.00017360
H        2.89984868       0.27353008      23.36495309  T        0        0      -0.00206695       0.00119635      -0.00061550
O        3.87250627       2.57042411      25.37577829  T        0        0       0.00045486       0.00283402       0.00164123
H        3.43938403       1.69097425      25.42791752  T        0        0      -0.00407028       0.00198178      -0.00268149
H        3.86717539       2.75801423      24.40702390  T        0        0       0.00020930      -0.00453079      -0.00693758
