41
Lattice="9.8418 0.0 0.0 -2.460449999999999 4.261624409482844 0.0 0.0 -0.0 34.16586254" Properties=species:S:1:pos:R:3:move_mask:L:1:spacegroup_kinds:I:1:tags:I:1:forces:R:3 surface=alpha_quartz_001 coadsorbate=H2O start=1 calculation_kind="Local coadsorbate relaxation; not a reaction path" host_atoms=36 energy=-289.3424593505939 pbc="T T F"
Si       2.31725181       0.00000000      12.00000000  F        0        2      -0.13434863      -0.36633133      -1.70850138
Si      -1.15862590       2.00679893      15.60606667  F        0        2      -0.12637789       0.05789373       1.22937556
Si       1.30182410       2.25482548      13.80303333  F        0        2       0.03423845      -0.15841207       1.00214502
O        1.38326499       1.13103512      12.65233746  F        1        2      -0.50618264       0.21794767      -0.21321970
O        0.28787265       1.76346018      14.95372921  F        1        2       0.44006827      -0.24631317      -0.37529005
O        3.24976236       0.63242506      16.25840413  F        1        2      -0.19281394      -0.54343916       0.06120856
O        0.78931236       3.62919935      13.15069587  F        1        2       0.42735488       0.28294793       0.54264768
O        2.74832265       2.49816423      14.45537079  F        1        2       0.01356332       0.38439595      -0.72408912
O       -1.07718501       3.13058929      16.75676254  F        1        2       0.05797959       0.38405654       0.20288585
Si       2.31848744       0.00780384      17.46380372  T        0        1      -0.00005809      -0.00018309       0.00008608
Si      -1.21495960       1.78304042      21.11440118  T        0        1      -0.00314253       0.00391876       0.00315671
Si       1.29172664       2.25455222      19.31262217  T        0        1      -0.00203170      -0.00111040       0.00165501
O        1.37927803       1.16615687      18.08567330  T        1        1       0.00033805       0.00019298       0.00060639
O        0.25632074       1.72997396      20.43366028  T        1        1      -0.00272702      -0.00155515      -0.00192005
O        3.12896516       0.64433300      21.96221100  T        1        1      -0.00241556      -0.00813748      -0.00627481
O        0.79139798       3.64617069      18.62406005  T        1        1      -0.00036630      -0.00126284       0.00054583
O        2.74267546       2.50744452      19.98798250  T        1        1      -0.00166935      -0.00032112       0.00308610
O       -1.23585626       2.40329418      22.62511817  T        1        1       0.00343602       0.01389935      -0.00135534
Si       7.23815181       0.00000000      12.00000000  F        0        2      -0.13376934      -0.36641977      -1.70528491
Si       3.76227409       2.00679893      15.60606667  F        0        2      -0.11021641       0.07480573       1.22905397
Si       6.22272410       2.25482548      13.80303333  F        0        2       0.02695954      -0.16187622       1.01331769
O        6.30416499       1.13103512      12.65233746  F        1        2      -0.50530813       0.21570566      -0.21732024
O        5.20877265       1.76346018      14.95372921  F        1        2       0.43142710      -0.24631263      -0.37889905
O        8.17066236       0.63242506      16.25840413  F        1        2      -0.19346318      -0.55724629       0.10278113
O        5.71021236       3.62919935      13.15069587  F        1        2       0.42694769       0.28587333       0.53730274
O        7.66922265       2.49816423      14.45537079  F        1        2       0.02234327       0.38709172      -0.72253140
O        3.84371499       3.13058929      16.75676254  F        1        2       0.04160461       0.32526038       0.13988504
Si       7.23836285       0.00570390      17.46343398  T        0        1      -0.00028347       0.00018124      -0.00014970
Si       3.72981643       1.92541121      21.15956883  T        0        1      -0.00081962      -0.00143905       0.00171253
Si       6.19210119       2.23891121      19.30898737  T        0        1      -0.00108026      -0.00010823      -0.00008701
O        6.29108241       1.16393264      18.07292435  T        1        1       0.00022284       0.00070732      -0.00060105
O        5.15864259       1.68793220      20.42311823  T        1        1      -0.00222176      -0.00243515      -0.00312331
O        8.09757236       0.34641132      21.70727934  T        1        1      -0.00442602       0.01105863       0.00776729
O        5.70786095       3.64206572      18.62943102  T        1        1      -0.00247871      -0.00035910       0.00107686
O        7.64756498       2.46359286      19.99190640  T        1        1      -0.00229136       0.00288765       0.00121529
O        3.82391698       2.79327940      22.54502906  T        1        1       0.00956431      -0.01764782       0.00310761
F        2.70093593       0.28633084      24.35331256  T        0        0       0.00466486       0.01205038      -0.00536222
H        2.81987349       0.38406554      23.35725172  T        0        0       0.00274231       0.00289040      -0.00584037
O        5.00714503       1.39748608      25.36334060  T        0        0      -0.00705237      -0.00512640      -0.12593239
H        4.13750438       0.93538665      25.35277622  T        0        0       0.03973568       0.02931941      -0.03396970
H        5.19248290       1.54135599      24.41439773  T        0        0      -0.04764653      -0.00704826       0.14513288
41
Lattice="9.8418 0.0 0.0 -2.460449999999999 4.261624409482844 0.0 0.0 -0.0 34.16586254" Properties=species:S:1:pos:R:3:move_mask:L:1:spacegroup_kinds:I:1:tags:I:1:forces:R:3 surface=alpha_quartz_001 coadsorbate=H2O start=1 calculation_kind="Local coadsorbate relaxation; not a reaction path" host_atoms=36 energy=-289.34273258478424 pbc="T T F"
Si       2.31725181       0.00000000      12.00000000  F        0        2      -0.13434629      -0.36633135      -1.70848901
Si      -1.15862590       2.00679893      15.60606667  F        0        2      -0.12637409       0.05791142       1.22946680
Si       1.30182410       2.25482548      13.80303333  F        0        2       0.03424301      -0.15841325       1.00219378
O        1.38326499       1.13103512      12.65233746  F        1        2      -0.50618236       0.21794243      -0.21323220
O        0.28787265       1.76346018      14.95372921  F        1        2       0.44007799      -0.24631037      -0.37532425
O        3.24976236       0.63242506      16.25840413  F        1        2      -0.19283754      -0.54346136       0.06122895
O        0.78931236       3.62919935      13.15069587  F        1        2       0.42735118       0.28295165       0.54263135
O        2.74832265       2.49816423      14.45537079  F        1        2       0.01354385       0.38439741      -0.72413435
O       -1.07718501       3.13058929      16.75676254  F        1        2       0.05793069       0.38400762       0.20280117
Si       2.31848661       0.00780122      17.46380495  T        0        1       0.00007778      -0.00013532       0.00046835
Si      -1.21500449       1.78309640      21.11444628  T        0        1      -0.00172904       0.00518382       0.00158748
Si       1.29169762       2.25453636      19.31264582  T        0        1      -0.00132892      -0.00086832       0.00131288
O        1.37928286       1.16615963      18.08568196  T        1        1       0.00048093      -0.00000779       0.00049270
O        0.25628179       1.72995174      20.43363285  T        1        1      -0.00405395      -0.00174612      -0.00092651
O        3.12893065       0.64421675      21.96212136  T        1        1      -0.00237626      -0.00748987      -0.00642524
O        0.79139275       3.64615265      18.62406785  T        1        1      -0.00056623      -0.00099353       0.00022563
O        2.74265162       2.50743993      19.98802659  T        1        1      -0.00197172      -0.00026042       0.00318207
O       -1.23580717       2.40349274      22.62509881  T        1        1       0.00365849       0.01391058      -0.00104398
Si       7.23815181       0.00000000      12.00000000  F        0        2      -0.13376855      -0.36642053      -1.70527585
Si       3.76227409       2.00679893      15.60606667  F        0        2      -0.11023746       0.07480924       1.22917595
Si       6.22272410       2.25482548      13.80303333  F        0        2       0.02695179      -0.16188189       1.01336210
O        6.30416499       1.13103512      12.65233746  F        1        2      -0.50530682       0.21570255      -0.21733019
O        5.20877265       1.76346018      14.95372921  F        1        2       0.43145413      -0.24630728      -0.37894600
O        8.17066236       0.63242506      16.25840413  F        1        2      -0.19342102      -0.55726293       0.10274705
O        5.71021236       3.62919935      13.15069587  F        1        2       0.42694681       0.28587679       0.53729056
O        7.66922265       2.49816423      14.45537079  F        1        2       0.02232808       0.38709110      -0.72256610
O        3.84371499       3.13058929      16.75676254  F        1        2       0.04156716       0.32522029       0.13978399
Si       7.23835880       0.00570649      17.46343184  T        0        1      -0.00032390       0.00019433      -0.00003434
Si       3.72980472       1.92539065      21.15959329  T        0        1      -0.00007641      -0.00328101      -0.00048069
Si       6.19208576       2.23890967      19.30898612  T        0        1      -0.00116876      -0.00016442      -0.00003869
O        6.29108559       1.16394274      18.07291576  T        1        1       0.00030555       0.00071436      -0.00071867
O        5.15861085       1.68789741      20.42307361  T        1        1      -0.00260144      -0.00235628      -0.00323629
O        8.09750913       0.34656930      21.70739030  T        1        1      -0.00442012       0.00997647       0.00760917
O        5.70782554       3.64206059      18.62944641  T        1        1      -0.00241508      -0.00015409       0.00093444
O        7.64753225       2.46363412      19.99192376  T        1        1      -0.00220553       0.00283307       0.00123897
O        3.82405361       2.79302729      22.54507345  T        1        1       0.00894875      -0.01650036       0.00429627
F        2.70100257       0.28650299      24.35323596  T        0        0       0.00343080       0.01135972      -0.00603970
H        2.81991267       0.38410683      23.35716829  T        0        0       0.00271505       0.00278169      -0.00543195
O        5.00704429       1.39741285      25.36154157  T        0        0      -0.01667139      -0.01846971       0.05076136
H        4.13807203       0.93580550      25.35229094  T        0        0       0.01696403       0.01717006      -0.03483268
H        5.19180223       1.54125530      24.41647106  T        0        0      -0.01459321       0.01878160      -0.02828433
41
Lattice="9.8418 0.0 0.0 -2.460449999999999 4.261624409482844 0.0 0.0 -0.0 34.16586254" Properties=species:S:1:pos:R:3:move_mask:L:1:spacegroup_kinds:I:1:tags:I:1:forces:R:3 surface=alpha_quartz_001 coadsorbate=H2O start=1 calculation_kind="Local coadsorbate relaxation; not a reaction path" host_atoms=36 energy=-289.3427970103322 pbc="T T F"
Si       2.31725181       0.00000000      12.00000000  F        0        2      -0.13434544      -0.36633050      -1.70848254
Si      -1.15862590       2.00679893      15.60606667  F        0        2      -0.12636877       0.05793069       1.22947938
Si       1.30182410       2.25482548      13.80303333  F        0        2       0.03424447      -0.15841264       1.00220248
O        1.38326499       1.13103512      12.65233746  F        1        2      -0.50618080       0.21793971      -0.21323589
O        0.28787265       1.76346018      14.95372921  F        1        2       0.44007723      -0.24631147      -0.37532680
O        3.24976236       0.63242506      16.25840413  F        1        2      -0.19288922      -0.54351320       0.06133740
O        0.78931236       3.62919935      13.15069587  F        1        2       0.42734841       0.28295296       0.54262566
O        2.74832265       2.49816423      14.45537079  F        1        2       0.01354244       0.38439831      -0.72414314
O       -1.07718501       3.13058929      16.75676254  F        1        2       0.05793278       0.38403614       0.20281803
Si       2.31848749       0.00779922      17.46381097  T        0        1       0.00010366      -0.00013964       0.00033453
Si      -1.21503146       1.78316802      21.11447149  T        0        1      -0.00157514       0.00554070       0.00169123
Si       1.29167754       2.25452360      19.31266507  T        0        1      -0.00126198      -0.00086389       0.00135795
O        1.37928946       1.16615985      18.08568916  T        1        1       0.00047755      -0.00000898       0.00058275
O        0.25622634       1.72992722      20.43361801  T        1        1      -0.00366596      -0.00166468      -0.00111286
O        3.12889678       0.64410912      21.96203022  T        1        1      -0.00213303      -0.00718671      -0.00692727
O        0.79138503       3.64613807      18.62407160  T        1        1      -0.00052145      -0.00097715       0.00029453
O        2.74262407       2.50743612      19.98807170  T        1        1      -0.00225624      -0.00012104       0.00310470
O       -1.23575550       2.40369060      22.62508343  T        1        1       0.00365553       0.01371033      -0.00130890
Si       7.23815181       0.00000000      12.00000000  F        0        2      -0.13376844      -0.36641990      -1.70527309
Si       3.76227409       2.00679893      15.60606667  F        0        2      -0.11025323       0.07480643       1.22919979
Si       6.22272410       2.25482548      13.80303333  F        0        2       0.02695232      -0.16188086       1.01336482
O        6.30416499       1.13103512      12.65233746  F        1        2      -0.50530562       0.21570124      -0.21733129
O        5.20877265       1.76346018      14.95372921  F        1        2       0.43146103      -0.24630495      -0.37895338
O        8.17066236       0.63242506      16.25840413  F        1        2      -0.19340565      -0.55730656       0.10277484
O        5.71021236       3.62919935      13.15069587  F        1        2       0.42694525       0.28587735       0.53728864
O        7.66922265       2.49816423      14.45537079  F        1        2       0.02232427       0.38708843      -0.72257069
O        3.84371499       3.13058929      16.75676254  F        1        2       0.04152872       0.32520679       0.13973440
Si       7.23835426       0.00570923      17.46343116  T        0        1      -0.00034111       0.00019008      -0.00012754
Si       3.72980238       1.92534707      21.15959013  T        0        1      -0.00042961      -0.00405874      -0.00106794
Si       6.19206928       2.23890742      19.30898549  T        0        1      -0.00112209      -0.00009173      -0.00023816
O        6.29108980       1.16395289      18.07290574  T        1        1       0.00029079       0.00082787      -0.00068171
O        5.15857448       1.68786376      20.42302776  T        1        1      -0.00223494      -0.00245493      -0.00325131
O        8.09744625       0.34671303      21.70749880  T        1        1      -0.00472278       0.00943787       0.00805527
O        5.70779107       3.64205805      18.62945994  T        1        1      -0.00229398      -0.00013994       0.00096979
O        7.64750073       2.46367451      19.99194134  T        1        1      -0.00240797       0.00289183       0.00111964
O        3.82418194       2.79279064      22.54513258  T        1        1       0.00897055      -0.01588126       0.00496631
F        2.70105344       0.28666574      24.35315118  T        0        0       0.00318491       0.01125909      -0.00602539
H        2.81995133       0.38414658      23.35709033  T        0        0       0.00241330       0.00258474      -0.00551460
O        5.00682325       1.39717248      25.36196751  T        0        0       0.01096273      -0.00199774       0.01873631
H        4.13835151       0.93607011      25.35179688  T        0        0      -0.00894033       0.00305566      -0.02959358
H        5.19153925       1.54147918      24.41635937  T        0        0      -0.01599215       0.01663028      -0.00087236
41
Lattice="9.8418 0.0 0.0 -2.460449999999999 4.261624409482844 0.0 0.0 -0.0 34.16586254" Properties=species:S:1:pos:R:3:move_mask:L:1:spacegroup_kinds:I:1:tags:I:1:forces:R:3 surface=alpha_quartz_001 coadsorbate=H2O start=1 calculation_kind="Local coadsorbate relaxation; not a reaction path" host_atoms=36 energy=-289.3429080990552 pbc="T T F"
Si       2.31725181       0.00000000      12.00000000  F        0        2      -0.13434331      -0.36632892      -1.70846845
Si      -1.15862590       2.00679893      15.60606667  F        0        2      -0.12634782       0.05800380       1.22951321
Si       1.30182410       2.25482548      13.80303333  F        0        2       0.03424494      -0.15841152       1.00222066
O        1.38326499       1.13103512      12.65233746  F        1        2      -0.50617752       0.21793426      -0.21324345
O        0.28787265       1.76346018      14.95372921  F        1        2       0.44007307      -0.24631695      -0.37533119
O        3.24976236       0.63242506      16.25840413  F        1        2      -0.19302703      -0.54366192       0.06165376
O        0.78931236       3.62919935      13.15069587  F        1        2       0.42734339       0.28295520       0.54261342
O        2.74832265       2.49816423      14.45537079  F        1        2       0.01354359       0.38440038      -0.72416172
O       -1.07718501       3.13058929      16.75676254  F        1        2       0.05793176       0.38411878       0.20285397
Si       2.31849147       0.00779236      17.46382807  T        0        1       0.00015761      -0.00016333       0.00006958
Si      -1.21511609       1.78342405      21.11455759  T        0        1      -0.00137703       0.00615466       0.00218830
Si       1.29161250       2.25448080      19.31273122  T        0        1      -0.00127624      -0.00079256       0.00113589
O        1.37931202       1.16616025      18.08571611  T        1        1       0.00052895      -0.00008315       0.00080194
O        0.25604737       1.72984605      20.43356369  T        1        1      -0.00271531      -0.00151511      -0.00149706
O        3.12878906       0.64375367      21.96170541  T        1        1      -0.00167802      -0.00681789      -0.00740886
O        0.79135981       3.64608947      18.62408584  T        1        1      -0.00041976      -0.00088024       0.00043008
O        2.74252154       2.50742745      19.98822275  T        1        1      -0.00278234       0.00041390       0.00298218
O       -1.23557972       2.40435670      22.62502384  T        1        1       0.00377164       0.01305804      -0.00214241
Si       7.23815181       0.00000000      12.00000000  F        0        2      -0.13376836      -0.36641921      -1.70527124
Si       3.76227409       2.00679893      15.60606667  F        0        2      -0.11030410       0.07479469       1.22925293
Si       6.22272410       2.25482548      13.80303333  F        0        2       0.02695689      -0.16187554       1.01336306
O        6.30416499       1.13103512      12.65233746  F        1        2      -0.50530459       0.21570012      -0.21733011
O        5.20877265       1.76346018      14.95372921  F        1        2       0.43147563      -0.24629879      -0.37896727
O        8.17066236       0.63242506      16.25840413  F        1        2      -0.19334819      -0.55744972       0.10284924
O        5.71021236       3.62919935      13.15069587  F        1        2       0.42694316       0.28587681       0.53728851
O        7.66922265       2.49816423      14.45537079  F        1        2       0.02231255       0.38707822      -0.72258177
O        3.84371499       3.13058929      16.75676254  F        1        2       0.04138218       0.32514928       0.13957222
Si       7.23833826       0.00571844      17.46342626  T        0        1      -0.00036318       0.00024106      -0.00027051
Si       3.72978518       1.92517275      21.15955821  T        0        1      -0.00088402      -0.00561876      -0.00184256
Si       6.19201456       2.23890187      19.30897748  T        0        1      -0.00100729       0.00012481      -0.00077227
O        6.29110379       1.16399077      18.07287259  T        1        1       0.00032423       0.00099597      -0.00076184
O        5.15846124       1.68774666      20.42287140  T        1        1      -0.00136120      -0.00272997      -0.00333923
O        8.09722363       0.34718335      21.70788039  T        1        1      -0.00520698       0.00852817       0.00880043
O        5.70767774       3.64205021      18.62950671  T        1        1      -0.00203273       0.00008848       0.00092421
O        7.64738778       2.46381336      19.99199755  T        1        1      -0.00274236       0.00300682       0.00086536
O        3.82461744       2.79200725      22.54535536  T        1        1       0.00879482      -0.01450660       0.00594410
F        2.70121684       0.28721438      24.35286251  T        0        0       0.00305984       0.01111815      -0.00378804
H        2.82007363       0.38427555      23.35682377  T        0        0       0.00185372       0.00230247      -0.00774622
O        5.00688027       1.39682479      25.36275542  T        0        0       0.02380464       0.00770410      -0.02266137
H        4.13849034       0.93652772      25.35027355  T        0        0      -0.02901628      -0.00870159      -0.01407969
H        5.19065964       1.54221872      24.41650677  T        0        0      -0.00901894       0.01882356       0.02634221
41
Lattice="9.8418 0.0 0.0 -2.460449999999999 4.261624409482844 0.0 0.0 -0.0 34.16586254" Properties=species:S:1:pos:R:3:move_mask:L:1:spacegroup_kinds:I:1:tags:I:1:forces:R:3 surface=alpha_quartz_001 coadsorbate=H2O start=1 calculation_kind="Local coadsorbate relaxation; not a reaction path" host_atoms=36 energy=-289.343050339187 pbc="T T F"
Si       2.31725181       0.00000000      12.00000000  F        0        2      -0.13434003      -0.36632801      -1.70845221
Si      -1.15862590       2.00679893      15.60606667  F        0        2      -0.12630827       0.05814520       1.22955911
Si       1.30182410       2.25482548      13.80303333  F        0        2       0.03424163      -0.15840997       1.00223986
O        1.38326499       1.13103512      12.65233746  F        1        2      -0.50617463       0.21792889      -0.21325140
O        0.28787265       1.76346018      14.95372921  F        1        2       0.44006198      -0.24632869      -0.37533131
O        3.24976236       0.63242506      16.25840413  F        1        2      -0.19325112      -0.54392754       0.06221075
O        0.78931236       3.62919935      13.15069587  F        1        2       0.42733966       0.28295641       0.54259967
O        2.74832265       2.49816423      14.45537079  F        1        2       0.01355206       0.38440142      -0.72418488
O       -1.07718501       3.13058929      16.75676254  F        1        2       0.05791238       0.38425680       0.20288857
Si       2.31850126       0.00777765      17.46385684  T        0        1       0.00024505      -0.00020715      -0.00011549
Si      -1.21528331       1.78396748      21.11474649  T        0        1      -0.00098410       0.00638551       0.00208954
Si       1.29147886       2.25439532      19.31285960  T        0        1      -0.00128994      -0.00056795       0.00051305
O        1.37936016       1.16615855      18.08577720  T        1        1       0.00072337      -0.00040215       0.00096869
O        0.25570333       1.72968285      20.43344339  T        1        1      -0.00197920      -0.00144472      -0.00160576
O        3.12857954       0.64303288      21.96102735  T        1        1      -0.00133536      -0.00701627      -0.00700205
O        0.79131042       3.64599278      18.62411819  T        1        1      -0.00037300      -0.00048908       0.00041033
O        2.74229687       2.50742473      19.98853019  T        1        1      -0.00308848       0.00137258       0.00308569
O       -1.23521469       2.40570731      22.62487882  T        1        1       0.00394203       0.01214425      -0.00275754
Si       7.23815181       0.00000000      12.00000000  F        0        2      -0.13376852      -0.36641995      -1.70527803
Si       3.76227409       2.00679893      15.60606667  F        0        2      -0.11039677       0.07478556       1.22932903
Si       6.22272410       2.25482548      13.80303333  F        0        2       0.02696830      -0.16186269       1.01334545
O        6.30416499       1.13103512      12.65233746  F        1        2      -0.50530662       0.21570247      -0.21732092
O        5.20877265       1.76346018      14.95372921  F        1        2       0.43149372      -0.24629019      -0.37898270
O        8.17066236       0.63242506      16.25840413  F        1        2      -0.19320111      -0.55771490       0.10293854
O        5.71021236       3.62919935      13.15069587  F        1        2       0.42694344       0.28587242       0.53729727
O        7.66922265       2.49816423      14.45537079  F        1        2       0.02229185       0.38705757      -0.72259664
O        3.84371499       3.13058929      16.75676254  F        1        2       0.04107499       0.32502354       0.13925391
Si       7.23830480       0.00573896      17.46341279  T        0        1      -0.00037332       0.00036569      -0.00042773
Si       3.72974000       1.92477128      21.15947098  T        0        1      -0.00108278      -0.00709483      -0.00232211
Si       6.19190508       2.23889633      19.30894659  T        0        1      -0.00080425       0.00052084      -0.00163138
O        6.29113378       1.16407274      18.07280159  T        1        1       0.00042393       0.00117290      -0.00116178
O        5.15825143       1.68749864      20.42254743  T        1        1      -0.00033193      -0.00318836      -0.00335896
O        8.09675408       0.34812516      21.70868309  T        1        1      -0.00562442       0.00772533       0.00957538
O        5.70745186       3.64204115      18.62960096  T        1        1      -0.00164794       0.00069211       0.00067759
O        7.64714738       2.46410159      19.99210638  T        1        1      -0.00281395       0.00302274       0.00070852
O        3.82550594       2.79043562      22.54583882  T        1        1       0.00831418      -0.01265895       0.00615705
F        2.70154908       0.28833730      24.35233585  T        0        0       0.00302536       0.01095804      -0.00206749
H        2.82031044       0.38453347      23.35620994  T        0        0       0.00088699       0.00183098      -0.00988401
O        5.00714700       1.39625081      25.36362935  T        0        0       0.01876477       0.00836729      -0.05205164
H        4.13834886       0.93721112      25.34756797  T        0        0      -0.04235484      -0.01775142       0.01005781
H        5.18911981       1.54385768      24.41716861  T        0        0       0.00862490       0.02741428       0.03387821
41
Lattice="9.8418 0.0 0.0 -2.460449999999999 4.261624409482844 0.0 0.0 -0.0 34.16586254" Properties=species:S:1:pos:R:3:move_mask:L:1:spacegroup_kinds:I:1:tags:I:1:forces:R:3 surface=alpha_quartz_001 coadsorbate=H2O start=1 calculation_kind="Local coadsorbate relaxation; not a reaction path" host_atoms=36 energy=-289.3431993671595 pbc="T T F"
Si       2.31725181       0.00000000      12.00000000  F        0        2      -0.13433754      -0.36632896      -1.70844817
Si      -1.15862590       2.00679893      15.60606667  F        0        2      -0.12626352       0.05831609       1.22956475
Si       1.30182410       2.25482548      13.80303333  F        0        2       0.03423429      -0.15840741       1.00223225
O        1.38326499       1.13103512      12.65233746  F        1        2      -0.50617524       0.21792981      -0.21324996
O        0.28787265       1.76346018      14.95372921  F        1        2       0.44004030      -0.24634618      -0.37530997
O        3.24976236       0.63242506      16.25840413  F        1        2      -0.19349357      -0.54424190       0.06286190
O        0.78931236       3.62919935      13.15069587  F        1        2       0.42734256       0.28295253       0.54259809
O        2.74832265       2.49816423      14.45537079  F        1        2       0.01357285       0.38440052      -0.72419180
O       -1.07718501       3.13058929      16.75676254  F        1        2       0.05788379       0.38441417       0.20291939
Si       2.31851686       0.00775704      17.46388966  T        0        1       0.00030968      -0.00029354      -0.00032913
Si      -1.21549171       1.78469647      21.11499368  T        0        1      -0.00085887       0.00558939       0.00167885
Si       1.29130259       2.25428866      19.31301195  T        0        1      -0.00123005      -0.00027211      -0.00001658
O        1.37942927       1.16614751      18.08586302  T        1        1       0.00090164      -0.00071952       0.00106191
O        0.25526895       1.72946905      20.43328136  T        1        1      -0.00149728      -0.00144577      -0.00163247
O        3.12831294       0.64207643      21.96013894  T        1        1      -0.00121895      -0.00777548      -0.00569858
O        0.79124639       3.64587570      18.62416055  T        1        1      -0.00029447      -0.00002879       0.00030849
O        2.74198935       2.50744804      19.98893927  T        1        1      -0.00297638       0.00231391       0.00345679
O       -1.23472657       2.40746801      22.62466826  T        1        1       0.00398758       0.01127273      -0.00271925
Si       7.23815181       0.00000000      12.00000000  F        0        2      -0.13376956      -0.36642281      -1.70530194
Si       3.76227409       2.00679893      15.60606667  F        0        2      -0.11050409       0.07478162       1.22937321
Si       6.22272410       2.25482548      13.80303333  F        0        2       0.02698405      -0.16184293       1.01329453
O        6.30416499       1.13103512      12.65233746  F        1        2      -0.50531351       0.21571178      -0.21729809
O        5.20877265       1.76346018      14.95372921  F        1        2       0.43150160      -0.24628413      -0.37898219
O        8.17066236       0.63242506      16.25840413  F        1        2      -0.19294774      -0.55801572       0.10295058
O        5.71021236       3.62919935      13.15069587  F        1        2       0.42694938       0.28586201       0.53732257
O        7.66922265       2.49816423      14.45537079  F        1        2       0.02227398       0.38703175      -0.72259761
O        3.84371499       3.13058929      16.75676254  F        1        2       0.04067669       0.32486506       0.13888061
Si       7.23826014       0.00576955      17.46339057  T        0        1      -0.00037799       0.00049275      -0.00067708
Si       3.72967456       1.92419358      21.15933735  T        0        1      -0.00087305      -0.00758340      -0.00180809
Si       6.19176579       2.23889997      19.30888159  T        0        1      -0.00058623       0.00090262      -0.00226625
O        6.29117630       1.16418637      18.07269684  T        1        1       0.00049259       0.00141784      -0.00180352
O        5.15800319       1.68715777      20.42211781  T        1        1       0.00030391      -0.00359361      -0.00332542
O        8.09612035       0.34934555      21.70976752  T        1        1      -0.00563091       0.00775686       0.00986259
O        5.70716402       3.64204594      18.62971888  T        1        1      -0.00119159       0.00144170       0.00035748
O        7.64682638       2.46448368      19.99224537  T        1        1      -0.00259487       0.00292412       0.00058201
O        3.82666738       2.78841089      22.54648918  T        1        1       0.00768995      -0.01118332       0.00485389
F        2.70198568       0.28981726      24.35169201  T        0        0       0.00279950       0.01065893      -0.00237705
H        2.82059671       0.38486139      23.35533394  T        0        0      -0.00009192       0.00134237      -0.01028027
O        5.00738602       1.39551586      25.36413308  T        0        0      -0.00113078       0.00057319      -0.05734858
H        4.13772421       0.93782789      25.34466981  T        0        0      -0.04133232      -0.01939235       0.03042340
H        5.18761462       1.54629501      24.41808271  T        0        0       0.02674609       0.03722621       0.02107874
41
Lattice="9.8418 0.0 0.0 -2.460449999999999 4.261624409482844 0.0 0.0 -0.0 34.16586254" Properties=species:S:1:pos:R:3:move_mask:L:1:spacegroup_kinds:I:1:tags:I:1:forces:R:3 surface=alpha_quartz_001 coadsorbate=H2O start=1 calculation_kind="Local coadsorbate relaxation; not a reaction path" host_atoms=36 energy=-289.34346469084653 pbc="T T F"
Si       2.31725181       0.00000000      12.00000000  F        0        2      -0.13433508      -0.36633460      -1.70846674
Si      -1.15862590       2.00679893      15.60606667  F        0        2      -0.12619167       0.05861146       1.22949342
Si       1.30182410       2.25482548      13.80303333  F        0        2       0.03421718      -0.15840132       1.00217131
O        1.38326499       1.13103512      12.65233746  F        1        2      -0.50618400       0.21794381      -0.21322975
O        0.28787265       1.76346018      14.95372921  F        1        2       0.43998602      -0.24638175      -0.37523619
O        3.24976236       0.63242506      16.25840413  F        1        2      -0.19386290      -0.54477768       0.06394437
O        0.78931236       3.62919935      13.15069587  F        1        2       0.42736010       0.28293666       0.54261935
O        2.74832265       2.49816423      14.45537079  F        1        2       0.01362543       0.38439636      -0.72417260
O       -1.07718501       3.13058929      16.75676254  F        1        2       0.05779564       0.38463082       0.20291510
Si       2.31855094       0.00771368      17.46394216  T        0        1       0.00036881      -0.00041272      -0.00056990
Si      -1.21588295       1.78609688      21.11546120  T        0        1      -0.00077054       0.00346952       0.00071410
Si       1.29096393       2.25409456      19.31328200  T        0        1      -0.00078766       0.00028106      -0.00051120
O        1.37957166       1.16611169      18.08603638  T        1        1       0.00113977      -0.00110152       0.00111512
O        0.25445746       1.72905645      20.43296238  T        1        1      -0.00126818      -0.00151588      -0.00150383
O        3.12780843       0.64020081      21.95845415  T        1        1      -0.00103420      -0.00916958      -0.00313809
O        0.79112599       3.64566870      18.62424028  T        1        1      -0.00008192       0.00068852       0.00004254
O        2.74138658       2.50753867      19.98974441  T        1        1      -0.00226280       0.00346628       0.00449466
O       -1.23377519       2.41083947      22.62424663  T        1        1       0.00377872       0.00988168      -0.00197647
Si       7.23815181       0.00000000      12.00000000  F        0        2      -0.13377268      -0.36643181      -1.70537108
Si       3.76227409       2.00679893      15.60606667  F        0        2      -0.11069028       0.07477406       1.22938339
Si       6.22272410       2.25482548      13.80303333  F        0        2       0.02701307      -0.16180166       1.01315836
O        6.30416499       1.13103512      12.65233746  F        1        2      -0.50533347       0.21573940      -0.21723818
O        5.20877265       1.76346018      14.95372921  F        1        2       0.43149502      -0.24627823      -0.37895649
O        8.17066236       0.63242506      16.25840413  F        1        2      -0.19231171      -0.55848348       0.10271655
O        5.71021236       3.62919935      13.15069587  F        1        2       0.42696984       0.28583531       0.53739202
O        7.66922265       2.49816423      14.45537079  F        1        2       0.02225379       0.38698474      -0.72257223
O        3.84371499       3.13058929      16.75676254  F        1        2       0.03990042       0.32453585       0.13819888
Si       7.23817289       0.00583465      17.46333626  T        0        1      -0.00038618       0.00069542      -0.00107220
Si       3.72954759       1.92302118      21.15907588  T        0        1      -0.00023007      -0.00743701      -0.00041688
Si       6.19150575       2.23892547      19.30872077  T        0        1      -0.00032842       0.00140059      -0.00280921
O        6.29126231       1.16441858      18.07246834  T        1        1       0.00051875       0.00200531      -0.00307126
O        5.15756151       1.68647609      20.42128425  T        1        1       0.00061596      -0.00405296      -0.00320132
O        8.09488066       0.35169290      21.71189695  T        1        1      -0.00526682       0.00841522       0.00982462
O        5.70662729       3.64208779      18.62993444  T        1        1      -0.00037567       0.00266976      -0.00018305
O        7.64620605       2.46522310      19.99250647  T        1        1      -0.00186556       0.00259917       0.00040016
O        3.82889304       2.78456680      22.54772547  T        1        1       0.00664639      -0.00909498       0.00138965
F        2.70282030       0.29267388      24.35046845  T        0        0       0.00156210       0.00962754      -0.00465138
H        2.82110418       0.38547325      23.35358158  T        0        0      -0.00146425       0.00060348      -0.00906210
O        5.00742151       1.39400697      25.36439790  T        0        0      -0.03488552      -0.01320330      -0.04731947
H        4.13604265       0.93867319      25.34010815  T        0        0      -0.02931067      -0.01660706       0.05239675
H        5.18556224       1.55147452      24.41962319  T        0        0       0.04775325       0.04929350      -0.00764075
41
Lattice="9.8418 0.0 0.0 -2.460449999999999 4.261624409482844 0.0 0.0 -0.0 34.16586254" Properties=species:S:1:pos:R:3:move_mask:L:1:spacegroup_kinds:I:1:tags:I:1:forces:R:3 surface=alpha_quartz_001 coadsorbate=H2O start=1 calculation_kind="Local coadsorbate relaxation; not a reaction path" host_atoms=36 energy=-289.34393559413513 pbc="T T F"
Si       2.31725181       0.00000000      12.00000000  F        0        2      -0.13433339      -0.36635013      -1.70853512
Si      -1.15862590       2.00679893      15.60606667  F        0        2      -0.12608306       0.05910508       1.22925279
Si       1.30182410       2.25482548      13.80303333  F        0        2       0.03418116      -0.15838837       1.00199777
O        1.38326499       1.13103512      12.65233746  F        1        2      -0.50621031       0.21798603      -0.21316957
O        0.28787265       1.76346018      14.95372921  F        1        2       0.43986762      -0.24644999      -0.37505408
O        3.24976236       0.63242506      16.25840413  F        1        2      -0.19441661      -0.54567329       0.06570718
O        0.78931236       3.62919935      13.15069587  F        1        2       0.42740832       0.28289584       0.54269010
O        2.74832265       2.49816423      14.45537079  F        1        2       0.01374023       0.38438769      -0.72409419
O       -1.07718501       3.13058929      16.75676254  F        1        2       0.05758099       0.38490303       0.20281046
Si       2.31862012       0.00762660      17.46402481  T        0        1       0.00039782      -0.00053221      -0.00082299
Si      -1.21660416       1.78868389      21.11631287  T        0        1      -0.00066637      -0.00018025      -0.00054456
Si       1.29034174       2.25375287      19.31376023  T        0        1       0.00041196       0.00118369      -0.00054142
O        1.37985277       1.16602386      18.08637203  T        1        1       0.00143725      -0.00128895       0.00126770
O        0.25296299       1.72827961      20.43235739  T        1        1      -0.00118140      -0.00156165      -0.00136845
O        3.12687782       0.63662051      21.95535915  T        1        1      -0.00026099      -0.01077117       0.00073882
O        0.79090848       3.64531191      18.62438329  T        1        1       0.00054986       0.00157619      -0.00035085
O        2.74025742       2.50777559      19.99129802  T        1        1      -0.00085746       0.00461859       0.00653132
O       -1.23198266       2.41712432      22.62345269  T        1        1       0.00297970       0.00731745      -0.00063194
Si       7.23815181       0.00000000      12.00000000  F        0        2      -0.13377970      -0.36645321      -1.70552979
Si       3.76227409       2.00679893      15.60606667  F        0        2      -0.11101002       0.07473770       1.22930369
Si       6.22272410       2.25482548      13.80303333  F        0        2       0.02706487      -0.16172021       1.01285680
O        6.30416499       1.13103512      12.65233746  F        1        2      -0.50537900       0.21580308      -0.21710570
O        5.20877265       1.76346018      14.95372921  F        1        2       0.43145298      -0.24627195      -0.37888189
O        8.17066236       0.63242506      16.25840413  F        1        2      -0.19085192      -0.55916384       0.10181047
O        5.71021236       3.62919935      13.15069587  F        1        2       0.42701910       0.28577757       0.53754799
O        7.66922265       2.49816423      14.45537079  F        1        2       0.02223544       0.38690207      -0.72249000
O        3.84371499       3.13058929      16.75676254  F        1        2       0.03842669       0.32387315       0.13697763
Si       7.23800725       0.00596722      17.46321426  T        0        1      -0.00041691       0.00105414      -0.00159942
Si       3.72931794       1.92075509      21.15860125  T        0        1       0.00083760      -0.00678366       0.00195207
Si       6.19102982       2.23900148      19.30837391  T        0        1      -0.00006009       0.00200787      -0.00298745
O        6.29142767       1.16488350      18.07198580  T        1        1       0.00040668       0.00337695      -0.00522581
O        5.15677297       1.68516144      20.41971419  T        1        1       0.00044809      -0.00444840      -0.00315187
O        8.09253738       0.35610919      21.71594111  T        1        1      -0.00441694       0.00945797       0.00933884
O        5.70565483       3.64222336      18.63031766  T        1        1       0.00106902       0.00443025      -0.00092911
O        7.64505275       2.46660924      19.99298508  T        1        1      -0.00049056       0.00184659      -0.00001220
O        3.83304360       2.77744773      22.54996501  T        1        1       0.00504326      -0.00559165      -0.00511862
F        2.70434519       0.29802026      24.34813800  T        0        0      -0.00227753       0.00677513      -0.00883410
H        2.82198551       0.38658706      23.35025253  T        0        0      -0.00327590      -0.00049338      -0.00592834
O        5.00673300       1.39100500      25.36413605  T        0        0      -0.07466924      -0.02727062      -0.02583075
H        4.13240583       0.93984319      25.33296157  T        0        0      -0.00564391      -0.00990758       0.07053263
H        5.18287485       1.56187047      24.42201627  T        0        0       0.06372269       0.05928446      -0.04257803
41
Lattice="9.8418 0.0 0.0 -2.460449999999999 4.261624409482844 0.0 0.0 -0.0 34.16586254" Properties=species:S:1:pos:R:3:move_mask:L:1:spacegroup_kinds:I:1:tags:I:1:forces:R:3 surface=alpha_quartz_001 coadsorbate=H2O start=1 calculation_kind="Local coadsorbate relaxation; not a reaction path" host_atoms=36 energy=-289.34461811849246 pbc="T T F"
Si       2.31725181       0.00000000      12.00000000  F        0        2      -0.13433349      -0.36638066      -1.70867819
Si      -1.15862590       2.00679893      15.60606667  F        0        2      -0.12595489       0.05978562       1.22876277
Si       1.30182410       2.25482548      13.80303333  F        0        2       0.03411946      -0.15836676       1.00166503
O        1.38326499       1.13103512      12.65233746  F        1        2      -0.50626335       0.21807021      -0.21305200
O        0.28787265       1.76346018      14.95372921  F        1        2       0.43966363      -0.24655658      -0.37471984
O        3.24976236       0.63242506      16.25840413  F        1        2      -0.19511138      -0.54692911       0.06809898
O        0.78931236       3.62919935      13.15069587  F        1        2       0.42750146       0.28281955       0.54283350
O        2.74832265       2.49816423      14.45537079  F        1        2       0.01393733       0.38437555      -0.72392660
O       -1.07718501       3.13058929      16.75676254  F        1        2       0.05718262       0.38516648       0.20251940
Si       2.31873597       0.00748091      17.46413363  T        0        1       0.00038463      -0.00051520      -0.00075350
Si      -1.21772939       1.79268708      21.11762209  T        0        1      -0.00024759      -0.00434785      -0.00153516
Si       1.28939599       2.25325165      19.31449478  T        0        1       0.00255995       0.00232659       0.00048505
O        1.38031876       1.16586329      18.08692166  T        1        1       0.00186228      -0.00084482       0.00172720
O        0.25062987       1.72704586      20.43138841  T        1        1      -0.00132663      -0.00141672      -0.00127461
O        3.12544341       0.63085911      21.95057788  T        1        1       0.00186228      -0.01125381       0.00510603
O        0.79058802       3.64479340      18.62459794  T        1        1       0.00188822       0.00228382      -0.00076055
O        2.73848899       2.50824094      19.99384780  T        1        1       0.00098071       0.00500432       0.00953935
O       -1.22914895       2.42699578      22.62220586  T        1        1       0.00121115       0.00302052       0.00058716
Si       7.23815181       0.00000000      12.00000000  F        0        2      -0.13379108      -0.36649238      -1.70580897
Si       3.76227409       2.00679893      15.60606667  F        0        2      -0.11147168       0.07462665       1.22907635
Si       6.22272410       2.25482548      13.80303333  F        0        2       0.02714182      -0.16158756       1.01234337
O        6.30416499       1.13103512      12.65233746  F        1        2      -0.50545902       0.21591459      -0.21687696
O        5.20877265       1.76346018      14.95372921  F        1        2       0.43135084      -0.24626287      -0.37875069
O        8.17066236       0.63242506      16.25840413  F        1        2      -0.18810297      -0.55992099       0.09960023
O        5.71021236       3.62919935      13.15069587  F        1        2       0.42710707       0.28568063       0.53781835
O        7.66922265       2.49816423      14.45537079  F        1        2       0.02222819       0.38678145      -0.72232819
O        3.84371499       3.13058929      16.75676254  F        1        2       0.03608956       0.32279274       0.13516301
Si       7.23774134       0.00619608      17.46298982  T        0        1      -0.00050477       0.00165580      -0.00191265
Si       3.72897611       1.91708539      21.15789703  T        0        1       0.00206679      -0.00608722       0.00426009
Si       6.19029183       2.23916318      19.30777390  T        0        1       0.00017327       0.00260535      -0.00248937
O        6.29169082       1.16568386      18.07112257  T        1        1       0.00009561       0.00585446      -0.00806179
O        5.15556427       1.68303134      20.41721451  T        1        1      -0.00039502      -0.00448232      -0.00349607
O        8.08881270       0.36313465      21.72240597  T        1        1      -0.00309357       0.00978579       0.00831998
O        5.70417897       3.64253040      18.63089091  T        1        1       0.00308933       0.00631588      -0.00165156
O        7.64325690       2.46879234      19.99372104  T        1        1       0.00139556       0.00038868      -0.00070199
O        3.83957281       2.76633302      22.55332007  T        1        1       0.00310809       0.00013605      -0.01409669
F        2.70662774       0.30642191      24.34434470  T        0        0      -0.01060441       0.00084478      -0.01336116
H        2.82327378       0.38829560      23.34497370  T        0        0      -0.00520600      -0.00190129      -0.00148661
O        5.00456112       1.38607815      25.36285590  T        0        0      -0.09442311      -0.02700576      -0.00636620
H        4.12625677       0.94120994      25.32342593  T        0        0       0.02230021      -0.00233329       0.07115712
H        5.17999921       1.57917566      24.42513452  T        0        0       0.05698889       0.05644969      -0.05697361
41
Lattice="9.8418 0.0 0.0 -2.460449999999999 4.261624409482844 0.0 0.0 -0.0 34.16586254" Properties=species:S:1:pos:R:3:move_mask:L:1:spacegroup_kinds:I:1:tags:I:1:forces:R:3 surface=alpha_quartz_001 coadsorbate=H2O start=1 calculation_kind="Local coadsorbate relaxation; not a reaction path" host_atoms=36 energy=-289.34512840138206 pbc="T T F"
Si       2.31725181       0.00000000      12.00000000  F        0        2      -0.13433532      -0.36641095      -1.70882041
Si      -1.15862590       2.00679893      15.60606667  F        0        2      -0.12591472       0.06021527       1.22828928
Si       1.30182410       2.25482548      13.80303333  F        0        2       0.03406366      -0.15834903       1.00135557
O        1.38326499       1.13103512      12.65233746  F        1        2      -0.50631650       0.21815363      -0.21294024
O        0.28787265       1.76346018      14.95372921  F        1        2       0.43948827      -0.24663944      -0.37441057
O        3.24976236       0.63242506      16.25840413  F        1        2      -0.19553570      -0.54780484       0.06966150
O        0.78931236       3.62919935      13.15069587  F        1        2       0.42759192       0.28274709       0.54297281
O        2.74832265       2.49816423      14.45537079  F        1        2       0.01410705       0.38437135      -0.72376274
O       -1.07718501       3.13058929      16.75676254  F        1        2       0.05685268       0.38530457       0.20221706
Si       2.31884039       0.00735137      17.46420486  T        0        1       0.00037423      -0.00025956      -0.00008485
Si      -1.21864708       1.79590573      21.11867380  T        0        1       0.00028193      -0.00517611      -0.00170486
Si       1.28867782       2.25289020      19.31510874  T        0        1       0.00422390       0.00279645       0.00241429
O        1.38074180       1.16571545      18.08741471  T        1        1       0.00234642       0.00031442       0.00245595
O        0.24870316       1.72600786      20.43056009  T        1        1      -0.00095253      -0.00094674      -0.00166387
O        3.12432181       0.62591598      21.94674019  T        1        1       0.00470341      -0.00934434       0.00616424
O        0.79036862       3.64441562      18.62476113  T        1        1       0.00338834       0.00204032      -0.00078940
O        2.73704430       2.50873238      19.99613814  T        1        1       0.00127809       0.00384180       0.01093994
O       -1.22679890       2.43514286      22.62117387  T        1        1      -0.00070330      -0.00054714       0.00086156
Si       7.23815181       0.00000000      12.00000000  F        0        2      -0.13379879      -0.36652904      -1.70605501
Si       3.76227409       2.00679893      15.60606667  F        0        2      -0.11179380       0.07445255       1.22883366
Si       6.22272410       2.25482548      13.80303333  F        0        2       0.02719731      -0.16147501       1.01191718
O        6.30416499       1.13103512      12.65233746  F        1        2      -0.50552905       0.21601050      -0.21667760
O        5.20877265       1.76346018      14.95372921  F        1        2       0.43123222      -0.24624921      -0.37866525
O        8.17066236       0.63242506      16.25840413  F        1        2      -0.18521511      -0.56013156       0.09670082
O        5.71021236       3.62919935      13.15069587  F        1        2       0.42718350       0.28560113       0.53805157
O        7.66922265       2.49816423      14.45537079  F        1        2       0.02224029       0.38669777      -0.72218379
O        3.84371499       3.13058929      16.75676254  F        1        2       0.03419957       0.32197292       0.13390637
Si       7.23751167       0.00642014      17.46276506  T        0        1      -0.00066222       0.00221571      -0.00144020
Si       3.72872629       1.91390409      21.15737641  T        0        1       0.00262101      -0.00669385       0.00321252
Si       6.18969143       2.23935388      19.30722090  T        0        1       0.00028758       0.00273682      -0.00158838
O        6.29190870       1.16647039      18.07024516  T        1        1      -0.00019642       0.00806845      -0.00952480
O        5.15458018       1.68118604      20.41508577  T        1        1      -0.00112065      -0.00393414      -0.00456126
O        8.08567903       0.36907307      21.72790306  T        1        1      -0.00239438       0.00756463       0.00742518
O        5.70303833       3.64291614      18.63132772  T        1        1       0.00426426       0.00678686      -0.00161099
O        7.64180430       2.47059236      19.99430455  T        1        1       0.00229981      -0.00112740      -0.00139572
O        3.84499414       2.75725302      22.55580801  T        1        1       0.00223041       0.00600140      -0.01788712
F        2.70825575       0.31331953      24.34099737  T        0        0      -0.01994597      -0.00559464      -0.01298608
H        2.82421142       0.38965093      23.34057066  T        0        0      -0.00590960      -0.00282599       0.00034728
O        5.00155681       1.38193271      25.36081251  T        0        0      -0.06001938      -0.00172163       0.00619650
H        4.12091630       0.94185975      25.31729848  T        0        0       0.02713207      -0.00146646       0.04282779
H        5.17884773       1.59453228      24.42718320  T        0        0       0.02075548       0.03533345      -0.03799792
41
Lattice="9.8418 0.0 0.0 -2.460449999999999 4.261624409482844 0.0 0.0 -0.0 34.16586254" Properties=species:S:1:pos:R:3:move_mask:L:1:spacegroup_kinds:I:1:tags:I:1:forces:R:3 surface=alpha_quartz_001 coadsorbate=H2O start=1 calculation_kind="Local coadsorbate relaxation; not a reaction path" host_atoms=36 energy=-289.3453043895754 pbc="T T F"
Si       2.31725181       0.00000000      12.00000000  F        0        2      -0.13433589      -0.36641894      -1.70885222
Si      -1.15862590       2.00679893      15.60606667  F        0        2      -0.12598699       0.06014662       1.22818837
Si       1.30182410       2.25482548      13.80303333  F        0        2       0.03404894      -0.15834674       1.00129436
O        1.38326499       1.13103512      12.65233746  F        1        2      -0.50633027       0.21817562      -0.21291640
O        0.28787265       1.76346018      14.95372921  F        1        2       0.43946205      -0.24664626      -0.37433919
O        3.24976236       0.63242506      16.25840413  F        1        2      -0.19553470      -0.54783760       0.06959813
O        0.78931236       3.62919935      13.15069587  F        1        2       0.42761478       0.28272877       0.54300274
O        2.74832265       2.49816423      14.45537079  F        1        2       0.01413621       0.38438100      -0.72372900
O       -1.07718501       3.13058929      16.75676254  F        1        2       0.05689799       0.38542314       0.20224183
Si       2.31887103       0.00731937      17.46420927  T        0        1       0.00045293      -0.00000503       0.00069692
Si      -1.21880821       1.79643285      21.11884240  T        0        1       0.00048782      -0.00264553      -0.00147120
Si       1.28862881       2.25288417      19.31526564  T        0        1       0.00400268       0.00236180       0.00314048
O        1.38087701       1.16568619      18.08756742  T        1        1       0.00276047       0.00110156       0.00286767
O        0.24833228       1.72578906      20.43035822  T        1        1      -0.00024560      -0.00063092      -0.00204371
O        3.12421394       0.62475994      21.94612443  T        1        1       0.00613557      -0.00731389       0.00347462
O        0.79039887       3.64439413      18.62477711  T        1        1       0.00394361       0.00127601      -0.00053740
O        2.73677824       2.50893305      19.99681419  T        1        1      -0.00012738       0.00250652       0.00936235
O       -1.22635258       2.43669122      22.62097372  T        1        1      -0.00129727      -0.00078134       0.00068704
Si       7.23815181       0.00000000      12.00000000  F        0        2      -0.13379649      -0.36653744      -1.70609621
Si       3.76227409       2.00679893      15.60606667  F        0        2      -0.11178483       0.07431682       1.22879259
Si       6.22272410       2.25482548      13.80303333  F        0        2       0.02719830      -0.16145199       1.01187650
O        6.30416499       1.13103512      12.65233746  F        1        2      -0.50553943       0.21602191      -0.21664287
O        5.20877265       1.76346018      14.95372921  F        1        2       0.43118083      -0.24623335      -0.37870924
O        8.17066236       0.63242506      16.25840413  F        1        2      -0.18398390      -0.55972560       0.09495549
O        5.71021236       3.62919935      13.15069587  F        1        2       0.42719181       0.28559490       0.53808529
O        7.66922265       2.49816423      14.45537079  F        1        2       0.02225445       0.38670326      -0.72217260
O        3.84371499       3.13058929      16.75676254  F        1        2       0.03398509       0.32207833       0.13409839
Si       7.23745252       0.00651263      17.46268495  T        0        1      -0.00078042       0.00232983      -0.00063488
Si       3.72872373       1.91309685      21.15732186  T        0        1       0.00241225      -0.00791743       0.00010915
Si       6.18958593       2.23945820      19.30705838  T        0        1       0.00035672       0.00250754      -0.00152895
O        6.29194880       1.16679870      18.06986591  T        1        1      -0.00015831       0.00834033      -0.00877543
O        5.15439391       1.68073297      20.41457555  T        1        1      -0.00076257      -0.00343570      -0.00566719
O        8.08500591       0.37036043      21.72915127  T        1        1      -0.00294235       0.00436461       0.00722637
O        5.70291746       3.64314793      18.63137368  T        1        1       0.00375073       0.00584895      -0.00087630
O        7.64156477       2.47092057      19.99438212  T        1        1       0.00165930      -0.00159271      -0.00177942
O        3.84608301       2.75566605      22.55593172  T        1        1       0.00280242       0.00828302      -0.01361850
F        2.70814821       0.31453735      24.34011212  T        0        0      -0.02319535      -0.00777871      -0.00777330
H        2.82424313       0.38984133      23.33967288  T        0        0      -0.00538461      -0.00286988      -0.00174145
O        4.99999927       1.38133464      25.35963813  T        0        0      -0.01727510       0.01947959       0.01851482
H        4.11971799       0.94151587      25.31763986  T        0        0       0.01556057      -0.00402720       0.01359003
H        5.17949217       1.59846203      24.42712246  T        0        0      -0.00883407       0.01822614      -0.02189767
41
Lattice="9.8418 0.0 0.0 -2.460449999999999 4.261624409482844 0.0 0.0 -0.0 34.16586254" Properties=species:S:1:pos:R:3:move_mask:L:1:spacegroup_kinds:I:1:tags:I:1:forces:R:3 surface=alpha_quartz_001 coadsorbate=H2O start=1 calculation_kind="Local coadsorbate relaxation; not a reaction path" host_atoms=36 energy=-289.34538331168767 pbc="T T F"
Si       2.31725181       0.00000000      12.00000000  F        0        2      -0.13433438      -0.36641557      -1.70882698
Si      -1.15862590       2.00679893      15.60606667  F        0        2      -0.12607579       0.05996206       1.22824002
Si       1.30182410       2.25482548      13.80303333  F        0        2       0.03404947      -0.15834864       1.00133542
O        1.38326499       1.13103512      12.65233746  F        1        2      -0.50632382       0.21816797      -0.21293229
O        0.28787265       1.76346018      14.95372921  F        1        2       0.43948882      -0.24662999      -0.37435674
O        3.24976236       0.63242506      16.25840413  F        1        2      -0.19552333      -0.54770677       0.06925843
O        0.78931236       3.62919935      13.15069587  F        1        2       0.42760578       0.28273382       0.54298002
O        2.74832265       2.49816423      14.45537079  F        1        2       0.01411892       0.38439704      -0.72375047
O       -1.07718501       3.13058929      16.75676254  F        1        2       0.05718762       0.38576581       0.20258000
Si       2.31888002       0.00732193      17.46421121  T        0        1       0.00062833       0.00008527       0.00116778
Si      -1.21874186       1.79618054      21.11874504  T        0        1       0.00050025      -0.00047861      -0.00057820
Si       1.28877973       2.25297736      19.31530343  T        0        1       0.00289191       0.00178618       0.00260487
O        1.38093295       1.16571031      18.08762359  T        1        1       0.00319111       0.00128246       0.00293960
O        0.24843546       1.72582230      20.43034104  T        1        1      -0.00022049      -0.00063196      -0.00173461
O        3.12443735       0.62478045      21.94644092  T        1        1       0.00669924      -0.00612136       0.00095661
O        0.79051648       3.64446430      18.62475198  T        1        1       0.00391716       0.00077889      -0.00038015
O        2.73685011       2.50901349      19.99697730  T        1        1      -0.00111319       0.00167316       0.00726956
O       -1.22649675       2.43624524      22.62103336  T        1        1      -0.00126091      -0.00020878      -0.00007108
Si       7.23815181       0.00000000      12.00000000  F        0        2      -0.13379039      -0.36653299      -1.70605433
Si       3.76227409       2.00679893      15.60606667  F        0        2      -0.11169119       0.07419162       1.22884702
Si       6.22272410       2.25482548      13.80303333  F        0        2       0.02718566      -0.16145639       1.01197470
O        6.30416499       1.13103512      12.65233746  F        1        2      -0.50552447       0.21599813      -0.21666995
O        5.20877265       1.76346018      14.95372921  F        1        2       0.43116128      -0.24621337      -0.37880228
O        8.17066236       0.63242506      16.25840413  F        1        2      -0.18342436      -0.55927313       0.09386605
O        5.71021236       3.62919935      13.15069587  F        1        2       0.42716979       0.28561692       0.53804157
O        7.66922265       2.49816423      14.45537079  F        1        2       0.02226204       0.38673415      -0.72221746
O        3.84371499       3.13058929      16.75676254  F        1        2       0.03438099       0.32264933       0.13486348
Si       7.23744272       0.00656768      17.46266517  T        0        1      -0.00082051       0.00219752      -0.00013731
Si       3.72879900       1.91300594      21.15736475  T        0        1       0.00207839      -0.00786006      -0.00127464
Si       6.18963004       2.23952990      19.30702288  T        0        1       0.00051164       0.00239843      -0.00226067
O        6.29193495       1.16699537      18.06964876  T        1        1       0.00009236       0.00767696      -0.00759800
O        5.15444344       1.68071348      20.41453276  T        1        1      -0.00004564      -0.00322488      -0.00635956
O        8.08507335       0.37019561      21.72910112  T        1        1      -0.00340135       0.00231875       0.00686667
O        5.70309389       3.64331444      18.63131591  T        1        1       0.00262448       0.00495316      -0.00014582
O        7.64168550       2.47079223      19.99430090  T        1        1       0.00083134      -0.00160792      -0.00192627
O        3.84587512       2.75637431      22.55539836  T        1        1       0.00361483       0.00825107      -0.00913702
F        2.70744493       0.31399196      24.34004339  T        0        0      -0.02279408      -0.00766382      -0.00349997
H        2.82401686       0.38968147      23.33982285  T        0        0      -0.00514475      -0.00285810      -0.00364984
O        4.99944426       1.38206316      25.35939065  T        0        0       0.00282570       0.02941000       0.01231078
H        4.11994774       0.94103930      25.31915820  T        0        0       0.01070656      -0.00398340      -0.00068667
H        5.17996940       1.59855356      24.42650705  T        0        0      -0.02423502       0.00818705      -0.00305224
41
Lattice="9.8418 0.0 0.0 -2.460449999999999 4.261624409482844 0.0 0.0 -0.0 34.16586254" Properties=species:S:1:pos:R:3:move_mask:L:1:spacegroup_kinds:I:1:tags:I:1:forces:R:3 surface=alpha_quartz_001 coadsorbate=H2O start=1 calculation_kind="Local coadsorbate relaxation; not a reaction path" host_atoms=36 energy=-289.34549136987664 pbc="T T F"
Si       2.31725181       0.00000000      12.00000000  F        0        2      -0.13432995      -0.36640495      -1.70875770
Si      -1.15862590       2.00679893      15.60606667  F        0        2      -0.12622838       0.05965823       1.22836215
Si       1.30182410       2.25482548      13.80303333  F        0        2       0.03405353      -0.15835164       1.00143801
O        1.38326499       1.13103512      12.65233746  F        1        2      -0.50630461       0.21814433      -0.21297395
O        0.28787265       1.76346018      14.95372921  F        1        2       0.43954640      -0.24660038      -0.37440023
O        3.24976236       0.63242506      16.25840413  F        1        2      -0.19565621      -0.54760367       0.06892897
O        0.78931236       3.62919935      13.15069587  F        1        2       0.42757939       0.28274837       0.54291934
O        2.74832265       2.49816423      14.45537079  F        1        2       0.01408354       0.38442947      -0.72380886
O       -1.07718501       3.13058929      16.75676254  F        1        2       0.05793536       0.38675250       0.20353413
Si       2.31890542       0.00732778      17.46424136  T        0        1       0.00100185       0.00001412       0.00140151
Si      -1.21864495       1.79584093      21.11860951  T        0        1       0.00010217       0.00195430       0.00084584
Si       1.28903090       2.25313305      19.31540247  T        0        1       0.00071718       0.00075418       0.00155765
O        1.38107376       1.16577016      18.08775608  T        1        1       0.00386996       0.00109138       0.00273100
O        0.24856534       1.72585402      20.43028865  T        1        1      -0.00052522      -0.00077218      -0.00090081
O        3.12487224       0.62469637      21.94687129  T        1        1       0.00727531      -0.00468076      -0.00206046
O        0.79075134       3.64456951      18.62471126  T        1        1       0.00355114       0.00029188      -0.00027552
O        2.73692233       2.50914436      19.99732374  T        1        1      -0.00202632       0.00047971       0.00399295
O       -1.22671729       2.43564533      22.62111048  T        1        1      -0.00102908       0.00076665      -0.00136212
Si       7.23815181       0.00000000      12.00000000  F        0        2      -0.13377803      -0.36652084      -1.70595886
Si       3.76227409       2.00679893      15.60606667  F        0        2      -0.11153893       0.07394857       1.22898711
Si       6.22272410       2.25482548      13.80303333  F        0        2       0.02716342      -0.16146242       1.01217635
O        6.30416499       1.13103512      12.65233746  F        1        2      -0.50548993       0.21594525      -0.21672915
O        5.20877265       1.76346018      14.95372921  F        1        2       0.43113560      -0.24617131      -0.37899149
O        8.17066236       0.63242506      16.25840413  F        1        2      -0.18245397      -0.55859133       0.09205737
O        5.71021236       3.62919935      13.15069587  F        1        2       0.42711989       0.28566310       0.53794588
O        7.66922265       2.49816423      14.45537079  F        1        2       0.02226946       0.38679019      -0.72231746
O        3.84371499       3.13058929      16.75676254  F        1        2       0.03520687       0.32393910       0.13644492
Si       7.23741336       0.00668343      17.46264021  T        0        1      -0.00082801       0.00180205       0.00022315
Si       3.72894118       1.91274345      21.15739607  T        0        1       0.00190639      -0.00615299      -0.00219869
Si       6.18970025       2.23967135      19.30692849  T        0        1       0.00080862       0.00229875      -0.00364398
O        6.29191975       1.16740462      18.06921689  T        1        1       0.00062889       0.00608810      -0.00586628
O        5.15450951       1.68062794      20.41434615  T        1        1       0.00083254      -0.00294573      -0.00701305
O        8.08509873       0.37000900      21.72915804  T        1        1      -0.00363338       0.00002816       0.00567764
O        5.70337285       3.64362750      18.63124125  T        1        1       0.00044844       0.00388760       0.00089371
O        7.64186064       2.47058637      19.99415356  T        1        1      -0.00017850      -0.00162919      -0.00188121
O        3.84567208       2.75748273      22.55452493  T        1        1       0.00486128       0.00704196      -0.00336036
F        2.70605403       0.31310635      24.33990331  T        0        0      -0.02050070      -0.00660723       0.00068097
H        2.82361594       0.38941145      23.33995363  T        0        0      -0.00553003      -0.00317165      -0.00474845
O        4.99879974       1.38363414      25.35938983  T        0        0       0.02213861       0.03953902      -0.00421441
H        4.12061300       0.94041966      25.32098064  T        0        0       0.00433392      -0.00455474      -0.01223772
H        5.17994524       1.59872002      24.42571542  T        0        0      -0.03853852      -0.00183597       0.02290210
41
Lattice="9.8418 0.0 0.0 -2.460449999999999 4.261624409482844 0.0 0.0 -0.0 34.16586254" Properties=species:S:1:pos:R:3:move_mask:L:1:spacegroup_kinds:I:1:tags:I:1:forces:R:3 surface=alpha_quartz_001 coadsorbate=H2O start=1 calculation_kind="Local coadsorbate relaxation; not a reaction path" host_atoms=36 energy=-289.3456865504321 pbc="T T F"
Si       2.31725181       0.00000000      12.00000000  F        0        2      -0.13431950      -0.36638338      -1.70861617
Si      -1.15862590       2.00679893      15.60606667  F        0        2      -0.12651474       0.05914493       1.22856393
Si       1.30182410       2.25482548      13.80303333  F        0        2       0.03405830      -0.15835510       1.00163165
O        1.38326499       1.13103512      12.65233746  F        1        2      -0.50626685       0.21809934      -0.21305483
O        0.28787265       1.76346018      14.95372921  F        1        2       0.43964730      -0.24655133      -0.37445705
O        3.24976236       0.63242506      16.25840413  F        1        2      -0.19608512      -0.54765590       0.06874134
O        0.78931236       3.62919935      13.15069587  F        1        2       0.42752974       0.28277212       0.54279768
O        2.74832265       2.49816423      14.45537079  F        1        2       0.01403173       0.38449591      -0.72392501
O       -1.07718501       3.13058929      16.75676254  F        1        2       0.05965938       0.38915680       0.20580602
Si       2.31898956       0.00731865      17.46434146  T        0        1       0.00171948      -0.00036503       0.00112902
Si      -1.21861875       1.79576073      21.11854950  T        0        1      -0.00107278       0.00464542       0.00277421
Si       1.28938033       2.25336745      19.31571607  T        0        1      -0.00297199      -0.00114432       0.00001513
O        1.38147835       1.16588245      18.08812559  T        1        1       0.00485211       0.00036678       0.00203839
O        0.24847584       1.72573318      20.43005565  T        1        1      -0.00132103      -0.00109101       0.00079226
O        3.12564217       0.62369128      21.94700996  T        1        1       0.00832333      -0.00209687      -0.00601836
O        0.79121726       3.64470131      18.62465579  T        1        1       0.00268836      -0.00043710      -0.00018039
O        2.73679496       2.50944447      19.99837575  T        1        1      -0.00288446      -0.00176868      -0.00140500
O       -1.22678179       2.43584101      22.62106781  T        1        1      -0.00065436       0.00231959      -0.00319686
Si       7.23815181       0.00000000      12.00000000  F        0        2      -0.13375325      -0.36649807      -1.70578519
Si       3.76227409       2.00679893      15.60606667  F        0        2      -0.11131221       0.07341623       1.22928301
Si       6.22272410       2.25482548      13.80303333  F        0        2       0.02712496      -0.16145700       1.01254234
O        6.30416499       1.13103512      12.65233746  F        1        2      -0.50542399       0.21584461      -0.21682834
O        5.20877265       1.76346018      14.95372921  F        1        2       0.43108170      -0.24607891      -0.37937972
O        8.17066236       0.63242506      16.25840413  F        1        2      -0.18013758      -0.55745016       0.08823389
O        5.71021236       3.62919935      13.15069587  F        1        2       0.42702217       0.28574935       0.53777235
O        7.66922265       2.49816423      14.45537079  F        1        2       0.02227812       0.38689016      -0.72251810
O        3.84371499       3.13058929      16.75676254  F        1        2       0.03668945       0.32663848       0.13958459
Si       7.23730751       0.00696286      17.46256961  T        0        1      -0.00079492       0.00089077       0.00015292
Si       3.72920943       1.91169329      21.15733862  T        0        1       0.00209538      -0.00139550      -0.00298220
Si       6.18975097       2.23999996      19.30660268  T        0        1       0.00122693       0.00205698      -0.00573636
O        6.29194070       1.16838707      18.06818425  T        1        1       0.00155430       0.00305783      -0.00316499
O        5.15447866       1.68013592      20.41352854  T        1        1       0.00188574      -0.00224264      -0.00774530
O        8.08459697       0.37059101      21.73020196  T        1        1      -0.00324655      -0.00308782       0.00256251
O        5.70369510       3.64432581      18.63119971  T        1        1      -0.00357381       0.00236217       0.00265782
O        7.64195298       2.47045096      19.99394096  T        1        1      -0.00157900      -0.00177717      -0.00167423
O        3.84625312       2.75821157      22.55325618  T        1        1       0.00687819       0.00416550       0.00484212
F        2.70335139       0.31242211      24.33913226  T        0        0      -0.01551121      -0.00446255       0.00517137
H        2.82292531       0.38906669      23.33945118  T        0        0      -0.00728280      -0.00429683      -0.00428798
O        4.99752901       1.38658403      25.35950845  T        0        0       0.04228473       0.05062572      -0.02870536
H        4.12155379       0.93958353      25.32262652  T        0        0      -0.00502505      -0.00619051      -0.02168484
H        5.17855093       1.60116435      24.42497106  T        0        0      -0.05290020      -0.01191284       0.05425373
41
Lattice="9.8418 0.0 0.0 -2.460449999999999 4.261624409482844 0.0 0.0 -0.0 34.16586254" Properties=species:S:1:pos:R:3:move_mask:L:1:spacegroup_kinds:I:1:tags:I:1:forces:R:3 surface=alpha_quartz_001 coadsorbate=H2O start=1 calculation_kind="Local coadsorbate relaxation; not a reaction path" host_atoms=36 energy=-289.34605675458056 pbc="T T F"
Si       2.31725181       0.00000000      12.00000000  F        0        2      -0.13429735      -0.36634523      -1.70835552
Si      -1.15862590       2.00679893      15.60606667  F        0        2      -0.12705917       0.05825641       1.22884576
Si       1.30182410       2.25482548      13.80303333  F        0        2       0.03405614      -0.15835899       1.00196603
O        1.38326499       1.13103512      12.65233746  F        1        2      -0.50620224       0.21802650      -0.21319675
O        0.28787265       1.76346018      14.95372921  F        1        2       0.43981194      -0.24647041      -0.37449903
O        3.24976236       0.63242506      16.25840413  F        1        2      -0.19698999      -0.54807004       0.06882071
O        0.78931236       3.62919935      13.15069587  F        1        2       0.42744982       0.28280208       0.54257699
O        2.74832265       2.49816423      14.45537079  F        1        2       0.01397169       0.38462787      -0.72412753
O       -1.07718501       3.13058929      16.75676254  F        1        2       0.06339618       0.39447176       0.21077953
Si       2.31922488       0.00725456      17.46458918  T        0        1       0.00298165      -0.00132324       0.00000611
Si      -1.21886558       1.79658511      21.11878083  T        0        1      -0.00377751       0.00712098       0.00502120
Si       1.28981243       2.25370223      19.31654079  T        0        1      -0.00880193      -0.00466498      -0.00206707
O        1.38251308       1.16607950      18.08904292  T        1        1       0.00600985      -0.00132481       0.00039131
O        0.24769803       1.72517184      20.42938127  T        1        1      -0.00288674      -0.00165385       0.00391069
O        3.12705311       0.62024569      21.94608604  T        1        1       0.01053144       0.00323195      -0.01127344
O        0.79214837       3.64483993      18.62458466  T        1        1       0.00086544      -0.00191782      -0.00008255
O        2.73608797       2.51011186      20.00109990  T        1        1      -0.00344883      -0.00626618      -0.01029322
O       -1.22627316       2.43859490      22.62064177  T        1        1      -0.00023926       0.00473298      -0.00554157
Si       7.23815181       0.00000000      12.00000000  F        0        2      -0.13370436      -0.36646123      -1.70549447
Si       3.76227409       2.00679893      15.60606667  F        0        2      -0.11099026       0.07224357       1.22984479
Si       6.22272410       2.25482548      13.80303333  F        0        2       0.02705562      -0.16141472       1.01317865
O        6.30416499       1.13103512      12.65233746  F        1        2      -0.50530742       0.21566484      -0.21697740
O        5.20877265       1.76346018      14.95372921  F        1        2       0.43095052      -0.24588039      -0.38015641
O        8.17066236       0.63242506      16.25840413  F        1        2      -0.17461545      -0.55543416       0.07985161
O        5.71021236       3.62919935      13.15069587  F        1        2       0.42684281       0.28590361       0.53747825
O        7.66922265       2.49816423      14.45537079  F        1        2       0.02229286       0.38706726      -0.72290035
O        3.84371499       3.13058929      16.75676254  F        1        2       0.03921663       0.33200122       0.14562912
Si       7.23701356       0.00760190      17.46236837  T        0        1      -0.00068525      -0.00090470      -0.00069594
Si       3.72974127       1.90873191      21.15703319  T        0        1       0.00304342       0.00916117      -0.00399176
Si       6.18970498       2.24074733      19.30569316  T        0        1       0.00158705       0.00133908      -0.00856103
O        6.29207699       1.17064020      18.06579999  T        1        1       0.00301260      -0.00241367       0.00111548
O        5.15414472       1.67859680      20.41111857  T        1        1       0.00286665      -0.00041260      -0.00844867
O        8.08266130       0.37338787      21.73385888  T        1        1      -0.00134299      -0.00762544      -0.00462914
O        5.70392476       3.64587612      18.63130501  T        1        1      -0.01085875      -0.00011625       0.00570103
O        7.64170491       2.47063875      19.99364925  T        1        1      -0.00360610      -0.00213524      -0.00132095
O        3.84910858       2.75715977      22.55148315  T        1        1       0.01025971      -0.00172692       0.01706322
F        2.69804014       0.31288671      24.33669481  T        0        0      -0.00577814      -0.00065610       0.01025712
H        2.82165414       0.38866561      23.33718887  T        0        0      -0.01186859      -0.00712520      -0.00070750
O        4.99472937       1.39219569      25.35963883  T        0        0       0.05815335       0.06007635      -0.05693085
H        4.12259586       0.93840175      25.32309303  T        0        0      -0.01624103      -0.00802998      -0.02653276
H        5.17383023       1.60994792      24.42473417  T        0        0      -0.06565403      -0.01999548       0.08434632
41
Lattice="9.8418 0.0 0.0 -2.460449999999999 4.261624409482844 0.0 0.0 -0.0 34.16586254" Properties=species:S:1:pos:R:3:move_mask:L:1:spacegroup_kinds:I:1:tags:I:1:forces:R:3 surface=alpha_quartz_001 coadsorbate=H2O start=1 calculation_kind="Local coadsorbate relaxation; not a reaction path" host_atoms=36 energy=-289.3465637433683 pbc="T T F"
Si       2.31725181       0.00000000      12.00000000  F        0        2      -0.13426562      -0.36630232      -1.70803988
Si      -1.15862590       2.00679893      15.60606667  F        0        2      -0.12777917       0.05717380       1.22904378
Si       1.30182410       2.25482548      13.80303333  F        0        2       0.03403194      -0.15836346       1.00234506
O        1.38326499       1.13103512      12.65233746  F        1        2      -0.50613383       0.21795721      -0.21335886
O        0.28787265       1.76346018      14.95372921  F        1        2       0.43998528      -0.24637626      -0.37445349
O        3.24976236       0.63242506      16.25840413  F        1        2      -0.19803094      -0.54892245       0.06912917
O        0.78931236       3.62919935      13.15069587  F        1        2       0.42737466       0.28281449       0.54231388
O        2.74832265       2.49816423      14.45537079  F        1        2       0.01395455       0.38480780      -0.72434682
O       -1.07718501       3.13058929      16.75676254  F        1        2       0.06903300       0.40246963       0.21826206
Si       2.31966623       0.00709008      17.46498456  T        0        1       0.00432566      -0.00278723      -0.00177985
Si      -1.21962067       1.79893870      21.11954145  T        0        1      -0.00770284       0.00705439       0.00609602
Si       1.29006545       2.25398585      19.31795965  T        0        1      -0.01449499      -0.00923407      -0.00373162
O        1.38430270       1.16630812      18.09056729  T        1        1       0.00617508      -0.00384456      -0.00213059
O        0.24584062       1.72397071      20.42819678  T        1        1      -0.00492174      -0.00220046       0.00771775
O        3.12901743       0.61361891      21.94328861  T        1        1       0.01373656       0.01139744      -0.01527781
O        0.79348597       3.64487394      18.62452672  T        1        1      -0.00185218      -0.00446065       0.00001940
O        2.73453096       2.51109556      20.00569623  T        1        1      -0.00288310      -0.01259167      -0.01995909
O       -1.22478917       2.44539483      22.61960197  T        1        1      -0.00029112       0.00697782      -0.00736791
Si       7.23815181       0.00000000      12.00000000  F        0        2      -0.13363679      -0.36642641      -1.70518165
Si       3.76227409       2.00679893      15.60606667  F        0        2      -0.11071713       0.07040241       1.23054477
Si       6.22272410       2.25482548      13.80303333  F        0        2       0.02696232      -0.16131410       1.01392538
O        6.30416499       1.13103512      12.65233746  F        1        2      -0.50517192       0.21545100      -0.21710946
O        5.20877265       1.76346018      14.95372921  F        1        2       0.43071827      -0.24558025      -0.38123924
O        8.17066236       0.63242506      16.25840413  F        1        2      -0.16541904      -0.55289269       0.06674173
O        5.71021236       3.62919935      13.15069587  F        1        2       0.42662236       0.28609078       0.53715137
O        7.66922265       2.49816423      14.45537079  F        1        2       0.02231677       0.38728323      -0.72339870
O        3.84371499       3.13058929      16.75676254  F        1        2       0.04208428       0.33929732       0.15364848
Si       7.23648893       0.00860520      17.46198258  T        0        1      -0.00050568      -0.00317621      -0.00229660
Si       3.73053984       1.90356863      21.15635033  T        0        1       0.00473157       0.02450875      -0.00502635
Si       6.18946719       2.24193462      19.30403076  T        0        1       0.00122874      -0.00010531      -0.01045614
O        6.29240465       1.17420323      18.06198446  T        1        1       0.00429063      -0.00898831       0.00574524
O        5.15334260       1.67573089      20.40668031  T        1        1       0.00273623       0.00286557      -0.00838827
O        8.07878651       0.37932305      21.74091266  T        1        1       0.00278793      -0.01183240      -0.01582527
O        5.70367541       3.64829723      18.63172093  T        1        1      -0.01977684      -0.00327653       0.00921170
O        7.64081748       2.47143623      19.99337842  T        1        1      -0.00558279      -0.00248686      -0.00104398
O        3.85530384       2.75262865      22.54991037  T        1        1       0.01423912      -0.01030668       0.02922229
F        2.69049235       0.31573419      24.33212488  T        0        0       0.00750571       0.00398955       0.01346834
H        2.81982603       0.38835562      23.33250064  T        0        0      -0.01928595      -0.01153820       0.00685741
O        4.99028253       1.40010778      25.35958956  T        0        0       0.05211410       0.05779320      -0.06944926
H        4.12308944       0.93723282      25.32057897  T        0        0      -0.02130618      -0.00729202      -0.01936026
H        5.16462924       1.62735040      24.42586839  T        0        0      -0.06719690      -0.01803528       0.08777729
41
Lattice="9.8418 0.0 0.0 -2.460449999999999 4.261624409482844 0.0 0.0 -0.0 34.16586254" Properties=species:S:1:pos:R:3:move_mask:L:1:spacegroup_kinds:I:1:tags:I:1:forces:R:3 surface=alpha_quartz_001 coadsorbate=H2O start=1 calculation_kind="Local coadsorbate relaxation; not a reaction path" host_atoms=36 energy=-289.347066839983 pbc="T T F"
Si       2.31725181       0.00000000      12.00000000  F        0        2      -0.13423826      -0.36628138      -1.70784382
Si      -1.15862590       2.00679893      15.60606667  F        0        2      -0.12833971       0.05641308       1.22895204
Si       1.30182410       2.25482548      13.80303333  F        0        2       0.03397848      -0.15837102       1.00255061
O        1.38326499       1.13103512      12.65233746  F        1        2      -0.50610858       0.21794653      -0.21344566
O        0.28787265       1.76346018      14.95372921  F        1        2       0.44006068      -0.24631279      -0.37428349
O        3.24976236       0.63242506      16.25840413  F        1        2      -0.19833547      -0.54986552       0.06922509
O        0.78931236       3.62919935      13.15069587  F        1        2       0.42736501       0.28278302       0.54215620
O        2.74832265       2.49816423      14.45537079  F        1        2       0.01402994       0.38495292      -0.72443553
O       -1.07718501       3.13058929      16.75676254  F        1        2       0.07446695       0.40996926       0.22534345
Si       2.32021614       0.00683620      17.46537432  T        0        1       0.00474460      -0.00409543      -0.00306410
Si      -1.22079257       1.80227021      21.12068471  T        0        1      -0.01067981       0.00373341       0.00423051
Si       1.28986557       2.25398689      19.31951463  T        0        1      -0.01625735      -0.01280074      -0.00386651
O        1.38631828       1.16643324      18.09218241  T        1        1       0.00410142      -0.00610988      -0.00441038
O        0.24333529       1.72244231      20.42693482  T        1        1      -0.00620785      -0.00218350       0.01006402
O        3.13095532       0.60587411      21.93916980  T        1        1       0.01641144       0.01987707      -0.01461833
O        0.79473362       3.64469980      18.62451245  T        1        1      -0.00449271      -0.00759786       0.00011903
O        2.73254409       2.51192978      20.01056043  T        1        1      -0.00127994      -0.01758610      -0.02514382
O       -1.22268653       2.45457068      22.61817151  T        1        1      -0.00128511       0.00727651      -0.00761546
Si       7.23815181       0.00000000      12.00000000  F        0        2      -0.13357934      -0.36642162      -1.70504356
Si       3.76227409       2.00679893      15.60606667  F        0        2      -0.11070500       0.06849673       1.23100976
Si       6.22272410       2.25482548      13.80303333  F        0        2       0.02687985      -0.16117707       1.01438198
O        6.30416499       1.13103512      12.65233746  F        1        2      -0.50509564       0.21532054      -0.21712018
O        5.20877265       1.76346018      14.95372921  F        1        2       0.43044131      -0.24528543      -0.38217029
O        8.17066236       0.63242506      16.25840413  F        1        2      -0.15534176      -0.55096679       0.05327408
O        5.71021236       3.62919935      13.15069587  F        1        2       0.42647764       0.28621375       0.53698481
O        7.66922265       2.49816423      14.45537079  F        1        2       0.02234606       0.38742827      -0.72377599
O        3.84371499       3.13058929      16.75676254  F        1        2       0.04365705       0.34516147       0.15989966
Si       7.23589063       0.00961067      17.46149416  T        0        1      -0.00028731      -0.00471483      -0.00362331
Si       3.73138452       1.89806715      21.15543510  T        0        1       0.00646965       0.03715795      -0.00486477
Si       6.18907559       2.24315854      19.30205771  T        0        1      -0.00006774      -0.00185550      -0.00945682
O        6.29286694       1.17782347      18.05802611  T        1        1       0.00409065      -0.01303718       0.00817370
O        5.15227394       1.67243682      20.40149023  T        1        1       0.00085613       0.00657668      -0.00676314
O        8.07413672       0.38668907      21.74912357  T        1        1       0.00787604      -0.01359164      -0.02635134
O        5.70272616       3.65075205      18.63243924  T        1        1      -0.02559438      -0.00600301       0.01110448
O        7.63943949       2.47266786      19.99324787  T        1        1      -0.00637131      -0.00230173      -0.00112876
O        3.86327478       2.74537745      22.54951785  T        1        1       0.01671369      -0.01852488       0.03406529
F        2.68347682       0.32051481      24.32683051  T        0        0       0.01872069       0.00714642       0.01306779
H        2.81788471       0.38819216      23.32682023  T        0        0      -0.02622660      -0.01545016       0.01517911
O        4.98556124       1.40769547      25.35924607  T        0        0       0.02125153       0.03999201      -0.05430440
H        4.12266537       0.93664250      25.31526812  T        0        0      -0.01655108      -0.00377495       0.00026315
H        5.15329622       1.64845406      24.42836672  T        0        0      -0.05389384      -0.00213664       0.05328490
41
Lattice="9.8418 0.0 0.0 -2.460449999999999 4.261624409482844 0.0 0.0 -0.0 34.16586254" Properties=species:S:1:pos:R:3:move_mask:L:1:spacegroup_kinds:I:1:tags:I:1:forces:R:3 surface=alpha_quartz_001 coadsorbate=H2O start=1 calculation_kind="Local coadsorbate relaxation; not a reaction path" host_atoms=36 energy=-289.34753558210855 pbc="T T F"
Si       2.31725181       0.00000000      12.00000000  F        0        2      -0.13422245      -0.36629316      -1.70784144
Si      -1.15862590       2.00679893      15.60606667  F        0        2      -0.12857037       0.05620166       1.22853980
Si       1.30182410       2.25482548      13.80303333  F        0        2       0.03390054      -0.15838420       1.00250119
O        1.38326499       1.13103512      12.65233746  F        1        2      -0.50614460       0.21801259      -0.21341969
O        0.28787265       1.76346018      14.95372921  F        1        2       0.43999834      -0.24629559      -0.37400630
O        3.24976236       0.63242506      16.25840413  F        1        2      -0.19751706      -0.55066007       0.06885949
O        0.78931236       3.62919935      13.15069587  F        1        2       0.42744079       0.28270297       0.54216582
O        2.74832265       2.49816423      14.45537079  F        1        2       0.01419939       0.38501989      -0.72434225
O       -1.07718501       3.13058929      16.75676254  F        1        2       0.07837645       0.41495859       0.23017696
Si       2.32079203       0.00651016      17.46566120  T        0        1       0.00388160      -0.00475261      -0.00297623
Si      -1.22221376       1.80584531      21.12195153  T        0        1      -0.01117770      -0.00077279      -0.00049628
Si       1.28919778       2.25362028      19.32088797  T        0        1      -0.01339335      -0.01436673      -0.00281135
O        1.38815920       1.16638215      18.09353499  T        1        1      -0.00022815      -0.00756818      -0.00567896
O        0.24066350       1.72089143      20.42591374  T        1        1      -0.00575017      -0.00139517       0.00989065
O        3.13265287       0.59877106      21.93455821  T        1        1       0.01732413       0.02661048      -0.00863139
O        0.79561810       3.64428326      18.62454222  T        1        1      -0.00648704      -0.01075010       0.00014538
O        2.73054529       2.51232118      20.01458187  T        1        1       0.00052940      -0.01898406      -0.02451300
O       -1.22044187       2.46422669      22.61660578  T        1        1      -0.00328608       0.00494723      -0.00659017
Si       7.23815181       0.00000000      12.00000000  F        0        2      -0.13354713      -0.36645652      -1.70515376
Si       3.76227409       2.00679893      15.60606667  F        0        2      -0.11101363       0.06689248       1.23109957
Si       6.22272410       2.25482548      13.80303333  F        0        2       0.02682219      -0.16103036       1.01438751
O        6.30416499       1.13103512      12.65233746  F        1        2      -0.50511089       0.21532247      -0.21698004
O        5.20877265       1.76346018      14.95372921  F        1        2       0.43016941      -0.24505268      -0.38272103
O        8.17066236       0.63242506      16.25840413  F        1        2      -0.14623040      -0.55013176       0.04207143
O        5.71021236       3.62919935      13.15069587  F        1        2       0.42646070       0.28623181       0.53705256
O        7.66922265       2.49816423      14.45537079  F        1        2       0.02237702       0.38745111      -0.72391849
O        3.84371499       3.13058929      16.75676254  F        1        2       0.04322575       0.34777155       0.16245120
Si       7.23533604       0.01039366      17.46097096  T        0        1      -0.00015673      -0.00488100      -0.00378055
Si       3.73217493       1.89361431      21.15445163  T        0        1       0.00762820       0.04201680      -0.00301934
Si       6.18859924       2.24416064      19.30013070  T        0        1      -0.00184630      -0.00336288      -0.00574389
O        6.29337957       1.18072538      18.05472790  T        1        1       0.00195407      -0.01297457       0.00765839
O        5.15114209       1.66944557      20.39655621  T        1        1      -0.00189610       0.00967170      -0.00359401
O        8.06975079       0.39388448      21.75659452  T        1        1       0.01218974      -0.01366633      -0.03271777
O        5.70111751       3.65272251      18.63337907  T        1        1      -0.02609560      -0.00779675       0.01056901
O        7.63783001       2.47405280      19.99325343  T        1        1      -0.00580779      -0.00120106      -0.00181750
O        3.87150267       2.73682609      22.55048954  T        1        1       0.01679529      -0.02394806       0.03059781
F        2.67843477       0.32621312      24.32193614  T        0        0       0.02437463       0.00742335       0.01092942
H        2.81595435       0.38804966      23.32146669  T        0        0      -0.02990887      -0.01731745       0.02062567
O        4.98124610       1.41366680      25.35855988  T        0        0      -0.01767712       0.01522987      -0.02217485
H        4.12141032       0.93665909      25.30871381  T        0        0      -0.00676673       0.00018330       0.02396660
H        5.14196828       1.66922652      24.43150051  T        0        0      -0.03481340       0.02139425      -0.00076017
41
Lattice="9.8418 0.0 0.0 -2.460449999999999 4.261624409482844 0.0 0.0 -0.0 34.16586254" Properties=species:S:1:pos:R:3:move_mask:L:1:spacegroup_kinds:I:1:tags:I:1:forces:R:3 surface=alpha_quartz_001 coadsorbate=H2O start=1 calculation_kind="Local coadsorbate relaxation; not a reaction path" host_atoms=36 energy=-289.34805504660494 pbc="T T F"
Si       2.31725181       0.00000000      12.00000000  F        0        2      -0.13421274      -0.36633097      -1.70798099
Si      -1.15862590       2.00679893      15.60606667  F        0        2      -0.12854775       0.05641975       1.22787170
Si       1.30182410       2.25482548      13.80303333  F        0        2       0.03379825      -0.15840841       1.00227215
O        1.38326499       1.13103512      12.65233746  F        1        2      -0.50623240       0.21814330      -0.21331014
O        0.28787265       1.76346018      14.95372921  F        1        2       0.43982169      -0.24630502      -0.37363290
O        3.24976236       0.63242506      16.25840413  F        1        2      -0.19565150      -0.55146311       0.06810426
O        0.78931236       3.62919935      13.15069587  F        1        2       0.42758958       0.28257715       0.54229883
O        2.74832265       2.49816423      14.45537079  F        1        2       0.01445128       0.38503083      -0.72410936
O       -1.07718501       3.13058929      16.75676254  F        1        2       0.08143227       0.41820541       0.23352869
Si       2.32147688       0.00605649      17.46590023  T        0        1       0.00189771      -0.00473176      -0.00157224
Si      -1.22400621       1.80978809      21.12332658  T        0        1      -0.00929763      -0.00508414      -0.00682058
Si       1.28813275       2.25286807      19.32227779  T        0        1      -0.00717885      -0.01435663      -0.00165316
O        1.39006055       1.16614181      18.09482345  T        1        1      -0.00670096      -0.00873704      -0.00608553
O        0.23762892       1.71918585      20.42502936  T        1        1      -0.00332562       0.00008203       0.00755564
O        3.13468247       0.59172847      21.92928992  T        1        1       0.01581234       0.03148119       0.00247247
O        0.79634207       3.64355882      18.62459275  T        1        1      -0.00827935      -0.01398879       0.00000548
O        2.72838069       2.51230809      20.01829510  T        1        1       0.00256482      -0.01691481      -0.01945445
O       -1.21802020       2.47493552      22.61475772  T        1        1      -0.00646879      -0.00018323      -0.00558414
Si       7.23815181       0.00000000      12.00000000  F        0        2      -0.13352995      -0.36652709      -1.70546296
Si       3.76227409       2.00679893      15.60606667  F        0        2      -0.11161350       0.06526777       1.23096483
Si       6.22272410       2.25482548      13.80303333  F        0        2       0.02676255      -0.16086721       1.01406912
O        6.30416499       1.13103512      12.65233746  F        1        2      -0.50519724       0.21542390      -0.21671422
O        5.20877265       1.76346018      14.95372921  F        1        2       0.42987786      -0.24482376      -0.38307852
O        8.17066236       0.63242506      16.25840413  F        1        2      -0.13658179      -0.55002074       0.03107134
O        5.71021236       3.62919935      13.15069587  F        1        2       0.42654020       0.28617666       0.53730160
O        7.66922265       2.49816423      14.45537079  F        1        2       0.02241256       0.38737378      -0.72390255
O        3.84371499       3.13058929      16.75676254  F        1        2       0.04107178       0.34794481       0.16221366
Si       7.23474626       0.01109643      17.46033931  T        0        1      -0.00040823      -0.00365778      -0.00249541
Si       3.73313390       1.88977574      21.15332355  T        0        1       0.00763999       0.03963913      -0.00018347
Si       6.18801296       2.24511360      19.29798991  T        0        1      -0.00393502      -0.00457898      -0.00040428
O        6.29396348       1.18344341      18.05148193  T        1        1      -0.00194005      -0.00973871       0.00515440
O        5.14985011       1.66646529      20.39125220  T        1        1      -0.00444318       0.01210435       0.00105749
O        8.06528260       0.40142053      21.76393154  T        1        1       0.01573250      -0.01339979      -0.03569984
O        5.69875251       3.65456411      18.63462944  T        1        1      -0.02215916      -0.00909804       0.00795494
O        7.63591424       2.47560496      19.99326991  T        1        1      -0.00429983       0.00107642      -0.00328456
O        3.88078503       2.72669600      22.55246578  T        1        1       0.01513269      -0.02665011       0.02268099
F        2.67403473       0.33282926      24.31693948  T        0        0       0.02553515       0.00500306       0.00905041
H        2.81338875       0.38763095      23.31608115  T        0        0      -0.02992431      -0.01692309       0.02303509
O        4.97632905       1.41974837      25.35740380  T        0        0      -0.05266365      -0.00915961       0.01242712
H        4.11957107       0.93683830      25.30171894  T        0        0       0.00525967       0.00513907       0.04436994
H        5.12924431       1.69216845      24.43489018  T        0        0      -0.02074140       0.04486023      -0.05403087
41
Lattice="9.8418 0.0 0.0 -2.460449999999999 4.261624409482844 0.0 0.0 -0.0 34.16586254" Properties=species:S:1:pos:R:3:move_mask:L:1:spacegroup_kinds:I:1:tags:I:1:forces:R:3 surface=alpha_quartz_001 coadsorbate=H2O start=1 calculation_kind="Local coadsorbate relaxation; not a reaction path" host_atoms=36 energy=-289.34887356404226 pbc="T T F"
Si       2.31725181       0.00000000      12.00000000  F        0        2      -0.13419841      -0.36639251      -1.70821312
Si      -1.15862590       2.00679893      15.60606667  F        0        2      -0.12837747       0.05697948       1.22688586
Si       1.30182410       2.25482548      13.80303333  F        0        2       0.03363794      -0.15846597       1.00193254
O        1.38326499       1.13103512      12.65233746  F        1        2      -0.50637827       0.21835306      -0.21313888
O        0.28787265       1.76346018      14.95372921  F        1        2       0.43953245      -0.24630823      -0.37309570
O        3.24976236       0.63242506      16.25840413  F        1        2      -0.19231221      -0.55278481       0.06696956
O        0.78931236       3.62919935      13.15069587  F        1        2       0.42783106       0.28237811       0.54251697
O        2.74832265       2.49816423      14.45537079  F        1        2       0.01483552       0.38501867      -0.72374026
O       -1.07718501       3.13058929      16.75676254  F        1        2       0.08559297       0.42176882       0.23751632
Si       2.32260788       0.00524846      17.46625196  T        0        1      -0.00167166      -0.00412599       0.00084972
Si      -1.22687159       1.81532454      21.12514429  T        0        1      -0.00478969      -0.00963565      -0.01541762
Si       1.28646410       2.25144971      19.32435437  T        0        1       0.00284143      -0.01321246      -0.00116410
O        1.39292222       1.16559350      18.09670787  T        1        1      -0.01725688      -0.01074031      -0.00593480
O        0.23311447       1.71666071      20.42391853  T        1        1       0.00178643       0.00261119       0.00293246
O        3.13865289       0.58205758      21.92175838  T        1        1       0.01014461       0.03596417       0.02206521
O        0.79742761       3.64218068      18.62462919  T        1        1      -0.01104113      -0.01823283      -0.00042728
O        2.72524373       2.51187861      20.02346772  T        1        1       0.00559551      -0.01105900      -0.00979983
O       -1.21480147       2.49035747      22.61184953  T        1        1      -0.01208721      -0.00990156      -0.00589464
Si       7.23815181       0.00000000      12.00000000  F        0        2      -0.13350518      -0.36664564      -1.70597017
Si       3.76227409       2.00679893      15.60606667  F        0        2      -0.11262116       0.06267532       1.23079757
Si       6.22272410       2.25482548      13.80303333  F        0        2       0.02664286      -0.16063124       1.01355460
O        6.30416499       1.13103512      12.65233746  F        1        2      -0.50534444       0.21559827      -0.21629539
O        5.20877265       1.76346018      14.95372921  F        1        2       0.42944285      -0.24444515      -0.38364508
O        8.17066236       0.63242506      16.25840413  F        1        2      -0.12146153      -0.55022276       0.01426395
O        5.71021236       3.62919935      13.15069587  F        1        2       0.42668489       0.28608580       0.53770821
O        7.66922265       2.49816423      14.45537079  F        1        2       0.02246169       0.38720780      -0.72386177
O        3.84371499       3.13058929      16.75676254  F        1        2       0.03699926       0.34705556       0.16050685
Si       7.23382018       0.01214179      17.45931418  T        0        1      -0.00145543      -0.00075667       0.00065353
Si       3.73492669       1.88498507      21.15160901  T        0        1       0.00572624       0.03003596       0.00474073
Si       6.18712636       2.24655791      19.29458770  T        0        1      -0.00676527      -0.00564676       0.00704146
O        6.29480631       1.18756905      18.04642012  T        1        1      -0.00851146      -0.00385121       0.00121892
O        5.14792123       1.66226982      20.38310662  T        1        1      -0.00676742       0.01444858       0.00900110
O        8.05905504       0.41197209      21.77388804  T        1        1       0.02005285      -0.01320525      -0.03774820
O        5.69476083       3.65733975      18.63670840  T        1        1      -0.01382727      -0.01070450       0.00261352
O        7.63306129       2.47772408      19.99305178  T        1        1      -0.00169316       0.00544719      -0.00595310
O        3.89493704       2.71194052      22.55546728  T        1        1       0.01196064      -0.02861692       0.01196259
F        2.66679937       0.34196250      24.30980471  T        0        0       0.02491732      -0.00015084       0.00767739
H        2.80827609       0.38622723      23.30877298  T        0        0      -0.02554935      -0.01336241       0.02421193
O        4.96799569       1.43087933      25.35531579  T        0        0      -0.08449497      -0.03576880       0.04692249
H        4.11745953       0.93664593      25.29354243  T        0        0       0.02148971       0.01521598       0.06013464
H        5.10861928       1.72717404      24.43908282  T        0        0      -0.01806667       0.06802350      -0.10437818
41
Lattice="9.8418 0.0 0.0 -2.460449999999999 4.261624409482844 0.0 0.0 -0.0 34.16586254" Properties=species:S:1:pos:R:3:move_mask:L:1:spacegroup_kinds:I:1:tags:I:1:forces:R:3 surface=alpha_quartz_001 coadsorbate=H2O start=1 calculation_kind="Local coadsorbate relaxation; not a reaction path" host_atoms=36 energy=-289.35015034775756 pbc="T T F"
Si       2.31725181       0.00000000      12.00000000  F        0        2      -0.13417311      -0.36646524      -1.70845613
Si      -1.15862590       2.00679893      15.60606667  F        0        2      -0.12814015       0.05784182       1.22573295
Si       1.30182410       2.25482548      13.80303333  F        0        2       0.03340734      -0.15858470       1.00161496
O        1.38326499       1.13103512      12.65233746  F        1        2      -0.50656559       0.21862183      -0.21295889
O        0.28787265       1.76346018      14.95372921  F        1        2       0.43919091      -0.24626431      -0.37245354
O        3.24976236       0.63242506      16.25840413  F        1        2      -0.18752213      -0.55500631       0.06593336
O        0.78931236       3.62919935      13.15069587  F        1        2       0.42814760       0.28211408       0.54275075
O        2.74832265       2.49816423      14.45537079  F        1        2       0.01532828       0.38499340      -0.72329862
O       -1.07718501       3.13058929      16.75676254  F        1        2       0.09162367       0.42609157       0.24266362
Si       2.32434971       0.00394321      17.46680128  T        0        1      -0.00692775      -0.00296490       0.00340166
Si      -1.23105994       1.82243840      21.12726104  T        0        1       0.00256391      -0.01382818      -0.02610665
Si       1.28423699       2.24916223      19.32734324  T        0        1       0.01607868      -0.01074698      -0.00212726
O        1.39703871       1.16458519      18.09943550  T        1        1      -0.03211864      -0.01431107      -0.00507996
O        0.22690392       1.71316584      20.42256482  T        1        1       0.00984595       0.00632144      -0.00384748
O        3.14584143       0.56950387      21.91206310  T        1        1      -0.00194533       0.03968377       0.05132345
O        0.79913428       3.63986755      18.62458646  T        1        1      -0.01523930      -0.02295056      -0.00136886
O        2.72100932       2.51085420      20.03058295  T        1        1       0.00980623      -0.00098437       0.00471587
O       -1.21104627       2.51080206      22.60753812  T        1        1      -0.02071029      -0.02505792      -0.00890195
Si       7.23815181       0.00000000      12.00000000  F        0        2      -0.13345435      -0.36680743      -1.70659306
Si       3.76227409       2.00679893      15.60606667  F        0        2      -0.11398696       0.05870633       1.23082165
Si       6.22272410       2.25482548      13.80303333  F        0        2       0.02642253      -0.16031280       1.01305847
O        6.30416499       1.13103512      12.65233746  F        1        2      -0.50552287       0.21579656      -0.21577180
O        5.20877265       1.76346018      14.95372921  F        1        2       0.42881857      -0.24383467      -0.38472049
O        8.17066236       0.63242506      16.25840413  F        1        2      -0.09889447      -0.55072831      -0.01061202
O        5.71021236       3.62919935      13.15069587  F        1        2       0.42684612       0.28600963       0.53818190
O        7.66922265       2.49816423      14.45537079  F        1        2       0.02251468       0.38697048      -0.72394367
O        3.84371499       3.13058929      16.75676254  F        1        2       0.03105376       0.34604685       0.15815219
Si       7.23240114       0.01374199      17.45778904  T        0        1      -0.00364519       0.00388439       0.00555556
Si       3.73803661       1.87919572      21.14920632  T        0        1       0.00115142       0.01185802       0.01335812
Si       6.18590442       2.24874534      19.28943830  T        0        1      -0.01024725      -0.00586220       0.01611125
O        6.29589408       1.19385961      18.03861728  T        1        1      -0.01778879       0.00373942      -0.00317482
O        5.14525992       1.65662904      20.37117648  T        1        1      -0.00864418       0.01618810       0.02134467
O        8.05090780       0.42571658      21.78660343  T        1        1       0.02543545      -0.01285207      -0.03963556
O        5.68875213       3.66152069      18.63984531  T        1        1      -0.00123726      -0.01261753      -0.00606817
O        7.62918989       2.48031862      19.99225845  T        1        1       0.00204942       0.01217330      -0.00985476
O        3.91519249       2.69247834      22.55912858  T        1        1       0.00717169      -0.03164646      -0.00003073
F        2.65447532       0.35305280      24.30014242  T        0        0       0.02451458      -0.00778046       0.00699934
H        2.79905153       0.38301674      23.29954896  T        0        0      -0.01463401      -0.00454306       0.02489963
O        4.95478424       1.45089064      25.35215896  T        0        0      -0.10872443      -0.06280548       0.07171670
H        4.11639548       0.93566646      25.28565353  T        0        0       0.04352626       0.03625797       0.06509516
H        5.07607316       1.77736839      24.44369558  T        0        0      -0.03537500       0.08365604      -0.13842684
41
Lattice="9.8418 0.0 0.0 -2.460449999999999 4.261624409482844 0.0 0.0 -0.0 34.16586254" Properties=species:S:1:pos:R:3:move_mask:L:1:spacegroup_kinds:I:1:tags:I:1:forces:R:3 surface=alpha_quartz_001 coadsorbate=H2O start=1 calculation_kind="Local coadsorbate relaxation; not a reaction path" host_atoms=36 energy=-289.35165298941916 pbc="T T F"
Si       2.31725181       0.00000000      12.00000000  F        0        2      -0.13414685      -0.36652218      -1.70861842
Si      -1.15862590       2.00679893      15.60606667  F        0        2      -0.12791436       0.05879816       1.22490014
Si       1.30182410       2.25482548      13.80303333  F        0        2       0.03317645      -0.15874832       1.00146837
O        1.38326499       1.13103512      12.65233746  F        1        2      -0.50672984       0.21885689      -0.21284477
O        0.28787265       1.76346018      14.95372921  F        1        2       0.43895386      -0.24616573      -0.37197847
O        3.24976236       0.63242506      16.25840413  F        1        2      -0.18278235      -0.55754401       0.06570290
O        0.78931236       3.62919935      13.15069587  F        1        2       0.42843343       0.28187683       0.54291285
O        2.74832265       2.49816423      14.45537079  F        1        2       0.01573914       0.38493840      -0.72295595
O       -1.07718501       3.13058929      16.75676254  F        1        2       0.09714070       0.42875354       0.24637915
Si       2.32617090       0.00249323      17.46736250  T        0        1      -0.01231153      -0.00150240       0.00488899
Si      -1.23523652       1.82838334      21.12873130  T        0        1       0.01069257      -0.01527072      -0.03791472
Si       1.28219213       2.24656776      19.33018396  T        0        1       0.02895520      -0.00688577      -0.00409633
O        1.40095981       1.16328284      18.10205238  T        1        1      -0.04643442      -0.01845595      -0.00354713
O        0.22120780       1.70994858      20.42159079  T        1        1       0.01959171       0.01004564      -0.01162887
O        3.15448268       0.55911488      21.90402076  T        1        1      -0.01876236       0.03892246       0.08066913
O        0.80087095       3.63716303      18.62443129  T        1        1      -0.01932210      -0.02556388      -0.00275219
O        2.71724900       2.50929140      20.03692968  T        1        1       0.01275381       0.01168133       0.01994637
O       -1.20847878       2.52856897      22.60312714  T        1        1      -0.02923980      -0.03976313      -0.01146010
Si       7.23815181       0.00000000      12.00000000  F        0        2      -0.13338940      -0.36695926      -1.70710200
Si       3.76227409       2.00679893      15.60606667  F        0        2      -0.11521776       0.05474278       1.23111008
Si       6.22272410       2.25482548      13.80303333  F        0        2       0.02616386      -0.16002410       1.01281616
O        6.30416499       1.13103512      12.65233746  F        1        2      -0.50567016       0.21594452      -0.21534065
O        5.20877265       1.76346018      14.95372921  F        1        2       0.42820832      -0.24318801      -0.38601335
O        8.17066236       0.63242506      16.25840413  F        1        2      -0.07654506      -0.55176015      -0.03471850
O        5.71021236       3.62919935      13.15069587  F        1        2       0.42696289       0.28598466       0.53853648
O        7.66922265       2.49816423      14.45537079  F        1        2       0.02253874       0.38673317      -0.72417501
O        3.84371499       3.13058929      16.75676254  F        1        2       0.02479408       0.34487324       0.15535789
Si       7.23091186       0.01537898      17.45626313  T        0        1      -0.00626874       0.00886859       0.01023603
Si       3.74165926       1.87508515      21.14698687  T        0        1      -0.00438922      -0.01234757       0.02312758
Si       6.18476317       2.25096551      19.28414764  T        0        1      -0.01316459      -0.00478155       0.02408646
O        6.29678667       1.20023611      18.03057531  T        1        1      -0.02699720       0.01078385      -0.00658749
O        5.14280592       1.65169775      20.35944125  T        1        1      -0.00897823       0.01589286       0.03474291
O        8.04406628       0.43725510      21.79679303  T        1        1       0.02846168      -0.01308259      -0.03886264
O        5.68247363       3.66568647      18.64308822  T        1        1       0.01270907      -0.01334290      -0.01608349
O        7.62567544       2.48233499      19.99092299  T        1        1       0.00587135       0.01949035      -0.01419893
O        3.93477266       2.67542580      22.56221923  T        1        1       0.00166225      -0.03500469      -0.00892674
F        2.64062211       0.36148451      24.29161477  T        0        0       0.02404111      -0.01544683       0.00968538
H        2.78792131       0.37852989      23.29226377  T        0        0       0.00177879       0.00820042       0.02219578
O        4.94082345       1.47489577      25.34900566  T        0        0      -0.12630979      -0.09205394       0.10151638
H        4.11798090       0.93437487      25.28176980  T        0        0       0.06487706       0.06381190       0.06023625
H        5.04025412       1.82539114      24.44698375  T        0        0      -0.05893232       0.09521411      -0.17070955
41
Lattice="9.8418 0.0 0.0 -2.460449999999999 4.261624409482844 0.0 0.0 -0.0 34.16586254" Properties=species:S:1:pos:R:3:move_mask:L:1:spacegroup_kinds:I:1:tags:I:1:forces:R:3 surface=alpha_quartz_001 coadsorbate=H2O start=1 calculation_kind="Local coadsorbate relaxation; not a reaction path" host_atoms=36 energy=-289.35341117363816 pbc="T T F"
Si       2.31725181       0.00000000      12.00000000  F        0        2      -0.13412157      -0.36656115      -1.70869689
Si      -1.15862590       2.00679893      15.60606667  F        0        2      -0.12774288       0.05987768       1.22438395
Si       1.30182410       2.25482548      13.80303333  F        0        2       0.03294944      -0.15894729       1.00145236
O        1.38326499       1.13103512      12.65233746  F        1        2      -0.50686320       0.21905098      -0.21279402
O        0.28787265       1.76346018      14.95372921  F        1        2       0.43882044      -0.24603062      -0.37164854
O        3.24976236       0.63242506      16.25840413  F        1        2      -0.17872805      -0.56053385       0.06701908
O        0.78931236       3.62919935      13.15069587  F        1        2       0.42867911       0.28167306       0.54300585
O        2.74832265       2.49816423      14.45537079  F        1        2       0.01606744       0.38485390      -0.72271618
O       -1.07718501       3.13058929      16.75676254  F        1        2       0.10150941       0.42933696       0.24803908
Si       2.32796846       0.00094780      17.46792016  T        0        1      -0.01718526       0.00022053       0.00524243
Si      -1.23933602       1.83348147      21.12957753  T        0        1       0.01925880      -0.01537774      -0.04813642
Si       1.28034902       2.24371766      19.33283178  T        0        1       0.04091477      -0.00134722      -0.00716403
O        1.40445993       1.16167446      18.10451464  T        1        1      -0.05850526      -0.02268541      -0.00131185
O        0.21601591       1.70700239      20.42085457  T        1        1       0.02898242       0.01329232      -0.01889314
O        3.16382129       0.55055418      21.89748660  T        1        1      -0.03873205       0.03333784       0.10770925
O        0.80245895       3.63408601      18.62419105  T        1        1      -0.02246742      -0.02535592      -0.00457984
O        2.71389198       2.50739313      20.04264344  T        1        1       0.01540258       0.02532285       0.03595698
O       -1.20686514       2.54420978      22.59862237  T        1        1      -0.03719270      -0.05415191      -0.01432374
Si       7.23815181       0.00000000      12.00000000  F        0        2      -0.13331231      -0.36709377      -1.70748292
Si       3.76227409       2.00679893      15.60606667  F        0        2      -0.11625592       0.05106237       1.23163045
Si       6.22272410       2.25482548      13.80303333  F        0        2       0.02590205      -0.15975468       1.01280012
O        6.30416499       1.13103512      12.65233746  F        1        2      -0.50578016       0.21603612      -0.21500725
O        5.20877265       1.76346018      14.95372921  F        1        2       0.42761896      -0.24254733      -0.38745761
O        8.17066236       0.63242506      16.25840413  F        1        2      -0.05548413      -0.55337560      -0.05679133
O        5.71021236       3.62919935      13.15069587  F        1        2       0.42702527       0.28600896       0.53876870
O        7.66922265       2.49816423      14.45537079  F        1        2       0.02252835       0.38650382      -0.72454552
O        3.84371499       3.13058929      16.75676254  F        1        2       0.01821716       0.34371800       0.15222009
Si       7.22936277       0.01703275      17.45479806  T        0        1      -0.00914528       0.01385438       0.01376457
Si       3.74554118       1.87219089      21.14502764  T        0        1      -0.01121504      -0.03957804       0.03312571
Si       6.18362073       2.25313952      19.27893076  T        0        1      -0.01565466      -0.00248983       0.03010017
O        6.29741590       1.20652487      18.02255806  T        1        1      -0.03524675       0.01687981      -0.00873282
O        5.14048798       1.64740482      20.34819273  T        1        1      -0.00727116       0.01344856       0.04767095
O        8.03833521       0.44705725      21.80488034  T        1        1       0.02951592      -0.01293227      -0.03625401
O        5.67605232       3.66966088      18.64631058  T        1        1       0.02712855      -0.01231068      -0.02654880
O        7.62243159       2.48406192      19.98918260  T        1        1       0.00970166       0.02648752      -0.01900349
O        3.95371556       2.65981818      22.56512434  T        1        1      -0.00483034      -0.03715329      -0.01546407
F        2.62631891       0.36808628      24.28412149  T        0        0       0.02260656      -0.02335004       0.01529424
H        2.77571542       0.37332612      23.28649283  T        0        0       0.02186035       0.02339675       0.01728565
O        4.92643267       1.50080404      25.34609012  T        0        0      -0.13330206      -0.10550112       0.10359804
H        4.12138355       0.93332707      25.28043351  T        0        0       0.08183482       0.09335371       0.04908639
H        5.00202776       1.87158941      24.44909683  T        0        0      -0.08748785       0.08936165      -0.17060162
41
Lattice="9.8418 0.0 0.0 -2.460449999999999 4.261624409482844 0.0 0.0 -0.0 34.16586254" Properties=species:S:1:pos:R:3:move_mask:L:1:spacegroup_kinds:I:1:tags:I:1:forces:R:3 surface=alpha_quartz_001 coadsorbate=H2O start=1 calculation_kind="Local coadsorbate relaxation; not a reaction path" host_atoms=36 energy=-289.3558779530317 pbc="T T F"
Si       2.31725181       0.00000000      12.00000000  F        0        2      -0.13410700      -0.36658644      -1.70873390
Si      -1.15862590       2.00679893      15.60606667  F        0        2      -0.12754745       0.06123339       1.22433154
Si       1.30182410       2.25482548      13.80303333  F        0        2       0.03271537      -0.15923283       1.00159440
O        1.38326499       1.13103512      12.65233746  F        1        2      -0.50698142       0.21922185      -0.21280033
O        0.28787265       1.76346018      14.95372921  F        1        2       0.43886438      -0.24581646      -0.37157208
O        3.24976236       0.63242506      16.25840413  F        1        2      -0.17462256      -0.56398169       0.06993094
O        0.78931236       3.62919935      13.15069587  F        1        2       0.42890954       0.28149445       0.54306653
O        2.74832265       2.49816423      14.45537079  F        1        2       0.01626415       0.38467059      -0.72259053
O       -1.07718501       3.13058929      16.75676254  F        1        2       0.10352024       0.42496916       0.24521570
Si       2.32983570      -0.00086293      17.46841749  T        0        1      -0.02227830       0.00271590       0.00424478
Si      -1.24336660       1.83638673      21.12907262  T        0        1       0.02976969      -0.01008722      -0.06533267
Si       1.27876518       2.24020161      19.33499224  T        0        1       0.05410882       0.00773389      -0.01108306
O        1.40726327       1.15937446      18.10658341  T        1        1      -0.06934066      -0.02727533       0.00194753
O        0.21195687       1.70468061      20.42091156  T        1        1       0.04395356       0.01602403      -0.03005241
O        3.17531028       0.54662343      21.89428663  T        1        1      -0.06834798       0.01365454       0.13093586
O        0.80381759       3.63020464      18.62373814  T        1        1      -0.02431583      -0.02020993      -0.00725967
O        2.71152736       2.50441458      20.04644184  T        1        1       0.01344550       0.04632542       0.05198054
O       -1.20758136       2.55448898      22.59394498  T        1        1      -0.04322875      -0.06371477      -0.00870826
Si       7.23815181       0.00000000      12.00000000  F        0        2      -0.13322242      -0.36722046      -1.70775344
Si       3.76227409       2.00679893      15.60606667  F        0        2      -0.11707095       0.04784190       1.23247464
Si       6.22272410       2.25482548      13.80303333  F        0        2       0.02561560      -0.15952810       1.01304101
O        6.30416499       1.13103512      12.65233746  F        1        2      -0.50586998       0.21608415      -0.21478619
O        5.20877265       1.76346018      14.95372921  F        1        2       0.42706248      -0.24190593      -0.38905103
O        8.17066236       0.63242506      16.25840413  F        1        2      -0.03656387      -0.55611900      -0.07536284
O        5.71021236       3.62919935      13.15069587  F        1        2       0.42705274       0.28607984       0.53887469
O        7.66922265       2.49816423      14.45537079  F        1        2       0.02245958       0.38625666      -0.72508738
O        3.84371499       3.13058929      16.75676254  F        1        2       0.01010215       0.34066071       0.14660253
Si       7.22770357       0.01864496      17.45337140  T        0        1      -0.01212900       0.01944823       0.01604578
Si       3.75020848       1.87284501      21.14355766  T        0        1      -0.01909546      -0.08061469       0.04119029
Si       6.18257729       2.25523170      19.27366040  T        0        1      -0.01663608       0.00156195       0.03403617
O        6.29758495       1.21247178      18.01464692  T        1        1      -0.04408415       0.02306942      -0.01042962
O        5.13861047       1.64470825      20.33789168  T        1        1      -0.00105268       0.00611367       0.06232037
O        8.03538641       0.45228352      21.80753169  T        1        1       0.02283418      -0.01685192      -0.02549627
O        5.66904041       3.67325289      18.64966077  T        1        1       0.04582789      -0.00723874      -0.03945413
O        7.61985378       2.48481985      19.98645010  T        1        1       0.01416792       0.03541522      -0.02601186
O        3.97100740       2.64835268      22.56763991  T        1        1      -0.01339241      -0.03382510      -0.01087630
F        2.61056650       0.36988364      24.27934680  T        0        0       0.01695247      -0.03095767       0.03563252
H        2.76042366       0.36601826      23.28468396  T        0        0       0.05206629       0.04303251      -0.00108662
O        4.91113224       1.53267043      25.34327543  T        0        0      -0.14563211      -0.15065979       0.17004082
H        4.12953568       0.93252726      25.28577876  T        0        0       0.09100081       0.12205296       0.03828182
H        4.95791015       1.91225398      24.44892459  T        0        0      -0.10117431       0.11616565      -0.23825989
41
Lattice="9.8418 0.0 0.0 -2.460449999999999 4.261624409482844 0.0 0.0 -0.0 34.16586254" Properties=species:S:1:pos:R:3:move_mask:L:1:spacegroup_kinds:I:1:tags:I:1:forces:R:3 surface=alpha_quartz_001 coadsorbate=H2O start=1 calculation_kind="Local coadsorbate relaxation; not a reaction path" host_atoms=36 energy=-289.35770251844247 pbc="T T F"
Si       2.31725181       0.00000000      12.00000000  F        0        2      -0.13408743      -0.36658748      -1.70865167
Si      -1.15862590       2.00679893      15.60606667  F        0        2      -0.12764760       0.06240710       1.22423034
Si       1.30182410       2.25482548      13.80303333  F        0        2       0.03249783      -0.15946451       1.00168988
O        1.38326499       1.13103512      12.65233746  F        1        2      -0.50704006       0.21933245      -0.21285020
O        0.28787265       1.76346018      14.95372921  F        1        2       0.43889856      -0.24566370      -0.37138712
O        3.24976236       0.63242506      16.25840413  F        1        2      -0.17312801      -0.56780558       0.07492952
O        0.78931236       3.62919935      13.15069587  F        1        2       0.42906455       0.28135904       0.54304215
O        2.74832265       2.49816423      14.45537079  F        1        2       0.01647074       0.38457162      -0.72249744
O       -1.07718501       3.13058929      16.75676254  F        1        2       0.10544993       0.42241548       0.24328981
Si       2.33139018      -0.00243178      17.46896159  T        0        1      -0.02473233       0.00447442       0.00241465
Si      -1.24710208       1.84072736      21.12889573  T        0        1       0.03642920      -0.01191372      -0.06287071
Si       1.27749538       2.23724165      19.33730843  T        0        1       0.06130512       0.01527915      -0.01567559
O        1.40975314       1.15730618      18.10884981  T        1        1      -0.07380930      -0.03009711       0.00521797
O        0.20761131       1.70213159      20.42014495  T        1        1       0.04704156       0.01766820      -0.03229389
O        3.18427151       0.53979410      21.89000356  T        1        1      -0.08832216       0.00367091       0.14907433
O        0.80498900       3.62672681      18.62338340  T        1        1      -0.02416930      -0.01507210      -0.00936065
O        2.70864311       2.50264031      20.05185912  T        1        1       0.01924863       0.05529448       0.06834246
O       -1.20704607       2.56777244      22.58938491  T        1        1      -0.04942677      -0.07884696      -0.01750380
Si       7.23815181       0.00000000      12.00000000  F        0        2      -0.13312249      -0.36730560      -1.70786240
Si       3.76227409       2.00679893      15.60606667  F        0        2      -0.11755145       0.04497272       1.23319934
Si       6.22272410       2.25482548      13.80303333  F        0        2       0.02541467      -0.15925848       1.01339041
O        6.30416499       1.13103512      12.65233746  F        1        2      -0.50588920       0.21604737      -0.21463587
O        5.20877265       1.76346018      14.95372921  F        1        2       0.42645124      -0.24134682      -0.39068081
O        8.17066236       0.63242506      16.25840413  F        1        2      -0.01897547      -0.55809586      -0.09320057
O        5.71021236       3.62919935      13.15069587  F        1        2       0.42697994       0.28620370       0.53886868
O        7.66922265       2.49816423      14.45537079  F        1        2       0.02241461       0.38609623      -0.72567385
O        3.84371499       3.13058929      16.75676254  F        1        2       0.00372487       0.34124039       0.14463071
Si       7.22604752       0.02039778      17.45209745  T        0        1      -0.01525045       0.02360398       0.01651794
Si       3.75399702       1.87036432      21.14216773  T        0        1      -0.02812292      -0.10183066       0.05304664
Si       6.18129786       2.25730170      19.26891042  T        0        1      -0.01908023       0.00561101       0.03489723
O        6.29763549       1.21860887      18.00688259  T        1        1      -0.04798569       0.02482664      -0.00920617
O        5.13644509       1.64107131      20.32784779  T        1        1       0.00271046       0.00124449       0.07160189
O        8.03081822       0.46040229      21.81355395  T        1        1       0.02368722      -0.01166918      -0.02492678
O        5.66293837       3.67685720      18.65249052  T        1        1       0.05681101      -0.00365902      -0.04779612
O        7.61695581       2.48663780      19.98423838  T        1        1       0.01789107       0.03915068      -0.03044503
O        3.98898387       2.63361145      22.57056285  T        1        1      -0.02340309      -0.03227264      -0.01749664
F        2.59677877       0.37490595      24.27322674  T        0        0       0.01605179      -0.03858035       0.03668857
H        2.74820027       0.36080683      23.28017231  T        0        0       0.07176918       0.05866973       0.00081602
O        4.89627271       1.55824295      25.34100618  T        0        0      -0.13318371      -0.08832578       0.04209383
H        4.13427800       0.93261577      25.28640862  T        0        0       0.10051825       0.15484996       0.01254777
H        4.91773139       1.95681402      24.44918844  T        0        0      -0.13590276       0.02880577      -0.09551485
41
Lattice="9.8418 0.0 0.0 -2.460449999999999 4.261624409482844 0.0 0.0 -0.0 34.16586254" Properties=species:S:1:pos:R:3:move_mask:L:1:spacegroup_kinds:I:1:tags:I:1:forces:R:3 surface=alpha_quartz_001 coadsorbate=H2O start=1 calculation_kind="Local coadsorbate relaxation; not a reaction path" host_atoms=36 energy=-289.36244726489554 pbc="T T F"
Si       2.31725181       0.00000000      12.00000000  F        0        2      -0.13411640      -0.36654283      -1.70848441
Si      -1.15862590       2.00679893      15.60606667  F        0        2      -0.12774644       0.06427069       1.22544302
Si       1.30182410       2.25482548      13.80303333  F        0        2       0.03229203      -0.15992812       1.00206483
O        1.38326499       1.13103512      12.65233746  F        1        2      -0.50704363       0.21936700      -0.21303231
O        0.28787265       1.76346018      14.95372921  F        1        2       0.43945238      -0.24532178      -0.37188596
O        3.24976236       0.63242506      16.25840413  F        1        2      -0.17303626      -0.57296634       0.08625589
O        0.78931236       3.62919935      13.15069587  F        1        2       0.42916013       0.28130531       0.54298017
O        2.74832265       2.49816423      14.45537079  F        1        2       0.01627771       0.38416611      -0.72274095
O       -1.07718501       3.13058929      16.75676254  F        1        2       0.09782001       0.40267805       0.22540594
Si       2.33281155      -0.00463358      17.46923296  T        0        1      -0.02573910       0.00874237      -0.00348168
Si      -1.25012687       1.83833470      21.12420791  T        0        1       0.04874840      -0.00010516      -0.07623968
Si       1.27738864       2.23255079      19.33778547  T        0        1       0.06987068       0.03386719      -0.02280198
O        1.40925883       1.15306728      18.10964588  T        1        1      -0.06903709      -0.03259835       0.01080830
O        0.20734583       1.70176595      20.42156880  T        1        1       0.06195774       0.01586235      -0.04179628
O        3.19775705       0.54738113      21.89668523  T        1        1      -0.13411603      -0.05491537       0.14577827
O        0.80498944       3.62098714      18.62239086  T        1        1      -0.01776769       0.00793654      -0.01426696
O        2.70900395       2.49815433      20.05124681  T        1        1       0.01145387       0.08360167       0.08037265
O       -1.21363285       2.56392497      22.58469362  T        1        1      -0.04801739      -0.07658822       0.00167839
Si       7.23815181       0.00000000      12.00000000  F        0        2      -0.13300283      -0.36733797      -1.70762770
Si       3.76227409       2.00679893      15.60606667  F        0        2      -0.11717352       0.04441595       1.23482516
Si       6.22272410       2.25482548      13.80303333  F        0        2       0.02525538      -0.15909559       1.01430963
O        6.30416499       1.13103512      12.65233746  F        1        2      -0.50583096       0.21586475      -0.21481918
O        5.20877265       1.76346018      14.95372921  F        1        2       0.42601180      -0.24092695      -0.39237782
O        8.17066236       0.63242506      16.25840413  F        1        2      -0.01187782      -0.56259812      -0.09692961
O        5.71021236       3.62919935      13.15069587  F        1        2       0.42678420       0.28645010       0.53850039
O        7.66922265       2.49816423      14.45537079  F        1        2       0.02219996       0.38594363      -0.72665494
O        3.84371499       3.13058929      16.75676254  F        1        2      -0.00715353       0.33603982       0.13522056
Si       7.22413954       0.02192874      17.45113543  T        0        1      -0.01756209       0.02764223       0.00932480
Si       3.75947127       1.87811706      21.14265981  T        0        1      -0.04484985      -0.15855690       0.04734441
Si       6.18021993       2.25884939      19.26476923  T        0        1      -0.01489995       0.01342795       0.02566209
O        6.29594971       1.22298506      18.00043150  T        1        1      -0.05228843       0.02541112      -0.00555758
O        5.13578428       1.64258175      20.32226067  T        1        1       0.02517620      -0.02065585       0.08126711
O        8.03504058       0.45416875      21.80262517  T        1        1       0.00135177      -0.01936413      -0.00268891
O        5.65581197       3.67874477      18.65515363  T        1        1       0.07758179       0.01523914      -0.06018320
O        7.61628382       2.48590994      19.97912954  T        1        1       0.02401767       0.04630826      -0.04093625
O        4.00041228       2.63136830      22.57285258  T        1        1      -0.03310951      -0.00281345       0.02651540
F        2.58130230       0.36571606      24.27632236  T        0        0      -0.00279659      -0.04419443       0.08823082
H        2.72871848       0.35039574      23.28765147  T        0        0       0.11626595       0.08094497      -0.04034799
O        4.87940522       1.59685007      25.33938853  T        0        0      -0.08229895      -0.05966201       0.05246416
H        4.15171180       0.93432683      25.30674970  T        0        0       0.02758436       0.11090782       0.00421760
H        4.86390473       1.98218166      24.44149605  T        0        0      -0.11979798       0.05377855      -0.11581618
41
Lattice="9.8418 0.0 0.0 -2.460449999999999 4.261624409482844 0.0 0.0 -0.0 34.16586254" Properties=species:S:1:pos:R:3:move_mask:L:1:spacegroup_kinds:I:1:tags:I:1:forces:R:3 surface=alpha_quartz_001 coadsorbate=H2O start=1 calculation_kind="Local coadsorbate relaxation; not a reaction path" host_atoms=36 energy=-289.36812684198264 pbc="T T F"
Si       2.31725181       0.00000000      12.00000000  F        0        2      -0.13416143      -0.36642371      -1.70805099
Si      -1.15862590       2.00679893      15.60606667  F        0        2      -0.12907563       0.06405982       1.22663383
Si       1.30182410       2.25482548      13.80303333  F        0        2       0.03218702      -0.16021231       1.00229652
O        1.38326499       1.13103512      12.65233746  F        1        2      -0.50686622       0.21923273      -0.21329824
O        0.28787265       1.76346018      14.95372921  F        1        2       0.44017142      -0.24511347      -0.37224350
O        3.24976236       0.63242506      16.25840413  F        1        2      -0.17916097      -0.57583816       0.09760435
O        0.78931236       3.62919935      13.15069587  F        1        2       0.42902148       0.28139107       0.54272858
O        2.74832265       2.49816423      14.45537079  F        1        2       0.01596023       0.38407582      -0.72309875
O       -1.07718501       3.13058929      16.75676254  F        1        2       0.09115999       0.38970382       0.21247370
Si       2.33296554      -0.00562192      17.46939265  T        0        1      -0.01917804       0.00975795      -0.01162061
Si      -1.25010580       1.83474854      21.11897234  T        0        1       0.04148861      -0.00258318      -0.04963312
Si       1.27983622       2.23103429      19.33746855  T        0        1       0.05558213       0.04106495      -0.02634328
O        1.40723176       1.15008021      18.11030159  T        1        1      -0.04670664      -0.02724905       0.01369924
O        0.20977778       1.70251071      20.42166438  T        1        1       0.05329782       0.01139712      -0.03227409
O        3.20373173       0.55292894      21.90660285  T        1        1      -0.15000654      -0.08345965       0.11339614
O        0.80500617       3.61809778      18.62138367  T        1        1      -0.00606846       0.02519013      -0.01506056
O        2.71032568       2.49751915      20.05233434  T        1        1       0.01190295       0.07672558       0.07170169
O       -1.21999033       2.55504277      22.58265664  T        1        1      -0.04079693      -0.06973890      -0.00124713
Si       7.23815181       0.00000000      12.00000000  F        0        2      -0.13286767      -0.36720807      -1.70678587
Si       3.76227409       2.00679893      15.60606667  F        0        2      -0.11503751       0.04533559       1.23588447
Si       6.22272410       2.25482548      13.80303333  F        0        2       0.02532901      -0.15893742       1.01574946
O        6.30416499       1.13103512      12.65233746  F        1        2      -0.50552265       0.21537555      -0.21534245
O        5.20877265       1.76346018      14.95372921  F        1        2       0.42544518      -0.24088663      -0.39384258
O        8.17066236       0.63242506      16.25840413  F        1        2      -0.01305549      -0.56083175      -0.09809841
O        5.71021236       3.62919935      13.15069587  F        1        2       0.42626761       0.28688183       0.53765102
O        7.66922265       2.49816423      14.45537079  F        1        2       0.02217319       0.38632081      -0.72770019
O        3.84371499       3.13058929      16.75676254  F        1        2      -0.00905525       0.34322715       0.14021165
Si       7.22272978       0.02353327      17.45093293  T        0        1      -0.01885709       0.02488148      -0.00181594
Si       3.76193334       1.88000582      21.14436382  T        0        1      -0.05477061      -0.15637332       0.04199968
Si       6.17961027       2.26011057      19.26328395  T        0        1      -0.01390147       0.01582421       0.01259923
O        6.29357475       1.22647428      17.99623253  T        1        1      -0.04213151       0.00693232       0.00703406
O        5.13643606       1.64381898      20.32173242  T        1        1       0.03793057      -0.03220025       0.07567672
O        8.03911597       0.44713277      21.79382419  T        1        1      -0.00406575      -0.00948469      -0.01225669
O        5.65462052       3.68040631      18.65492665  T        1        1       0.06915413       0.02594278      -0.05459418
O        7.61743612       2.48542048      19.97479085  T        1        1       0.02632683       0.03951334      -0.04202011
O        4.00324168       2.63603818      22.57176810  T        1        1      -0.03071669       0.00613207       0.06975923
F        2.56949141       0.35478861      24.28117963  T        0        0       0.00061329      -0.04129806       0.08243468
H        2.71903502       0.34515408      23.29336919  T        0        0       0.12705509       0.08786922      -0.02165797
O        4.86827758       1.62161286      25.33929592  T        0        0      -0.03330353       0.03062856      -0.06497820
H        4.16487253       0.93570045      25.32582821  T        0        0      -0.03263384       0.07019727      -0.01518527
H        4.83207622       1.99189614      24.43217996  T        0        0      -0.11312662       0.01017745       0.00761388
41
Lattice="9.8418 0.0 0.0 -2.460449999999999 4.261624409482844 0.0 0.0 -0.0 34.16586254" Properties=species:S:1:pos:R:3:move_mask:L:1:spacegroup_kinds:I:1:tags:I:1:forces:R:3 surface=alpha_quartz_001 coadsorbate=H2O start=1 calculation_kind="Local coadsorbate relaxation; not a reaction path" host_atoms=36 energy=-289.3764128775838 pbc="T T F"
Si       2.31725181       0.00000000      12.00000000  F        0        2      -0.13430524      -0.36623354      -1.70752460
Si      -1.15862590       2.00679893      15.60606667  F        0        2      -0.13255452       0.06195487       1.22764390
Si       1.30182410       2.25482548      13.80303333  F        0        2       0.03184178      -0.16068361       1.00185321
O        1.38326499       1.13103512      12.65233746  F        1        2      -0.50654445       0.21908962      -0.21356544
O        0.28787265       1.76346018      14.95372921  F        1        2       0.44155083      -0.24492217      -0.37232206
O        3.24976236       0.63242506      16.25840413  F        1        2      -0.19269936      -0.57740498       0.11491800
O        0.78931236       3.62919935      13.15069587  F        1        2       0.42884439       0.28151637       0.54256584
O        2.74832265       2.49816423      14.45537079  F        1        2       0.01558566       0.38404588      -0.72324317
O       -1.07718501       3.13058929      16.75676254  F        1        2       0.07906795       0.36896006       0.19057530
Si       2.33246499      -0.00666865      17.46936588  T        0        1      -0.00358669       0.00880162      -0.02131196
Si      -1.24805348       1.82714196      21.10885817  T        0        1       0.01839656      -0.00158319      -0.00457084
Si       1.28636337       2.23066374      19.33617192  T        0        1       0.01056669       0.04018741      -0.01880940
O        1.40256248       1.14500635      18.11180184  T        1        1       0.00784858      -0.00554531       0.01751417
O        0.21620676       1.70453670      20.42084325  T        1        1       0.02148644       0.00627056      -0.00422965
O        3.20884973       0.56032735      21.92786147  T        1        1      -0.14595910      -0.09008309       0.02393798
O        0.80536105       3.61491346      18.61928178  T        1        1       0.02230908       0.04919960      -0.01299970
O        2.71351854       2.49930966      20.05645837  T        1        1       0.01234146       0.03598608       0.03725174
O       -1.23215134       2.53495641      22.58012233  T        1        1      -0.02189166      -0.04633095      -0.01122114
Si       7.23815181       0.00000000      12.00000000  F        0        2      -0.13261149      -0.36693447      -1.70523784
Si       3.76227409       2.00679893      15.60606667  F        0        2      -0.10952844       0.04847616       1.23588511
Si       6.22272410       2.25482548      13.80303333  F        0        2       0.02585563      -0.15846457       1.01809534
O        6.30416499       1.13103512      12.65233746  F        1        2      -0.50493908       0.21443524      -0.21626734
O        5.20877265       1.76346018      14.95372921  F        1        2       0.42378540      -0.24125046      -0.39582784
O        8.17066236       0.63242506      16.25840413  F        1        2      -0.01957342      -0.55045506      -0.10325929
O        5.71021236       3.62919935      13.15069587  F        1        2       0.42522238       0.28768382       0.53609528
O        7.66922265       2.49816423      14.45537079  F        1        2       0.02231520       0.38747429      -0.72942917
O        3.84371499       3.13058929      16.75676254  F        1        2      -0.00905025       0.36324604       0.15797637
Si       7.22005932       0.02693421      17.45071769  T        0        1      -0.01296856       0.00986805      -0.01798528
Si       3.76410129       1.87814724      21.14871829  T        0        1      -0.04644534      -0.10511871       0.06324657
Si       6.17853581       2.26263785      19.26183659  T        0        1      -0.00736784       0.01844541      -0.00485728
O        6.28843367       1.23254227      17.98958732  T        1        1      -0.01856768      -0.03404509       0.03661795
O        5.13900234       1.64522992      20.32411352  T        1        1       0.03230877      -0.04088178       0.06585966
O        8.04643627       0.43400716      21.77842880  T        1        1      -0.00940543       0.00118732      -0.04589799
O        5.65644913       3.68412908      18.65232952  T        1        1       0.03154677       0.03168399      -0.03063800
O        7.62102609       2.48494506      19.96651130  T        1        1       0.02650463       0.01145049      -0.03257840
O        4.00369145       2.64887549      22.56899882  T        1        1      -0.02635713      -0.01720942       0.10505951
F        2.54870976       0.33274415      24.29146398  T        0        0       0.02112487      -0.02953275       0.03644664
H        2.70784045       0.33934156      23.30332886  T        0        0       0.12129866       0.08534113       0.04999884
O        4.84917737       1.66260176      25.33803169  T        0        0      -0.02512452       0.10553300      -0.24645770
H        4.18675591       0.93839607      25.36104238  T        0        0      -0.05797491       0.07650959      -0.06370822
H        4.78340292       2.00196920      24.41470987  T        0        0      -0.10234661      -0.06066742       0.22040089
41
Lattice="9.8418 0.0 0.0 -2.460449999999999 4.261624409482844 0.0 0.0 -0.0 34.16586254" Properties=species:S:1:pos:R:3:move_mask:L:1:spacegroup_kinds:I:1:tags:I:1:forces:R:3 surface=alpha_quartz_001 coadsorbate=H2O start=1 calculation_kind="Local coadsorbate relaxation; not a reaction path" host_atoms=36 energy=-289.3800571062671 pbc="T T F"
Si       2.31725181       0.00000000      12.00000000  F        0        2      -0.13444119      -0.36626243      -1.70799486
Si      -1.15862590       2.00679893      15.60606667  F        0        2      -0.13380130       0.06145303       1.22617935
Si       1.30182410       2.25482548      13.80303333  F        0        2       0.03166525      -0.16079505       1.00033928
O        1.38326499       1.13103512      12.65233746  F        1        2      -0.50657559       0.21926851      -0.21323541
O        0.28787265       1.76346018      14.95372921  F        1        2       0.44175192      -0.24521225      -0.37153012
O        3.24976236       0.63242506      16.25840413  F        1        2      -0.19969067      -0.57481541       0.12032685
O        0.78931236       3.62919935      13.15069587  F        1        2       0.42899951       0.28144744       0.54314374
O        2.74832265       2.49816423      14.45537079  F        1        2       0.01573173       0.38394763      -0.72262126
O       -1.07718501       3.13058929      16.75676254  F        1        2       0.06706869       0.35364202       0.17417480
Si       2.33128496      -0.00649587      17.46873238  T        0        1       0.00590429       0.00867627      -0.01582323
Si      -1.24583838       1.82419577      21.10416165  T        0        1       0.00646737       0.00227455       0.01293520
Si       1.28966248       2.23168053      19.33432286  T        0        1      -0.00933986       0.03578354      -0.00187384
O        1.39843208       1.14271240      18.11174561  T        1        1       0.04200743       0.01576305       0.02027329
O        0.22032965       1.70614593      20.42011391  T        1        1      -0.00090911       0.00696802       0.01181789
O        3.20263425       0.56299926      21.93821801  T        1        1      -0.12021694      -0.07237544      -0.03962868
O        0.80431241       3.61476575      18.61833397  T        1        1       0.04303229       0.05579329      -0.00977880
O        2.71564456       2.50168653      20.05767789  T        1        1       0.01352665       0.00103450       0.02396590
O       -1.23710673       2.52487853      22.57968104  T        1        1      -0.01029157      -0.03385511      -0.01595888
Si       7.23815181       0.00000000      12.00000000  F        0        2      -0.13259756      -0.36687912      -1.70522360
Si       3.76227409       2.00679893      15.60606667  F        0        2      -0.10691166       0.05264086       1.23367932
Si       6.22272410       2.25482548      13.80303333  F        0        2       0.02653759      -0.15811521       1.01753615
O        6.30416499       1.13103512      12.65233746  F        1        2      -0.50490990       0.21434366      -0.21626695
O        5.20877265       1.76346018      14.95372921  F        1        2       0.42293013      -0.24203986      -0.39473487
O        8.17066236       0.63242506      16.25840413  F        1        2      -0.03316618      -0.54253394      -0.09686721
O        5.71021236       3.62919935      13.15069587  F        1        2       0.42503953       0.28774229       0.53608143
O        7.66922265       2.49816423      14.45537079  F        1        2       0.02246415       0.38801733      -0.72928006
O        3.84371499       3.13058929      16.75676254  F        1        2      -0.01205237       0.36693857       0.16093980
Si       7.21906959       0.02796986      17.45085935  T        0        1      -0.00313037      -0.00332765      -0.01925682
Si       3.76212144       1.87500905      21.15256708  T        0        1      -0.02696271      -0.05147808       0.07805705
Si       6.17759647       2.26295199      19.26344469  T        0        1      -0.00598229       0.01503730       0.00115650
O        6.28526621       1.23179089      17.99085611  T        1        1      -0.00840221      -0.04389784       0.04698104
O        5.14074353       1.64608882      20.33055574  T        1        1       0.01936321      -0.03371890       0.05366825
O        8.05023581       0.42823045      21.77008040  T        1        1      -0.01444434      -0.00061554      -0.05909836
O        5.65919072       3.68414761      18.64951812  T        1        1       0.01040188       0.02615398      -0.01076146
O        7.62319571       2.48619435      19.96333656  T        1        1       0.02227055      -0.01215370      -0.02288217
O        3.99981933       2.65153896      22.57215077  T        1        1      -0.02706358      -0.03987217       0.07291340
F        2.55021382       0.32592573      24.29817898  T        0        0       0.02089791      -0.02692335       0.00939733
H        2.71146127       0.34197154      23.30833266  T        0        0       0.10149991       0.07096878       0.09272979
O        4.84284198       1.66469890      25.33509590  T        0        0       0.23577386       0.39744534      -0.27745050
H        4.19005278       0.94419169      25.36941352  T        0        0      -0.30918178      -0.19784504      -0.06384628
H        4.77379418       1.99833040      24.40941168  T        0        0      -0.10326270      -0.07262385       0.25781699
41
Lattice="9.8418 0.0 0.0 -2.460449999999999 4.261624409482844 0.0 0.0 -0.0 34.16586254" Properties=species:S:1:pos:R:3:move_mask:L:1:spacegroup_kinds:I:1:tags:I:1:forces:R:3 surface=alpha_quartz_001 coadsorbate=H2O start=1 calculation_kind="Local coadsorbate relaxation; not a reaction path" host_atoms=36 energy=-289.3843388286135 pbc="T T F"
Si       2.31725181       0.00000000      12.00000000  F        0        2      -0.13453881      -0.36629787      -1.70832597
Si      -1.15862590       2.00679893      15.60606667  F        0        2      -0.13550120       0.06117520       1.22447664
Si       1.30182410       2.25482548      13.80303333  F        0        2       0.03133585      -0.16110075       0.99919248
O        1.38326499       1.13103512      12.65233746  F        1        2      -0.50666991       0.21954903      -0.21301097
O        0.28787265       1.76346018      14.95372921  F        1        2       0.44206176      -0.24532329      -0.37058085
O        3.24976236       0.63242506      16.25840413  F        1        2      -0.20358551      -0.57410283       0.12538781
O        0.78931236       3.62919935      13.15069587  F        1        2       0.42929146       0.28125400       0.54360355
O        2.74832265       2.49816423      14.45537079  F        1        2       0.01594476       0.38386556      -0.72202636
O       -1.07718501       3.13058929      16.75676254  F        1        2       0.06172064       0.34234169       0.16242861
Si       2.33178411      -0.00766257      17.46865170  T        0        1       0.01251034       0.00925842      -0.00941586
Si      -1.24679668       1.82450283      21.09944517  T        0        1      -0.00523636       0.00622387       0.01980923
Si       1.29220190       2.23075085      19.33495594  T        0        1      -0.01906102       0.03372956       0.01652789
O        1.39784388       1.13904196      18.11439384  T        1        1       0.06649572       0.03292426       0.02244510
O        0.22058463       1.70541205      20.41868110  T        1        1      -0.01349705       0.01077413       0.01934427
O        3.20573816       0.55816718      21.94486603  T        1        1      -0.10987414      -0.05516866      -0.07637419
O        0.80556789       3.61232338      18.61690738  T        1        1       0.06003195       0.05951495      -0.00740411
O        2.71522858       2.50276110      20.06497476  T        1        1       0.01887804      -0.03158190       0.02237093
O       -1.24198739       2.52546687      22.57528712  T        1        1      -0.00409432      -0.02608486      -0.01735453
Si       7.23815181       0.00000000      12.00000000  F        0        2      -0.13245533      -0.36691932      -1.70518708
Si       3.76227409       2.00679893      15.60606667  F        0        2      -0.10437887       0.05299253       1.23223854
Si       6.22272410       2.25482548      13.80303333  F        0        2       0.02678481      -0.15759526       1.01785955
O        6.30416499       1.13103512      12.65233746  F        1        2      -0.50485915       0.21416529      -0.21622824
O        5.20877265       1.76346018      14.95372921  F        1        2       0.42137508      -0.24218417      -0.39586588
O        8.17066236       0.63242506      16.25840413  F        1        2      -0.02624795      -0.53432495      -0.11395015
O        5.71021236       3.62919935      13.15069587  F        1        2       0.42475579       0.28800464       0.53589012
O        7.66922265       2.49816423      14.45537079  F        1        2       0.02267436       0.38856634      -0.72986611
O        3.84371499       3.13058929      16.75676254  F        1        2      -0.01806611       0.37515823       0.16671183
Si       7.21650486       0.03091711      17.44963061  T        0        1       0.00119601      -0.01043200      -0.01564511
Si       3.76403144       1.86847581      21.15537786  T        0        1      -0.00769953      -0.00756197       0.08574942
Si       6.17585980       2.26579698      19.26005741  T        0        1      -0.01146096       0.01017706       0.01337206
O        6.28238367       1.23779040      17.98382266  T        1        1      -0.00093806      -0.05596030       0.06006449
O        5.14088555       1.64292207      20.32687993  T        1        1       0.00124866      -0.02260842       0.05298783
O        8.04940769       0.42952897      21.76785859  T        1        1      -0.01845700      -0.00502491      -0.07338787
O        5.65716126       3.68878079      18.64920075  T        1        1      -0.00373888       0.01457879       0.00416367
O        7.62328614       2.48816057      19.95772514  T        1        1       0.01737151      -0.02888311      -0.01815125
O        4.01173726       2.64445375      22.57549011  T        1        1      -0.04724051      -0.06230504       0.04209825
F        2.53404347       0.32087005      24.29878268  T        0        0       0.03110497      -0.02460749      -0.00235638
H        2.70313093       0.33926059      23.30958243  T        0        0       0.09690379       0.06634376       0.11786808
O        4.82303596       1.69836295      25.33002709  T        0        0       0.11814193       0.30742201      -0.28079312
H        4.19981921       0.94770737      25.38094299  T        0        0      -0.18861560      -0.03886260      -0.12479428
H        4.72556022       2.03370250      24.40468952  T        0        0      -0.10361115      -0.14108961       0.31612795
41
Lattice="9.8418 0.0 0.0 -2.460449999999999 4.261624409482844 0.0 0.0 -0.0 34.16586254" Properties=species:S:1:pos:R:3:move_mask:L:1:spacegroup_kinds:I:1:tags:I:1:forces:R:3 surface=alpha_quartz_001 coadsorbate=H2O start=1 calculation_kind="Local coadsorbate relaxation; not a reaction path" host_atoms=36 energy=-289.39183027857825 pbc="T T F"
Si       2.31725181       0.00000000      12.00000000  F        0        2      -0.13468252      -0.36649191      -1.70943274
Si      -1.15862590       2.00679893      15.60606667  F        0        2      -0.13626886       0.06217764       1.22060960
Si       1.30182410       2.25482548      13.80303333  F        0        2       0.03115961      -0.16130983       0.99703323
O        1.38326499       1.13103512      12.65233746  F        1        2      -0.50704728       0.22012322      -0.21236243
O        0.28787265       1.76346018      14.95372921  F        1        2       0.44182513      -0.24591924      -0.36877336
O        3.24976236       0.63242506      16.25840413  F        1        2      -0.20481140      -0.56737898       0.12142015
O        0.78931236       3.62919935      13.15069587  F        1        2       0.42988001       0.28089046       0.54471292
O        2.74832265       2.49816423      14.45537079  F        1        2       0.01633555       0.38371719      -0.72091876
O       -1.07718501       3.13058929      16.75676254  F        1        2       0.05270107       0.32689740       0.14707675
Si       2.33179243      -0.00833593      17.46788560  T        0        1       0.02000366       0.01035479       0.01307245
Si      -1.24676878       1.82428949      21.09351380  T        0        1      -0.02026569       0.00923955       0.01484267
Si       1.29511992       2.23104999      19.33466945  T        0        1      -0.00716541       0.02965571       0.04720664
O        1.39638133       1.13529801      18.11685874  T        1        1       0.09124141       0.06164622       0.02456794
O        0.22237564       1.70576877      20.41755378  T        1        1      -0.02413964       0.02005227       0.02156303
O        3.20085758       0.55369566      21.95308832  T        1        1      -0.07731001      -0.02064716      -0.12091236
O        0.80695051       3.61148589      18.61506965  T        1        1       0.08211053       0.04898926       0.00041271
O        2.71620095       2.50409746      20.07171576  T        1        1       0.01740637      -0.07472972       0.02622052
O       -1.24823319       2.52185688      22.57095985  T        1        1       0.00500902      -0.01209532      -0.00590854
Si       7.23815181       0.00000000      12.00000000  F        0        2      -0.13243100      -0.36710651      -1.70601074
Si       3.76227409       2.00679893      15.60606667  F        0        2      -0.10230526       0.05483107       1.22910438
Si       6.22272410       2.25482548      13.80303333  F        0        2       0.02722176      -0.15703694       1.01664295
O        6.30416499       1.13103512      12.65233746  F        1        2      -0.50511855       0.21441869      -0.21573818
O        5.20877265       1.76346018      14.95372921  F        1        2       0.41993934      -0.24280948      -0.39528633
O        8.17066236       0.63242506      16.25840413  F        1        2      -0.02868306      -0.52179627      -0.12494718
O        5.71021236       3.62919935      13.15069587  F        1        2       0.42488933       0.28794961       0.53648493
O        7.66922265       2.49816423      14.45537079  F        1        2       0.02293309       0.38907390      -0.72949658
O        3.84371499       3.13058929      16.75676254  F        1        2      -0.02922448       0.37402640       0.16308578
Si       7.21387830       0.03347039      17.44826135  T        0        1       0.00973110      -0.01875319       0.00412494
Si       3.76398776       1.86123315      21.16184749  T        0        1       0.01945929       0.04779027       0.04404514
Si       6.17342355       2.26832113      19.25858905  T        0        1      -0.02415242      -0.01018376       0.04350685
O        6.27820047       1.24014395      17.98101354  T        1        1       0.00219031      -0.05218743       0.06820960
O        5.14183106       1.64013819      20.32900034  T        1        1      -0.01909721       0.00679408       0.04230118
O        8.04999050       0.42816496      21.75989465  T        1        1      -0.02861000      -0.01739035      -0.07922566
O        5.65623361       3.69246867      18.64760860  T        1        1      -0.01460576      -0.01433165       0.02892768
O        7.62454596       2.49045797      19.95114102  T        1        1       0.00172426      -0.04740171      -0.01150346
O        4.01932681       2.63528474      22.58353360  T        1        1      -0.07324932      -0.07934317      -0.00810813
F        2.52531672       0.31481177      24.30326572  T        0        0       0.03441994      -0.01964106       0.02072154
H        2.70172885       0.34087783      23.31548826  T        0        0       0.07795363       0.04254117       0.10735694
O        4.80403031       1.72900392      25.32274034  T        0        0       0.02896431       0.14229005      -0.10932655
H        4.20557301       0.95559276      25.38713642  T        0        0      -0.10159233       0.07576860      -0.13550056
H        4.67776571       2.05998791      24.40218659  T        0        0      -0.08633852      -0.09267386       0.17020107
41
Lattice="9.8418 0.0 0.0 -2.460449999999999 4.261624409482844 0.0 0.0 -0.0 34.16586254" Properties=species:S:1:pos:R:3:move_mask:L:1:spacegroup_kinds:I:1:tags:I:1:forces:R:3 surface=alpha_quartz_001 coadsorbate=H2O start=1 calculation_kind="Local coadsorbate relaxation; not a reaction path" host_atoms=36 energy=-289.40149207673596 pbc="T T F"
Si       2.31725181       0.00000000      12.00000000  F        0        2      -0.13479970      -0.36684588      -1.71111803
Si      -1.15862590       2.00679893      15.60606667  F        0        2      -0.13440886       0.06682384       1.21503421
Si       1.30182410       2.25482548      13.80303333  F        0        2       0.03128632      -0.16132092       0.99446085
O        1.38326499       1.13103512      12.65233746  F        1        2      -0.50770895       0.22088398      -0.21141823
O        0.28787265       1.76346018      14.95372921  F        1        2       0.44062998      -0.24716781      -0.36629739
O        3.24976236       0.63242506      16.25840413  F        1        2      -0.20107706      -0.55644776       0.10802999
O        0.78931236       3.62919935      13.15069587  F        1        2       0.43068303       0.28039765       0.54623204
O        2.74832265       2.49816423      14.45537079  F        1        2       0.01696801       0.38350344      -0.71957018
O       -1.07718501       3.13058929      16.75676254  F        1        2       0.04604226       0.31631454       0.13714770
Si       2.33176239      -0.00844579      17.46682078  T        0        1       0.02373371       0.00960349       0.04778070
Si      -1.24746967       1.82748554      21.08891239  T        0        1      -0.02912426       0.00312330      -0.00652572
Si       1.29640175       2.23199586      19.33463543  T        0        1       0.02964954       0.02502020       0.07848353
O        1.39584242       1.13281596      18.11911110  T        1        1       0.10193733       0.09019471       0.02684092
O        0.22272633       1.70646462      20.41687913  T        1        1      -0.01960306       0.03737472       0.00762657
O        3.18576196       0.54633438      21.95451970  T        1        1      -0.02416372       0.03038939      -0.13510049
O        0.80870853       3.61227261      18.61344091  T        1        1       0.10023337       0.02284001       0.01281810
O        2.71715160       2.50378767      20.07786006  T        1        1       0.00495269      -0.09464597       0.04016335
O       -1.25204761       2.52362145      22.56619565  T        1        1       0.00924480      -0.00655766       0.01866950
Si       7.23815181       0.00000000      12.00000000  F        0        2      -0.13260582      -0.36747327      -1.70796922
Si       3.76227409       2.00679893      15.60606667  F        0        2      -0.10298167       0.05702825       1.22533982
Si       6.22272410       2.25482548      13.80303333  F        0        2       0.02771953      -0.15655032       1.01332441
O        6.30416499       1.13103512      12.65233746  F        1        2      -0.50578416       0.21529818      -0.21461933
O        5.20877265       1.76346018      14.95372921  F        1        2       0.41946307      -0.24368914      -0.39257749
O        8.17066236       0.63242506      16.25840413  F        1        2      -0.04232443      -0.51198168      -0.12042998
O        5.71021236       3.62919935      13.15069587  F        1        2       0.42566664       0.28738544       0.53819664
O        7.66922265       2.49816423      14.45537079  F        1        2       0.02300779       0.38899951      -0.72779555
O        3.84371499       3.13058929      16.75676254  F        1        2      -0.04771352       0.35564412       0.14147402
Si       7.21169233       0.03465977      17.44694176  T        0        1       0.01898945      -0.01872540       0.04326181
Si       3.76183560       1.85407902      21.17049654  T        0        1       0.04050746       0.06885094      -0.02438428
Si       6.16945564       2.26948836      19.25980871  T        0        1      -0.03071057      -0.03926945       0.07330853
O        6.27369415       1.23701105      17.98459379  T        1        1      -0.00393812      -0.02303950       0.05777296
O        5.14201082       1.63721183      20.33567450  T        1        1      -0.03281884       0.04425249       0.02730708
O        8.04874227       0.42969367      21.75029056  T        1        1      -0.04340013      -0.03172555      -0.06203180
O        5.65400446       3.69356694      18.64640176  T        1        1      -0.00950388      -0.05317771       0.05050796
O        7.62483031       2.49404678      19.94539168  T        1        1      -0.02045604      -0.05712639      -0.00333380
O        4.02593010       2.61259125      22.60014330  T        1        1      -0.11115714      -0.06781931      -0.09298224
F        2.53170565       0.31721270      24.30909919  T        0        0       0.02498601      -0.01914976       0.06932174
H        2.71012528       0.34876064      23.32278925  T        0        0       0.04483287       0.00111982       0.05446190
O        4.78918919       1.74631813      25.31402177  T        0        0       0.05808110       0.09205269       0.10194971
H        4.19813760       0.96956801      25.37343390  T        0        0      -0.14012433      -0.01937977      -0.04787897
H        4.63407624       2.08549999      24.40672549  T        0        0      -0.04421071       0.04499250      -0.08548134
41
Lattice="9.8418 0.0 0.0 -2.460449999999999 4.261624409482844 0.0 0.0 -0.0 34.16586254" Properties=species:S:1:pos:R:3:move_mask:L:1:spacegroup_kinds:I:1:tags:I:1:forces:R:3 surface=alpha_quartz_001 coadsorbate=H2O start=1 calculation_kind="Local coadsorbate relaxation; not a reaction path" host_atoms=36 energy=-289.4061393336691 pbc="T T F"
Si       2.31725181       0.00000000      12.00000000  F        0        2      -0.13474230      -0.36687470      -1.71100192
Si      -1.15862590       2.00679893      15.60606667  F        0        2      -0.13196145       0.07122338       1.21405793
Si       1.30182410       2.25482548      13.80303333  F        0        2       0.03178865      -0.16125698       0.99484707
O        1.38326499       1.13103512      12.65233746  F        1        2      -0.50780599       0.22080091      -0.21156497
O        0.28787265       1.76346018      14.95372921  F        1        2       0.44004659      -0.24785553      -0.36591028
O        3.24976236       0.63242506      16.25840413  F        1        2      -0.20016710      -0.55372849       0.10415883
O        0.78931236       3.62919935      13.15069587  F        1        2       0.43062229       0.28041908       0.54609438
O        2.74832265       2.49816423      14.45537079  F        1        2       0.01677507       0.38345779      -0.72007493
O       -1.07718501       3.13058929      16.75676254  F        1        2       0.05072511       0.32107615       0.14303008
Si       2.33225634      -0.00856127      17.46695198  T        0        1       0.02498929       0.00597599       0.05454834
Si      -1.24866938       1.82861420      21.08577726  T        0        1      -0.02285516      -0.00798309      -0.00552387
Si       1.29720004       2.23220530      19.33557256  T        0        1       0.04214000       0.02470833       0.06727430
O        1.39688463       1.13250896      18.12037273  T        1        1       0.10161775       0.08876014       0.02618949
O        0.22289807       1.70775691      20.41726662  T        1        1      -0.01881047       0.04408579       0.00222629
O        3.17782597       0.54560618      21.95381581  T        1        1      -0.00859120       0.03373491      -0.10479371
O        0.81096703       3.61242909      18.61272343  T        1        1       0.09860374       0.01605758       0.01599932
O        2.71812697       2.50095072      20.08007847  T        1        1      -0.00485035      -0.06478642       0.03928162
O       -1.25490967       2.52267216      22.56367545  T        1        1       0.00823280      -0.01425401       0.02530783
Si       7.23815181       0.00000000      12.00000000  F        0        2      -0.13272477      -0.36753060      -1.70827513
Si       3.76227409       2.00679893      15.60606667  F        0        2      -0.10484051       0.05727248       1.22668813
Si       6.22272410       2.25482548      13.80303333  F        0        2       0.02758107      -0.15660002       1.01269075
O        6.30416499       1.13103512      12.65233746  F        1        2      -0.50586076       0.21548855      -0.21452821
O        5.20877265       1.76346018      14.95372921  F        1        2       0.42054728      -0.24379296      -0.39200181
O        8.17066236       0.63242506      16.25840413  F        1        2      -0.05841640      -0.51436856      -0.10075153
O        5.71021236       3.62919935      13.15069587  F        1        2       0.42588036       0.28728298       0.53850010
O        7.66922265       2.49816423      14.45537079  F        1        2       0.02273508       0.38871152      -0.72731146
O        3.84371499       3.13058929      16.75676254  F        1        2      -0.05495555       0.34610581       0.12843721
Si       7.21079965       0.03474219      17.44696495  T        0        1       0.01934657      -0.01380975       0.05417713
Si       3.76166718       1.85409460      21.17488292  T        0        1       0.02456704       0.02904408      -0.05907755
Si       6.16669608       2.26915171      19.26168791  T        0        1      -0.02053084      -0.04794301       0.05936435
O        6.27098657       1.23393901      17.98833525  T        1        1      -0.00598786      -0.01156141       0.04450146
O        5.14170703       1.63741895      20.34045301  T        1        1      -0.01595570       0.04465721       0.01713592
O        8.04880262       0.42766432      21.74056366  T        1        1      -0.04949505      -0.02775729      -0.04368018
O        5.65150289       3.69253396      18.64699037  T        1        1      -0.00291595      -0.05855381       0.04969880
O        7.62463001       2.49476280      19.94181474  T        1        1      -0.02454935      -0.04974458       0.00299698
O        4.02729031       2.59929900      22.60925637  T        1        1      -0.12543058      -0.02610780      -0.09342834
F        2.53707880       0.31702959      24.31540068  T        0        0       0.02268492      -0.01865657       0.06898754
H        2.71401106       0.35208459      23.32986660  T        0        0       0.02913958      -0.02035410       0.02782489
O        4.78211089       1.75883697      25.31086413  T        0        0      -0.04631862      -0.01624331       0.08974101
H        4.19305003       0.97771694      25.36639344  T        0        0      -0.07658093       0.01562658       0.02334473
H        4.60566179       2.09777725      24.40749025  T        0        0       0.01632370       0.11527376      -0.11918056
41
Lattice="9.8418 0.0 0.0 -2.460449999999999 4.261624409482844 0.0 0.0 -0.0 34.16586254" Properties=species:S:1:pos:R:3:move_mask:L:1:spacegroup_kinds:I:1:tags:I:1:forces:R:3 surface=alpha_quartz_001 coadsorbate=H2O start=1 calculation_kind="Local coadsorbate relaxation; not a reaction path" host_atoms=36 energy=-289.4102395121679 pbc="T T F"
Si       2.31725181       0.00000000      12.00000000  F        0        2      -0.13453941      -0.36666890      -1.70954350
Si      -1.15862590       2.00679893      15.60606667  F        0        2      -0.12893514       0.07503978       1.21521424
Si       1.30182410       2.25482548      13.80303333  F        0        2       0.03289237      -0.16093670       0.99735630
O        1.38326499       1.13103512      12.65233746  F        1        2      -0.50749772       0.22005040      -0.21250378
O        0.28787265       1.76346018      14.95372921  F        1        2       0.43961921      -0.24837907      -0.36662017
O        3.24976236       0.63242506      16.25840413  F        1        2      -0.20302676      -0.55532746       0.10408068
O        0.78931236       3.62919935      13.15069587  F        1        2       0.42984153       0.28084074       0.54469728
O        2.74832265       2.49816423      14.45537079  F        1        2       0.01583322       0.38367698      -0.72217003
O       -1.07718501       3.13058929      16.75676254  F        1        2       0.06857337       0.34667661       0.17003405
Si       2.33277719      -0.00799700      17.46801011  T        0        1       0.02710984      -0.00223639       0.04069930
Si      -1.24919421       1.82900580      21.08416057  T        0        1      -0.01633505      -0.02217036       0.00830450
Si       1.29855913       2.23386916      19.33715424  T        0        1       0.02842216       0.01805478       0.03826068
O        1.39961256       1.13509405      18.12130753  T        1        1       0.09505196       0.06466575       0.01868960
O        0.22320172       1.71021167      20.41778814  T        1        1      -0.01527138       0.04577842      -0.00213055
O        3.16788816       0.54627288      21.95038674  T        1        1       0.00112031       0.01727262      -0.04990504
O        0.81455468       3.61425217      18.61273853  T        1        1       0.07969519       0.01669404       0.01319242
O        2.71924614       2.49799999      20.08128552  T        1        1      -0.00961340      -0.01325313       0.02091268
O       -1.25602278       2.52007611      22.56345862  T        1        1       0.00526795      -0.02593143       0.02233978
Si       7.23815181       0.00000000      12.00000000  F        0        2      -0.13285957      -0.36732738      -1.70737358
Si       3.76227409       2.00679893      15.60606667  F        0        2      -0.10760820       0.05683531       1.23193845
Si       6.22272410       2.25482548      13.80303333  F        0        2       0.02687063      -0.15712731       1.01384168
O        6.30416499       1.13103512      12.65233746  F        1        2      -0.50545581       0.21519463      -0.21519766
O        5.20877265       1.76346018      14.95372921  F        1        2       0.42321344      -0.24355449      -0.39255608
O        8.17066236       0.63242506      16.25840413  F        1        2      -0.08378164      -0.52362200      -0.06338748
O        5.71021236       3.62919935      13.15069587  F        1        2       0.42571999       0.28748565       0.53782134
O        7.66922265       2.49816423      14.45537079  F        1        2       0.02236441       0.38845402      -0.72728141
O        3.84371499       3.13058929      16.75676254  F        1        2      -0.05046057       0.34631413       0.12517467
Si       7.21111795       0.03382949      17.44844357  T        0        1       0.01472155      -0.01047942       0.04423459
Si       3.76059293       1.85467120      21.17738207  T        0        1      -0.00368033      -0.01592189      -0.07797777
Si       6.16446868       2.26718564      19.26576715  T        0        1       0.00198218      -0.04428362       0.02180016
O        6.26905243       1.22910325      17.99488246  T        1        1      -0.00116787      -0.01552210       0.02366808
O        5.14157189       1.63907146      20.34721784  T        1        1       0.00900669       0.02627056       0.00542552
O        8.04812783       0.42493966      21.73199224  T        1        1      -0.04683675      -0.01586532      -0.02690226
O        5.65107934       3.68934401      18.64782773  T        1        1      -0.00588073      -0.04743497       0.03914862
O        7.62442931       2.49403967      19.94030515  T        1        1      -0.01803899      -0.03487439       0.01412345
O        4.02105983       2.59041339      22.61426542  T        1        1      -0.11515257       0.02423975      -0.04824881
F        2.54752700       0.31742706      24.32228138  T        0        0       0.02700100      -0.01674513       0.03076667
H        2.72244942       0.35659800      23.33627678  T        0        0       0.00529878      -0.04236036       0.02490533
O        4.78099093       1.75855746      25.30848320  T        0        0      -0.08580661      -0.07375351       0.11903225
H        4.18241950       0.98352811      25.35877265  T        0        0      -0.05203599       0.00532745       0.08066002
H        4.59909962       2.09858843      24.40818786  T        0        0       0.04437871       0.18490368      -0.18452420
41
Lattice="9.8418 0.0 0.0 -2.460449999999999 4.261624409482844 0.0 0.0 -0.0 34.16586254" Properties=species:S:1:pos:R:3:move_mask:L:1:spacegroup_kinds:I:1:tags:I:1:forces:R:3 surface=alpha_quartz_001 coadsorbate=H2O start=1 calculation_kind="Local coadsorbate relaxation; not a reaction path" host_atoms=36 energy=-289.4143276075995 pbc="T T F"
Si       2.31725181       0.00000000      12.00000000  F        0        2      -0.13423685      -0.36625374      -1.70697197
Si      -1.15862590       2.00679893      15.60606667  F        0        2      -0.12563008       0.07898270       1.21691771
Si       1.30182410       2.25482548      13.80303333  F        0        2       0.03449928      -0.16057715       1.00131434
O        1.38326499       1.13103512      12.65233746  F        1        2      -0.50688493       0.21881461      -0.21409833
O        0.28787265       1.76346018      14.95372921  F        1        2       0.43936170      -0.24880085      -0.36777779
O        3.24976236       0.63242506      16.25840413  F        1        2      -0.20962317      -0.56223982       0.11105658
O        0.78931236       3.62919935      13.15069587  F        1        2       0.42854361       0.28151395       0.54234002
O        2.74832265       2.49816423      14.45537079  F        1        2       0.01429186       0.38395584      -0.72551041
O       -1.07718501       3.13058929      16.75676254  F        1        2       0.09686302       0.38450288       0.21070415
Si       2.33427009      -0.00802465      17.47008082  T        0        1       0.03089244      -0.01242118       0.00734892
Si      -1.25095933       1.82950410      21.08110719  T        0        1      -0.00520862      -0.03181544       0.02394366
Si       1.30115310       2.23521039      19.34016727  T        0        1      -0.00516189       0.01155267      -0.00350514
O        1.40459405       1.13785196      18.12367798  T        1        1       0.08964270       0.02634782       0.00869975
O        0.22275908       1.71344795      20.41788924  T        1        1      -0.01446013       0.04297883      -0.00293133
O        3.15920136       0.54588985      21.94724472  T        1        1       0.00546499      -0.01675245       0.01355749
O        0.82054070       3.61521519      18.61258382  T        1        1       0.05301267       0.02805835       0.00548357
O        2.71995542       2.49428408      20.08565350  T        1        1      -0.01245399       0.05471319      -0.01157504
O       -1.25864901       2.51820478      22.56157268  T        1        1      -0.00021519      -0.03929891       0.02067291
Si       7.23815181       0.00000000      12.00000000  F        0        2      -0.13295105      -0.36692424      -1.70544334
Si       3.76227409       2.00679893      15.60606667  F        0        2      -0.11072164       0.05565237       1.24075556
Si       6.22272410       2.25482548      13.80303333  F        0        2       0.02559547      -0.15782249       1.01660758
O        6.30416499       1.13103512      12.65233746  F        1        2      -0.50459010       0.21441900      -0.21647685
O        5.20877265       1.76346018      14.95372921  F        1        2       0.42679898      -0.24294631      -0.39489592
O        8.17066236       0.63242506      16.25840413  F        1        2      -0.11496310      -0.53870773      -0.01350773
O        5.71021236       3.62919935      13.15069587  F        1        2       0.42512159       0.28807638       0.53623318
O        7.66922265       2.49816423      14.45537079  F        1        2       0.02198870       0.38836890      -0.72783500
O        3.84371499       3.13058929      16.75676254  F        1        2      -0.04152843       0.35573337       0.12846566
Si       7.21081791       0.03361537      17.45052911  T        0        1       0.01045377      -0.01471014       0.01113002
Si       3.76047366       1.85345089      21.17923139  T        0        1      -0.02738935      -0.05643036      -0.05067384
Si       6.16128921       2.26507660      19.26927540  T        0        1       0.03578077      -0.02755337      -0.03127316
O        6.26601337       1.22576659      17.99970310  T        1        1       0.00810236      -0.03041985       0.00088420
O        5.14123477       1.64036699      20.35263901  T        1        1       0.03270268      -0.00969608      -0.00029922
O        8.04591415       0.42271966      21.72147540  T        1        1      -0.04369753      -0.00982032      -0.00582083
O        5.64886250       3.68634291      18.64992377  T        1        1      -0.01486673      -0.02206964       0.02006219
O        7.62342344       2.49331272      19.93703042  T        1        1      -0.00325354      -0.01767589       0.02788597
O        4.01741745       2.57679347      22.62007698  T        1        1      -0.11229983       0.08653119      -0.00455182
F        2.55384068       0.31668821      24.32990735  T        0        0       0.02902942      -0.01816552      -0.01157765
H        2.72749420       0.35902704      23.34416160  T        0        0      -0.01438956      -0.06276606       0.02129411
O        4.77023801       1.76958056      25.30374038  T        0        0      -0.15210701      -0.06725924       0.00628975
H        4.17233344       0.99154005      25.35676913  T        0        0      -0.00008417       0.07289125       0.06534666
H        4.57378289       2.11898077      24.40540812  T        0        0       0.07857087       0.10803348      -0.04226860
41
Lattice="9.8418 0.0 0.0 -2.460449999999999 4.261624409482844 0.0 0.0 -0.0 34.16586254" Properties=species:S:1:pos:R:3:move_mask:L:1:spacegroup_kinds:I:1:tags:I:1:forces:R:3 surface=alpha_quartz_001 coadsorbate=H2O start=1 calculation_kind="Local coadsorbate relaxation; not a reaction path" host_atoms=36 energy=-289.41792691864123 pbc="T T F"
Si       2.31725181       0.00000000      12.00000000  F        0        2      -0.13389200      -0.36573329      -1.70401000
Si      -1.15862590       2.00679893      15.60606667  F        0        2      -0.12294896       0.07902580       1.21859304
Si       1.30182410       2.25482548      13.80303333  F        0        2       0.03657680      -0.15989773       1.00586426
O        1.38326499       1.13103512      12.65233746  F        1        2      -0.50608567       0.21728722      -0.21588550
O        0.28787265       1.76346018      14.95372921  F        1        2       0.43914976      -0.24891418      -0.36932813
O        3.24976236       0.63242506      16.25840413  F        1        2      -0.21494189      -0.56758276       0.10984158
O        0.78931236       3.62919935      13.15069587  F        1        2       0.42687140       0.28238648       0.53956583
O        2.74832265       2.49816423      14.45537079  F        1        2       0.01232381       0.38445635      -0.72928474
O       -1.07718501       3.13058929      16.75676254  F        1        2       0.13216461       0.43481531       0.26571956
Si       2.33514864      -0.00686482      17.47214949  T        0        1       0.03448272      -0.02168936      -0.03353612
Si      -1.24919941       1.82421370      21.07926493  T        0        1      -0.00044048      -0.03657386       0.04617971
Si       1.30510784       2.23965569      19.34157421  T        0        1      -0.04690448      -0.00191688      -0.05026145
O        1.40996236       1.14369865      18.12436753  T        1        1       0.07468870      -0.01978668      -0.00729683
O        0.22603072       1.71955468      20.41859526  T        1        1      -0.02105355       0.02919411       0.00577169
O        3.14754585       0.55197346      21.94859380  T        1        1       0.01360521      -0.05403139       0.05440916
O        0.82711910       3.61999475      18.61301925  T        1        1       0.01321875       0.03569943      -0.00707830
O        2.72286802       2.49345288      20.08512308  T        1        1      -0.00877080       0.10372763      -0.06066908
O       -1.26158513       2.50214201      22.56506344  T        1        1       0.00016576      -0.04167930       0.01375646
Si       7.23815181       0.00000000      12.00000000  F        0        2      -0.13308907      -0.36635560      -1.70288175
Si       3.76227409       2.00679893      15.60606667  F        0        2      -0.11344059       0.05462854       1.25030705
Si       6.22272410       2.25482548      13.80303333  F        0        2       0.02390747      -0.15899909       1.02013333
O        6.30416499       1.13103512      12.65233746  F        1        2      -0.50345773       0.21342614      -0.21817370
O        5.20877265       1.76346018      14.95372921  F        1        2       0.43115499      -0.24237246      -0.39697883
O        8.17066236       0.63242506      16.25840413  F        1        2      -0.15379594      -0.55372886       0.04627061
O        5.71021236       3.62919935      13.15069587  F        1        2       0.42439109       0.28876599       0.53416548
O        7.66922265       2.49816423      14.45537079  F        1        2       0.02199351       0.38863709      -0.72802395
O        3.84371499       3.13058929      16.75676254  F        1        2      -0.01985959       0.37170067       0.14253229
Si       7.21249452       0.03173880      17.45404139  T        0        1       0.00657353      -0.02638292      -0.03578016
Si       3.75769723       1.85388861      21.17994173  T        0        1      -0.04360645      -0.05745854      -0.03340898
Si       6.16092614       2.26105695      19.27563769  T        0        1       0.05628841      -0.00927961      -0.07071697
O        6.26403006       1.21866365      18.00897962  T        1        1       0.02233238      -0.05295288      -0.01852205
O        5.14346577       1.64473872      20.36449403  T        1        1       0.05203776      -0.04616385      -0.01664697
O        8.04691809       0.41248532      21.70807226  T        1        1      -0.03088460      -0.00028685       0.00427608
O        5.65289900       3.68081888      18.65004289  T        1        1      -0.03489733       0.00301461       0.00354272
O        7.62534858       2.48915384      19.93683778  T        1        1       0.01078252       0.00195716       0.03877085
O        3.99457010       2.58546078      22.61693833  T        1        1      -0.06299421       0.10792718       0.09191631
F        2.56608988       0.30786619      24.34077451  T        0        0       0.03699973      -0.00906850      -0.05044890
H        2.73970736       0.36234043      23.35523512  T        0        0      -0.04261755      -0.08656869       0.02132810
O        4.77248658       1.76141004      25.30215705  T        0        0      -0.13901600      -0.12031792       0.10781343
H        4.16006411       0.99427941      25.36395232  T        0        0       0.02270051       0.09940100       0.05236010
H        4.59234631       2.09892612      24.39898604  T        0        0       0.04028748       0.15169049      -0.12418524
41
Lattice="9.8418 0.0 0.0 -2.460449999999999 4.261624409482844 0.0 0.0 -0.0 34.16586254" Properties=species:S:1:pos:R:3:move_mask:L:1:spacegroup_kinds:I:1:tags:I:1:forces:R:3 surface=alpha_quartz_001 coadsorbate=H2O start=1 calculation_kind="Local coadsorbate relaxation; not a reaction path" host_atoms=36 energy=-289.4210644455749 pbc="T T F"
Si       2.31725181       0.00000000      12.00000000  F        0        2      -0.13380968      -0.36561426      -1.70348702
Si      -1.15862590       2.00679893      15.60606667  F        0        2      -0.12243824       0.07767013       1.21639810
Si       1.30182410       2.25482548      13.80303333  F        0        2       0.03741144      -0.15965851       1.00643137
O        1.38326499       1.13103512      12.65233746  F        1        2      -0.50598355       0.21701719      -0.21614659
O        0.28787265       1.76346018      14.95372921  F        1        2       0.43875230      -0.24886586      -0.36895025
O        3.24976236       0.63242506      16.25840413  F        1        2      -0.21145792      -0.56892851       0.10311809
O        0.78931236       3.62919935      13.15069587  F        1        2       0.42653240       0.28247156       0.53910064
O        2.74832265       2.49816423      14.45537079  F        1        2       0.01186058       0.38445945      -0.72985818
O       -1.07718501       3.13058929      16.75676254  F        1        2       0.14789503       0.45280931       0.28805475
Si       2.33652490      -0.00724998      17.47287624  T        0        1       0.03039604      -0.02123215      -0.04874342
Si      -1.24926681       1.82170161      21.07799953  T        0        1      -0.00104149      -0.02562485       0.04047407
Si       1.30672390       2.24081210      19.34210659  T        0        1      -0.05329901      -0.00339374      -0.05487103
O        1.41395027       1.14508699      18.12544393  T        1        1       0.05957656      -0.03319088      -0.01129058
O        0.22656456       1.72246998      20.41856605  T        1        1      -0.01516280       0.01900737       0.00333179
O        3.14543766       0.55276674      21.95110662  T        1        1       0.01725722      -0.05992238       0.04647572
O        0.83086847       3.62134506      18.61284319  T        1        1      -0.00158601       0.03556406      -0.01458095
O        2.72354083       2.49447481      20.08626118  T        1        1       0.00203596       0.10089360      -0.06527319
O       -1.26400370       2.49594278      22.56525639  T        1        1      -0.00058181      -0.03707549       0.02353562
Si       7.23815181       0.00000000      12.00000000  F        0        2      -0.13314526      -0.36623266      -1.70244900
Si       3.76227409       2.00679893      15.60606667  F        0        2      -0.11430126       0.05326369       1.25262745
Si       6.22272410       2.25482548      13.80303333  F        0        2       0.02300351      -0.15934916       1.02059075
O        6.30416499       1.13103512      12.65233746  F        1        2      -0.50315016       0.21326566      -0.21841575
O        5.20877265       1.76346018      14.95372921  F        1        2       0.43221418      -0.24206072      -0.39760818
O        8.17066236       0.63242506      16.25840413  F        1        2      -0.16334381      -0.55955696       0.06433246
O        5.71021236       3.62919935      13.15069587  F        1        2       0.42431016       0.28890657       0.53384762
O        7.66922265       2.49816423      14.45537079  F        1        2       0.02249753       0.38881730      -0.72731646
O        3.84371499       3.13058929      16.75676254  F        1        2      -0.01598858       0.37271472       0.14357810
Si       7.21264703       0.03130951      17.45488722  T        0        1       0.00900086      -0.03203681      -0.05344413
Si       3.75702144       1.85199343      21.17965291  T        0        1      -0.02848038      -0.02210615       0.01158182
Si       6.16109220       2.25975973      19.27613044  T        0        1       0.04963172      -0.00077082      -0.06524307
O        6.26285543       1.21703790      18.01000362  T        1        1       0.02576371      -0.05397986      -0.02190882
O        5.14484756       1.64519936      20.36712287  T        1        1       0.03541113      -0.05592877      -0.01121736
O        8.04611331       0.40896772      21.70233177  T        1        1      -0.02876273      -0.01206482       0.01215861
O        5.65269334       3.67950446      18.65074894  T        1        1      -0.03567989       0.00901969      -0.00472913
O        7.62580862       2.48781858      19.93594213  T        1        1       0.01578617       0.00803707       0.03639485
O        3.98796834       2.58779867      22.61702570  T        1        1      -0.05646535       0.08980415       0.07278759
F        2.56652981       0.30309712      24.34422658  T        0        0       0.02951184      -0.01145419      -0.02859286
H        2.74006313       0.36034612      23.36014717  T        0        0      -0.04046654      -0.08852754      -0.00111765
O        4.76480625       1.76696353      25.30002786  T        0        0      -0.09180589      -0.01767541       0.03214238
H        4.15733634       0.99774697      25.37257261  T        0        0      -0.00344635       0.10640281      -0.01544375
H        4.58546179       2.10679946      24.39377682  T        0        0       0.02154839       0.04512618       0.01372556
41
Lattice="9.8418 0.0 0.0 -2.460449999999999 4.261624409482844 0.0 0.0 -0.0 34.16586254" Properties=species:S:1:pos:R:3:move_mask:L:1:spacegroup_kinds:I:1:tags:I:1:forces:R:3 surface=alpha_quartz_001 coadsorbate=H2O start=1 calculation_kind="Local coadsorbate relaxation; not a reaction path" host_atoms=36 energy=-289.4242556984228 pbc="T T F"
Si       2.31725181       0.00000000      12.00000000  F        0        2      -0.13383414      -0.36576592      -1.70457123
Si      -1.15862590       2.00679893      15.60606667  F        0        2      -0.12229943       0.07482677       1.20990999
Si       1.30182410       2.25482548      13.80303333  F        0        2       0.03816668      -0.15937609       1.00456191
O        1.38326499       1.13103512      12.65233746  F        1        2      -0.50641108       0.21748511      -0.21539810
O        0.28787265       1.76346018      14.95372921  F        1        2       0.43760002      -0.24886751      -0.36693486
O        3.24976236       0.63242506      16.25840413  F        1        2      -0.19501049      -0.56306122       0.07636928
O        0.78931236       3.62919935      13.15069587  F        1        2       0.42692518       0.28205515       0.54007470
O        2.74832265       2.49816423      14.45537079  F        1        2       0.01210015       0.38420465      -0.72844476
O       -1.07718501       3.13058929      16.75676254  F        1        2       0.16160645       0.46354973       0.30613482
Si       2.33867537      -0.00810527      17.47266934  T        0        1       0.01572227      -0.01357670      -0.04497609
Si      -1.24906014       1.81724917      21.07672692  T        0        1      -0.00341357      -0.01097061       0.02700485
Si       1.30793951       2.24220664      19.34148512  T        0        1      -0.02279434       0.00028993      -0.04048580
O        1.41952218       1.14591419      18.12640819  T        1        1       0.02550083      -0.03185514      -0.01138853
O        0.22763395       1.72644429      20.41873345  T        1        1      -0.00639252       0.00404103      -0.00266851
O        3.14421820       0.55386111      21.95643621  T        1        1       0.02656826      -0.04009204       0.01399974
O        0.83525067       3.62365282      18.61219819  T        1        1      -0.01299144       0.01680261      -0.02049833
O        2.72485579       2.49759982      20.08587284  T        1        1       0.01835511       0.06209193      -0.04474545
O       -1.26775987       2.48532626      22.56634125  T        1        1      -0.00002491      -0.02925836       0.03797519
Si       7.23815181       0.00000000      12.00000000  F        0        2      -0.13327895      -0.36640078      -1.70354197
Si       3.76227409       2.00679893      15.60606667  F        0        2      -0.11515915       0.05046499       1.25079317
Si       6.22272410       2.25482548      13.80303333  F        0        2       0.02194210      -0.15962332       1.01865773
O        6.30416499       1.13103512      12.65233746  F        1        2      -0.50336081       0.21380769      -0.21768860
O        5.20877265       1.76346018      14.95372921  F        1        2       0.43215243      -0.24182274      -0.39657774
O        8.17066236       0.63242506      16.25840413  F        1        2      -0.16350812      -0.56162526       0.06981111
O        5.71021236       3.62919935      13.15069587  F        1        2       0.42491635       0.28857491       0.53488489
O        7.66922265       2.49816423      14.45537079  F        1        2       0.02372826       0.38885182      -0.72487561
O        3.84371499       3.13058929      16.75676254  F        1        2      -0.02061517       0.35730297       0.13173170
Si       7.21302308       0.03021460      17.45474345  T        0        1       0.01251967      -0.02881110      -0.04720362
Si       3.75603890       1.85032285      21.17998657  T        0        1      -0.00502594       0.03579539       0.03919332
Si       6.16241369       2.25837925      19.27546081  T        0        1       0.01517323      -0.00521489      -0.02499697
O        6.26189465       1.21431257      18.01050609  T        1        1       0.02373814      -0.03440078      -0.01768659
O        5.14736994       1.64502148      20.37034021  T        1        1       0.00074703      -0.04588264      -0.00344323
O        8.04554824       0.40260998      21.69442156  T        1        1      -0.02435470      -0.02429672       0.01924867
O        5.65220007       3.67835400      18.65124833  T        1        1      -0.02174188      -0.00257763      -0.00977217
O        7.62719323       2.48587659      19.93522405  T        1        1       0.00914500       0.01496073       0.02259695
O        3.97783846       2.59548469      22.61719488  T        1        1      -0.04919387       0.03960918       0.02076667
F        2.56576813       0.29461341      24.34892466  T        0        0       0.01903845      -0.01398394       0.00981808
H        2.73883206       0.35551639      23.36684044  T        0        0      -0.03190814      -0.08605147      -0.03205835
O        4.75487902       1.77670829      25.29842882  T        0        0      -0.04221825       0.06526730      -0.01333801
H        4.15601112       1.00311096      25.38509884  T        0        0      -0.02880182       0.11432609      -0.08366036
H        4.57696775       2.11260057      24.38754310  T        0        0      -0.00330691      -0.04079311       0.12142210
41
Lattice="9.8418 0.0 0.0 -2.460449999999999 4.261624409482844 0.0 0.0 -0.0 34.16586254" Properties=species:S:1:pos:R:3:move_mask:L:1:spacegroup_kinds:I:1:tags:I:1:forces:R:3 surface=alpha_quartz_001 coadsorbate=H2O start=1 calculation_kind="Local coadsorbate relaxation; not a reaction path" host_atoms=36 energy=-289.42666446330463 pbc="T T F"
Si       2.31725181       0.00000000      12.00000000  F        0        2      -0.13389738      -0.36607329      -1.70639152
Si      -1.15862590       2.00679893      15.60606667  F        0        2      -0.12191738       0.07299876       1.20244895
Si       1.30182410       2.25482548      13.80303333  F        0        2       0.03878988      -0.15911446       1.00174218
O        1.38326499       1.13103512      12.65233746  F        1        2      -0.50711262       0.21829718      -0.21422912
O        0.28787265       1.76346018      14.95372921  F        1        2       0.43610632      -0.24904085      -0.36434613
O        3.24976236       0.63242506      16.25840413  F        1        2      -0.17292552      -0.55329585       0.04142782
O        0.78931236       3.62919935      13.15069587  F        1        2       0.42768727       0.28142027       0.54169099
O        2.74832265       2.49816423      14.45537079  F        1        2       0.01268041       0.38380742      -0.72622513
O       -1.07718501       3.13058929      16.75676254  F        1        2       0.17159401       0.46819325       0.31802897
Si       2.34098456      -0.00911862      17.47191582  T        0        1      -0.00318548      -0.00418333      -0.02656743
Si      -1.24947247       1.81382585      21.07597465  T        0        1      -0.00313232      -0.00259461       0.01131428
Si       1.30856019       2.24329419      19.34068637  T        0        1       0.01704770       0.00357687      -0.01861958
O        1.42530030       1.14626251      18.12731893  T        1        1      -0.01377987      -0.02314996      -0.00813361
O        0.22799635       1.72992398      20.41895657  T        1        1       0.00584251      -0.00598439      -0.01365087
O        3.14301928       0.55371246      21.95987793  T        1        1       0.03676248      -0.00834435      -0.00806415
O        0.83932394       3.62578331      18.61125919  T        1        1      -0.01970036      -0.01035584      -0.02268379
O        2.72618897       2.50042563      20.08515419  T        1        1       0.02677029       0.02519524      -0.01609743
O       -1.27100073       2.47682813      22.56750764  T        1        1      -0.00070160      -0.02880560       0.04602121
Si       7.23815181       0.00000000      12.00000000  F        0        2      -0.13345300      -0.36674341      -1.70544710
Si       3.76227409       2.00679893      15.60606667  F        0        2      -0.11636284       0.04723015       1.24710269
Si       6.22272410       2.25482548      13.80303333  F        0        2       0.02097291      -0.15982412       1.01556975
O        6.30416499       1.13103512      12.65233746  F        1        2      -0.50389525       0.21472921      -0.21648393
O        5.20877265       1.76346018      14.95372921  F        1        2       0.43162575      -0.24162814      -0.39471933
O        8.17066236       0.63242506      16.25840413  F        1        2      -0.15788079      -0.56226143       0.06803783
O        5.71021236       3.62919935      13.15069587  F        1        2       0.42589820       0.28798808       0.53663454
O        7.66922265       2.49816423      14.45537079  F        1        2       0.02504329       0.38856059      -0.72182886
O        3.84371499       3.13058929      16.75676254  F        1        2      -0.03170842       0.33144029       0.11013337
Si       7.21346658       0.02878079      17.45391698  T        0        1       0.01273210      -0.01544395      -0.02044475
Si       3.75530661       1.84983677      21.18108047  T        0        1       0.00853995       0.06213863       0.04026284
Si       6.16327113       2.25694652      19.27463095  T        0        1      -0.01698208      -0.01545735       0.01477134
O        6.26128346       1.21108442      18.01110782  T        1        1       0.01777447      -0.00478739      -0.01259943
O        5.14928289       1.64406134      20.37304977  T        1        1      -0.02910421      -0.02816278       0.00439771
O        8.04419983       0.39703866      21.68708104  T        1        1      -0.01708752      -0.02444109       0.02658301
O        5.65058379       3.67709218      18.65198977  T        1        1       0.00022446      -0.02039731      -0.01494595
O        7.62815305       2.48453824      19.93455891  T        1        1      -0.00212387       0.02055944       0.01084885
O        3.96931361       2.59975505      22.61924243  T        1        1      -0.04621934       0.00279075      -0.02728029
F        2.56603651       0.28783783      24.35369912  T        0        0       0.01145966      -0.01706766       0.02293788
H        2.73733659       0.35008288      23.37266781  T        0        0      -0.02487268      -0.08241953      -0.04737928
O        4.74477303       1.78851516      25.29737703  T        0        0      -0.01690168       0.10225640      -0.02376345
H        4.15360106       1.01067438      25.39184818  T        0        0      -0.04511811       0.10705346      -0.10736823
H        4.56413300       2.12049329      24.38453005  T        0        0      -0.00948931      -0.06865930       0.15731516
41
Lattice="9.8418 0.0 0.0 -2.460449999999999 4.261624409482844 0.0 0.0 -0.0 34.16586254" Properties=species:S:1:pos:R:3:move_mask:L:1:spacegroup_kinds:I:1:tags:I:1:forces:R:3 surface=alpha_quartz_001 coadsorbate=H2O start=1 calculation_kind="Local coadsorbate relaxation; not a reaction path" host_atoms=36 energy=-289.42973699193874 pbc="T T F"
Si       2.31725181       0.00000000      12.00000000  F        0        2      -0.13397118      -0.36653573      -1.70898568
Si      -1.15862590       2.00679893      15.60606667  F        0        2      -0.12137437       0.07120841       1.19247211
Si       1.30182410       2.25482548      13.80303333  F        0        2       0.03977207      -0.15873332       0.99782026
O        1.38326499       1.13103512      12.65233746  F        1        2      -0.50816082       0.21945335      -0.21260595
O        0.28787265       1.76346018      14.95372921  F        1        2       0.43397658      -0.24935511      -0.36071866
O        3.24976236       0.63242506      16.25840413  F        1        2      -0.13961282      -0.53750985      -0.01169017
O        0.78931236       3.62919935      13.15069587  F        1        2       0.42877603       0.28051678       0.54397881
O        2.74832265       2.49816423      14.45537079  F        1        2       0.01339515       0.38318752      -0.72320011
O       -1.07718501       3.13058929      16.75676254  F        1        2       0.18346834       0.47181211       0.33126135
Si       2.34430916      -0.01066803      17.47062994  T        0        1      -0.03027853       0.00894454       0.00722061
Si      -1.25063808       1.80952880      21.07509142  T        0        1       0.00419746       0.00384374      -0.00957463
Si       1.30974329       2.24471530      19.33969773  T        0        1       0.06338120       0.00475719       0.01114487
O        1.43360712       1.14647732      18.12874607  T        1        1      -0.06792095      -0.00909677      -0.00122974
O        0.22814437       1.73458356      20.41906770  T        1        1       0.01672206      -0.01611073      -0.02570965
O        3.14195226       0.55290123      21.96323602  T        1        1       0.04587401       0.03484053      -0.02501566
O        0.84514321       3.62829806      18.60948631  T        1        1      -0.02633088      -0.04900768      -0.02342877
O        2.72834265       2.50401788      20.08429672  T        1        1       0.02976710      -0.01679649       0.02154275
O       -1.27551484       2.46561520      22.56958355  T        1        1      -0.00206708      -0.03686219       0.04327450
Si       7.23815181       0.00000000      12.00000000  F        0        2      -0.13370317      -0.36726143      -1.70818357
Si       3.76227409       2.00679893      15.60606667  F        0        2      -0.11825980       0.04263230       1.24213997
Si       6.22272410       2.25482548      13.80303333  F        0        2       0.01956991      -0.16015716       1.01131845
O        6.30416499       1.13103512      12.65233746  F        1        2      -0.50469062       0.21605484      -0.21479973
O        5.20877265       1.76346018      14.95372921  F        1        2       0.43096934      -0.24130056      -0.39222837
O        8.17066236       0.63242506      16.25840413  F        1        2      -0.14740456      -0.56337734       0.06374744
O        5.71021236       3.62919935      13.15069587  F        1        2       0.42733202       0.28716754       0.53913327
O        7.66922265       2.49816423      14.45537079  F        1        2       0.02683259       0.38794889      -0.71759607
O        3.84371499       3.13058929      16.75676254  F        1        2      -0.04969192       0.29137429       0.07564527
Si       7.21419592       0.02660868      17.45256672  T        0        1       0.00900079       0.00802989       0.02414471
Si       3.75467330       1.85043311      21.18321722  T        0        1       0.01449105       0.06540187       0.02143573
Si       6.16369517       2.25454029      19.27373886  T        0        1      -0.04971816      -0.02850841       0.06016671
O        6.26065860       1.20651653      18.01186488  T        1        1       0.00785197       0.03762345      -0.00316390
O        5.15113431       1.64209291      20.37655574  T        1        1      -0.05640150      -0.00243784       0.01155113
O        8.04152283       0.38933668      21.67685518  T        1        1      -0.00150477      -0.00931218       0.03370968
O        5.64756684       3.67483508      18.65321243  T        1        1       0.03218685      -0.04380222      -0.02225494
O        7.62903181       2.48311264      19.93345915  T        1        1      -0.01899733       0.02378504       0.00240043
O        3.95780872       2.60323208      22.62290517  T        1        1      -0.04184292      -0.02684047      -0.07000819
F        2.56656513       0.27869678      24.36083944  T        0        0       0.00589958      -0.02100929       0.01172667
H        2.73443999       0.34083596      23.38041100  T        0        0      -0.01588643      -0.07450588      -0.04927046
O        4.72915472       1.80936303      25.29677106  T        0        0      -0.01624524       0.10033892      -0.01461065
H        4.14939874       1.02410618      25.39701820  T        0        0      -0.04953603       0.09833611      -0.10298037
H        4.54044367       2.13436881      24.38295533  T        0        0       0.00013498      -0.05873665       0.15142058
41
Lattice="9.8418 0.0 0.0 -2.460449999999999 4.261624409482844 0.0 0.0 -0.0 34.16586254" Properties=species:S:1:pos:R:3:move_mask:L:1:spacegroup_kinds:I:1:tags:I:1:forces:R:3 surface=alpha_quartz_001 coadsorbate=H2O start=1 calculation_kind="Local coadsorbate relaxation; not a reaction path" host_atoms=36 energy=-289.43272456710406 pbc="T T F"
Si       2.31725181       0.00000000      12.00000000  F        0        2      -0.13398306      -0.36687442      -1.71076648
Si      -1.15862590       2.00679893      15.60606667  F        0        2      -0.12130469       0.06992681       1.18532699
Si       1.30182410       2.25482548      13.80303333  F        0        2       0.04094924      -0.15833397       0.99514840
O        1.38326499       1.13103512      12.65233746  F        1        2      -0.50897733       0.22023936      -0.21152089
O        0.28787265       1.76346018      14.95372921  F        1        2       0.43232317      -0.24960091      -0.35795220
O        3.24976236       0.63242506      16.25840413  F        1        2      -0.11184612      -0.52359290      -0.05754999
O        0.78931236       3.62919935      13.15069587  F        1        2       0.42947551       0.27986238       0.54552833
O        2.74832265       2.49816423      14.45537079  F        1        2       0.01356600       0.38267880      -0.72137800
O       -1.07718501       3.13058929      16.75676254  F        1        2       0.19248713       0.47477762       0.34153323
Si       2.34715538      -0.01208388      17.46955896  T        0        1      -0.05068190       0.01921672       0.03647960
Si      -1.25209068       1.80621136      21.07464878  T        0        1       0.01457987       0.00780328      -0.02678803
Si       1.31160964       2.24603132      19.33918818  T        0        1       0.08027418       0.00027925       0.03469840
O        1.44101370       1.14660437      18.13031518  T        1        1      -0.10960154       0.00035195       0.00615237
O        0.22780307       1.73848711      20.41863555  T        1        1       0.02216874      -0.02155031      -0.03177918
O        3.14207416       0.55129310      21.96447911  T        1        1       0.04522594       0.06390512      -0.02704850
O        0.85051359       3.62979072      18.60733703  T        1        1      -0.03056514      -0.07705843      -0.02182210
O        2.73051427       2.50717084      20.08421096  T        1        1       0.02170203      -0.04223791       0.04378892
O       -1.27924800       2.45624044      22.57216900  T        1        1      -0.00295872      -0.04928823       0.02653847
Si       7.23815181       0.00000000      12.00000000  F        0        2      -0.13389541      -0.36763916      -1.71005699
Si       3.76227409       2.00679893      15.60606667  F        0        2      -0.12000868       0.03886824       1.23964716
Si       6.22272410       2.25482548      13.80303333  F        0        2       0.01819849      -0.16058533       1.00862338
O        6.30416499       1.13103512      12.65233746  F        1        2      -0.50521216       0.21697544      -0.21369667
O        5.20877265       1.76346018      14.95372921  F        1        2       0.43087602      -0.24089536      -0.39090538
O        8.17066236       0.63242506      16.25840413  F        1        2      -0.13735914      -0.56572226       0.06149229
O        5.71021236       3.62919935      13.15069587  F        1        2       0.42838820       0.28664460       0.54084428
O        7.66922265       2.49816423      14.45537079  F        1        2       0.02828007       0.38733751      -0.71441549
O        3.84371499       3.13058929      16.75676254  F        1        2      -0.06424203       0.25858527       0.04637505
Si       7.21503251       0.02466448      17.45159051  T        0        1       0.00138272       0.02806467       0.05892596
Si       3.75435610       1.85162199      21.18524604  T        0        1       0.01063373       0.04184899      -0.00351355
Si       6.16317665       2.25172029      19.27353362  T        0        1      -0.05970509      -0.03220597       0.08426382
O        6.26049561       1.20299028      18.01220481  T        1        1       0.00009357       0.06684282       0.00752578
O        5.15168579       1.63950398      20.37911652  T        1        1      -0.06427806       0.01750696       0.01482922
O        8.03793095       0.38330571      21.66899060  T        1        1       0.01782147       0.01412275       0.03421046
O        5.64463806       3.67202341      18.65432174  T        1        1       0.05518743      -0.05584659      -0.02793039
O        7.62909555       2.48238455      19.93270023  T        1        1      -0.03148123       0.01931876       0.00633327
O        3.94740403       2.60422282      22.62606890  T        1        1      -0.03545998      -0.03127764      -0.07875454
F        2.56693228       0.27097505      24.36670219  T        0        0       0.00430614      -0.02538345      -0.01806994
H        2.73100546       0.33024766      23.38619047  T        0        0      -0.00675534      -0.06210621      -0.03695592
O        4.71309245       1.83183508      25.29739836  T        0        0      -0.02301441       0.07838398       0.01235670
H        4.14411754       1.03934816      25.39720859  T        0        0      -0.05417916       0.07204228      -0.06868618
H        4.51531034       2.15081108      24.38451089  T        0        0       0.01758952      -0.01538455       0.09896833
41
Lattice="9.8418 0.0 0.0 -2.460449999999999 4.261624409482844 0.0 0.0 -0.0 34.16586254" Properties=species:S:1:pos:R:3:move_mask:L:1:spacegroup_kinds:I:1:tags:I:1:forces:R:3 surface=alpha_quartz_001 coadsorbate=H2O start=1 calculation_kind="Local coadsorbate relaxation; not a reaction path" host_atoms=36 energy=-289.43626818746964 pbc="T T F"
Si       2.31725181       0.00000000      12.00000000  F        0        2      -0.13390153      -0.36700160      -1.71127248
Si      -1.15862590       2.00679893      15.60606667  F        0        2      -0.12217732       0.06867713       1.18176679
Si       1.30182410       2.25482548      13.80303333  F        0        2       0.04260296      -0.15787453       0.99430108
O        1.38326499       1.13103512      12.65233746  F        1        2      -0.50943193       0.22044808      -0.21125583
O        0.28787265       1.76346018      14.95372921  F        1        2       0.43135978      -0.24970668      -0.35629320
O        3.24976236       0.63242506      16.25840413  F        1        2      -0.09257452      -0.51250203      -0.09318380
O        0.78931236       3.62919935      13.15069587  F        1        2       0.42954293       0.27957572       0.54594092
O        2.74832265       2.49816423      14.45537079  F        1        2       0.01283598       0.38235594      -0.72140975
O       -1.07718501       3.13058929      16.75676254  F        1        2       0.19903672       0.47832771       0.35006274
Si       2.34955901      -0.01348100      17.46891641  T        0        1      -0.06008723       0.02614019       0.05483601
Si      -1.25367122       1.80294555      21.07378845  T        0        1       0.02722104       0.01094679      -0.03582487
Si       1.31512182       2.24739630      19.33935168  T        0        1       0.06042478      -0.00937133       0.04726740
O        1.44763339       1.14641160      18.13251268  T        1        1      -0.13364446       0.00183491       0.01321354
O        0.22739059       1.74222976      20.41729167  T        1        1       0.01688239      -0.02500356      -0.02480973
O        3.14400152       0.54923261      21.96512115  T        1        1       0.03114322       0.07176921      -0.02002556
O        0.85615537       3.62982344      18.60425530  T        1        1      -0.03314152      -0.08816896      -0.01773196
O        2.73313053       2.51044266      20.08557668  T        1        1       0.00171288      -0.05477527       0.04487826
O       -1.28344643       2.44565495      22.57542583  T        1        1      -0.00129888      -0.06117149      -0.00439262
Si       7.23815181       0.00000000      12.00000000  F        0        2      -0.13399727      -0.36777768      -1.71052144
Si       3.76227409       2.00679893      15.60606667  F        0        2      -0.12151519       0.03610502       1.24116395
Si       6.22272410       2.25482548      13.80303333  F        0        2       0.01673844      -0.16117476       1.00834962
O        6.30416499       1.13103512      12.65233746  F        1        2      -0.50524860       0.21723361      -0.21351749
O        5.20877265       1.76346018      14.95372921  F        1        2       0.43169970      -0.24034949      -0.39144885
O        8.17066236       0.63242506      16.25840413  F        1        2      -0.13036472      -0.57022086       0.06532845
O        5.71021236       3.62919935      13.15069587  F        1        2       0.42881913       0.28661613       0.54127615
O        7.66922265       2.49816423      14.45537079  F        1        2       0.02937020       0.38688430      -0.71269236
O        3.84371499       3.13058929      16.75676254  F        1        2      -0.07333977       0.23749394       0.02556707
Si       7.21585818       0.02315286      17.45129236  T        0        1      -0.00915512       0.03902954       0.07361002
Si       3.75436112       1.85291091      21.18745231  T        0        1      -0.00073312       0.00300330      -0.02734356
Si       6.16149144       2.24815358      19.27427416  T        0        1      -0.04507300      -0.02217364       0.08424870
O        6.26048813       1.20097272      18.01170172  T        1        1      -0.00293570       0.07568412       0.02228381
O        5.15094866       1.63601740      20.38118232  T        1        1      -0.05012923       0.03044712       0.01290065
O        8.03344765       0.37781839      21.66195138  T        1        1       0.04137900       0.04070035       0.02457287
O        5.64200708       3.66827682      18.65508445  T        1        1       0.06395410      -0.05087011      -0.02960963
O        7.62836282       2.48218477      19.93198580  T        1        1      -0.03863079       0.00560755       0.02318367
O        3.93629760       2.60405313      22.62847204  T        1        1      -0.02508975      -0.01230931      -0.05024989
F        2.56558856       0.26192038      24.37192944  T        0        0       0.00539001      -0.03067425      -0.05504287
H        2.72583086       0.31602436      23.39123896  T        0        0       0.00597527      -0.04217351      -0.01747124
O        4.69236955       1.86191562      25.29936062  T        0        0      -0.04787741       0.02463458       0.04671722
H        4.13791027       1.05892529      25.39514838  T        0        0      -0.04645446       0.05234543      -0.01797368
H        4.48299118       2.17380304      24.38829408  T        0        0       0.04071296       0.04743835       0.02060191
41
Lattice="9.8418 0.0 0.0 -2.460449999999999 4.261624409482844 0.0 0.0 -0.0 34.16586254" Properties=species:S:1:pos:R:3:move_mask:L:1:spacegroup_kinds:I:1:tags:I:1:forces:R:3 surface=alpha_quartz_001 coadsorbate=H2O start=1 calculation_kind="Local coadsorbate relaxation; not a reaction path" host_atoms=36 energy=-289.43975030253375 pbc="T T F"
Si       2.31725181       0.00000000      12.00000000  F        0        2      -0.13372979      -0.36680259      -1.70993497
Si      -1.15862590       2.00679893      15.60606667  F        0        2      -0.12408220       0.06765673       1.18404033
Si       1.30182410       2.25482548      13.80303333  F        0        2       0.04433666      -0.15747868       0.99611148
O        1.38326499       1.13103512      12.65233746  F        1        2      -0.50924440       0.21982607      -0.21214535
O        0.28787265       1.76346018      14.95372921  F        1        2       0.43165813      -0.24959035      -0.35660906
O        3.24976236       0.63242506      16.25840413  F        1        2      -0.09160981      -0.50891017      -0.10274867
O        0.78931236       3.62919935      13.15069587  F        1        2       0.42874882       0.27987010       0.54472408
O        2.74832265       2.49816423      14.45537079  F        1        2       0.01121835       0.38242893      -0.72382271
O       -1.07718501       3.13058929      16.75676254  F        1        2       0.20107283       0.48331063       0.35542866
Si       2.35059733      -0.01432272      17.46913656  T        0        1      -0.05180720       0.02575392       0.04873360
Si      -1.25464589       1.80077800      21.07283800  T        0        1       0.03294622       0.01288337      -0.03289687
Si       1.31942108       2.24849459      19.34037293  T        0        1       0.00494081      -0.02068215       0.04069190
O        1.45115948       1.14595992      18.13495044  T        1        1      -0.12810159      -0.00937518       0.01657930
O        0.22683335       1.74481088      20.41513295  T        1        1       0.00728830      -0.02655734      -0.00655662
O        3.14692810       0.54683376      21.96462856  T        1        1       0.00612216       0.05134592      -0.00719302
O        0.86050770       3.62804313      18.60083577  T        1        1      -0.03470849      -0.07270577      -0.01141792
O        2.73532123       2.51330852      20.08831691  T        1        1      -0.02361268      -0.05266116       0.02160623
O       -1.28669017       2.43622954      22.57856716  T        1        1       0.00363403      -0.06016037      -0.03117746
Si       7.23815181       0.00000000      12.00000000  F        0        2      -0.13394792      -0.36754789      -1.70898765
Si       3.76227409       2.00679893      15.60606667  F        0        2      -0.12246168       0.03546763       1.24727051
Si       6.22272410       2.25482548      13.80303333  F        0        2       0.01572506      -0.16174348       1.01120956
O        6.30416499       1.13103512      12.65233746  F        1        2      -0.50463945       0.21654606      -0.21458737
O        5.20877265       1.76346018      14.95372921  F        1        2       0.43347061      -0.23982731      -0.39402207
O        8.17066236       0.63242506      16.25840413  F        1        2      -0.13143270      -0.57695574       0.07837143
O        5.71021236       3.62919935      13.15069587  F        1        2       0.42827969       0.28721517       0.53990449
O        7.66922265       2.49816423      14.45537079  F        1        2       0.02962711       0.38682304      -0.71339344
O        3.84371499       3.13058929      16.75676254  F        1        2      -0.07265734       0.23789955       0.02209942
Si       7.21646930       0.02250913      17.45209724  T        0        1      -0.01726763       0.03407246       0.05572501
Si       3.75426557       1.85316266      21.18899437  T        0        1      -0.01232724      -0.02721027      -0.03084923
Si       6.15909779       2.24452600      19.27629089  T        0        1      -0.01057855       0.00247574       0.05576493
O        6.26082141       1.20116007      18.01082006  T        1        1       0.00185336       0.05477269       0.03577653
O        5.14894153       1.63232024      20.38237541  T        1        1      -0.01996865       0.03206550       0.00812243
O        8.02903241       0.37523543      21.65841726  T        1        1       0.05981226       0.04992128       0.00655804
O        5.64085484       3.66408786      18.65501768  T        1        1       0.05169367      -0.02444946      -0.02521190
O        7.62663483       2.48264611      19.93232787  T        1        1      -0.03485100      -0.01137936       0.04574347
O        3.92637579       2.60274999      22.62952708  T        1        1      -0.01211929       0.01965238      -0.00124341
F        2.56376703       0.25408974      24.37420951  T        0        0       0.00460747      -0.03773337      -0.07526444
H        2.72089625       0.30124113      23.39357814  T        0        0       0.02062890      -0.01786053      -0.00642264
O        4.67128494       1.89069358      25.30232137  T        0        0      -0.04268225       0.00571379       0.08008546
H        4.13025252       1.07897058      25.39060512  T        0        0      -0.05932413       0.00509694       0.02958756
H        4.45397328       2.19938352      24.39382917  T        0        0       0.05348955       0.09883326      -0.05964968
41
Lattice="9.8418 0.0 0.0 -2.460449999999999 4.261624409482844 0.0 0.0 -0.0 34.16586254" Properties=species:S:1:pos:R:3:move_mask:L:1:spacegroup_kinds:I:1:tags:I:1:forces:R:3 surface=alpha_quartz_001 coadsorbate=H2O start=1 calculation_kind="Local coadsorbate relaxation; not a reaction path" host_atoms=36 energy=-289.4427018806085 pbc="T T F"
Si       2.31725181       0.00000000      12.00000000  F        0        2      -0.13355205      -0.36636647      -1.70739259
Si      -1.15862590       2.00679893      15.60606667  F        0        2      -0.12650870       0.06720682       1.19084547
Si       1.30182410       2.25482548      13.80303333  F        0        2       0.04557361      -0.15731819       0.99960481
O        1.38326499       1.13103512      12.65233746  F        1        2      -0.50853313       0.21866869      -0.21378044
O        0.28787265       1.76346018      14.95372921  F        1        2       0.43313309      -0.24933745      -0.35853238
O        3.24976236       0.63242506      16.25840413  F        1        2      -0.10790704      -0.51200359      -0.08575361
O        0.78931236       3.62919935      13.15069587  F        1        2       0.42744523       0.28058913       0.54247897
O        2.74832265       2.49816423      14.45537079  F        1        2       0.00937448       0.38284197      -0.72748421
O       -1.07718501       3.13058929      16.75676254  F        1        2       0.19778095       0.48674707       0.35516457
Si       2.35017169      -0.01452325      17.47005811  T        0        1      -0.02999197       0.01797979       0.02125932
Si      -1.25450660       1.79907469      21.07096719  T        0        1       0.02802789       0.01057866      -0.01262518
Si       1.32344282       2.24895485      19.34177112  T        0        1      -0.05666014      -0.02716847       0.01518045
O        1.45057851       1.14475896      18.13728356  T        1        1      -0.09521561      -0.02786833       0.01475635
O        0.22692301       1.74617592      20.41293334  T        1        1      -0.00673329      -0.02838157       0.02022620
O        3.15003500       0.54575773      21.96543700  T        1        1      -0.02156832       0.01043246       0.00025524
O        0.86284602       3.62479811      18.59758364  T        1        1      -0.03462771      -0.03565863      -0.00426800
O        2.73681307       2.51517564      20.09144644  T        1        1      -0.04354825      -0.04551395      -0.01378364
O       -1.28966303       2.42668841      22.58058016  T        1        1       0.01241276      -0.04093344      -0.04000173
Si       7.23815181       0.00000000      12.00000000  F        0        2      -0.13376773      -0.36705512      -1.70611230
Si       3.76227409       2.00679893      15.60606667  F        0        2      -0.12261704       0.03696594       1.25512192
Si       6.22272410       2.25482548      13.80303333  F        0        2       0.01558618      -0.16202687       1.01590511
O        6.30416499       1.13103512      12.65233746  F        1        2      -0.50363832       0.21520035      -0.21645254
O        5.20877265       1.76346018      14.95372921  F        1        2       0.43541032      -0.23955122      -0.39738286
O        8.17066236       0.63242506      16.25840413  F        1        2      -0.14165246      -0.58369763       0.09766475
O        5.71021236       3.62919935      13.15069587  F        1        2       0.42698640       0.28820375       0.53731306
O        7.66922265       2.49816423      14.45537079  F        1        2       0.02901818       0.38719639      -0.71610816
O        3.84371499       3.13058929      16.75676254  F        1        2      -0.06539561       0.25608625       0.03394000
Si       7.21648890       0.02289807      17.45363566  T        0        1      -0.01682017       0.01565749       0.01389721
Si       3.75405398       1.85247477      21.19018537  T        0        1      -0.01868799      -0.02844746      -0.01430707
Si       6.15685664       2.24191865      19.27897896  T        0        1       0.02287387       0.03065525       0.01366223
O        6.26101853       1.20316751      18.00997483  T        1        1       0.01274063       0.01308450       0.04535082
O        5.14678051       1.62964235      20.38336411  T        1        1       0.01176707       0.02569307       0.00197051
O        8.02687757       0.37399311      21.65616708  T        1        1       0.06603226       0.03369539      -0.01436032
O        5.64139788       3.66058203      18.65396847  T        1        1       0.02438038       0.01328049      -0.01481810
O        7.62470424       2.48314203      19.93333513  T        1        1      -0.02234706      -0.02197418       0.06033924
O        3.91839170       2.60280966      22.62952184  T        1        1       0.00022850       0.04634711       0.04303208
F        2.56087118       0.24609602      24.37452224  T        0        0       0.00206410      -0.04351072      -0.06654379
H        2.71665677       0.28831655      23.39460385  T        0        0       0.03516997       0.00437242      -0.01178254
O        4.65207870       1.91611621      25.30538639  T        0        0      -0.04613682      -0.01118899       0.08538165
H        4.12368743       1.09581004      25.38905620  T        0        0      -0.05864165      -0.00297950       0.04475647
H        4.43043687       2.22264537      24.39760779  T        0        0       0.05854522       0.10949881      -0.08661699
41
Lattice="9.8418 0.0 0.0 -2.460449999999999 4.261624409482844 0.0 0.0 -0.0 34.16586254" Properties=species:S:1:pos:R:3:move_mask:L:1:spacegroup_kinds:I:1:tags:I:1:forces:R:3 surface=alpha_quartz_001 coadsorbate=H2O start=1 calculation_kind="Local coadsorbate relaxation; not a reaction path" host_atoms=36 energy=-289.4451479444583 pbc="T T F"
Si       2.31725181       0.00000000      12.00000000  F        0        2      -0.13344223      -0.36592577      -1.70494328
Si      -1.15862590       2.00679893      15.60606667  F        0        2      -0.12852196       0.06754837       1.19896229
Si       1.30182410       2.25482548      13.80303333  F        0        2       0.04600042      -0.15736151       1.00304139
O        1.38326499       1.13103512      12.65233746  F        1        2      -0.50770069       0.21754377      -0.21534853
O        0.28787265       1.76346018      14.95372921  F        1        2       0.43502190      -0.24912355      -0.36095895
O        3.24976236       0.63242506      16.25840413  F        1        2      -0.13153212      -0.51763047      -0.05559836
O        0.78931236       3.62919935      13.15069587  F        1        2       0.42624256       0.28136648       0.54032421
O        2.74832265       2.49816423      14.45537079  F        1        2       0.00809522       0.38340060      -0.73068398
O       -1.07718501       3.13058929      16.75676254  F        1        2       0.19118198       0.48881976       0.35130457
Si       2.34866002      -0.01396403      17.47114799  T        0        1      -0.00743635       0.00616517      -0.01400005
Si      -1.25334723       1.79855208      21.07014132  T        0        1       0.01195198       0.00434428       0.00909722
Si       1.32521703       2.24894154      19.34291065  T        0        1      -0.09648943      -0.02823299      -0.01585005
O        1.44699624       1.14352795      18.13882199  T        1        1      -0.05535828      -0.04745864       0.00783128
O        0.22691113       1.74623742      20.41147246  T        1        1      -0.00948626      -0.02960087       0.03870417
O        3.15110440       0.54515529      21.96513305  T        1        1      -0.04011710      -0.02664185       0.00419943
O        0.86281928       3.62169301      18.59528280  T        1        1      -0.03517688       0.00491322       0.00316199
O        2.73695536       2.51599058      20.09307573  T        1        1      -0.05052017      -0.03910706      -0.04155705
O       -1.29028940       2.41987443      22.58200142  T        1        1       0.02103209      -0.00710957      -0.01981097
Si       7.23815181       0.00000000      12.00000000  F        0        2      -0.13357190      -0.36655617      -1.70337936
Si       3.76227409       2.00679893      15.60606667  F        0        2      -0.12265789       0.03967566       1.26095665
Si       6.22272410       2.25482548      13.80303333  F        0        2       0.01633050      -0.16197325       1.01998520
O        6.30416499       1.13103512      12.65233746  F        1        2      -0.50276776       0.21391421      -0.21817611
O        5.20877265       1.76346018      14.95372921  F        1        2       0.43685876      -0.23964964      -0.39956452
O        8.17066236       0.63242506      16.25840413  F        1        2      -0.15610002      -0.58949982       0.11726914
O        5.71021236       3.62919935      13.15069587  F        1        2       0.42565484       0.28903905       0.53486374
O        7.66922265       2.49816423      14.45537079  F        1        2       0.02790280       0.38764422      -0.71925394
O        3.84371499       3.13058929      16.75676254  F        1        2      -0.05678161       0.27812945       0.05046058
Si       7.21651679       0.02330972      17.45533413  T        0        1      -0.00863454      -0.00419262      -0.02876456
Si       3.75294309       1.85138826      21.19047488  T        0        1      -0.01752994      -0.00680805       0.01559148
Si       6.15571034       2.24031811      19.28210151  T        0        1       0.03906227       0.05129549      -0.02297109
O        6.26189959       1.20469838      18.01100639  T        1        1       0.02286737      -0.02807590       0.04480424
O        5.14501747       1.62836159      20.38457236  T        1        1       0.02756205       0.01981940       0.00075054
O        8.02655610       0.37493656      21.65668227  T        1        1       0.05937762      -0.00723640      -0.02823774
O        5.64339254       3.65765186      18.65237708  T        1        1      -0.00219543       0.04757231      -0.00369382
O        7.62263794       2.48348214      19.93650392  T        1        1      -0.00457702      -0.01836540       0.05873233
O        3.91141425       2.60400779      22.62917556  T        1        1       0.01231294       0.05161161       0.05558144
F        2.56161990       0.24135613      24.37229492  T        0        0      -0.00402575      -0.04988005      -0.04109495
H        2.71632683       0.27990355      23.39295241  T        0        0       0.04495133       0.02105575      -0.02723035
O        4.64045132       1.92703312      25.30853643  T        0        0       0.01579217       0.06870085       0.08783710
H        4.11452208       1.10717057      25.38656482  T        0        0      -0.10828519      -0.07725744       0.04547451
H        4.42543838       2.23719317      24.40078676  T        0        0       0.04470974       0.09512740      -0.09781586
41
Lattice="9.8418 0.0 0.0 -2.460449999999999 4.261624409482844 0.0 0.0 -0.0 34.16586254" Properties=species:S:1:pos:R:3:move_mask:L:1:spacegroup_kinds:I:1:tags:I:1:forces:R:3 surface=alpha_quartz_001 coadsorbate=H2O start=1 calculation_kind="Local coadsorbate relaxation; not a reaction path" host_atoms=36 energy=-289.447673068575 pbc="T T F"
Si       2.31725181       0.00000000      12.00000000  F        0        2      -0.13343434      -0.36558631      -1.70320035
Si      -1.15862590       2.00679893      15.60606667  F        0        2      -0.13012086       0.06893615       1.20595108
Si       1.30182410       2.25482548      13.80303333  F        0        2       0.04591790      -0.15759814       1.00537317
O        1.38326499       1.13103512      12.65233746  F        1        2      -0.50701925       0.21674501      -0.21649403
O        0.28787265       1.76346018      14.95372921  F        1        2       0.43690544      -0.24911363      -0.36289016
O        3.24976236       0.63242506      16.25840413  F        1        2      -0.15590266      -0.52087640      -0.02379586
O        0.78931236       3.62919935      13.15069587  F        1        2       0.42541689       0.28196923       0.53884027
O        2.74832265       2.49816423      14.45537079  F        1        2       0.00744612       0.38390342      -0.73275262
O       -1.07718501       3.13058929      16.75676254  F        1        2       0.18143222       0.48478982       0.34170556
Si       2.34699268      -0.01342675      17.47201974  T        0        1       0.01244235      -0.00693171      -0.04554057
Si      -1.25171465       1.79655379      21.06779177  T        0        1      -0.00947702      -0.00712596       0.04349464
Si       1.32614276       2.24836590      19.34354338  T        0        1      -0.10596862      -0.02373564      -0.04699919
O        1.44182018       1.14079551      18.14068606  T        1        1      -0.01335930      -0.06013649      -0.00234540
O        0.22790187       1.74647507      20.41089926  T        1        1      -0.01452898      -0.03131357       0.05551805
O        3.15137339       0.54631192      21.96811553  T        1        1      -0.04990525      -0.05479060      -0.00363115
O        0.86245139       3.61829301      18.59270046  T        1        1      -0.03327567       0.04240601       0.01186309
O        2.73691776       2.51575782      20.09397334  T        1        1      -0.04837448      -0.04132075      -0.05917530
O       -1.29268726       2.40848010      22.58282078  T        1        1       0.03061459       0.03257086       0.01198146
Si       7.23815181       0.00000000      12.00000000  F        0        2      -0.13339875      -0.36617181      -1.70133718
Si       3.76227409       2.00679893      15.60606667  F        0        2      -0.12253561       0.04285846       1.26365008
Si       6.22272410       2.25482548      13.80303333  F        0        2       0.01762890      -0.16160553       1.02266226
O        6.30416499       1.13103512      12.65233746  F        1        2      -0.50217208       0.21292215      -0.21944513
O        5.20877265       1.76346018      14.95372921  F        1        2       0.43753908      -0.24009347      -0.40026061
O        8.17066236       0.63242506      16.25840413  F        1        2      -0.17302583      -0.59304803       0.13520881
O        5.71021236       3.62919935      13.15069587  F        1        2       0.42454032       0.28963254       0.53302293
O        7.66922265       2.49816423      14.45537079  F        1        2       0.02669267       0.38807622      -0.72200618
O        3.84371499       3.13058929      16.75676254  F        1        2      -0.05256840       0.29603882       0.06378668
Si       7.21611583       0.02389560      17.45665759  T        0        1       0.00565902      -0.02185314      -0.06134315
Si       3.75172824       1.85093927      21.19206644  T        0        1      -0.01387348       0.02678680       0.03568955
Si       6.15496672       2.23970094      19.28511587  T        0        1       0.03561199       0.05898185      -0.04555515
O        6.26233263       1.20563556      18.01300628  T        1        1       0.02979428      -0.06054526       0.04091975
O        5.14416738       1.62826932      20.38731224  T        1        1       0.02983429       0.01961570       0.00075231
O        8.02893664       0.37247585      21.65237045  T        1        1       0.04480573      -0.05751904      -0.03575386
O        5.64545392       3.65549847      18.65046172  T        1        1      -0.02248531       0.07185606       0.00922169
O        7.62104255       2.48312433      19.93955203  T        1        1       0.01196287      -0.00306181       0.04225924
O        3.90300350       2.60806930      22.62987424  T        1        1       0.02159951       0.04474902       0.04906837
F        2.56100088       0.23162274      24.37193718  T        0        0      -0.00821354      -0.05192498      -0.00685434
H        2.71577663       0.27091623      23.39363668  T        0        0       0.05380540       0.03387629      -0.04661288
O        4.62517340       1.94489494      25.31147398  T        0        0      -0.01437953       0.03771653       0.05215709
H        4.10550717       1.11902818      25.39100582  T        0        0      -0.07339314      -0.00218696       0.00871127
H        4.41467528       2.25354893      24.40025071  T        0        0       0.03776250       0.04210828      -0.03584423
41
Lattice="9.8418 0.0 0.0 -2.460449999999999 4.261624409482844 0.0 0.0 -0.0 34.16586254" Properties=species:S:1:pos:R:3:move_mask:L:1:spacegroup_kinds:I:1:tags:I:1:forces:R:3 surface=alpha_quartz_001 coadsorbate=H2O start=1 calculation_kind="Local coadsorbate relaxation; not a reaction path" host_atoms=36 energy=-289.4509304450489 pbc="T T F"
Si       2.31725181       0.00000000      12.00000000  F        0        2      -0.13354322      -0.36546331      -1.70270877
Si      -1.15862590       2.00679893      15.60606667  F        0        2      -0.13076653       0.07173757       1.21156358
Si       1.30182410       2.25482548      13.80303333  F        0        2       0.04520866      -0.15788398       1.00609055
O        1.38326499       1.13103512      12.65233746  F        1        2      -0.50664313       0.21646625      -0.21688341
O        0.28787265       1.76346018      14.95372921  F        1        2       0.43843340      -0.24940816      -0.36413504
O        3.24976236       0.63242506      16.25840413  F        1        2      -0.17921563      -0.52074671       0.00680233
O        0.78931236       3.62919935      13.15069587  F        1        2       0.42517183       0.28229207       0.53842993
O        2.74832265       2.49816423      14.45537079  F        1        2       0.00771223       0.38435301      -0.73319637
O       -1.07718501       3.13058929      16.75676254  F        1        2       0.16710431       0.47573289       0.32684837
Si       2.34459060      -0.01219692      17.47239535  T        0        1       0.02541134      -0.02091356      -0.06956089
Si      -1.24941168       1.79518352      21.06823525  T        0        1      -0.03673629      -0.02229280       0.06575293
Si       1.32384645       2.24758510      19.34320137  T        0        1      -0.08421457      -0.01798187      -0.06964136
O        1.43463070       1.13785459      18.14178514  T        1        1       0.01928779      -0.06661435      -0.01822384
O        0.22829697       1.74595617      20.41164450  T        1        1      -0.00308247      -0.02921319       0.05423747
O        3.14742241       0.54715930      21.96767804  T        1        1      -0.04352668      -0.05897134      -0.00911077
O        0.86018396       3.61596762      18.59069185  T        1        1      -0.03202871       0.06859072       0.02325101
O        2.73543161       2.51428120      20.09164257  T        1        1      -0.03339799      -0.04262295      -0.05958433
O       -1.29174383       2.39811373      22.58531431  T        1        1       0.03586410       0.07586769       0.06772198
Si       7.23815181       0.00000000      12.00000000  F        0        2      -0.13333706      -0.36600629      -1.70070519
Si       3.76227409       2.00679893      15.60606667  F        0        2      -0.12313331       0.04702022       1.26177115
Si       6.22272410       2.25482548      13.80303333  F        0        2       0.01961236      -0.16100918       1.02270263
O        6.30416499       1.13103512      12.65233746  F        1        2      -0.50214325       0.21262357      -0.21982697
O        5.20877265       1.76346018      14.95372921  F        1        2       0.43758154      -0.24108774      -0.39808574
O        8.17066236       0.63242506      16.25840413  F        1        2      -0.19090129      -0.59603274       0.15200352
O        5.71021236       3.62919935      13.15069587  F        1        2       0.42406782       0.28960906       0.53250144
O        7.66922265       2.49816423      14.45537079  F        1        2       0.02540325       0.38809644      -0.72358741
O        3.84371499       3.13058929      16.75676254  F        1        2      -0.05122459       0.30456791       0.07023255
Si       7.21669504       0.02317769      17.45784819  T        0        1       0.02153639      -0.03044355      -0.07434038
Si       3.74843415       1.85173517      21.19323080  T        0        1      -0.00924947       0.05543790       0.05343012
Si       6.15527363       2.23905248      19.28959355  T        0        1       0.01558007       0.05325629      -0.05167648
O        6.26456572       1.20308105      18.01975127  T        1        1       0.02784986      -0.07405320       0.02343380
O        5.14349684       1.62968158      20.39226760  T        1        1       0.01261455       0.02820702       0.00678295
O        8.03249313       0.37036938      21.64951597  T        1        1       0.02244689      -0.12001095      -0.02880614
O        5.64872520       3.65238683      18.64823416  T        1        1      -0.02841689       0.08237920       0.01967453
O        7.61884189       2.48265664      19.94689117  T        1        1       0.03026023       0.02718344       0.01041163
O        3.88996637       2.61341959      22.63153123  T        1        1       0.03673277       0.01497992       0.00910431
F        2.56933905       0.22420087      24.36966321  T        0        0      -0.01465380      -0.05639529       0.01715482
H        2.72194353       0.26413128      23.39127892  T        0        0       0.05472582       0.04416603      -0.05776488
O        4.61576013       1.94763774      25.31624698  T        0        0       0.06618634       0.15901607       0.02494946
H        4.08531047       1.13069152      25.38952374  T        0        0      -0.12887003      -0.07845865      -0.01088585
H        4.42704440       2.26242605      24.40170799  T        0        0       0.00629336      -0.00597344       0.00387280
41
Lattice="9.8418 0.0 0.0 -2.460449999999999 4.261624409482844 0.0 0.0 -0.0 34.16586254" Properties=species:S:1:pos:R:3:move_mask:L:1:spacegroup_kinds:I:1:tags:I:1:forces:R:3 surface=alpha_quartz_001 coadsorbate=H2O start=1 calculation_kind="Local coadsorbate relaxation; not a reaction path" host_atoms=36 energy=-289.45518582679597 pbc="T T F"
Si       2.31725181       0.00000000      12.00000000  F        0        2      -0.13380391      -0.36572055      -1.70434069
Si      -1.15862590       2.00679893      15.60606667  F        0        2      -0.13046586       0.07609367       1.21207948
Si       1.30182410       2.25482548      13.80303333  F        0        2       0.04431411      -0.15819819       1.00374302
O        1.38326499       1.13103512      12.65233746  F        1        2      -0.50698253       0.21713644      -0.21601298
O        0.28787265       1.76346018      14.95372921  F        1        2       0.43888335      -0.25019155      -0.36328373
O        3.24976236       0.63242506      16.25840413  F        1        2      -0.19180029      -0.51172178       0.02039863
O        0.78931236       3.62919935      13.15069587  F        1        2       0.42591571       0.28199207       0.53991377
O        2.74832265       2.49816423      14.45537079  F        1        2       0.00888351       0.38440487      -0.73119587
O       -1.07718501       3.13058929      16.75676254  F        1        2       0.14743787       0.45235981       0.30156392
Si       2.34280209      -0.01154765      17.47165525  T        0        1       0.02899877      -0.02979214      -0.06565360
Si      -1.24777715       1.79148702      21.06813529  T        0        1      -0.05708959      -0.03961978       0.08764088
Si       1.32044879       2.24622292      19.34159312  T        0        1      -0.03335515      -0.01317966      -0.07034963
O        1.42746841       1.13253880      18.14350365  T        1        1       0.03604093      -0.05114737      -0.03408875
O        0.22932388       1.74616411      20.41383291  T        1        1       0.00182123      -0.02134987       0.04416708
O        3.14136207       0.54870274      21.96928039  T        1        1      -0.02299079      -0.03610629      -0.01787215
O        0.85856022       3.61408794      18.58795638  T        1        1      -0.02414170       0.07062451       0.03749590
O        2.73389978       2.51112776      20.08794826  T        1        1      -0.01364262      -0.04832441      -0.04221152
O       -1.29280929       2.38184509      22.58912931  T        1        1       0.03544686       0.09664320       0.10610505
Si       7.23815181       0.00000000      12.00000000  F        0        2      -0.13343132      -0.36623667      -1.70224213
Si       3.76227409       2.00679893      15.60606667  F        0        2      -0.12394049       0.05128302       1.25432263
Si       6.22272410       2.25482548      13.80303333  F        0        2       0.02160745      -0.16027010       1.01922308
O        6.30416499       1.13103512      12.65233746  F        1        2      -0.50286413       0.21333964      -0.21889544
O        5.20877265       1.76346018      14.95372921  F        1        2       0.43659564      -0.24255036      -0.39310358
O        8.17066236       0.63242506      16.25840413  F        1        2      -0.20509582      -0.59551902       0.16186587
O        5.71021236       3.62919935      13.15069587  F        1        2       0.42461068       0.28888095       0.53392752
O        7.66922265       2.49816423      14.45537079  F        1        2       0.02471068       0.38760726      -0.72283626
O        3.84371499       3.13058929      16.75676254  F        1        2      -0.05936331       0.29524829       0.06093729
Si       7.21746775       0.02175623      17.45803753  T        0        1       0.03232458      -0.02503617      -0.05247224
Si       3.74450639       1.85460069      21.19691466  T        0        1      -0.01121535       0.05989984       0.03549557
Si       6.15522369       2.23875457      19.29423885  T        0        1      -0.01174383       0.02938810      -0.03301929
O        6.26670965       1.19770519      18.02893878  T        1        1       0.01430029      -0.05744678       0.00489646
O        5.14332414       1.63224142      20.40019492  T        1        1      -0.01349223       0.04821227       0.01025914
O        8.03793771       0.36175495      21.63892605  T        1        1       0.00296282      -0.15547999      -0.00962939
O        5.65089258       3.64946138      18.64629937  T        1        1      -0.01445869       0.06840422       0.02821267
O        7.61693610       2.48212573      19.95430136  T        1        1       0.03968247       0.05721441      -0.02331588
O        3.87268011       2.61968933      22.63630565  T        1        1       0.04717930      -0.01369041      -0.04270065
F        2.57833931       0.20936632      24.37081485  T        0        0      -0.01428162      -0.05479792       0.02184340
H        2.72860544       0.25404275      23.39222751  T        0        0       0.05161064       0.05146819      -0.05508360
O        4.59706412       1.96542266      25.32150379  T        0        0       0.02434082       0.10658612      -0.01483093
H        4.05978322       1.14930264      25.39170647  T        0        0      -0.06950620       0.01830342      -0.04412973
H        4.42552635       2.28009198      24.40164206  T        0        0      -0.01400229      -0.05871129       0.07317666
41
Lattice="9.8418 0.0 0.0 -2.460449999999999 4.261624409482844 0.0 0.0 -0.0 34.16586254" Properties=species:S:1:pos:R:3:move_mask:L:1:spacegroup_kinds:I:1:tags:I:1:forces:R:3 surface=alpha_quartz_001 coadsorbate=H2O start=1 calculation_kind="Local coadsorbate relaxation; not a reaction path" host_atoms=36 energy=-289.4597427200755 pbc="T T F"
Si       2.31725181       0.00000000      12.00000000  F        0        2      -0.13416884      -0.36637832      -1.70806890
Si      -1.15862590       2.00679893      15.60606667  F        0        2      -0.12925823       0.08098483       1.20739785
Si       1.30182410       2.25482548      13.80303333  F        0        2       0.04343938      -0.15838707       0.99855391
O        1.38326499       1.13103512      12.65233746  F        1        2      -0.50806773       0.21870833      -0.21390087
O        0.28787265       1.76346018      14.95372921  F        1        2       0.43798295      -0.25129441      -0.36048707
O        3.24976236       0.63242506      16.25840413  F        1        2      -0.19041736      -0.49543280       0.01326042
O        0.78931236       3.62919935      13.15069587  F        1        2       0.42758942       0.28109059       0.54320676
O        2.74832265       2.49816423      14.45537079  F        1        2       0.01067554       0.38396317      -0.72707689
O       -1.07718501       3.13058929      16.75676254  F        1        2       0.12257665       0.41469347       0.26661342
Si       2.34155912      -0.01137065      17.46963046  T        0        1       0.02265234      -0.02949078      -0.02812641
Si      -1.24742435       1.78701224      21.07066476  T        0        1      -0.05861025      -0.05031568       0.08039995
Si       1.31542565       2.24445391      19.33852613  T        0        1       0.01935457      -0.01583528      -0.03790022
O        1.42094831       1.12610752      18.14470461  T        1        1       0.02955628      -0.01254929      -0.04604908
O        0.22981231       1.74634314      20.41734009  T        1        1      -0.00067459      -0.00499096       0.02174726
O        3.13253866       0.54940539      21.96838008  T        1        1       0.00792667       0.00954190      -0.01467352
O        0.85671704       3.61359088      18.58558485  T        1        1      -0.01003192       0.04275519       0.05158645
O        2.73184152       2.50633477      20.08212673  T        1        1       0.00415796      -0.04557770      -0.01326635
O       -1.29255387       2.36595105      22.59589683  T        1        1       0.02429855       0.07793833       0.11033762
Si       7.23815181       0.00000000      12.00000000  F        0        2      -0.13370727      -0.36685931      -1.70592797
Si       3.76227409       2.00679893      15.60606667  F        0        2      -0.12476732       0.05601129       1.24259808
Si       6.22272410       2.25482548      13.80303333  F        0        2       0.02314123      -0.15967507       1.01255353
O        6.30416499       1.13103512      12.65233746  F        1        2      -0.50430959       0.21510345      -0.21669579
O        5.20877265       1.76346018      14.95372921  F        1        2       0.43500692      -0.24439096      -0.38581985
O        8.17066236       0.63242506      16.25840413  F        1        2      -0.21229581      -0.59251880       0.16422469
O        5.71021236       3.62919935      13.15069587  F        1        2       0.42628717       0.28742855       0.53730732
O        7.66922265       2.49816423      14.45537079  F        1        2       0.02483246       0.38648138      -0.71948258
O        3.84371499       3.13058929      16.75676254  F        1        2      -0.07185636       0.27047979       0.03856142
Si       7.21929923       0.01908973      17.45753201  T        0        1       0.02859088      -0.00408786       0.00287616
Si       3.73916032       1.85946866      21.20141842  T        0        1      -0.01918391       0.02504426      -0.01143304
Si       6.15479071       2.23809151      19.29948450  T        0        1      -0.02398289      -0.00230098       0.00339329
O        6.26973055       1.18891791      18.04115265  T        1        1      -0.01030216      -0.01051860      -0.01359111
O        5.14265812       1.63607043      20.41018096  T        1        1      -0.03675838       0.07178835       0.00829810
O        8.04337703       0.34945829      21.62638335  T        1        1      -0.00541429      -0.13984962       0.02161674
O        5.65247626       3.64617301      18.64507431  T        1        1       0.01762413       0.03210399       0.02948022
O        7.61501658       2.48273076      19.96307460  T        1        1       0.04021481       0.06786461      -0.03908700
O        3.85247874       2.62422340      22.64303060  T        1        1       0.05441556      -0.03309835      -0.09296664
F        2.59247740       0.19319764      24.37245485  T        0        0      -0.00820619      -0.04928256      -0.00533002
H        2.73878271       0.24342568      23.39273504  T        0        0       0.04078659       0.05526859      -0.03177463
O        4.57637406       1.98435891      25.32823094  T        0        0      -0.01510562       0.04929499      -0.03888084
H        4.02575754       1.17352944      25.38814436  T        0        0      -0.01474959       0.07830031      -0.04049280
H        4.42502317       2.29989962      24.40458767  T        0        0      -0.02924177      -0.07201101       0.09701840
41
Lattice="9.8418 0.0 0.0 -2.460449999999999 4.261624409482844 0.0 0.0 -0.0 34.16586254" Properties=species:S:1:pos:R:3:move_mask:L:1:spacegroup_kinds:I:1:tags:I:1:forces:R:3 surface=alpha_quartz_001 coadsorbate=H2O start=1 calculation_kind="Local coadsorbate relaxation; not a reaction path" host_atoms=36 energy=-289.4625681081437 pbc="T T F"
Si       2.31725181       0.00000000      12.00000000  F        0        2      -0.13439448      -0.36690017      -1.71091072
Si      -1.15862590       2.00679893      15.60606667  F        0        2      -0.12868597       0.08256641       1.20236228
Si       1.30182410       2.25482548      13.80303333  F        0        2       0.04313405      -0.15843204       0.99465957
O        1.38326499       1.13103512      12.65233746  F        1        2      -0.50898705       0.21990793      -0.21228837
O        0.28787265       1.76346018      14.95372921  F        1        2       0.43689858      -0.25181357      -0.35825224
O        3.24976236       0.63242506      16.25840413  F        1        2      -0.18164782      -0.48467554      -0.00131350
O        0.78931236       3.62919935      13.15069587  F        1        2       0.42885061       0.28035531       0.54569823
O        2.74832265       2.49816423      14.45537079  F        1        2       0.01158718       0.38334785      -0.72421882
O       -1.07718501       3.13058929      16.75676254  F        1        2       0.10587227       0.38326384       0.24049973
Si       2.34140634      -0.01194278      17.46784289  T        0        1       0.01608292      -0.02086587       0.01318081
Si      -1.24861978       1.78363986      21.07387326  T        0        1      -0.04078918      -0.04439922       0.05413186
Si       1.31238916       2.24283902      19.33613650  T        0        1       0.02750468      -0.02301528       0.00174888
O        1.41788704       1.12170745      18.14487755  T        1        1       0.01547003       0.02452531      -0.04549182
O        0.22953381       1.74620519      20.41985576  T        1        1      -0.01437077       0.00836056       0.00773561
O        3.12797132       0.54904288      21.96676334  T        1        1       0.02290525       0.03510950      -0.00415350
O        0.85569125       3.61378535      18.58481047  T        1        1       0.00267274       0.01066075       0.05625348
O        2.73045944       2.50254927      20.07848258  T        1        1       0.00310600      -0.03433766      -0.00329710
O       -1.29193529       2.35809275      22.60194097  T        1        1       0.01059872       0.03329984       0.07167020
Si       7.23815181       0.00000000      12.00000000  F        0        2      -0.13391738      -0.36733578      -1.70861520
Si       3.76227409       2.00679893      15.60606667  F        0        2      -0.12429638       0.05939122       1.23580216
Si       6.22272410       2.25482548      13.80303333  F        0        2       0.02337811      -0.15957318       1.00824477
O        6.30416499       1.13103512      12.65233746  F        1        2      -0.50529284       0.21639307      -0.21513249
O        5.20877265       1.76346018      14.95372921  F        1        2       0.43405607      -0.24550765      -0.38171868
O        8.17066236       0.63242506      16.25840413  F        1        2      -0.21112057      -0.58923401       0.16069550
O        5.71021236       3.62919935      13.15069587  F        1        2       0.42762711       0.28645322       0.53974853
O        7.66922265       2.49816423      14.45537079  F        1        2       0.02545133       0.38568834      -0.71656410
O        3.84371499       3.13058929      16.75676254  F        1        2      -0.07602818       0.25593340       0.02593644
Si       7.22084722       0.01739627      17.45710751  T        0        1       0.01438803       0.01028803       0.04284337
Si       3.73564896       1.86279510      21.20395120  T        0        1      -0.02390643      -0.01813136      -0.05242840
Si       6.15404277       2.23765531      19.30241739  T        0        1      -0.00679215      -0.01475723       0.02657643
O        6.27160697       1.18356467      18.04802936  T        1        1      -0.02674476       0.02578540      -0.01652185
O        5.14137954       1.63911997      20.41570162  T        1        1      -0.03229999       0.07791533      -0.00131642
O        8.04605459       0.33996059      21.61937095  T        1        1       0.00088028      -0.08357422       0.04120027
O        5.65315742       3.64482485      18.64507608  T        1        1       0.03773192       0.00415342       0.02421390
O        7.61424249       2.48442139      19.96789566  T        1        1       0.03241838       0.04501849      -0.02312256
O        3.84187047       2.62533895      22.64643236  T        1        1       0.05256251      -0.02587047      -0.09665337
F        2.60012159       0.18230256      24.37274468  T        0        0       0.00108145      -0.04039835      -0.03150406
H        2.74479707       0.23659568      23.39232782  T        0        0       0.03228047       0.05553262      -0.01073664
O        4.56142546       2.00073694      25.33303202  T        0        0      -0.06040615      -0.03000455      -0.02418193
H        4.00452181       1.19144397      25.38330921  T        0        0       0.02970988       0.11593467      -0.01125679
H        4.41903623       2.31516803      24.40868129  T        0        0      -0.02656846      -0.04105835       0.05647655
41
Lattice="9.8418 0.0 0.0 -2.460449999999999 4.261624409482844 0.0 0.0 -0.0 34.16586254" Properties=species:S:1:pos:R:3:move_mask:L:1:spacegroup_kinds:I:1:tags:I:1:forces:R:3 surface=alpha_quartz_001 coadsorbate=H2O start=1 calculation_kind="Local coadsorbate relaxation; not a reaction path" host_atoms=36 energy=-289.4647039140241 pbc="T T F"
Si       2.31725181       0.00000000      12.00000000  F        0        2      -0.13449505      -0.36714529      -1.71219685
Si      -1.15862590       2.00679893      15.60606667  F        0        2      -0.12896400       0.08125954       1.19999147
Si       1.30182410       2.25482548      13.80303333  F        0        2       0.04295787      -0.15851307       0.99303925
O        1.38326499       1.13103512      12.65233746  F        1        2      -0.50940780       0.22042852      -0.21158710
O        0.28787265       1.76346018      14.95372921  F        1        2       0.43648949      -0.25168434      -0.35760582
O        3.24976236       0.63242506      16.25840413  F        1        2      -0.17596327      -0.48257978      -0.00750596
O        0.78931236       3.62919935      13.15069587  F        1        2       0.42942272       0.28004214       0.54681664
O        2.74832265       2.49816423      14.45537079  F        1        2       0.01170532       0.38280957      -0.72306440
O       -1.07718501       3.13058929      16.75676254  F        1        2       0.09667575       0.36088989       0.22360815
Si       2.34155684      -0.01273419      17.46684975  T        0        1       0.01226666      -0.00917720       0.04108433
Si      -1.25034270       1.78112896      21.07772381  T        0        1      -0.01726028      -0.02836985       0.02382922
Si       1.31027645       2.24102363      19.33471161  T        0        1       0.00581293      -0.02830667       0.03085631
O        1.41589105       1.11903658      18.14415317  T        1        1       0.00666174       0.04962767      -0.03930828
O        0.22849290       1.74548337      20.42165047  T        1        1      -0.02811978       0.01540745       0.00121324
O        3.12676422       0.54817007      21.96466966  T        1        1       0.02421307       0.03706053       0.00710369
O        0.85463861       3.61395513      18.58551578  T        1        1       0.00904125      -0.01148025       0.05220890
O        2.72896302       2.49931874      20.07626368  T        1        1      -0.00548126      -0.01771807      -0.01018752
O       -1.29047285       2.35558630      22.60735395  T        1        1      -0.00296518      -0.01424359       0.02173473
Si       7.23815181       0.00000000      12.00000000  F        0        2      -0.13399651      -0.36751768      -1.70961037
Si       3.76227409       2.00679893      15.60606667  F        0        2      -0.12265554       0.06236080       1.23419377
Si       6.22272410       2.25482548      13.80303333  F        0        2       0.02312174      -0.15971446       1.00699172
O        6.30416499       1.13103512      12.65233746  F        1        2      -0.50564825       0.21687833      -0.21459909
O        5.20877265       1.76346018      14.95372921  F        1        2       0.43380021      -0.24609382      -0.38054064
O        8.17066236       0.63242506      16.25840413  F        1        2      -0.20969063      -0.58767828       0.15887732
O        5.71021236       3.62919935      13.15069587  F        1        2       0.42821646       0.28608844       0.54064386
O        7.66922265       2.49816423      14.45537079  F        1        2       0.02591022       0.38542032      -0.71518715
O        3.84371499       3.13058929      16.75676254  F        1        2      -0.06917569       0.25850356       0.02952626
Si       7.22210344       0.01665584      17.45737511  T        0        1      -0.00185679       0.01447123       0.05547667
Si       3.73312322       1.86417229      21.20414839  T        0        1      -0.02161008      -0.04697274      -0.07198535
Si       6.15371959       2.23766177      19.30425724  T        0        1       0.02248269      -0.00954481       0.03101306
O        6.27285792       1.18153147      18.05125935  T        1        1      -0.03114440       0.04054739      -0.01198576
O        5.13965305       1.64220957      20.41766808  T        1        1      -0.01160147       0.06639293      -0.01231232
O        8.04743516       0.33349738      21.61809096  T        1        1       0.01017476      -0.02156579       0.05085043
O        5.65438643       3.64489772      18.64560617  T        1        1       0.04170092      -0.00914229       0.01561072
O        7.61415514       2.48655022      19.97118121  T        1        1       0.02222736       0.00809073       0.00480258
O        3.83788866       2.62567169      22.64594458  T        1        1       0.04763026      -0.00828015      -0.06949962
F        2.60307221       0.17499802      24.37041212  T        0        0       0.01119535      -0.02947921      -0.04237926
H        2.74864908       0.23293687      23.38984517  T        0        0       0.02606828       0.05370789       0.00120727
O        4.55129454       2.01225484      25.33705551  T        0        0      -0.07824754      -0.06909331      -0.00829983
H        3.99145292       1.20402567      25.37872696  T        0        0       0.04215946       0.11283200       0.01878787
H        4.41490399       2.32627918      24.41300131  T        0        0      -0.02165098      -0.00851828       0.00838785
41
Lattice="9.8418 0.0 0.0 -2.460449999999999 4.261624409482844 0.0 0.0 -0.0 34.16586254" Properties=species:S:1:pos:R:3:move_mask:L:1:spacegroup_kinds:I:1:tags:I:1:forces:R:3 surface=alpha_quartz_001 coadsorbate=H2O start=1 calculation_kind="Local coadsorbate relaxation; not a reaction path" host_atoms=36 energy=-289.4668436350507 pbc="T T F"
Si       2.31725181       0.00000000      12.00000000  F        0        2      -0.13451763      -0.36712512      -1.71205446
Si      -1.15862590       2.00679893      15.60606667  F        0        2      -0.12996733       0.07768750       1.20078444
Si       1.30182410       2.25482548      13.80303333  F        0        2       0.04256881      -0.15877245       0.99353156
O        1.38326499       1.13103512      12.65233746  F        1        2      -0.50930505       0.22031737      -0.21173778
O        0.28787265       1.76346018      14.95372921  F        1        2       0.43702209      -0.25097923      -0.35867044
O        3.24976236       0.63242506      16.25840413  F        1        2      -0.17614881      -0.48867374      -0.00089740
O        0.78931236       3.62919935      13.15069587  F        1        2       0.42939049       0.28015723       0.54669321
O        2.74832265       2.49816423      14.45537079  F        1        2       0.01134174       0.38237193      -0.72319312
O       -1.07718501       3.13058929      16.75676254  F        1        2       0.09392700       0.34539384       0.21377968
Si       2.34184576      -0.01368318      17.46670961  T        0        1       0.00924833       0.00417317       0.05208863
Si      -1.25235762       1.77850652      21.08218806  T        0        1       0.00572231      -0.00893539      -0.00106162
Si       1.30808799       2.23850860      19.33411259  T        0        1      -0.02904824      -0.02785090       0.04513077
O        1.41368959       1.11717088      18.14278142  T        1        1       0.00540396       0.06347169      -0.02973244
O        0.22664706       1.74433445      20.42327641  T        1        1      -0.03673606       0.01514725      -0.00062619
O        3.12754263       0.54682633      21.96273146  T        1        1       0.01817831       0.02293970       0.01408665
O        0.85341813       3.61374148      18.58741846  T        1        1       0.00757869      -0.02242662       0.04051104
O        2.72682764       2.49589743      20.07468846  T        1        1      -0.01347164      -0.00035336      -0.02517884
O       -1.28864417       2.35454269      22.61289641  T        1        1      -0.01684198      -0.05885157      -0.02751558
Si       7.23815181       0.00000000      12.00000000  F        0        2      -0.13394098      -0.36741631      -1.70903141
Si       3.76227409       2.00679893      15.60606667  F        0        2      -0.12001183       0.06538198       1.23649830
Si       6.22272410       2.25482548      13.80303333  F        0        2       0.02287419      -0.15990125       1.00831895
O        6.30416499       1.13103512      12.65233746  F        1        2      -0.50546469       0.21661410      -0.21500867
O        5.20877265       1.76346018      14.95372921  F        1        2       0.43400663      -0.24638189      -0.38138078
O        8.17066236       0.63242506      16.25840413  F        1        2      -0.21275587      -0.58860001       0.16268916
O        5.71021236       3.62919935      13.15069587  F        1        2       0.42805664       0.28623731       0.54011329
O        7.66922265       2.49816423      14.45537079  F        1        2       0.02595447       0.38566162      -0.71540997
O        3.84371499       3.13058929      16.75676254  F        1        2      -0.05249108       0.27715654       0.04868849
Si       7.22311158       0.01662845      17.45847369  T        0        1      -0.01609671       0.01125833       0.04348827
Si       3.73065718       1.86361366      21.20258363  T        0        1      -0.01142200      -0.05350536      -0.06785193
Si       6.15413569       2.23830560      19.30597267  T        0        1       0.05092944       0.00652836       0.01910192
O        6.27370299       1.18186148      18.05267540  T        1        1      -0.02334895       0.03627455      -0.00328026
O        5.13760599       1.64615551      20.41765640  T        1        1       0.01632611       0.03999587      -0.02271885
O        8.04873566       0.32801520      21.62035885  T        1        1       0.01817947       0.03802287       0.05352381
O        5.65676263       3.64604414      18.64635266  T        1        1       0.03189672      -0.01034286       0.00441346
O        7.61452740       2.48888598      19.97457341  T        1        1       0.00983084      -0.03331139       0.03368787
O        3.83731956       2.62642526      22.64248187  T        1        1       0.03969992       0.01020216      -0.03032719
F        2.60281771       0.16740757      24.36564956  T        0        0       0.02360672      -0.01457158      -0.03812898
H        2.75195725       0.23062281      23.38550929  T        0        0       0.02000312       0.04919786       0.00634629
O        4.54051877       2.02431636      25.34112908  T        0        0      -0.07117437      -0.06976947      -0.00124762
H        3.98093455       1.21621415      25.37553869  T        0        0       0.03145446       0.08591598       0.03759899
H        4.41009698       2.33871564      24.41732264  T        0        0      -0.02045724       0.00766134      -0.02602125
41
Lattice="9.8418 0.0 0.0 -2.460449999999999 4.261624409482844 0.0 0.0 -0.0 34.16586254" Properties=species:S:1:pos:R:3:move_mask:L:1:spacegroup_kinds:I:1:tags:I:1:forces:R:3 surface=alpha_quartz_001 coadsorbate=H2O start=1 calculation_kind="Local coadsorbate relaxation; not a reaction path" host_atoms=36 energy=-289.46882562093487 pbc="T T F"
Si       2.31725181       0.00000000      12.00000000  F        0        2      -0.13448308      -0.36684703      -1.71057413
Si      -1.15862590       2.00679893      15.60606667  F        0        2      -0.13123847       0.07307518       1.20480460
Si       1.30182410       2.25482548      13.80303333  F        0        2       0.04179035      -0.15926073       0.99598559
O        1.38326499       1.13103512      12.65233746  F        1        2      -0.50867520       0.21961916      -0.21267950
O        0.28787265       1.76346018      14.95372921  F        1        2       0.43853635      -0.24988497      -0.36133539
O        3.24976236       0.63242506      16.25840413  F        1        2      -0.18257881      -0.50148057       0.01870041
O        0.78931236       3.62919935      13.15069587  F        1        2       0.42881454       0.28068673       0.54541843
O        2.74832265       2.49816423      14.45537079  F        1        2       0.01082680       0.38213235      -0.72424635
O       -1.07718501       3.13058929      16.75676254  F        1        2       0.09917701       0.34053630       0.21361600
Si       2.34225340      -0.01456095      17.46753868  T        0        1       0.00455731       0.01500974       0.04058690
Si      -1.25412864       1.77553931      21.08623197  T        0        1       0.02048910       0.00584840      -0.01358196
Si       1.30561608       2.23551094      19.33440605  T        0        1      -0.05471465      -0.01812022       0.03941680
O        1.41136705       1.11624551      18.14104649  T        1        1       0.01098573       0.06175652      -0.01978154
O        0.22435670       1.74322929      20.42475362  T        1        1      -0.03391433       0.00572996       0.00060198
O        3.12947542       0.54553954      21.96206835  T        1        1       0.01045481       0.00239013       0.01068644
O        0.85228471       3.61303996      18.59007342  T        1        1      -0.00374924      -0.01835808       0.02325680
O        2.72433873       2.49262819      20.07340232  T        1        1      -0.01377130       0.00907575      -0.03609328
O       -1.28752277       2.35224446      22.61768005  T        1        1      -0.02750793      -0.08369522      -0.05247541
Si       7.23815181       0.00000000      12.00000000  F        0        2      -0.13375966      -0.36706591      -1.70709322
Si       3.76227409       2.00679893      15.60606667  F        0        2      -0.11717863       0.06768758       1.24135404
Si       6.22272410       2.25482548      13.80303333  F        0        2       0.02300420      -0.15996228       1.01160285
O        6.30416499       1.13103512      12.65233746  F        1        2      -0.50484553       0.21570114      -0.21620511
O        5.20877265       1.76346018      14.95372921  F        1        2       0.43445273      -0.24639503      -0.38348947
O        8.17066236       0.63242506      16.25840413  F        1        2      -0.22241048      -0.59228094       0.17338120
O        5.71021236       3.62919935      13.15069587  F        1        2       0.42718628       0.28680332       0.53836164
O        7.66922265       2.49816423      14.45537079  F        1        2       0.02539901       0.38635041      -0.71722529
O        3.84371499       3.13058929      16.75676254  F        1        2      -0.03123273       0.30592011       0.07779742
Si       7.22360652       0.01717219      17.46017902  T        0        1      -0.02142561       0.00399805       0.01269785
Si       3.72836001       1.86138674      21.19991413  T        0        1       0.00632569      -0.03193793      -0.04228429
Si       6.15558535       2.23966291      19.30759276  T        0        1       0.06053214       0.02367883      -0.00351974
O        6.27397829       1.18387696      18.05295815  T        1        1      -0.00468118       0.01663136       0.00571347
O        5.13599085       1.65066012      20.41655482  T        1        1       0.03641350       0.00664665      -0.02762422
O        8.05051704       0.32328669      21.62414930  T        1        1       0.01941824       0.07350346       0.05050123
O        5.66004127       3.64789158      18.64700283  T        1        1       0.01286289      -0.00067340      -0.00739595
O        7.61529474       2.49052169      19.97816111  T        1        1      -0.00189470      -0.06236072       0.04914112
O        3.83856897       2.62834335      22.63727927  T        1        1       0.02946893       0.01911563      -0.00011687
F        2.60022810       0.15856597      24.35997849  T        0        0       0.03620608       0.00266246      -0.02090647
H        2.75477256       0.22926976      23.38084168  T        0        0       0.01436189       0.04164078       0.00533217
O        4.52802445       2.03819336      25.34469316  T        0        0      -0.04305521      -0.03486762      -0.00676327
H        3.97255237       1.22856113      25.37560954  T        0        0       0.00391479       0.04634613       0.03829145
H        4.40279945       2.35243264      24.42036595  T        0        0      -0.02406161       0.00064449      -0.03385689
41
Lattice="9.8418 0.0 0.0 -2.460449999999999 4.261624409482844 0.0 0.0 -0.0 34.16586254" Properties=species:S:1:pos:R:3:move_mask:L:1:spacegroup_kinds:I:1:tags:I:1:forces:R:3 surface=alpha_quartz_001 coadsorbate=H2O start=1 calculation_kind="Local coadsorbate relaxation; not a reaction path" host_atoms=36 energy=-289.4703645493173 pbc="T T F"
Si       2.31725181       0.00000000      12.00000000  F        0        2      -0.13443249      -0.36646695      -1.70862415
Si      -1.15862590       2.00679893      15.60606667  F        0        2      -0.13195925       0.06963884       1.20990962
Si       1.30182410       2.25482548      13.80303333  F        0        2       0.04078932      -0.15982985       0.99905601
O        1.38326499       1.13103512      12.65233746  F        1        2      -0.50783774       0.21872494      -0.21387337
O        0.28787265       1.76346018      14.95372921  F        1        2       0.44033678      -0.24889012      -0.36438296
O        3.24976236       0.63242506      16.25840413  F        1        2      -0.19101788      -0.51522091       0.04218907
O        0.78931236       3.62919935      13.15069587  F        1        2       0.42805886       0.28135665       0.54374949
O        2.74832265       2.49816423      14.45537079  F        1        2       0.01057983       0.38210931      -0.72536248
O       -1.07718501       3.13058929      16.75676254  F        1        2       0.11003181       0.34627297       0.22195952
Si       2.34272330      -0.01509321      17.46890811  T        0        1      -0.00283639       0.01930445       0.01289861
Si      -1.25513957       1.77248074      21.08860753  T        0        1       0.02227479       0.00942101      -0.01138445
Si       1.30315096       2.23283008      19.33527012  T        0        1      -0.05182049      -0.00082423       0.01868490
O        1.40968636       1.11634439      18.13944729  T        1        1       0.01684098       0.04725639      -0.01268727
O        0.22236828       1.74269655      20.42596730  T        1        1      -0.01777059      -0.00933240       0.00118967
O        3.13138015       0.54501537      21.96314489  T        1        1       0.00705552      -0.01045717      -0.00312240
O        0.85155290       3.61210996      18.59250954  T        1        1      -0.02080099      -0.00369233       0.00731935
O        2.72234583       2.49011850      20.07208011  T        1        1      -0.00574858       0.00634197      -0.03324161
O       -1.28811408       2.34700955      22.62065554  T        1        1      -0.03115805      -0.07822775      -0.03995408
Si       7.23815181       0.00000000      12.00000000  F        0        2      -0.13354757      -0.36665770      -1.70487589
Si       3.76227409       2.00679893      15.60606667  F        0        2      -0.11544480       0.06840237       1.24586861
Si       6.22272410       2.25482548      13.80303333  F        0        2       0.02357766      -0.15982051       1.01494086
O        6.30416499       1.13103512      12.65233746  F        1        2      -0.50415868       0.21465422      -0.21752233
O        5.20877265       1.76346018      14.95372921  F        1        2       0.43481597      -0.24623197      -0.38541106
O        8.17066236       0.63242506      16.25840413  F        1        2      -0.23550514      -0.59699665       0.18671098
O        5.71021236       3.62919935      13.15069587  F        1        2       0.42609092       0.28743685       0.53637569
O        7.66922265       2.49816423      14.45537079  F        1        2       0.02446554       0.38712581      -0.71960805
O        3.84371499       3.13058929      16.75676254  F        1        2      -0.01479293       0.33125241       0.10349552
Si       7.22350239       0.01786554      17.46174460  T        0        1      -0.01561930      -0.00216308      -0.01941574
Si       3.72677385       1.85894238      21.19743890  T        0        1       0.02404296       0.00328829      -0.01155593
Si       6.15770448       2.24134409      19.30879890  T        0        1       0.04262325       0.03030243      -0.02348444
O        6.27375690       1.18603057      18.05300291  T        1        1       0.01573884      -0.00483441       0.01032193
O        5.13552605       1.65460654      20.41556923  T        1        1       0.03853131      -0.01962497      -0.02568478
O        8.05275736       0.31941958      21.62666688  T        1        1       0.01174399       0.07059442       0.04504992
O        5.66305968       3.64964809      18.64727472  T        1        1      -0.00363221       0.01208191      -0.01588854
O        7.61616776       2.49059700      19.98133423  T        1        1      -0.00987885      -0.06509928       0.04199843
O        3.83964826       2.63116242      22.63267841  T        1        1       0.01920834       0.01529639       0.00772643
F        2.59738690       0.14938597      24.35599613  T        0        0       0.04490183       0.01745039      -0.00040937
H        2.75673939       0.22841951      23.37812422  T        0        0       0.01081566       0.03282496       0.00050692
O        4.51512983       2.05289494      25.34686995  T        0        0      -0.01271936       0.00714680      -0.01577087
H        3.96654823       1.24003681      25.37925177  T        0        0      -0.02308847       0.01400372       0.02639008
H        4.39234814       2.36488880      24.42117597  T        0        0      -0.02875442      -0.01791722      -0.02408184
41
Lattice="9.8418 0.0 0.0 -2.460449999999999 4.261624409482844 0.0 0.0 -0.0 34.16586254" Properties=species:S:1:pos:R:3:move_mask:L:1:spacegroup_kinds:I:1:tags:I:1:forces:R:3 surface=alpha_quartz_001 coadsorbate=H2O start=1 calculation_kind="Local coadsorbate relaxation; not a reaction path" host_atoms=36 energy=-289.4714819657088 pbc="T T F"
Si       2.31725181       0.00000000      12.00000000  F        0        2      -0.13440629      -0.36618163      -1.70724189
Si      -1.15862590       2.00679893      15.60606667  F        0        2      -0.13171469       0.06854729       1.21344408
Si       1.30182410       2.25482548      13.80303333  F        0        2       0.03987357      -0.16027476       1.00116994
O        1.38326499       1.13103512      12.65233746  F        1        2      -0.50719792       0.21809261      -0.21468673
O        0.28787265       1.76346018      14.95372921  F        1        2       0.44157309      -0.24835555      -0.36648247
O        3.24976236       0.63242506      16.25840413  F        1        2      -0.19641960      -0.52472212       0.05931723
O        0.78931236       3.62919935      13.15069587  F        1        2       0.42754191       0.28183868       0.54258405
O        2.74832265       2.49816423      14.45537079  F        1        2       0.01079159       0.38218464      -0.72576818
O       -1.07718501       3.13058929      16.75676254  F        1        2       0.12077121       0.35622387       0.23267510
Si       2.34312691      -0.01522139      17.47010583  T        0        1      -0.01138869       0.01790412      -0.01479509
Si      -1.25542078       1.76950649      21.08933317  T        0        1       0.01568453       0.00404496      -0.00117178
Si       1.30100513       2.23100926      19.33610327  T        0        1      -0.02383709       0.01763822      -0.00466969
O        1.40899402       1.11714585      18.13818328  T        1        1       0.01688824       0.02918350      -0.00963448
O        0.22116836       1.74275765      20.42695705  T        1        1       0.00366428      -0.02341637      -0.00028609
O        3.13244525       0.54554675      21.96519731  T        1        1       0.00922272      -0.01041826      -0.01978406
O        0.85109100       3.61135813      18.59415153  T        1        1      -0.03643453       0.01175829      -0.00247000
O        2.72132164       2.48832643      20.07041917  T        1        1       0.00530809      -0.00256473      -0.01862283
O       -1.29034921       2.33904324      22.62220310  T        1        1      -0.02816050      -0.05156264      -0.00377363
Si       7.23815181       0.00000000      12.00000000  F        0        2      -0.13341000      -0.36639311      -1.70349638
Si       3.76227409       2.00679893      15.60606667  F        0        2      -0.11526964       0.06772079       1.24779446
Si       6.22272410       2.25482548      13.80303333  F        0        2       0.02434120      -0.15955024       1.01663118
O        6.30416499       1.13103512      12.65233746  F        1        2      -0.50376395       0.21400976      -0.21829900
O        5.20877265       1.76346018      14.95372921  F        1        2       0.43488699      -0.24607140      -0.38602036
O        8.17066236       0.63242506      16.25840413  F        1        2      -0.24682042      -0.60031570       0.19679644
O        5.71021236       3.62919935      13.15069587  F        1        2       0.42533981       0.28779066       0.53516835
O        7.66922265       2.49816423      14.45537079  F        1        2       0.02361415       0.38762006      -0.72127456
O        3.84371499       3.13058929      16.75676254  F        1        2      -0.00774791       0.34434622       0.11701109
Si       7.22310951       0.01828425      17.46260182  T        0        1      -0.00410988      -0.00418977      -0.03699905
Si       3.72605464       1.85773447      21.19598104  T        0        1       0.03398143       0.02977878       0.00794088
Si       6.15975026       2.24283548      19.30952389  T        0        1       0.00932280       0.02397807      -0.03202144
O        6.27345387       1.18697579      18.05368632  T        1        1       0.02875795      -0.01628323       0.00837167
O        5.13615261       1.65743105      20.41553926  T        1        1       0.02629263      -0.03241602      -0.02031634
O        8.05514598       0.31596364      21.62659084  T        1        1      -0.00100613       0.03999862       0.04013758
O        5.66505928       3.65074600      18.64712507  T        1        1      -0.00949440       0.01952339      -0.01967418
O        7.61683859       2.48922478      19.98380482  T        1        1      -0.01285272      -0.04601304       0.01946200
O        3.83912036       2.63413705      22.63002132  T        1        1       0.01123390       0.00614238      -0.00003231
F        2.59641346       0.14092064      24.35488148  T        0        0       0.04842546       0.02735441       0.01323606
H        2.75812168       0.22760040      23.37811515  T        0        0       0.01000241       0.02476668      -0.00462643
O        4.50320273       2.06696419      25.34769120  T        0        0       0.00430972       0.03097977      -0.02039862
H        3.96170101       1.25037974      25.38476107  T        0        0      -0.03771286      -0.00169741       0.01441114
H        4.38002684       2.37438023      24.42016417  T        0        0      -0.03008052      -0.03099977      -0.01360566
41
Lattice="9.8418 0.0 0.0 -2.460449999999999 4.261624409482844 0.0 0.0 -0.0 34.16586254" Properties=species:S:1:pos:R:3:move_mask:L:1:spacegroup_kinds:I:1:tags:I:1:forces:R:3 surface=alpha_quartz_001 coadsorbate=H2O start=1 calculation_kind="Local coadsorbate relaxation; not a reaction path" host_atoms=36 energy=-289.47239285895773 pbc="T T F"
Si       2.31725181       0.00000000      12.00000000  F        0        2      -0.13441958      -0.36607202      -1.70683531
Si      -1.15862590       2.00679893      15.60606667  F        0        2      -0.13066572       0.06944195       1.21441637
Si       1.30182410       2.25482548      13.80303333  F        0        2       0.03916347      -0.16051034       1.00171676
O        1.38326499       1.13103512      12.65233746  F        1        2      -0.50691589       0.21789633      -0.21487285
O        0.28787265       1.76346018      14.95372921  F        1        2       0.44193446      -0.24829593      -0.36721700
O        3.24976236       0.63242506      16.25840413  F        1        2      -0.19715090      -0.52913235       0.06709853
O        0.78931236       3.62919935      13.15069587  F        1        2       0.42742189       0.28200907       0.54227501
O        2.74832265       2.49816423      14.45537079  F        1        2       0.01140937       0.38224014      -0.72525726
O       -1.07718501       3.13058929      16.75676254  F        1        2       0.12740904       0.36442101       0.24050784
Si       2.34330593      -0.01501743      17.47074737  T        0        1      -0.01913796       0.01395617      -0.03205184
Si      -1.25530837       1.76659468      21.08938873  T        0        1       0.00721444      -0.00420532       0.00971029
Si       1.29917466       2.23002688      19.33653124  T        0        1       0.01196911       0.03160733      -0.02142165
O        1.40895984       1.11833400      18.13702723  T        1        1       0.01000528       0.01467627      -0.00956868
O        0.22067407       1.74295248      20.42787350  T        1        1       0.02286648      -0.03204421      -0.00376887
O        3.13261810       0.54684692      21.96705727  T        1        1       0.01451155      -0.00209963      -0.03205054
O        0.85036750       3.61101202      18.59517666  T        1        1      -0.04613904       0.02170514      -0.00572659
O        2.72106239       2.48672283      20.06829324  T        1        1       0.01470084      -0.00896955      -0.00031498
O       -1.29346132       2.32955737      22.62353359  T        1        1      -0.02119210      -0.01881769       0.03443815
Si       7.23815181       0.00000000      12.00000000  F        0        2      -0.13338085      -0.36633387      -1.70329567
Si       3.76227409       2.00679893      15.60606667  F        0        2      -0.11620338       0.06647498       1.24676258
Si       6.22272410       2.25482548      13.80303333  F        0        2       0.02507751      -0.15924692       1.01629423
O        6.30416499       1.13103512      12.65233746  F        1        2      -0.50376371       0.21393333      -0.21834551
O        5.20877265       1.76346018      14.95372921  F        1        2       0.43462833      -0.24604126      -0.38514223
O        8.17066236       0.63242506      16.25840413  F        1        2      -0.25362879      -0.60092646       0.20065243
O        5.71021236       3.62919935      13.15069587  F        1        2       0.42514077       0.28776105       0.53504546
O        7.66922265       2.49816423      14.45537079  F        1        2       0.02310428       0.38773492      -0.72172565
O        3.84371499       3.13058929      16.75676254  F        1        2      -0.00810674       0.34617265       0.11938755
Si       7.22278617       0.01831772      17.46271796  T        0        1       0.00709595      -0.00258694      -0.03688188
Si       3.72593561       1.85805328      21.19537580  T        0        1       0.03441288       0.03777839       0.01314175
Si       6.16130686       2.24398865      19.30994794  T        0        1      -0.02170487       0.00951151      -0.02947434
O        6.27349330       1.18647248      18.05533637  T        1        1       0.03154086      -0.01551724       0.00064556
O        5.13734542       1.65937965      20.41642661  T        1        1       0.00867136      -0.03468860      -0.01545538
O        8.05743886       0.31243292      21.62482064  T        1        1      -0.01391147       0.00102140       0.03576649
O        5.66625098       3.65123430      18.64662809  T        1        1      -0.00515524       0.01849046      -0.01961662
O        7.61718123       2.48706743      19.98590470  T        1        1      -0.01149015      -0.01836887      -0.00587452
O        3.83697387       2.63674092      22.62897332  T        1        1       0.00594042      -0.00037712      -0.01077932
F        2.59821721       0.13352559      24.35581954  T        0        0       0.04841000       0.03350004       0.01644371
H        2.75972676       0.22681319      23.37978143  T        0        0       0.01093999       0.01761363      -0.00757284
O        4.49233956       2.07973086      25.34777055  T        0        0       0.01032615       0.03793520      -0.01875159
H        3.95606402       1.26036121      25.39026978  T        0        0      -0.04314608      -0.00898261       0.00880172
H        4.36768485       2.38134454      24.41838266  T        0        0      -0.02778195      -0.03266403      -0.01110329
41
Lattice="9.8418 0.0 0.0 -2.460449999999999 4.261624409482844 0.0 0.0 -0.0 34.16586254" Properties=species:S:1:pos:R:3:move_mask:L:1:spacegroup_kinds:I:1:tags:I:1:forces:R:3 surface=alpha_quartz_001 coadsorbate=H2O start=1 calculation_kind="Local coadsorbate relaxation; not a reaction path" host_atoms=36 energy=-289.47337536869236 pbc="T T F"
Si       2.31725181       0.00000000      12.00000000  F        0        2      -0.13447105      -0.36612549      -1.70733924
Si      -1.15862590       2.00679893      15.60606667  F        0        2      -0.12904393       0.07162197       1.21304601
Si       1.30182410       2.25482548      13.80303333  F        0        2       0.03858276      -0.16054546       1.00077583
O        1.38326499       1.13103512      12.65233746  F        1        2      -0.50695270       0.21809946      -0.21446217
O        0.28787265       1.76346018      14.95372921  F        1        2       0.44148645      -0.24858142      -0.36677653
O        3.24976236       0.63242506      16.25840413  F        1        2      -0.19382507      -0.53015011       0.06762386
O        0.78931236       3.62919935      13.15069587  F        1        2       0.42766661       0.28189888       0.54277100
O        2.74832265       2.49816423      14.45537079  F        1        2       0.01237845       0.38222460      -0.72388866
O       -1.07718501       3.13058929      16.75676254  F        1        2       0.12872098       0.36868818       0.24350105
Si       2.34309974      -0.01448836      17.47079993  T        0        1      -0.02520283       0.00941339      -0.03700723
Si      -1.25504677       1.76331018      21.08973604  T        0        1      -0.00000932      -0.01203990       0.01846892
Si       1.29735067       2.22961946      19.33648494  T        0        1       0.04433579       0.03917657      -0.02950459
O        1.40909665       1.11998067      18.13550407  T        1        1      -0.00291053       0.00518547      -0.01118975
O        0.22060811       1.74275925      20.42889568  T        1        1       0.03633182      -0.03437345      -0.00791188
O        3.13229828       0.54862667      21.96805589  T        1        1       0.02039257       0.00865212      -0.03700340
O        0.84869855       3.61110667      18.59610932  T        1        1      -0.04897509       0.02556016      -0.00390224
O        2.72118924       2.48469481      20.06548756  T        1        1       0.02103024      -0.00800443       0.01666758
O       -1.29718166       2.31841239      22.62588363  T        1        1      -0.01113786       0.01384589       0.06323106
Si       7.23815181       0.00000000      12.00000000  F        0        2      -0.13344721      -0.36645308      -1.70413577
Si       3.76227409       2.00679893      15.60606667  F        0        2      -0.11773689       0.06526661       1.24313567
Si       6.22272410       2.25482548      13.80303333  F        0        2       0.02576872      -0.15893708       1.01419712
O        6.30416499       1.13103512      12.65233746  F        1        2      -0.50411407       0.21436175      -0.21774552
O        5.20877265       1.76346018      14.95372921  F        1        2       0.43403690      -0.24619426      -0.38295363
O        8.17066236       0.63242506      16.25840413  F        1        2      -0.25567913      -0.59827030       0.19743281
O        5.71021236       3.62919935      13.15069587  F        1        2       0.42544235       0.28738477       0.53588611
O        7.66922265       2.49816423      14.45537079  F        1        2       0.02295297       0.38753931      -0.72105487
O        3.84371499       3.13058929      16.75676254  F        1        2      -0.01223838       0.34150445       0.11553196
Si       7.22271522       0.01805571      17.46227660  T        0        1       0.01590177       0.00063369      -0.02242180
Si       3.72616332       1.85957712      21.19503778  T        0        1       0.02665194       0.02936963       0.00843205
Si       6.16246217       2.24501168      19.31026065  T        0        1      -0.04172499      -0.00958281      -0.01905798
O        6.27418213       1.18484091      18.05802253  T        1        1       0.02501434      -0.00533659      -0.01208390
O        5.13878421       1.66099432      20.41784000  T        1        1      -0.00974355      -0.03123434      -0.01274400
O        8.05971849       0.30819292      21.62276160  T        1        1      -0.02485856      -0.03656712       0.02902351
O        5.66734730       3.65145982      18.64573313  T        1        1       0.00595976       0.00916464      -0.01633660
O        7.61721128       2.48439611      19.98833468  T        1        1      -0.00576413       0.01013478      -0.02722468
O        3.83357050       2.63913654      22.62851568  T        1        1       0.00221686      -0.00147953      -0.01786655
F        2.60315607       0.12636749      24.35759685  T        0        0       0.04655313       0.03837145       0.01059672
H        2.76244531       0.22617410      23.38196402  T        0        0       0.01285446       0.00993936      -0.00804360
O        4.48064790       2.09286712      25.34764813  T        0        0       0.01187710       0.03657622      -0.01074933
H        3.94744098       1.27205733      25.39540994  T        0        0      -0.04495973      -0.01638364       0.00955265
H        4.35494202       2.38782127      24.41638367  T        0        0      -0.02336094      -0.02435435      -0.01847001
41
Lattice="9.8418 0.0 0.0 -2.460449999999999 4.261624409482844 0.0 0.0 -0.0 34.16586254" Properties=species:S:1:pos:R:3:move_mask:L:1:spacegroup_kinds:I:1:tags:I:1:forces:R:3 surface=alpha_quartz_001 coadsorbate=H2O start=1 calculation_kind="Local coadsorbate relaxation; not a reaction path" host_atoms=36 energy=-289.47459053303317 pbc="T T F"
Si       2.31725181       0.00000000      12.00000000  F        0        2      -0.13455431      -0.36633129      -1.70869240
Si      -1.15862590       2.00679893      15.60606667  F        0        2      -0.12710586       0.07448032       1.20948532
Si       1.30182410       2.25482548      13.80303333  F        0        2       0.03811969      -0.16034512       0.99838711
O        1.38326499       1.13103512      12.65233746  F        1        2      -0.50727868       0.21866893      -0.21347552
O        0.28787265       1.76346018      14.95372921  F        1        2       0.44023915      -0.24911390      -0.36526645
O        3.24976236       0.63242506      16.25840413  F        1        2      -0.18712606      -0.52914724       0.06250540
O        0.78931236       3.62919935      13.15069587  F        1        2       0.42823517       0.28153289       0.54402262
O        2.74832265       2.49816423      14.45537079  F        1        2       0.01363004       0.38211526      -0.72175816
O       -1.07718501       3.13058929      16.75676254  F        1        2       0.12305069       0.36756029       0.23987040
Si       2.34224471      -0.01353272      17.47020447  T        0        1      -0.02769717       0.00548077      -0.02784660
Si      -1.25475167       1.75933109      21.09118602  T        0        1      -0.00418689      -0.01775562       0.02339625
Si       1.29539636       2.22976282      19.33591364  T        0        1       0.06253417       0.03760778      -0.02644062
O        1.40901604       1.12237832      18.13315078  T        1        1      -0.02067875       0.00182078      -0.01359070
O        0.22082221       1.74160764      20.43006628  T        1        1       0.03976166      -0.02911757      -0.01057165
O        3.13195577       0.55055871      21.96748933  T        1        1       0.02416891       0.01642392      -0.03140447
O        0.84530926       3.61174364      18.59739671  T        1        1      -0.04312724       0.02310550       0.00275546
O        2.72148538       2.48191482      20.06192879  T        1        1       0.02225725       0.00398133       0.02729321
O       -1.30138675       2.30549482      22.63033180  T        1        1       0.00236655       0.04240227       0.07177200
Si       7.23815181       0.00000000      12.00000000  F        0        2      -0.13359911      -0.36672723      -1.70589510
Si       3.76227409       2.00679893      15.60606667  F        0        2      -0.11944840       0.06460885       1.23720189
Si       6.22272410       2.25482548      13.80303333  F        0        2       0.02637422      -0.15865748       1.01057519
O        6.30416499       1.13103512      12.65233746  F        1        2      -0.50477312       0.21523881      -0.21657064
O        5.20877265       1.76346018      14.95372921  F        1        2       0.43310344      -0.24656548      -0.37964473
O        8.17066236       0.63242506      16.25840413  F        1        2      -0.25192148      -0.59148643       0.18544505
O        5.71021236       3.62919935      13.15069587  F        1        2       0.42619948       0.28669966       0.53758627
O        7.66922265       2.49816423      14.45537079  F        1        2       0.02320865       0.38709300      -0.71933925
O        3.84371499       3.13058929      16.75676254  F        1        2      -0.01718740       0.33437340       0.10960312
Si       7.22305920       0.01759043      17.46139884  T        0        1       0.02060526       0.00298400       0.00309184
Si       3.72668035       1.86195201      21.19444005  T        0        1       0.01117507       0.00803404      -0.00195876
Si       6.16328328       2.24602295      19.31050642  T        0        1      -0.04250613      -0.03033847      -0.00285881
O        6.27583971       1.18245135      18.06160682  T        1        1       0.00968942       0.01123991      -0.02899267
O        5.14022672       1.66241560      20.41923638  T        1        1      -0.02540342      -0.02469804      -0.01323883
O        8.06184419       0.30288788      21.62190440  T        1        1      -0.03118157      -0.06420145       0.01581451
O        5.66900282       3.65167742      18.64429271  T        1        1       0.02051276      -0.00798123      -0.00927024
O        7.61692014       2.48133821      19.99163848  T        1        1       0.00523945       0.03289270      -0.03824429
O        3.82933725       2.64141720      22.62780383  T        1        1      -0.00053709       0.00386505      -0.01783921
F        2.61184139       0.11919566      24.35915607  T        0        0       0.04316760       0.04318806      -0.00192779
H        2.76706972       0.22588088      23.38365154  T        0        0       0.01582748       0.00088888      -0.00725184
O        4.46645506       2.10784348      25.34760955  T        0        0       0.01099510       0.03006662       0.00310846
H        3.93383348       1.28712369      25.40000101  T        0        0      -0.04403539      -0.02471967       0.01500514
H        4.34120504       2.39561400      24.41440620  T        0        0      -0.01811318      -0.00916681      -0.03484052
41
Lattice="9.8418 0.0 0.0 -2.460449999999999 4.261624409482844 0.0 0.0 -0.0 34.16586254" Properties=species:S:1:pos:R:3:move_mask:L:1:spacegroup_kinds:I:1:tags:I:1:forces:R:3 surface=alpha_quartz_001 coadsorbate=H2O start=1 calculation_kind="Local coadsorbate relaxation; not a reaction path" host_atoms=36 energy=-289.4759361801042 pbc="T T F"
Si       2.31725181       0.00000000      12.00000000  F        0        2      -0.13463500      -0.36661532      -1.71041892
Si      -1.15862590       2.00679893      15.60606667  F        0        2      -0.12561583       0.07662548       1.20499549
Si       1.30182410       2.25482548      13.80303333  F        0        2       0.03786892      -0.15991117       0.99529755
O        1.38326499       1.13103512      12.65233746  F        1        2      -0.50775451       0.21939565      -0.21222091
O        0.28787265       1.76346018      14.95372921  F        1        2       0.43854593      -0.24964194      -0.36325605
O        3.24976236       0.63242506      16.25840413  F        1        2      -0.17976041      -0.52808925       0.05520077
O        0.78931236       3.62919935      13.15069587  F        1        2       0.42890887       0.28105225       0.54559908
O        2.74832265       2.49816423      14.45537079  F        1        2       0.01477554       0.38194254      -0.71955637
O       -1.07718501       3.13058929      16.75676254  F        1        2       0.11026304       0.36089621       0.22934888
Si       2.34058948      -0.01217114      17.46907870  T        0        1      -0.02376878       0.00390776      -0.00599483
Si      -1.25453374       1.75528212      21.09424815  T        0        1      -0.00307714      -0.01937306       0.02094567
Si       1.29360979       2.23051192      19.33495521  T        0        1       0.05327630       0.02498831      -0.01115199
O        1.40833210       1.12552643      18.12994045  T        1        1      -0.03750208       0.00545989      -0.01522035
O        0.22112770       1.73910737      20.43111072  T        1        1       0.02889582      -0.01655831      -0.00865043
O        3.13219319       0.55178375      21.96471209  T        1        1       0.02238977       0.01491549      -0.01400188
O        0.84004541       3.61296082      18.59928552  T        1        1      -0.02833845       0.01526318       0.01267863
O        2.72171223       2.47891831      20.05837855  T        1        1       0.01585090       0.02612921       0.02498548
O       -1.30499907       2.29378790      22.63684517  T        1        1       0.01716933       0.05817394       0.05013111
Si       7.23815181       0.00000000      12.00000000  F        0        2      -0.13378256      -0.36705266      -1.70794341
Si       3.76227409       2.00679893      15.60606667  F        0        2      -0.12051025       0.06511157       1.23081764
Si       6.22272410       2.25482548      13.80303333  F        0        2       0.02672106      -0.15851974       1.00666568
O        6.30416499       1.13103512      12.65233746  F        1        2      -0.50551585       0.21625797      -0.21522527
O        5.20877265       1.76346018      14.95372921  F        1        2       0.43204993      -0.24706667      -0.37630094
O        8.17066236       0.63242506      16.25840413  F        1        2      -0.24201278      -0.58143780       0.16577570
O        5.71021236       3.62919935      13.15069587  F        1        2       0.42714366       0.28593449       0.53955913
O        7.66922265       2.49816423      14.45537079  F        1        2       0.02382862       0.38658089      -0.71717378
O        3.84371499       3.13058929      16.75676254  F        1        2      -0.01880299       0.33045960       0.10725528
Si       7.22390535       0.01710231      17.46043003  T        0        1       0.01914533       0.00108093       0.02931465
Si       3.72738854       1.86418429      21.19314147  T        0        1      -0.00790860      -0.01625076      -0.01170651
Si       6.16378443       2.24683801      19.31060003  T        0        1      -0.01809351      -0.04501405       0.01357478
O        6.27839479       1.18030829      18.06492497  T        1        1      -0.00948685       0.02657221      -0.04474903
O        5.14113042       1.66323257      20.41954483  T        1        1      -0.03209752      -0.01820682      -0.01689276
O        8.06304268       0.29755760      21.62413677  T        1        1      -0.02884648      -0.06836976      -0.00501683
O        5.67155724       3.65202385      18.64245221  T        1        1       0.03137005      -0.02757988       0.00079007
O        7.61642837       2.47861969      19.99560964  T        1        1       0.01933924       0.03903993      -0.03154878
O        3.82585717       2.64309163      22.62617675  T        1        1      -0.00220453       0.01403877      -0.00962425
F        2.62325737       0.11391856      24.35904378  T        0        0       0.03840901       0.04677175      -0.01391643
H        2.77347031       0.22641129      23.38337973  T        0        0       0.01971065      -0.00813040      -0.00829382
O        4.45142555       2.12247405      25.34778192  T        0        0       0.00840801       0.02229145       0.01675985
H        3.91624599       1.30359416      25.40290883  T        0        0      -0.04016010      -0.02935028       0.02061144
H        4.32896501       2.40461374      24.41288734  T        0        0      -0.01419578       0.00427839      -0.05144335
41
Lattice="9.8418 0.0 0.0 -2.460449999999999 4.261624409482844 0.0 0.0 -0.0 34.16586254" Properties=species:S:1:pos:R:3:move_mask:L:1:spacegroup_kinds:I:1:tags:I:1:forces:R:3 surface=alpha_quartz_001 coadsorbate=H2O start=1 calculation_kind="Local coadsorbate relaxation; not a reaction path" host_atoms=36 energy=-289.4772337898877 pbc="T T F"
Si       2.31725181       0.00000000      12.00000000  F        0        2      -0.13466687      -0.36682921      -1.71162806
Si      -1.15862590       2.00679893      15.60606667  F        0        2      -0.12532208       0.07667013       1.20206758
Si       1.30182410       2.25482548      13.80303333  F        0        2       0.03781040      -0.15938962       0.99299806
O        1.38326499       1.13103512      12.65233746  F        1        2      -0.50809242       0.21989085      -0.21129460
O        0.28787265       1.76346018      14.95372921  F        1        2       0.43719543      -0.24983258      -0.36188137
O        3.24976236       0.63242506      16.25840413  F        1        2      -0.17604225      -0.52945265       0.05179883
O        0.78931236       3.62919935      13.15069587  F        1        2       0.42932034       0.28072977       0.54669996
O        2.74832265       2.49816423      14.45537079  F        1        2       0.01536476       0.38180060      -0.71825917
O       -1.07718501       3.13058929      16.75676254  F        1        2       0.09465021       0.35247306       0.21615813
Si       2.33836003      -0.01059154      17.46790781  T        0        1      -0.01380317       0.00518077       0.01856662
Si      -1.25442073       1.75197468      21.09864288  T        0        1       0.00276430      -0.01731597       0.01143543
Si       1.29219190       2.23166182      19.33403239  T        0        1       0.01862239       0.00609664       0.00957275
O        1.40680503       1.12906627      18.12632632  T        1        1      -0.04606142       0.01275695      -0.01444297
O        0.22123961       1.73558756      20.43178180  T        1        1       0.00818382      -0.00150530      -0.00112778
O        3.13314964       0.55154420      21.96011191  T        1        1       0.01475375       0.00370259       0.00937931
O        0.83377915       3.61455661      18.60174841  T        1        1      -0.01007417       0.00625920       0.02216034
O        2.72162370       2.47672429      20.05572176  T        1        1       0.00320493       0.04967021       0.01065661
O       -1.30687939       2.28638758      22.64414077  T        1        1       0.02941928       0.05710748       0.00517659
Si       7.23815181       0.00000000      12.00000000  F        0        2      -0.13390446      -0.36725722      -1.70923942
Si       3.76227409       2.00679893      15.60606667  F        0        2      -0.12025947       0.06687961       1.22669957
Si       6.22272410       2.25482548      13.80303333  F        0        2       0.02677086      -0.15859164       1.00431966
O        6.30416499       1.13103512      12.65233746  F        1        2      -0.50599208       0.21691613      -0.21437043
O        5.20877265       1.76346018      14.95372921  F        1        2       0.43124636      -0.24749155      -0.37436201
O        8.17066236       0.63242506      16.25840413  F        1        2      -0.22955138      -0.57180407       0.14538123
O        5.71021236       3.62919935      13.15069587  F        1        2       0.42779492       0.28544243       0.54083870
O        7.66922265       2.49816423      14.45537079  F        1        2       0.02449537       0.38626767      -0.71566490
O        3.84371499       3.13058929      16.75676254  F        1        2      -0.01409690       0.33405563       0.11277132
Si       7.22513994       0.01669615      17.45990969  T        0        1       0.01304877      -0.00593001       0.04264004
Si       3.72793051       1.86514517      21.19109358  T        0        1      -0.02323283      -0.02967553      -0.01474397
Si       6.16427468       2.24713374      19.31065293  T        0        1       0.02086255      -0.04722189       0.02305060
O        6.28123205       1.17934807      18.06675150  T        1        1      -0.02307235       0.03188139      -0.05249115
O        5.14108603       1.66313079      20.41817791  T        1        1      -0.02781497      -0.01444268      -0.02121681
O        8.06279434       0.29348820      21.62974613  T        1        1      -0.01772221      -0.04609809      -0.02889506
O        5.67494413       3.65232974      18.64063665  T        1        1       0.03188486      -0.04083734       0.01078791
O        7.61604698       2.47693596      19.99973256  T        1        1       0.03067037       0.02555487      -0.01001069
O        3.82428766       2.64380062      22.62359199  T        1        1      -0.00267295       0.02319852       0.00076691
F        2.63523508       0.11215530      24.35653282  T        0        0       0.03305539       0.04725254      -0.01771826
H        2.78082562       0.22781650      23.38042346  T        0        0       0.02345081      -0.01494042      -0.01329461
O        4.43812220       2.13395506      25.34819192  T        0        0       0.00478389       0.01926015       0.01960559
H        3.89751841       1.31837348      25.40337823  T        0        0      -0.03367889      -0.02629849       0.02113020
H        4.32078809       2.41396193      24.41206172  T        0        0      -0.01329290       0.00586708      -0.05402068
41
Lattice="9.8418 0.0 0.0 -2.460449999999999 4.261624409482844 0.0 0.0 -0.0 34.16586254" Properties=species:S:1:pos:R:3:move_mask:L:1:spacegroup_kinds:I:1:tags:I:1:forces:R:3 surface=alpha_quartz_001 coadsorbate=H2O start=1 calculation_kind="Local coadsorbate relaxation; not a reaction path" host_atoms=36 energy=-289.4784303320745 pbc="T T F"
Si       2.31725181       0.00000000      12.00000000  F        0        2      -0.13463064      -0.36686474      -1.71171241
Si      -1.15862590       2.00679893      15.60606667  F        0        2      -0.12628149       0.07442564       1.20253671
Si       1.30182410       2.25482548      13.80303333  F        0        2       0.03776326      -0.15897050       0.99255251
O        1.38326499       1.13103512      12.65233746  F        1        2      -0.50807045       0.21988793      -0.21111000
O        0.28787265       1.76346018      14.95372921  F        1        2       0.43680644      -0.24953240      -0.36199812
O        3.24976236       0.63242506      16.25840413  F        1        2      -0.17835517      -0.53448383       0.05650783
O        0.78931236       3.62919935      13.15069587  F        1        2       0.42924568       0.28076359       0.54678812
O        2.74832265       2.49816423      14.45537079  F        1        2       0.01529545       0.38176237      -0.71828239
O       -1.07718501       3.13058929      16.75676254  F        1        2       0.08192152       0.34758042       0.20609694
Si       2.33596987      -0.00895732      17.46718203  T        0        1      -0.00202683       0.00771843       0.03463455
Si      -1.25433365       1.74931717      21.10356772  T        0        1       0.01003536      -0.01329191      -0.00026287
Si       1.29093815       2.23286694      19.33352673  T        0        1      -0.02335770      -0.01061516       0.02595820
O        1.40448715       1.13270227      18.12273452  T        1        1      -0.04378818       0.01798536      -0.01055195
O        0.22099237       1.73184649      20.43217395  T        1        1      -0.01161265       0.01003462       0.01004086
O        3.13436192       0.54987995      21.95496796  T        1        1       0.00463761      -0.01045178       0.02955855
O        0.82757300       3.61626455      18.60462583  T        1        1       0.00423671       0.00093594       0.02802125
O        2.72117075       2.47595395      20.05404157  T        1        1      -0.01092522       0.06386553      -0.00600980
O       -1.30709349       2.28287344      22.65097473  T        1        1       0.03724457       0.04415162      -0.04446965
Si       7.23815181       0.00000000      12.00000000  F        0        2      -0.13390502      -0.36723712      -1.70915924
Si       3.76227409       2.00679893      15.60606667  F        0        2      -0.11875344       0.06939644       1.22610187
Si       6.22272410       2.25482548      13.80303333  F        0        2       0.02670276      -0.15882969       1.00448417
O        6.30416499       1.13103512      12.65233746  F        1        2      -0.50601299       0.21691641      -0.21439480
O        5.20877265       1.76346018      14.95372921  F        1        2       0.43087441      -0.24768125      -0.37438959
O        8.17066236       0.63242506      16.25840413  F        1        2      -0.21948764      -0.56627685       0.13178757
O        5.71021236       3.62919935      13.15069587  F        1        2       0.42784018       0.28541228       0.54085529
O        7.66922265       2.49816423      14.45537079  F        1        2       0.02483931       0.38627278      -0.71555920
O        3.84371499       3.13058929      16.75676254  F        1        2      -0.00388641       0.34409943       0.12533181
Si       7.22657469       0.01624955      17.46014264  T        0        1       0.00671683      -0.01481031       0.03792550
Si       3.72791214       1.86456894      21.18868494  T        0        1      -0.03023543      -0.02608496      -0.01128540
Si       6.16523216       2.24669014      19.31098119  T        0        1       0.05369206      -0.03812622       0.02260136
O        6.28372009       1.17954504      18.06694717  T        1        1      -0.02433973       0.02463424      -0.04908484
O        5.14019578       1.66223724      20.41564659  T        1        1      -0.01764542      -0.01328570      -0.02305948
O        8.06141389       0.29059973      21.63676873  T        1        1      -0.00228823      -0.00974611      -0.04929321
O        5.67887219       3.65217016      18.63915692  T        1        1       0.02159223      -0.04258121       0.01769467
O        7.61607618       2.47619796      20.00382942  T        1        1       0.03421815       0.00077408       0.01444808
O        3.82399091       2.64375315      22.62065401  T        1        1      -0.00231899       0.02613912       0.00404047
F        2.64675487       0.11312809      24.35241112  T        0        0       0.02782180       0.04437422      -0.01374472
H        2.78859882       0.22936304      23.37556740  T        0        0       0.02595028      -0.01879296      -0.01973705
O        4.42617042       2.14319165      25.34870814  T        0        0      -0.00035666       0.02162778       0.00796355
H        3.87889880       1.33139261      25.40210368  T        0        0      -0.02424509      -0.01468064       0.01543674
H        4.31512798       2.42406361      24.41163727  T        0        0      -0.01491122      -0.00641487      -0.03726186
41
Lattice="9.8418 0.0 0.0 -2.460449999999999 4.261624409482844 0.0 0.0 -0.0 34.16586254" Properties=species:S:1:pos:R:3:move_mask:L:1:spacegroup_kinds:I:1:tags:I:1:forces:R:3 surface=alpha_quartz_001 coadsorbate=H2O start=1 calculation_kind="Local coadsorbate relaxation; not a reaction path" host_atoms=36 energy=-289.4796855615792 pbc="T T F"
Si       2.31725181       0.00000000      12.00000000  F        0        2      -0.13453318      -0.36670538      -1.71060707
Si      -1.15862590       2.00679893      15.60606667  F        0        2      -0.12805709       0.07050163       1.20680653
Si       1.30182410       2.25482548      13.80303333  F        0        2       0.03752503      -0.15873152       0.99411075
O        1.38326499       1.13103512      12.65233746  F        1        2      -0.50763377       0.21935236      -0.21170816
O        0.28787265       1.76346018      14.95372921  F        1        2       0.43748935      -0.24877135      -0.36382003
O        3.24976236       0.63242506      16.25840413  F        1        2      -0.18660017      -0.54347945       0.07045285
O        0.78931236       3.62919935      13.15069587  F        1        2       0.42867966       0.28119506       0.54581516
O        2.74832265       2.49816423      14.45537079  F        1        2       0.01475218       0.38183282      -0.71943027
O       -1.07718501       3.13058929      16.75676254  F        1        2       0.07462245       0.34944647       0.20211261
Si       2.33350645      -0.00715578      17.46706374  T        0        1       0.00772384       0.00951438       0.03777911
Si      -1.25413251       1.74629715      21.10870611  T        0        1       0.01605506      -0.00774733      -0.01165794
Si       1.28935038       2.23399821      19.33353380  T        0        1      -0.05710684      -0.02004051       0.03323620
O        1.40137174       1.13674720      18.11894425  T        1        1      -0.03251465       0.01744121      -0.00319810
O        0.22043359       1.72823029      20.43266964  T        1        1      -0.02225059       0.01537074       0.02205651
O        3.13537533       0.54736198      21.95013890  T        1        1      -0.00475466      -0.02040773       0.04073974
O        0.82138538       3.61812189      18.60810226  T        1        1       0.01122487       0.00128510       0.02952184
O        2.72045608       2.47659921      20.05261608  T        1        1      -0.02402169       0.06356307      -0.01645174
O       -1.30657507       2.28017025      22.65732253  T        1        1       0.04197453       0.02718369      -0.08532646
Si       7.23815181       0.00000000      12.00000000  F        0        2      -0.13378188      -0.36699306      -1.70771541
Si       3.76227409       2.00679893      15.60606667  F        0        2      -0.11635896       0.07225457       1.22851362
Si       6.22272410       2.25482548      13.80303333  F        0        2       0.02672025      -0.15917259       1.00696508
O        6.30416499       1.13103512      12.65233746  F        1        2      -0.50560953       0.21627237      -0.21528304
O        5.20877265       1.76346018      14.95372921  F        1        2       0.43085347      -0.24760598      -0.37605295
O        8.17066236       0.63242506      16.25840413  F        1        2      -0.21360410      -0.56598118       0.12717708
O        5.71021236       3.62919935      13.15069587  F        1        2       0.42726686       0.28581160       0.53963962
O        7.66922265       2.49816423      14.45537079  F        1        2       0.02469647       0.38652770      -0.71691228
O        3.84371499       3.13058929      16.75676254  F        1        2       0.00964318       0.35686851       0.14182034
Si       7.22823445       0.01547717      17.46110283  T        0        1       0.00312719      -0.02199300       0.01876399
Si       3.72714913       1.86302481      21.18614121  T        0        1      -0.02953028      -0.00961702      -0.00591970
Si       6.16710204       2.24538147      19.31186511  T        0        1       0.06727590      -0.02272719       0.01394003
O        6.28579739       1.18019840      18.06616086  T        1        1      -0.01247442       0.00789162      -0.03467741
O        5.13877599       1.66082558      20.41269263  T        1        1      -0.00736876      -0.01267626      -0.02113258
O        8.05956761       0.28751598      21.64314730  T        1        1       0.01316144       0.02678182      -0.06294515
O        5.68337673       3.65111635      18.63795844  T        1        1       0.00406189      -0.03317732       0.02060857
O        7.61670477       2.47566487      20.00836424  T        1        1       0.02802100      -0.02601482       0.03207540
O        3.82345311       2.64346325      22.61776016  T        1        1      -0.00178988       0.02236695      -0.00434395
F        2.65939525       0.11496253      24.34783138  T        0        0       0.02256997       0.03825893      -0.00700899
H        2.79746890       0.23032499      23.36990852  T        0        0       0.02719032      -0.02049115      -0.02381863
O        4.41214637       2.15423619      25.34908070  T        0        0      -0.00812556       0.02522556      -0.01297817
H        3.85823919       1.34602598      25.40052731  T        0        0      -0.01155097       0.00404422       0.00608083
H        4.30742117       2.43666111      24.41093875  T        0        0      -0.01696797      -0.02665753      -0.00722786
41
Lattice="9.8418 0.0 0.0 -2.460449999999999 4.261624409482844 0.0 0.0 -0.0 34.16586254" Properties=species:S:1:pos:R:3:move_mask:L:1:spacegroup_kinds:I:1:tags:I:1:forces:R:3 surface=alpha_quartz_001 coadsorbate=H2O start=1 calculation_kind="Local coadsorbate relaxation; not a reaction path" host_atoms=36 energy=-289.4812280667361 pbc="T T F"
Si       2.31725181       0.00000000      12.00000000  F        0        2      -0.13438482      -0.36636041      -1.70837734
Si      -1.15862590       2.00679893      15.60606667  F        0        2      -0.13016094       0.06548958       1.21503496
Si       1.30182410       2.25482548      13.80303333  F        0        2       0.03690675      -0.15868189       0.99760143
O        1.38326499       1.13103512      12.65233746  F        1        2      -0.50676537       0.21829690      -0.21303738
O        0.28787265       1.76346018      14.95372921  F        1        2       0.43920616      -0.24759233      -0.36744932
O        3.24976236       0.63242506      16.25840413  F        1        2      -0.20101356      -0.55714085       0.09532700
O        0.78931236       3.62919935      13.15069587  F        1        2       0.42765437       0.28203952       0.54384619
O        2.74832265       2.49816423      14.45537079  F        1        2       0.01393085       0.38198747      -0.72142198
O       -1.07718501       3.13058929      16.75676254  F        1        2       0.07315619       0.35990259       0.20522278
Si       2.33071004      -0.00485004      17.46757526  T        0        1       0.01306695       0.00908205       0.02691539
Si      -1.25362858       1.74124651      21.11432470  T        0        1       0.01925668      -0.00053649      -0.02274353
Si       1.28669985       2.23508205      19.33401409  T        0        1      -0.07294116      -0.01929909       0.02870181
O        1.39700416       1.14187820      18.11428453  T        1        1      -0.01385630       0.00900237       0.00824424
O        0.21973635       1.72467435      20.43389153  T        1        1      -0.01873166       0.01349950       0.03239889
O        3.13568383       0.54466270      21.94595576  T        1        1      -0.01129311      -0.02121392       0.03959220
O        0.81429545       3.62044078      18.61275300  T        1        1       0.00969218       0.00761352       0.02659568
O        2.71949345       2.47842177      20.05033167  T        1        1      -0.03568174       0.04699301      -0.01587323
O       -1.30635449       2.27390909      22.66413926  T        1        1       0.04579050       0.01216940      -0.11019715
Si       7.23815181       0.00000000      12.00000000  F        0        2      -0.13354835      -0.36654416      -1.70504482
Si       3.76227409       2.00679893      15.60606667  F        0        2      -0.11330019       0.07556127       1.23304359
Si       6.22272410       2.25482548      13.80303333  F        0        2       0.02699038      -0.15960671       1.01135677
O        6.30416499       1.13103512      12.65233746  F        1        2      -0.50485690       0.21506321      -0.21694766
O        5.20877265       1.76346018      14.95372921  F        1        2       0.43106960      -0.24730721      -0.37883809
O        8.17066236       0.63242506      16.25840413  F        1        2      -0.21216600      -0.57121579       0.13193913
O        5.71021236       3.62919935      13.15069587  F        1        2       0.42614153       0.28655751       0.53735107
O        7.66922265       2.49816423      14.45537079  F        1        2       0.02399330       0.38689453      -0.71957396
O        3.84371499       3.13058929      16.75676254  F        1        2       0.02553382       0.36917164       0.15997654
Si       7.23044781       0.01391569      17.46277578  T        0        1       0.00326052      -0.02495977      -0.00988147
Si       3.72528858       1.86133936      21.18342516  T        0        1      -0.02298147       0.01267904      -0.00272453
Si       6.17037279       2.24287778      19.31381081  T        0        1       0.05444128      -0.00462933      -0.00107433
O        6.28785816       1.18027221      18.06547484  T        1        1       0.01167323      -0.01476709      -0.00946931
O        5.13697650       1.65922048      20.41010922  T        1        1      -0.00056146      -0.01080561      -0.01559795
O        8.05800664       0.28184299      21.64689120  T        1        1       0.02607680       0.05487367      -0.06766947
O        5.68900691       3.64851461      18.63679334  T        1        1      -0.01716435      -0.01437690       0.01924948
O        7.61808586       2.47436357      20.01448636  T        1        1       0.01088624      -0.04858247       0.03633344
O        3.82032789       2.64368250      22.61493397  T        1        1      -0.00086905       0.01309813      -0.02590496
F        2.67688651       0.11526842      24.34367446  T        0        0       0.01734138       0.02812805      -0.00230459
H        2.80946653       0.22972462      23.36423231  T        0        0       0.02742701      -0.02070956      -0.02204894
O        4.39008515       2.17341548      25.34919768  T        0        0      -0.02016066       0.02538520      -0.03692346
H        3.82998022       1.36845124      25.40019136  T        0        0       0.00440360       0.02888964      -0.00435847
H        4.29158773       2.45521299      24.40915835  T        0        0      -0.01746222      -0.04804822       0.02873134
41
Lattice="9.8418 0.0 0.0 -2.460449999999999 4.261624409482844 0.0 0.0 -0.0 34.16586254" Properties=species:S:1:pos:R:3:move_mask:L:1:spacegroup_kinds:I:1:tags:I:1:forces:R:3 surface=alpha_quartz_001 coadsorbate=H2O start=1 calculation_kind="Local coadsorbate relaxation; not a reaction path" host_atoms=36 energy=-289.48320670643125 pbc="T T F"
Si       2.31725181       0.00000000      12.00000000  F        0        2      -0.13421908      -0.36589229      -1.70540457
Si      -1.15862590       2.00679893      15.60606667  F        0        2      -0.13180315       0.06053807       1.22654945
Si       1.30182410       2.25482548      13.80303333  F        0        2       0.03572632      -0.15880693       1.00247658
O        1.38326499       1.13103512      12.65233746  F        1        2      -0.50554925       0.21686876      -0.21485293
O        0.28787265       1.76346018      14.95372921  F        1        2       0.44169750      -0.24616552      -0.37262100
O        3.24976236       0.63242506      16.25840413  F        1        2      -0.22163576      -0.57550697       0.13247921
O        0.78931236       3.62919935      13.15069587  F        1        2       0.42633440       0.28322204       0.54122240
O        2.74832265       2.49816423      14.45537079  F        1        2       0.01314849       0.38216103      -0.72367768
O       -1.07718501       3.13058929      16.75676254  F        1        2       0.07653207       0.37864853       0.21465517
Si       2.32728030      -0.00173022      17.46862548  T        0        1       0.01193802       0.00532010       0.00376908
Si      -1.25267034       1.73204403      21.12072295  T        0        1       0.01812755       0.00760033      -0.03392812
Si       1.28203015       2.23604432      19.33479573  T        0        1      -0.06203016      -0.00646317       0.01052429
O        1.39075159       1.14844112      18.10821613  T        1        1       0.00921442      -0.00773225       0.02312920
O        0.21916582       1.72114238      20.43673901  T        1        1       0.00193120       0.00463359       0.03662787
O        3.13440850       0.54266276      21.94266329  T        1        1      -0.01238877      -0.00965799       0.02452297
O        0.80528476       3.62349495      18.61908304  T        1        1      -0.00064622       0.01854514       0.01928800
O        2.71807849       2.48063087      20.04584114  T        1        1      -0.04472357       0.01672519      -0.00172847
O       -1.30761252       2.25807693      22.67280984  T        1        1       0.05116789       0.00598385      -0.11237398
Si       7.23815181       0.00000000      12.00000000  F        0        2      -0.13325233      -0.36596602      -1.70164147
Si       3.76227409       2.00679893      15.60606667  F        0        2      -0.11002782       0.07968195       1.23790220
Si       6.22272410       2.25482548      13.80303333  F        0        2       0.02770079      -0.16009538       1.01661316
O        6.30416499       1.13103512      12.65233746  F        1        2      -0.50394774       0.21354184      -0.21908501
O        5.20877265       1.76346018      14.95372921  F        1        2       0.43137130      -0.24695473      -0.38167284
O        8.17066236       0.63242506      16.25840413  F        1        2      -0.21540987      -0.58166813       0.14592861
O        5.71021236       3.62919935      13.15069587  F        1        2       0.42470235       0.28743818       0.53447745
O        7.66922265       2.49816423      14.45537079  F        1        2       0.02274047       0.38712566      -0.72297761
O        3.84371499       3.13058929      16.75676254  F        1        2       0.04263298       0.37722871       0.17670626
Si       7.23367464       0.01098475      17.46507334  T        0        1       0.00696381      -0.02145335      -0.03887991
Si       3.72167519       1.86065524      21.18057706  T        0        1      -0.01347755       0.02977018      -0.00589777
Si       6.17527906       2.23884037      19.31764148  T        0        1       0.01252880       0.01165991      -0.01904124
O        6.29065112       1.17815667      18.06691671  T        1        1       0.04324065      -0.03698581       0.02274079
O        5.13485492       1.65811753      20.40930992  T        1        1      -0.00064156      -0.00656098      -0.00845060
O        8.05789152       0.27025622      21.64508449  T        1        1       0.03324528       0.06576393      -0.06055313
O        5.69635640       3.64356458      18.63535035  T        1        1      -0.03626442       0.00908191       0.01328464
O        7.62007704       2.47114650      20.02385362  T        1        1      -0.01591192      -0.05938320       0.02119570
O        3.81094517       2.64532696      22.61221288  T        1        1       0.00164160       0.00179795      -0.05828748
F        2.70383114       0.11002569      24.34090448  T        0        0       0.01491931       0.01385448      -0.00416821
H        2.82724517       0.22562442      23.35961217  T        0        0       0.02655155      -0.01964548      -0.01022850
O        4.35136721       2.20985572      25.34927922  T        0        0      -0.03815260       0.01770630      -0.05423985
H        3.78610478       1.40760025      25.40269437  T        0        0       0.02103249       0.05755651      -0.01368847
H        4.25957568       2.48562521      24.40577070  T        0        0      -0.01500747      -0.06351592       0.05930582
41
Lattice="9.8418 0.0 0.0 -2.460449999999999 4.261624409482844 0.0 0.0 -0.0 34.16586254" Properties=species:S:1:pos:R:3:move_mask:L:1:spacegroup_kinds:I:1:tags:I:1:forces:R:3 surface=alpha_quartz_001 coadsorbate=H2O start=1 calculation_kind="Local coadsorbate relaxation; not a reaction path" host_atoms=36 energy=-289.4849096625951 pbc="T T F"
Si       2.31725181       0.00000000      12.00000000  F        0        2      -0.13413607      -0.36560797      -1.70358821
Si      -1.15862590       2.00679893      15.60606667  F        0        2      -0.13213574       0.05818349       1.23450991
Si       1.30182410       2.25482548      13.80303333  F        0        2       0.03462537      -0.15890806       1.00556558
O        1.38326499       1.13103512      12.65233746  F        1        2      -0.50472314       0.21595346      -0.21596052
O        0.28787265       1.76346018      14.95372921  F        1        2       0.44333282      -0.24529807      -0.37623829
O        3.24976236       0.63242506      16.25840413  F        1        2      -0.23782644      -0.58935783       0.16274456
O        0.78931236       3.62919935      13.15069587  F        1        2       0.42552485       0.28403443       0.53962077
O        2.74832265       2.49816423      14.45537079  F        1        2       0.01291159       0.38221633      -0.72472542
O       -1.07718501       3.13058929      16.75676254  F        1        2       0.07846642       0.39240595       0.22115439
Si       2.32443064       0.00089778      17.46936071  T        0        1       0.00851966       0.00120875      -0.01283526
Si      -1.25182032       1.72251553      21.12577955  T        0        1       0.01519060       0.01200893      -0.04073588
Si       1.27735251       2.23658545      19.33520053  T        0        1      -0.04269058       0.00592217      -0.00595700
O        1.38528294       1.15349008      18.10326253  T        1        1       0.02328334      -0.02083574       0.03301324
O        0.21900114       1.71862488      20.43997977  T        1        1       0.02041536      -0.00220864       0.03439645
O        3.13211662       0.54203993      21.94054718  T        1        1      -0.00953457       0.00215077       0.01108231
O        0.79759312       3.62601167      18.62429685  T        1        1      -0.00963201       0.02533233       0.01323675
O        2.71662717       2.48128005      20.04097598  T        1        1      -0.04860369      -0.00307514       0.01207520
O       -1.30990057       2.23855455      22.68097414  T        1        1       0.05819869       0.00907338      -0.10691868
Si       7.23815181       0.00000000      12.00000000  F        0        2      -0.13308407      -0.36561255      -1.69962398
Si       3.76227409       2.00679893      15.60606667  F        0        2      -0.10813783       0.08328843       1.23952443
Si       6.22272410       2.25482548      13.80303333  F        0        2       0.02847899      -0.16040975       1.01938451
O        6.30416499       1.13103512      12.65233746  F        1        2      -0.50347759       0.21268091      -0.22036376
O        5.20877265       1.76346018      14.95372921  F        1        2       0.43148168      -0.24691501      -0.38252065
O        8.17066236       0.63242506      16.25840413  F        1        2      -0.21962438      -0.58984203       0.15831126
O        5.71021236       3.62919935      13.15069587  F        1        2       0.42388334       0.28785623       0.53285231
O        7.66922265       2.49816423      14.45537079  F        1        2       0.02177316       0.38701963      -0.72490213
O        3.84371499       3.13058929      16.75676254  F        1        2       0.05441058       0.37931980       0.18593096
Si       7.23665263       0.00806073      17.46678933  T        0        1       0.00985010      -0.01597810      -0.05091694
Si       3.71790849       1.86130141      21.17860021  T        0        1      -0.00892616       0.03211983      -0.01195671
Si       6.17913725       2.23535412      19.32174076  T        0        1      -0.02257984       0.01885137      -0.02899856
O        6.29364742       1.17450645      18.07074490  T        1        1       0.06127177      -0.04662155       0.04156853
O        5.13322071       1.65823670      20.41071541  T        1        1      -0.00510625      -0.00266588      -0.00570481
O        8.05924741       0.25736461      21.63976116  T        1        1       0.03499180       0.06410888      -0.05121948
O        5.70258235       3.63875531      18.63392790  T        1        1      -0.04396863       0.02140067       0.00793924
O        7.62127330       2.46744189      20.03302757  T        1        1      -0.03400721      -0.05823692       0.00251941
O        3.79887617       2.64758580      22.61033886  T        1        1       0.00548053      -0.00358031      -0.08077520
F        2.72950207       0.10048597      24.33994750  T        0        0       0.01774317       0.00485262      -0.01047868
H        2.84389822       0.21959016      23.35753812  T        0        0       0.02431622      -0.01834072       0.00457533
O        4.31071942       2.24947923      25.34983619  T        0        0      -0.05486409       0.00936288      -0.05850366
H        3.74268580       1.44886112      25.40620614  T        0        0       0.03054096       0.07402927      -0.01829946
H        4.22490515       2.51720725      24.40291440  T        0        0      -0.01163271      -0.06988624       0.07121815
41
Lattice="9.8418 0.0 0.0 -2.460449999999999 4.261624409482844 0.0 0.0 -0.0 34.16586254" Properties=species:S:1:pos:R:3:move_mask:L:1:spacegroup_kinds:I:1:tags:I:1:forces:R:3 surface=alpha_quartz_001 coadsorbate=H2O start=1 calculation_kind="Local coadsorbate relaxation; not a reaction path" host_atoms=36 energy=-289.4863930158316 pbc="T T F"
Si       2.31725181       0.00000000      12.00000000  F        0        2      -0.13409041      -0.36542503      -1.70238712
Si      -1.15862590       2.00679893      15.60606667  F        0        2      -0.13198961       0.05686703       1.24053238
Si       1.30182410       2.25482548      13.80303333  F        0        2       0.03362283      -0.15895556       1.00768537
O        1.38326499       1.13103512      12.65233746  F        1        2      -0.50411521       0.21531513      -0.21668634
O        0.28787265       1.76346018      14.95372921  F        1        2       0.44448135      -0.24469838      -0.37899345
O        3.24976236       0.63242506      16.25840413  F        1        2      -0.25183944      -0.60106649       0.18925368
O        0.78931236       3.62919935      13.15069587  F        1        2       0.42497911       0.28464266       0.53855710
O        2.74832265       2.49816423      14.45537079  F        1        2       0.01289559       0.38221291      -0.72522594
O       -1.07718501       3.13058929      16.75676254  F        1        2       0.07866281       0.40294058       0.22519034
Si       2.32176937       0.00330658      17.46986478  T        0        1       0.00553914      -0.00249245      -0.02432164
Si      -1.25107945       1.71316743      21.13036247  T        0        1       0.01259318       0.01500437      -0.04734808
Si       1.27280132       2.23704635      19.33538820  T        0        1      -0.02548791       0.01546469      -0.01886997
O        1.38025020       1.15787382      18.09884151  T        1        1       0.03307442      -0.03090057       0.04023675
O        0.21899850       1.71633333      20.44325875  T        1        1       0.03434795      -0.00653544       0.02987850
O        3.12955287       0.54173094      21.93847839  T        1        1      -0.00600439       0.01111646       0.00095702
O        0.79033089       3.62832531      18.62902148  T        1        1      -0.01612734       0.02914097       0.00805173
O        2.71506637       2.48119527      20.03621633  T        1        1      -0.05071960      -0.01556788       0.02269806
O       -1.31233654       2.21832369      22.68890820  T        1        1       0.06628912       0.01473585      -0.10283000
Si       7.23815181       0.00000000      12.00000000  F        0        2      -0.13298041      -0.36537586      -1.69831570
Si       3.76227409       2.00679893      15.60606667  F        0        2      -0.10680861       0.08678374       1.23961833
Si       6.22272410       2.25482548      13.80303333  F        0        2       0.02922104      -0.16065899       1.02095911
O        6.30416499       1.13103512      12.65233746  F        1        2      -0.50322516       0.21215827      -0.22120379
O        5.20877265       1.76346018      14.95372921  F        1        2       0.43149618      -0.24703874      -0.38249103
O        8.17066236       0.63242506      16.25840413  F        1        2      -0.22316115      -0.59631798       0.16840854
O        5.71021236       3.62919935      13.15069587  F        1        2       0.42338892       0.28804541       0.53185815
O        7.66922265       2.49816423      14.45537079  F        1        2       0.02101128       0.38676994      -0.72606992
O        3.84371499       3.13058929      16.75676254  F        1        2       0.06433160       0.37977384       0.19262427
Si       7.23951428       0.00524128      17.46819446  T        0        1       0.01144512      -0.01083603      -0.05578403
Si       3.71417673       1.86227868      21.17685405  T        0        1      -0.00698384       0.02903309      -0.01845658
Si       6.18231197       2.23220690      19.32578806  T        0        1      -0.04869743       0.02268252      -0.03495071
O        6.29687028       1.17038086      18.07546511  T        1        1       0.07164544      -0.05100487       0.05341700
O        5.13168063       1.65872390      20.41271726  T        1        1      -0.00999947       0.00078156      -0.00551475
O        8.06098081       0.24446439      21.63375696  T        1        1       0.03591872       0.06057500      -0.04287996
O        5.70828847       3.63419156      18.63248488  T        1        1      -0.04736942       0.02832511       0.00344237
O        7.62195744       2.46366733      20.04198159  T        1        1      -0.04648403      -0.05450039      -0.01383642
O        3.78631795       2.64967029      22.60864424  T        1        1       0.00969495      -0.00513999      -0.09646245
F        2.75447924       0.08973560      24.33931466  T        0        0       0.02003437       0.00135567      -0.01613366
H        2.85999876       0.21300890      23.35623430  T        0        0       0.02056898      -0.01613092       0.01817029
O        4.26966738       2.28979442      25.35057205  T        0        0      -0.07159944       0.00225033      -0.05556119
H        3.69966146       1.49054809      25.40953820  T        0        0       0.04026937       0.08036755      -0.02039446
H        4.18964724       2.54940675      24.40058485  T        0        0      -0.00782858      -0.07369712       0.07317819
41
Lattice="9.8418 0.0 0.0 -2.460449999999999 4.261624409482844 0.0 0.0 -0.0 34.16586254" Properties=species:S:1:pos:R:3:move_mask:L:1:spacegroup_kinds:I:1:tags:I:1:forces:R:3 surface=alpha_quartz_001 coadsorbate=H2O start=1 calculation_kind="Local coadsorbate relaxation; not a reaction path" host_atoms=36 energy=-289.4879789418294 pbc="T T F"
Si       2.31725181       0.00000000      12.00000000  F        0        2      -0.13408472      -0.36533834      -1.70173518
Si      -1.15862590       2.00679893      15.60606667  F        0        2      -0.13106583       0.05697247       1.24525881
Si       1.30182410       2.25482548      13.80303333  F        0        2       0.03257434      -0.15900658       1.00909985
O        1.38326499       1.13103512      12.65233746  F        1        2      -0.50369861       0.21493918      -0.21708807
O        0.28787265       1.76346018      14.95372921  F        1        2       0.44529846      -0.24436653      -0.38112612
O        3.24976236       0.63242506      16.25840413  F        1        2      -0.26534231      -0.61187089       0.21522422
O        0.78931236       3.62919935      13.15069587  F        1        2       0.42470957       0.28506665       0.53795930
O        2.74832265       2.49816423      14.45537079  F        1        2       0.01311535       0.38216260      -0.72523216
O       -1.07718501       3.13058929      16.75676254  F        1        2       0.08030726       0.41440509       0.23044210
Si       2.31931591       0.00564388      17.47038028  T        0        1      -0.00033927      -0.00696551      -0.03549907
Si      -1.25016945       1.70390100      21.13345761  T        0        1       0.00976312       0.01895889      -0.06110919
Si       1.26803039       2.23758291      19.33558018  T        0        1       0.00259696       0.02666827      -0.03383195
O        1.37555132       1.16184140      18.09508167  T        1        1       0.03945569      -0.03948945       0.04360867
O        0.21956741       1.71447139      20.44700403  T        1        1       0.05199676      -0.01107202       0.01603335
O        3.12654830       0.54216326      21.93724685  T        1        1      -0.00028117       0.02143109      -0.01427957
O        0.78332208       3.63078066      18.63377049  T        1        1      -0.02299989       0.03066438       0.00067187
O        2.71308549       2.48132163      20.03169537  T        1        1      -0.04662647      -0.02677060       0.03440322
O       -1.31431605       2.19793961      22.69446943  T        1        1       0.07075868       0.02787989      -0.07206055
Si       7.23815181       0.00000000      12.00000000  F        0        2      -0.13293235      -0.36525764      -1.69771279
Si       3.76227409       2.00679893      15.60606667  F        0        2      -0.10613392       0.08995634       1.23813541
Si       6.22272410       2.25482548      13.80303333  F        0        2       0.02993576      -0.16087140       1.02139763
O        6.30416499       1.13103512      12.65233746  F        1        2      -0.50319873       0.21196668      -0.22161902
O        5.20877265       1.76346018      14.95372921  F        1        2       0.43139667      -0.24720901      -0.38170805
O        8.17066236       0.63242506      16.25840413  F        1        2      -0.22446896      -0.60281007       0.17633310
O        5.71021236       3.62919935      13.15069587  F        1        2       0.42322253       0.28800404       0.53148414
O        7.66922265       2.49816423      14.45537079  F        1        2       0.02035285       0.38625755      -0.72655533
O        3.84371499       3.13058929      16.75676254  F        1        2       0.06977990       0.37323108       0.19225715
Si       7.24240049       0.00215276      17.46918110  T        0        1       0.01193740      -0.00208129      -0.05049924
Si       3.71026885       1.86391766      21.17522265  T        0        1      -0.00470344       0.01360967      -0.03273925
Si       6.18497512       2.22883604      19.32960316  T        0        1      -0.07624791       0.02085144      -0.03741288
O        6.30037974       1.16539550      18.08074842  T        1        1       0.07311478      -0.04692675       0.06033710
O        5.13003162       1.65912091      20.41505812  T        1        1      -0.01839117       0.00439657      -0.00694372
O        8.06339684       0.23176840      21.62475282  T        1        1       0.03022067       0.03819905      -0.02542569
O        5.71286058       3.62927539      18.63135678  T        1        1      -0.04269429       0.03204184      -0.00385937
O        7.62227151       2.45911220      20.05013421  T        1        1      -0.05687506      -0.03860697      -0.03835004
O        3.77378916       2.65093964      22.60716195  T        1        1       0.01256130       0.00279808      -0.10180698
F        2.78023130       0.07914414      24.33977866  T        0        0       0.01482228       0.00000363      -0.01091514
H        2.87590961       0.20578792      23.35658078  T        0        0       0.01728750      -0.00997780       0.02151726
O        4.22732418       2.33182264      25.35037918  T        0        0      -0.08320362      -0.00874464      -0.02243805
H        3.65750435       1.53307264      25.41333826  T        0        0       0.04826805       0.06830551      -0.01467480
H        4.15034745       2.58155349      24.39801831  T        0        0      -0.00018817      -0.06140450       0.04045901
41
Lattice="9.8418 0.0 0.0 -2.460449999999999 4.261624409482844 0.0 0.0 -0.0 34.16586254" Properties=species:S:1:pos:R:3:move_mask:L:1:spacegroup_kinds:I:1:tags:I:1:forces:R:3 surface=alpha_quartz_001 coadsorbate=H2O start=1 calculation_kind="Local coadsorbate relaxation; not a reaction path" host_atoms=36 energy=-289.4899891177569 pbc="T T F"
Si       2.31725181       0.00000000      12.00000000  F        0        2      -0.13419444      -0.36554494      -1.70293277
Si      -1.15862590       2.00679893      15.60606667  F        0        2      -0.12910948       0.06010304       1.24336027
Si       1.30182410       2.25482548      13.80303333  F        0        2       0.03213206      -0.15904739       1.00763144
O        1.38326499       1.13103512      12.65233746  F        1        2      -0.50405022       0.21550472      -0.21636573
O        0.28787265       1.76346018      14.95372921  F        1        2       0.44478442      -0.24488984      -0.38010778
O        3.24976236       0.63242506      16.25840413  F        1        2      -0.26805281      -0.61273393       0.22133814
O        0.78931236       3.62919935      13.15069587  F        1        2       0.42533799       0.28470465       0.53898471
O        2.74832265       2.49816423      14.45537079  F        1        2       0.01378628       0.38204927      -0.72391742
O       -1.07718501       3.13058929      16.75676254  F        1        2       0.08531569       0.42036743       0.23596125
Si       2.31920851       0.00610138      17.47061605  T        0        1      -0.01006256      -0.00998069      -0.04041383
Si      -1.24903273       1.70183549      21.12965762  T        0        1       0.00537337       0.02165005      -0.07112763
Si       1.26645611       2.23808417      19.33553485  T        0        1       0.04264954       0.03619424      -0.04634251
O        1.37496176       1.16175949      18.09582222  T        1        1       0.03402952      -0.03718563       0.03307961
O        0.22180716       1.71533195      20.44918920  T        1        1       0.06685324      -0.01539232      -0.01081062
O        3.12496363       0.54512058      21.94027468  T        1        1       0.00603150       0.02945823      -0.03735822
O        0.78228288       3.63202348      18.63515630  T        1        1      -0.02672898       0.02596384      -0.00740362
O        2.71165982       2.48259932      20.03105031  T        1        1      -0.02718570      -0.03148983       0.03930903
O       -1.31321800       2.19336445      22.68902832  T        1        1       0.06119610       0.04698105       0.00543750
Si       7.23815181       0.00000000      12.00000000  F        0        2      -0.13304826      -0.36550252      -1.69925784
Si       3.76227409       2.00679893      15.60606667  F        0        2      -0.10728337       0.08985153       1.23369622
Si       6.22272410       2.25482548      13.80303333  F        0        2       0.03005853      -0.16083326       1.01874362
O        6.30416499       1.13103512      12.65233746  F        1        2      -0.50372841       0.21269588      -0.22068255
O        5.20877265       1.76346018      14.95372921  F        1        2       0.43093370      -0.24731639      -0.37966852
O        8.17066236       0.63242506      16.25840413  F        1        2      -0.21845224      -0.60452695       0.17216851
O        5.71021236       3.62919935      13.15069587  F        1        2       0.42395480       0.28744694       0.53288458
O        7.66922265       2.49816423      14.45537079  F        1        2       0.02050059       0.38551980      -0.72498098
O        3.84371499       3.13058929      16.75676254  F        1        2       0.05924967       0.35275211       0.17399122
Si       7.24319982       0.00065546      17.46839027  T        0        1       0.00955603       0.01050922      -0.02487324
Si       3.70889724       1.86626659      21.17490411  T        0        1      -0.00196771      -0.01647903      -0.05147074
Si       6.18466906       2.22729555      19.32972893  T        0        1      -0.09406181       0.00709467      -0.03066657
O        6.30177326       1.16217454      18.08290274  T        1        1       0.05243541      -0.02581424       0.05226282
O        5.12951031       1.65907373      20.41641655  T        1        1      -0.02888986       0.00465827      -0.01215020
O        8.06626083       0.22901921      21.61414997  T        1        1       0.01205501      -0.01531716       0.00402481
O        5.71120019       3.62720526      18.63192768  T        1        1      -0.02153497       0.02560017      -0.01330999
O        7.62190496       2.45577661      20.04939762  T        1        1      -0.05567620      -0.00064274      -0.06945219
O        3.77083424       2.65132981      22.60648499  T        1        1       0.01083487       0.02328474      -0.07631184
F        2.78735962       0.07767855      24.34339259  T        0        0       0.00783501      -0.01035398       0.01386300
H        2.87894205       0.20312490      23.36097512  T        0        0       0.01884566      -0.00038614       0.00128426
O        4.21777900       2.34248427      25.34806719  T        0        0      -0.07648725      -0.02100182       0.03799946
H        3.65307154       1.54166011      25.41731167  T        0        0       0.03427081       0.03970784       0.00437838
H        4.13519760       2.58274996      24.39538150  T        0        0       0.01249447      -0.01765888      -0.03079407
41
Lattice="9.8418 0.0 0.0 -2.460449999999999 4.261624409482844 0.0 0.0 -0.0 34.16586254" Properties=species:S:1:pos:R:3:move_mask:L:1:spacegroup_kinds:I:1:tags:I:1:forces:R:3 surface=alpha_quartz_001 coadsorbate=H2O start=1 calculation_kind="Local coadsorbate relaxation; not a reaction path" host_atoms=36 energy=-289.4918293272557 pbc="T T F"
Si       2.31725181       0.00000000      12.00000000  F        0        2      -0.13439975      -0.36594334      -1.70543094
Si      -1.15862590       2.00679893      15.60606667  F        0        2      -0.12771629       0.06217251       1.23764929
Si       1.30182410       2.25482548      13.80303333  F        0        2       0.03176580      -0.15881724       1.00371479
O        1.38326499       1.13103512      12.65233746  F        1        2      -0.50478200       0.21664358      -0.21474033
O        0.28787265       1.76346018      14.95372921  F        1        2       0.44341824      -0.24559839      -0.37736283
O        3.24976236       0.63242506      16.25840413  F        1        2      -0.27016166      -0.61259678       0.22507385
O        0.78931236       3.62919935      13.15069587  F        1        2       0.42646831       0.28394156       0.54119678
O        2.74832265       2.49816423      14.45537079  F        1        2       0.01486361       0.38178523      -0.72128644
O       -1.07718501       3.13058929      16.75676254  F        1        2       0.08184904       0.41707680       0.23229580
Si       2.31821505       0.00690698      17.47008137  T        0        1      -0.01302133      -0.00939345      -0.03139096
Si      -1.24700012       1.69786929      21.12554514  T        0        1      -0.00585058       0.01628960      -0.03897589
Si       1.26498922       2.23938941      19.33423550  T        0        1       0.06143128       0.03483611      -0.04722184
O        1.37335353       1.16155890      18.09609432  T        1        1       0.02526210      -0.02246795       0.01554782
O        0.22589280       1.71541845      20.45173401  T        1        1       0.05108464      -0.01501518      -0.03115914
O        3.12408249       0.54977798      21.94367895  T        1        1       0.00648308       0.02530002      -0.05173933
O        0.77923285       3.63424737      18.63711760  T        1        1      -0.01947075       0.01188559      -0.01480376
O        2.70976214       2.48328962      20.02947488  T        1        1      -0.00513888      -0.02432718       0.02042844
O       -1.31154868       2.18478446      22.68611509  T        1        1       0.05248926       0.04912437       0.02376767
Si       7.23815181       0.00000000      12.00000000  F        0        2      -0.13326073      -0.36590512      -1.70194363
Si       3.76227409       2.00679893      15.60606667  F        0        2      -0.10762156       0.09144630       1.22532085
Si       6.22272410       2.25482548      13.80303333  F        0        2       0.03009696      -0.16076939       1.01404155
O        6.30416499       1.13103512      12.65233746  F        1        2      -0.50459613       0.21396426      -0.21898264
O        5.20877265       1.76346018      14.95372921  F        1        2       0.42974896      -0.24792631      -0.37587937
O        8.17066236       0.63242506      16.25840413  F        1        2      -0.20740783      -0.60041599       0.15839692
O        5.71021236       3.62919935      13.15069587  F        1        2       0.42522130       0.28649636       0.53533845
O        7.66922265       2.49816423      14.45537079  F        1        2       0.02142730       0.38476138      -0.72182070
O        3.84371499       3.13058929      16.75676254  F        1        2       0.05260387       0.33682779       0.16140757
Si       7.24465169      -0.00090402      17.46742024  T        0        1       0.00134047       0.01846636       0.00347442
Si       3.70701885       1.86882614      21.17310418  T        0        1      -0.00493807      -0.02747472      -0.03791387
Si       6.18391577       2.22598699      19.32987487  T        0        1      -0.08766779      -0.00269531      -0.01876239
O        6.30474619       1.15845238      18.08645657  T        1        1       0.01862453      -0.00605078       0.03455878
O        5.12879423       1.65998699      20.41792966  T        1        1      -0.03088627       0.00027927      -0.02766862
O        8.07081140       0.22272997      21.60366518  T        1        1       0.00852608      -0.02893752       0.01843562
O        5.71143352       3.62564518      18.63150129  T        1        1      -0.00150342       0.00763391      -0.01662601
O        7.62133552       2.45152116      20.04922630  T        1        1      -0.03699962       0.02762605      -0.08132396
O        3.76464453       2.65809006      22.60174823  T        1        1       0.01773954       0.02728407      -0.03846909
F        2.79592627       0.07214827      24.34695021  T        0        0       0.00700166      -0.00925185       0.00089867
H        2.88447632       0.19988999      23.36451216  T        0        0       0.01615043       0.00517753       0.01461687
O        4.20540894       2.35588214      25.34777163  T        0        0      -0.08204420      -0.02907030       0.01030994
H        3.64522296       1.55308185      25.42546580  T        0        0       0.03109919       0.02503528       0.01686640
H        4.12404346       2.58011908      24.39064154  T        0        0       0.02277122       0.00860287      -0.01983873
41
Lattice="9.8418 0.0 0.0 -2.460449999999999 4.261624409482844 0.0 0.0 -0.0 34.16586254" Properties=species:S:1:pos:R:3:move_mask:L:1:spacegroup_kinds:I:1:tags:I:1:forces:R:3 surface=alpha_quartz_001 coadsorbate=H2O start=1 calculation_kind="Local coadsorbate relaxation; not a reaction path" host_atoms=36 energy=-289.49353553123274 pbc="T T F"
Si       2.31725181       0.00000000      12.00000000  F        0        2      -0.13459317      -0.36645420      -1.70843596
Si      -1.15862590       2.00679893      15.60606667  F        0        2      -0.12751111       0.06253836       1.23006895
Si       1.30182410       2.25482548      13.80303333  F        0        2       0.03166859      -0.15839824       0.99899281
O        1.38326499       1.13103512      12.65233746  F        1        2      -0.50577917       0.21808212      -0.21276996
O        0.28787265       1.76346018      14.95372921  F        1        2       0.44159798      -0.24626023      -0.37369635
O        3.24976236       0.63242506      16.25840413  F        1        2      -0.26818135      -0.61179066       0.22139636
O        0.78931236       3.62919935      13.15069587  F        1        2       0.42784386       0.28291353       0.54381694
O        2.74832265       2.49816423      14.45537079  F        1        2       0.01584220       0.38152799      -0.71875387
O       -1.07718501       3.13058929      16.75676254  F        1        2       0.07446584       0.41008192       0.22419594
Si       2.31727502       0.00743472      17.46909644  T        0        1      -0.00902447      -0.00476837      -0.00770627
Si      -1.24585033       1.69889143      21.12190812  T        0        1      -0.00834438       0.02642748      -0.03818874
Si       1.26446848       2.24128910      19.33307443  T        0        1       0.04777909       0.01748290      -0.02994643
O        1.37359205       1.16157157      18.09703903  T        1        1       0.01283422      -0.00041896      -0.00687819
O        0.22891426       1.71339360      20.45236656  T        1        1       0.02237581      -0.00675091      -0.05258493
O        3.12601693       0.54977970      21.94248998  T        1        1      -0.00050139       0.01054573      -0.05171390
O        0.77590815       3.63659979      18.63919054  T        1        1      -0.00321126      -0.00780781      -0.02352716
O        2.70672232       2.48479912      20.03141354  T        1        1       0.01789185      -0.00784835      -0.01115104
O       -1.30572350       2.19094815      22.68072401  T        1        1       0.03897739       0.04812434       0.04246601
Si       7.23815181       0.00000000      12.00000000  F        0        2      -0.13347867      -0.36640923      -1.70509496
Si       3.76227409       2.00679893      15.60606667  F        0        2      -0.10756570       0.09261978       1.21742470
Si       6.22272410       2.25482548      13.80303333  F        0        2       0.02972641      -0.16068525       1.00927071
O        6.30416499       1.13103512      12.65233746  F        1        2      -0.50556718       0.21539561      -0.21696828
O        5.20877265       1.76346018      14.95372921  F        1        2       0.42830778      -0.24841728      -0.37285045
O        8.17066236       0.63242506      16.25840413  F        1        2      -0.18346653      -0.59047623       0.12646300
O        5.71021236       3.62919935      13.15069587  F        1        2       0.42667375       0.28550032       0.53809593
O        7.66922265       2.49816423      14.45537079  F        1        2       0.02276857       0.38421749      -0.71851506
O        3.84371499       3.13058929      16.75676254  F        1        2       0.04691964       0.32631708       0.15350464
Si       7.24540443      -0.00112535      17.46575312  T        0        1      -0.01028283       0.01880063       0.02746971
Si       3.70675690       1.86776691      21.16960521  T        0        1      -0.00751798      -0.03193541      -0.02699904
Si       6.18161181       2.22600274      19.32696676  T        0        1      -0.04341426      -0.00910245      -0.00313353
O        6.30806937       1.15834043      18.08578552  T        1        1      -0.02408526       0.00811555       0.00986202
O        5.12683045       1.65805092      20.41313343  T        1        1      -0.02763449      -0.00431190      -0.03554854
O        8.07184624       0.22526634      21.60331471  T        1        1       0.00425731      -0.04302072       0.02672021
O        5.71027245       3.62683411      18.63149326  T        1        1       0.01128286      -0.00819983      -0.01786529
O        7.61961763       2.44924894      20.04603436  T        1        1      -0.01148393       0.03884067      -0.06985880
O        3.77009111       2.65912364      22.59550378  T        1        1       0.01588934       0.04189976       0.00813431
F        2.79795162       0.07691812      24.34552384  T        0        0       0.00611647      -0.01712768       0.01205101
H        2.88707559       0.20098828      23.36279315  T        0        0       0.01445721       0.01036879       0.00753422
O        4.20125644       2.35875443      25.34536790  T        0        0      -0.05736737      -0.02418431       0.08202882
H        3.64681580       1.55331377      25.42791359  T        0        0       0.01406030       0.00793123       0.01009681
H        4.11925859       2.57803799      24.38886810  T        0        0       0.01727405       0.02663676      -0.08740636
41
Lattice="9.8418 0.0 0.0 -2.460449999999999 4.261624409482844 0.0 0.0 -0.0 34.16586254" Properties=species:S:1:pos:R:3:move_mask:L:1:spacegroup_kinds:I:1:tags:I:1:forces:R:3 surface=alpha_quartz_001 coadsorbate=H2O start=1 calculation_kind="Local coadsorbate relaxation; not a reaction path" host_atoms=36 energy=-289.4947789606499 pbc="T T F"
Si       2.31725181       0.00000000      12.00000000  F        0        2      -0.13469912      -0.36673638      -1.71009687
Si      -1.15862590       2.00679893      15.60606667  F        0        2      -0.12897674       0.05976414       1.22659638
Si       1.30182410       2.25482548      13.80303333  F        0        2       0.03149247      -0.15795472       0.99619342
O        1.38326499       1.13103512      12.65233746  F        1        2      -0.50627019       0.21885455      -0.21162057
O        0.28787265       1.76346018      14.95372921  F        1        2       0.44077481      -0.24626424      -0.37195017
O        3.24976236       0.63242506      16.25840413  F        1        2      -0.27175003      -0.61613484       0.22695114
O        0.78931236       3.62919935      13.15069587  F        1        2       0.42854008       0.28239762       0.54525703
O        2.74832265       2.49816423      14.45537079  F        1        2       0.01625767       0.38132993      -0.71744824
O       -1.07718501       3.13058929      16.75676254  F        1        2       0.06322056       0.40291139       0.21327449
Si       2.31514132       0.00871733      17.46818901  T        0        1      -0.00010202       0.00101539       0.00849920
Si      -1.24497621       1.69633859      21.12157682  T        0        1      -0.01037744       0.02395959      -0.01101422
Si       1.26295596       2.24318885      19.33166627  T        0        1       0.01688647      -0.00108400      -0.01262666
O        1.37186293       1.16334352      18.09563698  T        1        1       0.00714135       0.01798216      -0.02177541
O        0.23108218       1.70982352      20.45284412  T        1        1      -0.02156763       0.00039767      -0.05425481
O        3.12840461       0.54810700      21.93888655  T        1        1      -0.01353940      -0.00980067      -0.04039315
O        0.76969249       3.63916653      18.64243131  T        1        1       0.01532818      -0.02294685      -0.02883270
O        2.70363331       2.48582807      20.03131243  T        1        1       0.03014752       0.00545053      -0.04299017
O       -1.30105542       2.18909921      22.68206501  T        1        1       0.03290025       0.03081754      -0.00318523
Si       7.23815181       0.00000000      12.00000000  F        0        2      -0.13356581      -0.36662774      -1.70655771
Si       3.76227409       2.00679893      15.60606667  F        0        2      -0.10608140       0.09582269       1.21261359
Si       6.22272410       2.25482548      13.80303333  F        0        2       0.02961140      -0.16075085       1.00707621
O        6.30416499       1.13103512      12.65233746  F        1        2      -0.50604333       0.21607733      -0.21600715
O        5.20877265       1.76346018      14.95372921  F        1        2       0.42725458      -0.24893544      -0.37117736
O        8.17066236       0.63242506      16.25840413  F        1        2      -0.16544072      -0.58269390       0.10274244
O        5.71021236       3.62919935      13.15069587  F        1        2       0.42738399       0.28497571       0.53939213
O        7.66922265       2.49816423      14.45537079  F        1        2       0.02368591       0.38410802      -0.71684493
O        3.84371499       3.13058929      16.75676254  F        1        2       0.05282032       0.32955136       0.16059878
Si       7.24701662      -0.00173195      17.46533300  T        0        1      -0.01995457       0.01152687       0.02603488
Si       3.70515104       1.86557719      21.16502140  T        0        1      -0.00715030      -0.00667301       0.00427752
Si       6.18061801       2.22530371      19.32575260  T        0        1       0.00050192      -0.00298881       0.00170888
O        6.31218380       1.15822488      18.08601427  T        1        1      -0.05189673       0.00613348      -0.00631360
O        5.12385176       1.65623834      20.40775578  T        1        1      -0.01871944      -0.00941901      -0.03698991
O        8.07265464       0.22204716      21.60534143  T        1        1       0.01796258      -0.00502705       0.01538128
O        5.71282982       3.62695740      18.63024974  T        1        1       0.01005805      -0.01538883      -0.01370722
O        7.61824451       2.44698495      20.04685356  T        1        1       0.01363875       0.02711559      -0.04027290
O        3.77074411       2.66283780      22.58770302  T        1        1       0.01838096       0.03350469       0.02871724
F        2.80707457       0.07520829      24.34173025  T        0        0       0.00679340      -0.01197201       0.00669502
H        2.89537739       0.19876370      23.35831982  T        0        0       0.01017800       0.01379057       0.01811369
O        4.17899546       2.38008342      25.34587968  T        0        0      -0.05021126      -0.00760274       0.05557499
H        3.63024049       1.57144464      25.43082859  T        0        0       0.00923805      -0.00503545       0.00247266
H        4.10169577       2.59290680      24.38684094  T        0        0       0.01614886       0.01654971      -0.06411204
41
Lattice="9.8418 0.0 0.0 -2.460449999999999 4.261624409482844 0.0 0.0 -0.0 34.16586254" Properties=species:S:1:pos:R:3:move_mask:L:1:spacegroup_kinds:I:1:tags:I:1:forces:R:3 surface=alpha_quartz_001 coadsorbate=H2O start=1 calculation_kind="Local coadsorbate relaxation; not a reaction path" host_atoms=36 energy=-289.4956155016465 pbc="T T F"
Si       2.31725181       0.00000000      12.00000000  F        0        2      -0.13467553      -0.36678017      -1.71025267
Si      -1.15862590       2.00679893      15.60606667  F        0        2      -0.13083723       0.05720884       1.22623027
Si       1.30182410       2.25482548      13.80303333  F        0        2       0.03170721      -0.15778247       0.99595812
O        1.38326499       1.13103512      12.65233746  F        1        2      -0.50639558       0.21898233      -0.21150854
O        0.28787265       1.76346018      14.95372921  F        1        2       0.44078289      -0.24605309      -0.37163143
O        3.24976236       0.63242506      16.25840413  F        1        2      -0.27023650      -0.61675330       0.22332742
O        0.78931236       3.62919935      13.15069587  F        1        2       0.42861333       0.28227109       0.54532913
O        2.74832265       2.49816423      14.45537079  F        1        2       0.01600015       0.38140103      -0.71794109
O       -1.07718501       3.13058929      16.75676254  F        1        2       0.05843382       0.39953606       0.20825194
Si       2.31476131       0.00875633      17.46781102  T        0        1       0.00649099       0.00488676       0.01247063
Si      -1.24545776       1.69972592      21.12087455  T        0        1      -0.00509747       0.02052543      -0.00471864
Si       1.26349059       2.24403721      19.33118495  T        0        1      -0.00795650      -0.01503608       0.00110274
O        1.37294173       1.16386829      18.09575032  T        1        1       0.00393272       0.02483078      -0.03018362
O        0.23069496       1.70748900      20.45061684  T        1        1      -0.04516032       0.00476328      -0.04837254
O        3.13124967       0.54401461      21.93449905  T        1        1      -0.02320466      -0.02136150      -0.02285607
O        0.76838829       3.63953078      18.64278828  T        1        1       0.02549334      -0.02525688      -0.02940829
O        2.70222863       2.48706997      20.03346757  T        1        1       0.03263980       0.01135478      -0.05457494
O       -1.29577641       2.20001020      22.67995860  T        1        1       0.02518498       0.01756490      -0.02765805
Si       7.23815181       0.00000000      12.00000000  F        0        2      -0.13353349      -0.36664580      -1.70656055
Si       3.76227409       2.00679893      15.60606667  F        0        2      -0.10547228       0.09597768       1.21368700
Si       6.22272410       2.25482548      13.80303333  F        0        2       0.02939676      -0.16074804       1.00767147
O        6.30416499       1.13103512      12.65233746  F        1        2      -0.50602210       0.21604236      -0.21598909
O        5.20877265       1.76346018      14.95372921  F        1        2       0.42714292      -0.24884845      -0.37212491
O        8.17066236       0.63242506      16.25840413  F        1        2      -0.15571282      -0.57812672       0.08888985
O        5.71021236       3.62919935      13.15069587  F        1        2       0.42735811       0.28503873       0.53927279
O        7.66922265       2.49816423      14.45537079  F        1        2       0.02389772       0.38448161      -0.71728316
O        3.84371499       3.13058929      16.75676254  F        1        2       0.05521703       0.33582446       0.16684865
Si       7.24658742      -0.00071629      17.46502292  T        0        1      -0.02142266       0.00297714       0.01072251
Si       3.70563403       1.86203767      21.16246334  T        0        1      -0.00354730       0.01832496       0.01636528
Si       6.17921493       2.22608912      19.32303978  T        0        1       0.02924073       0.00264515       0.00147307
O        6.31272413       1.16108841      18.08256878  T        1        1      -0.05952204      -0.00341447      -0.01645231
O        5.12158447       1.65346672      20.40082554  T        1        1      -0.00912985      -0.01057550      -0.02571291
O        8.07084262       0.22741039      21.61294768  T        1        1       0.02532958       0.02324826       0.00384287
O        5.71247660       3.62894336      18.63006530  T        1        1       0.00199406      -0.00982069      -0.00994223
O        7.61721349       2.44811896      20.04389958  T        1        1       0.02385596       0.01081940      -0.01268438
O        3.77966481       2.66111875      22.58408734  T        1        1       0.01267254       0.02550611       0.02839253
F        2.80349073       0.08117400      24.33727133  T        0        0       0.01092761      -0.01426765       0.01644463
H        2.89516285       0.20076289      23.35348506  T        0        0       0.00778251       0.01339586       0.01019539
O        4.17759484       2.38028085      25.34566707  T        0        0      -0.03574148       0.01484732       0.05367912
H        3.63376833       1.56839367      25.42795245  T        0        0      -0.00325301      -0.01110716      -0.00742966
H        4.10004579       2.59784772      24.38757575  T        0        0       0.01282608       0.00012364      -0.05687032
41
Lattice="9.8418 0.0 0.0 -2.460449999999999 4.261624409482844 0.0 0.0 -0.0 34.16586254" Properties=species:S:1:pos:R:3:move_mask:L:1:spacegroup_kinds:I:1:tags:I:1:forces:R:3 surface=alpha_quartz_001 coadsorbate=H2O start=1 calculation_kind="Local coadsorbate relaxation; not a reaction path" host_atoms=36 energy=-289.4964291256556 pbc="T T F"
Si       2.31725181       0.00000000      12.00000000  F        0        2      -0.13457720      -0.36665595      -1.70929695
Si      -1.15862590       2.00679893      15.60606667  F        0        2      -0.13253580       0.05478165       1.22981768
Si       1.30182410       2.25482548      13.80303333  F        0        2       0.03167672      -0.15774552       0.99774390
O        1.38326499       1.13103512      12.65233746  F        1        2      -0.50612263       0.21856493      -0.21214575
O        0.28787265       1.76346018      14.95372921  F        1        2       0.44161198      -0.24559152      -0.37314549
O        3.24976236       0.63242506      16.25840413  F        1        2      -0.27158288      -0.61938535       0.22516620
O        0.78931236       3.62919935      13.15069587  F        1        2       0.42819675       0.28258366       0.54437791
O        2.74832265       2.49816423      14.45537079  F        1        2       0.01547457       0.38160704      -0.71939361
O       -1.07718501       3.13058929      16.75676254  F        1        2       0.05594039       0.40201405       0.20692021
Si       2.31392235       0.00941822      17.46776555  T        0        1       0.01083075       0.00397641       0.00563877
Si      -1.24593296       1.70084303      21.12131191  T        0        1       0.00059482       0.01455469      -0.00302735
Si       1.26287924       2.24468471      19.33080715  T        0        1      -0.01931490      -0.02085528       0.00601730
O        1.37295966       1.16582678      18.09431580  T        1        1       0.00415219       0.02157690      -0.03329495
O        0.22944518       1.70494839      20.44843715  T        1        1      -0.04991001       0.00664233      -0.04271113
O        3.13250213       0.53965007      21.92935059  T        1        1      -0.02694466      -0.01841223      -0.00527754
O        0.76606011       3.63997479      18.64364185  T        1        1       0.02878460      -0.01993942      -0.02901999
O        2.70115705       2.48817659      20.03348370  T        1        1       0.02783877       0.00973314      -0.05231181
O       -1.29119392       2.20508741      22.67966288  T        1        1       0.01938030       0.00923874      -0.04232995
Si       7.23815181       0.00000000      12.00000000  F        0        2      -0.13342119      -0.36649565      -1.70547368
Si       3.76227409       2.00679893      15.60606667  F        0        2      -0.10503403       0.09621931       1.21699119
Si       6.22272410       2.25482548      13.80303333  F        0        2       0.02954478      -0.16082542       1.00992651
O        6.30416499       1.13103512      12.65233746  F        1        2      -0.50573174       0.21554290      -0.21670013
O        5.20877265       1.76346018      14.95372921  F        1        2       0.42751916      -0.24860075      -0.37389809
O        8.17066236       0.63242506      16.25840413  F        1        2      -0.15330920      -0.57736624       0.08539195
O        5.71021236       3.62919935      13.15069587  F        1        2       0.42685793       0.28538611       0.53820525
O        7.66922265       2.49816423      14.45537079  F        1        2       0.02338672       0.38491939      -0.71912670
O        3.84371499       3.13058929      16.75676254  F        1        2       0.05857209       0.34053430       0.17247508
Si       7.24651739      -0.00040749      17.46530430  T        0        1      -0.01760582      -0.00204924      -0.00967425
Si       3.70502262       1.85921565      21.16005141  T        0        1       0.00171514       0.03641863       0.02163248
Si       6.17900770       2.22603369      19.32169057  T        0        1       0.03502798       0.00703683      -0.00328287
O        6.31287295       1.16247143      18.08051903  T        1        1      -0.05406273      -0.01467312      -0.02056948
O        5.11889275       1.65090710      20.39474881  T        1        1       0.00026824      -0.00711214      -0.00916354
O        8.06994075       0.22939472      21.61830174  T        1        1       0.02950523       0.04514060      -0.00360371
O        5.71353827       3.62940944      18.62937780  T        1        1      -0.00739343       0.00139503      -0.00734848
O        7.61673566       2.44853451      20.04315734  T        1        1       0.02197160      -0.00226974       0.00563309
O        3.78465910       2.65998496      22.58105715  T        1        1       0.00738046       0.01197987       0.01367995
F        2.80683753       0.08335735      24.33342207  T        0        0       0.01366140      -0.01072129       0.01497537
H        2.89925989       0.20102173      23.34912155  T        0        0       0.00297338       0.01090318       0.00988970
O        4.16448877       2.39200250      25.34610826  T        0        0      -0.03473174       0.03222320       0.01689343
H        3.62529936       1.57671588      25.42566044  T        0        0      -0.00373987      -0.01077410      -0.01504496
H        4.08847089       2.61199905      24.38732357  T        0        0       0.01315190      -0.02349993      -0.01553558
41
Lattice="9.8418 0.0 0.0 -2.460449999999999 4.261624409482844 0.0 0.0 -0.0 34.16586254" Properties=species:S:1:pos:R:3:move_mask:L:1:spacegroup_kinds:I:1:tags:I:1:forces:R:3 surface=alpha_quartz_001 coadsorbate=H2O start=1 calculation_kind="Local coadsorbate relaxation; not a reaction path" host_atoms=36 energy=-289.4974806688208 pbc="T T F"
Si       2.31725181       0.00000000      12.00000000  F        0        2      -0.13440414      -0.36644765      -1.70769279
Si      -1.15862590       2.00679893      15.60606667  F        0        2      -0.13385237       0.05347231       1.23515746
Si       1.30182410       2.25482548      13.80303333  F        0        2       0.03187213      -0.15780408       1.00088993
O        1.38326499       1.13103512      12.65233746  F        1        2      -0.50572040       0.21784404      -0.21327798
O        0.28787265       1.76346018      14.95372921  F        1        2       0.44273034      -0.24517255      -0.37548531
O        3.24976236       0.63242506      16.25840413  F        1        2      -0.26811369      -0.61820163       0.21846101
O        0.78931236       3.62919935      13.15069587  F        1        2       0.42749972       0.28310424       0.54277548
O        2.74832265       2.49816423      14.45537079  F        1        2       0.01463191       0.38199335      -0.72179744
O       -1.07718501       3.13058929      16.75676254  F        1        2       0.05552272       0.40659149       0.20787333
Si       2.31367005       0.00987539      17.46775518  T        0        1       0.01190637       0.00020563      -0.00864698
Si      -1.24637842       1.70324668      21.11959130  T        0        1       0.00712396       0.00457807       0.00461084
Si       1.26304076       2.24528338      19.33018384  T        0        1      -0.01482894      -0.01905963      -0.00222723
O        1.37415713       1.16791988      18.09273779  T        1        1       0.00288034       0.01174157      -0.03464914
O        0.22773225       1.70322660      20.44433159  T        1        1      -0.04173183       0.00419822      -0.03326217
O        3.13272291       0.53549445      21.92459190  T        1        1      -0.02390474       0.00195847       0.01283628
O        0.76552870       3.63989333      18.64303317  T        1        1       0.02786811      -0.00785687      -0.02436447
O        2.70115822       2.49000221      20.03279040  T        1        1       0.01883019       0.00128327      -0.03568005
O       -1.28535692       2.21219869      22.67648269  T        1        1       0.01033113       0.00476459      -0.04355992
Si       7.23815181       0.00000000      12.00000000  F        0        2      -0.13328228      -0.36629360      -1.70388801
Si       3.76227409       2.00679893      15.60606667  F        0        2      -0.10574532       0.09458953       1.22281174
Si       6.22272410       2.25482548      13.80303333  F        0        2       0.02971028      -0.16094510       1.01319967
O        6.30416499       1.13103512      12.65233746  F        1        2      -0.50530560       0.21482220      -0.21779624
O        5.20877265       1.76346018      14.95372921  F        1        2       0.42853706      -0.24802168      -0.37663355
O        8.17066236       0.63242506      16.25840413  F        1        2      -0.15543962      -0.57695128       0.08658037
O        5.71021236       3.62919935      13.15069587  F        1        2       0.42612477       0.28593559       0.53663328
O        7.66922265       2.49816423      14.45537079  F        1        2       0.02239665       0.38545941      -0.72196766
O        3.84371499       3.13058929      16.75676254  F        1        2       0.05542267       0.33734711       0.16906135
Si       7.24562299       0.00014582      17.46538287  T        0        1      -0.00827529      -0.00469314      -0.02921133
Si       3.70450952       1.85697617      21.15823226  T        0        1       0.00871186       0.04575476       0.01978118
Si       6.17853483       2.22594517      19.31973499  T        0        1       0.02253313       0.00818667      -0.01240450
O        6.31088432       1.16336850      18.07778800  T        1        1      -0.04053771      -0.02148506      -0.02320556
O        5.11596224       1.64782312      20.38820360  T        1        1       0.01163136       0.00105890       0.01524195
O        8.07006039       0.23283341      21.62180339  T        1        1       0.02733411       0.05621728      -0.00620308
O        5.71344458       3.62981580      18.62857104  T        1        1      -0.01378295       0.01457121      -0.00344448
O        7.61663890       2.44919201      20.03994588  T        1        1       0.01131104      -0.00892965       0.01837426
O        3.79071956       2.65927431      22.57871652  T        1        1      -0.00059884      -0.00792418      -0.01106182
F        2.80892504       0.08582317      24.33145991  T        0        0       0.01861078      -0.00673940       0.00720964
H        2.90228209       0.20186517      23.34679379  T        0        0      -0.00365140       0.00559729       0.00823943
O        4.15218877       2.40303577      25.34615747  T        0        0      -0.04042288       0.04010577      -0.03224685
H        3.62117372       1.58195040      25.42392667  T        0        0      -0.00209371      -0.00343414      -0.01766152
H        4.07636687       2.62300436      24.38588858  T        0        0       0.01817108      -0.04142133       0.03663088
41
Lattice="9.8418 0.0 0.0 -2.460449999999999 4.261624409482844 0.0 0.0 -0.0 34.16586254" Properties=species:S:1:pos:R:3:move_mask:L:1:spacegroup_kinds:I:1:tags:I:1:forces:R:3 surface=alpha_quartz_001 coadsorbate=H2O start=1 calculation_kind="Local coadsorbate relaxation; not a reaction path" host_atoms=36 energy=-289.49858915017376 pbc="T T F"
Si       2.31725181       0.00000000      12.00000000  F        0        2      -0.13422090      -0.36628783      -1.70623443
Si      -1.15862590       2.00679893      15.60606667  F        0        2      -0.13394429       0.05401703       1.24044780
Si       1.30182410       2.25482548      13.80303333  F        0        2       0.03206013      -0.15787936       1.00414361
O        1.38326499       1.13103512      12.65233746  F        1        2      -0.50538697       0.21714542      -0.21437762
O        0.28787265       1.76346018      14.95372921  F        1        2       0.44356787      -0.24496973      -0.37799230
O        3.24976236       0.63242506      16.25840413  F        1        2      -0.26064920      -0.61394314       0.20583963
O        0.78931236       3.62919935      13.15069587  F        1        2       0.42685709       0.28364567       0.54124676
O        2.74832265       2.49816423      14.45537079  F        1        2       0.01387930       0.38241263      -0.72415402
O       -1.07718501       3.13058929      16.75676254  F        1        2       0.05352555       0.40942129       0.20705861
Si       2.31332720       0.01058992      17.46744726  T        0        1       0.01012161      -0.00577420      -0.02030064
Si      -1.24621429       1.70441450      21.11676489  T        0        1       0.01125455      -0.00014959       0.00596481
Si       1.26289417       2.24585269      19.32877147  T        0        1       0.00272698      -0.01062664      -0.01757944
O        1.37493278       1.17055073      18.08991547  T        1        1       0.00086514      -0.00196035      -0.03420405
O        0.22621778       1.70193674      20.43963168  T        1        1      -0.01584541       0.00096666      -0.02974221
O        3.13114687       0.53350579      21.92077882  T        1        1      -0.01519981       0.03356997       0.02723467
O        0.76487741       3.63996965      18.64202717  T        1        1       0.02335140       0.00782460      -0.01870008
O        2.70181238       2.49178342      20.02973569  T        1        1       0.00732351      -0.00987871      -0.01016384
O       -1.27922484       2.21551127      22.67230680  T        1        1       0.00104337       0.00989005      -0.02356114
Si       7.23815181       0.00000000      12.00000000  F        0        2      -0.13319253      -0.36616333      -1.70264995
Si       3.76227409       2.00679893      15.60606667  F        0        2      -0.10737446       0.09227902       1.22814211
Si       6.22272410       2.25482548      13.80303333  F        0        2       0.02992721      -0.16114395       1.01590875
O        6.30416499       1.13103512      12.65233746  F        1        2      -0.50503773       0.21429466      -0.21875316
O        5.20877265       1.76346018      14.95372921  F        1        2       0.42976454      -0.24739678      -0.37892692
O        8.17066236       0.63242506      16.25840413  F        1        2      -0.15926844      -0.57514531       0.08859835
O        5.71021236       3.62919935      13.15069587  F        1        2       0.42558928       0.28636515       0.53538108
O        7.66922265       2.49816423      14.45537079  F        1        2       0.02122941       0.38576230      -0.72464101
O        3.84371499       3.13058929      16.75676254  F        1        2       0.04644086       0.32331136       0.15516252
Si       7.24479078       0.00016755      17.46510365  T        0        1       0.00204948      -0.00238726      -0.03373008
Si       3.70336770       1.85683980      21.15663200  T        0        1       0.01407413       0.03605267       0.00484174
Si       6.17820356       2.22530371      19.31810473  T        0        1      -0.00101030       0.00415330      -0.01819931
O        6.30798190       1.16208191      18.07644374  T        1        1      -0.02432796      -0.01830212      -0.02515499
O        5.11311465       1.64539135      20.38319143  T        1        1       0.02402790       0.01268620       0.03739418
O        8.07256596       0.23434558      21.62121031  T        1        1       0.01542892       0.04374777       0.00073752
O        5.71339995       3.62930605      18.62727176  T        1        1      -0.01347615       0.02338049      -0.00024684
O        7.61683689       2.44886161      20.03676563  T        1        1      -0.00705602      -0.00693348       0.01915610
O        3.79371586       2.66053357      22.57620421  T        1        1      -0.00775563      -0.02383951      -0.02916336
F        2.81600407       0.08563733      24.33171575  T        0        0       0.02059306      -0.00125577      -0.00601151
H        2.90763014       0.20208938      23.34689011  T        0        0      -0.01058080      -0.00060404       0.00704621
O        4.13452677       2.41847726      25.34577122  T        0        0      -0.04281181       0.03953182      -0.06343145
H        3.61266928       1.59152775      25.42442461  T        0        0      -0.00030444      -0.00169865      -0.01601423
H        4.06158116       2.63247526      24.38292378  T        0        0       0.02174161      -0.04411830       0.06962811
41
Lattice="9.8418 0.0 0.0 -2.460449999999999 4.261624409482844 0.0 0.0 -0.0 34.16586254" Properties=species:S:1:pos:R:3:move_mask:L:1:spacegroup_kinds:I:1:tags:I:1:forces:R:3 surface=alpha_quartz_001 coadsorbate=H2O start=1 calculation_kind="Local coadsorbate relaxation; not a reaction path" host_atoms=36 energy=-289.49957015650693 pbc="T T F"
Si       2.31725181       0.00000000      12.00000000  F        0        2      -0.13408301      -0.36625600      -1.70558328
Si      -1.15862590       2.00679893      15.60606667  F        0        2      -0.13280413       0.05634238       1.24268239
Si       1.30182410       2.25482548      13.80303333  F        0        2       0.03250239      -0.15791490       1.00608874
O        1.38326499       1.13103512      12.65233746  F        1        2      -0.50534645       0.21677663      -0.21498267
O        0.28787265       1.76346018      14.95372921  F        1        2       0.44353558      -0.24513203      -0.37937618
O        3.24976236       0.63242506      16.25840413  F        1        2      -0.24688106      -0.60459217       0.18298541
O        0.78931236       3.62919935      13.15069587  F        1        2       0.42652780       0.28394309       0.54044971
O        2.74832265       2.49816423      14.45537079  F        1        2       0.01336196       0.38273533      -0.72573826
O       -1.07718501       3.13058929      16.75676254  F        1        2       0.04867127       0.40433382       0.20161791
Si       2.31352615       0.01079464      17.46666720  T        0        1       0.00636326      -0.00968236      -0.02387691
Si      -1.24552815       1.70552385      21.11263826  T        0        1       0.01262998      -0.00098549       0.00829862
Si       1.26362527       2.24606955      19.32650208  T        0        1       0.02187053       0.00066610      -0.03524071
O        1.37583031       1.17195384      18.08706663  T        1        1      -0.00252082      -0.01086986      -0.03060031
O        0.22550968       1.70199383      20.43456531  T        1        1       0.00901790      -0.00222842      -0.02538921
O        3.12857800       0.53506538      21.91984488  T        1        1      -0.00563157       0.06025483       0.03437535
O        0.76583411       3.63972344      18.63968325  T        1        1       0.01999740       0.02088804      -0.00990478
O        2.70343550       2.49289037      20.02572554  T        1        1      -0.00367286      -0.01715901       0.01215001
O       -1.27425787       2.21700659      22.66732248  T        1        1      -0.00605253       0.01863392      -0.00109462
Si       7.23815181       0.00000000      12.00000000  F        0        2      -0.13320657      -0.36618036      -1.70234597
Si       3.76227409       2.00679893      15.60606667  F        0        2      -0.10962990       0.08925345       1.23162362
Si       6.22272410       2.25482548      13.80303333  F        0        2       0.02988032      -0.16137126       1.01698285
O        6.30416499       1.13103512      12.65233746  F        1        2      -0.50503058       0.21420190      -0.21915835
O        5.20877265       1.76346018      14.95372921  F        1        2       0.43093784      -0.24687655      -0.38018612
O        8.17066236       0.63242506      16.25840413  F        1        2      -0.16338883      -0.57054810       0.08926992
O        5.71021236       3.62919935      13.15069587  F        1        2       0.42550350       0.28653633       0.53499210
O        7.66922265       2.49816423      14.45537079  F        1        2       0.02046699       0.38580259      -0.72603091
O        3.84371499       3.13058929      16.75676254  F        1        2       0.03260695       0.30232953       0.13346472
Si       7.24374438       0.00020731      17.46430534  T        0        1       0.00845570       0.00212876      -0.02200021
Si       3.70255665       1.85890156      21.15597113  T        0        1       0.01609665       0.01421176      -0.01301309
Si       6.17735799       2.22475607      19.31659203  T        0        1      -0.02007543      -0.00113906      -0.02070597
O        6.30405675       1.15957168      18.07599288  T        1        1      -0.01079863      -0.00435222      -0.02524976
O        5.11165520       1.64454043      20.38135727  T        1        1       0.03442009       0.02134100       0.04935233
O        8.07674501       0.23519886      21.61746498  T        1        1       0.00020923       0.02115630       0.01072953
O        5.71250773       3.62883483      18.62595741  T        1        1      -0.00650980       0.02241448       0.00406702
O        7.61702547       2.44847326      20.03292665  T        1        1      -0.02217928      -0.00151120       0.01354015
O        3.79423430       2.66360078      22.57444196  T        1        1      -0.01227446      -0.03130359      -0.03360403
F        2.82177884       0.08374085      24.33440343  T        0        0       0.02070474       0.00236641      -0.01654142
H        2.91077243       0.20224706      23.34991931  T        0        0      -0.01450226      -0.00520725       0.00273614
O        4.12266699       2.42787973      25.34510033  T        0        0      -0.03823494       0.02931013      -0.06148277
H        3.60945984       1.59595711      25.42684496  T        0        0      -0.00246001      -0.00411570      -0.01080992
H        4.05455572       2.63204172      24.37971856  T        0        0       0.02152306      -0.02820123       0.06750894
41
Lattice="9.8418 0.0 0.0 -2.460449999999999 4.261624409482844 0.0 0.0 -0.0 34.16586254" Properties=species:S:1:pos:R:3:move_mask:L:1:spacegroup_kinds:I:1:tags:I:1:forces:R:3 surface=alpha_quartz_001 coadsorbate=H2O start=1 calculation_kind="Local coadsorbate relaxation; not a reaction path" host_atoms=36 energy=-289.50040563940274 pbc="T T F"
Si       2.31725181       0.00000000      12.00000000  F        0        2      -0.13401812      -0.36635359      -1.70584374
Si      -1.15862590       2.00679893      15.60606667  F        0        2      -0.13110437       0.05882661       1.24160422
Si       1.30182410       2.25482548      13.80303333  F        0        2       0.03299469      -0.15787045       1.00634386
O        1.38326499       1.13103512      12.65233746  F        1        2      -0.50556858       0.21679140      -0.21496722
O        0.28787265       1.76346018      14.95372921  F        1        2       0.44270491      -0.24545265      -0.37955828
O        3.24976236       0.63242506      16.25840413  F        1        2      -0.23098996      -0.59384966       0.15735096
O        0.78931236       3.62919935      13.15069587  F        1        2       0.42655597       0.28396871       0.54052269
O        2.74832265       2.49816423      14.45537079  F        1        2       0.01318032       0.38288311      -0.72623454
O       -1.07718501       3.13058929      16.75676254  F        1        2       0.04043059       0.39179482       0.19157521
Si       2.31376450       0.01073899      17.46549670  T        0        1       0.00343770      -0.01004162      -0.01730583
Si      -1.24454495       1.70597240      21.10932065  T        0        1       0.01239134       0.00329938       0.00347592
Si       1.26448405       2.24597370      19.32355248  T        0        1       0.02876312       0.00827848      -0.04230613
O        1.37597219       1.17247111      18.08394058  T        1        1      -0.00490075      -0.01312829      -0.02460006
O        0.22534550       1.70235592      20.43007812  T        1        1       0.02611641      -0.00162883      -0.02272658
O        3.12577305       0.53890391      21.92038105  T        1        1      -0.00028675       0.06940733       0.03575187
O        0.76696476       3.63960164      18.63722773  T        1        1       0.01855558       0.02921342      -0.00227528
O        2.70499464       2.49291631      20.02144226  T        1        1      -0.01124442      -0.01743300       0.02277287
O       -1.27075394       2.21638164      22.66382584  T        1        1      -0.00904143       0.02726587       0.01458484
Si       7.23815181       0.00000000      12.00000000  F        0        2      -0.13330396      -0.36631472      -1.70291557
Si       3.76227409       2.00679893      15.60606667  F        0        2      -0.11144632       0.08690188       1.23241044
Si       6.22272410       2.25482548      13.80303333  F        0        2       0.02958629      -0.16160964       1.01642370
O        6.30416499       1.13103512      12.65233746  F        1        2      -0.50525258       0.21450928      -0.21898964
O        5.20877265       1.76346018      14.95372921  F        1        2       0.43169127      -0.24662122      -0.38024902
O        8.17066236       0.63242506      16.25840413  F        1        2      -0.16562517      -0.56418029       0.08740803
O        5.71021236       3.62919935      13.15069587  F        1        2       0.42584229       0.28643243       0.53544625
O        7.66922265       2.49816423      14.45537079  F        1        2       0.02031964       0.38564613      -0.72592340
O        3.84371499       3.13058929      16.75676254  F        1        2       0.02032210       0.28256653       0.11322117
Si       7.24305279       0.00014724      17.46336717  T        0        1       0.00852722       0.00624414      -0.00179996
Si       3.70192032       1.86196180      21.15544150  T        0        1       0.01431700      -0.00962948      -0.02814286
Si       6.17634688       2.22428354      19.31552783  T        0        1      -0.02427667      -0.00473491      -0.01642863
O        6.30055437       1.15663033      18.07641785  T        1        1      -0.00148530       0.01276300      -0.02365860
O        5.11145574       1.64518700      20.38217612  T        1        1       0.04150843       0.02440856       0.04767823
O        8.08124079       0.23498683      21.61335330  T        1        1      -0.01277884      -0.00064046       0.01923615
O        5.71185289       3.62844343      18.62473384  T        1        1       0.00097408       0.01547503       0.00735206
O        7.61676745       2.44807300      20.03055376  T        1        1      -0.02873793       0.00069580       0.00660146
O        3.79236662       2.66698400      22.57289865  T        1        1      -0.01323793      -0.02618861      -0.02229098
F        2.82798371       0.08054238      24.33713962  T        0        0       0.01753836       0.00433286      -0.01870974
H        2.91327176       0.20186896      23.35325061  T        0        0      -0.01493383      -0.00629821      -0.00397446
O        4.11315423       2.43428447      25.34459351  T        0        0      -0.02350200       0.02199393      -0.02597742
H        3.60582658       1.59950820      25.42942834  T        0        0      -0.00846103      -0.01443214      -0.00768583
H        4.05293435       2.62848499      24.37751020  T        0        0       0.01443862      -0.00729091       0.03280384
41
Lattice="9.8418 0.0 0.0 -2.460449999999999 4.261624409482844 0.0 0.0 -0.0 34.16586254" Properties=species:S:1:pos:R:3:move_mask:L:1:spacegroup_kinds:I:1:tags:I:1:forces:R:3 surface=alpha_quartz_001 coadsorbate=H2O start=1 calculation_kind="Local coadsorbate relaxation; not a reaction path" host_atoms=36 energy=-289.5011869006177 pbc="T T F"
Si       2.31725181       0.00000000      12.00000000  F        0        2      -0.13400247      -0.36651525      -1.70667294
Si      -1.15862590       2.00679893      15.60606667  F        0        2      -0.12959832       0.06017755       1.23779184
Si       1.30182410       2.25482548      13.80303333  F        0        2       0.03360791      -0.15776359       1.00535849
O        1.38326499       1.13103512      12.65233746  F        1        2      -0.50595077       0.21705019      -0.21453644
O        0.28787265       1.76346018      14.95372921  F        1        2       0.44135692      -0.24574047      -0.37881645
O        3.24976236       0.63242506      16.25840413  F        1        2      -0.21293116      -0.58208239       0.12836252
O        0.78931236       3.62919935      13.15069587  F        1        2       0.42678917       0.28380338       0.54116457
O        2.74832265       2.49816423      14.45537079  F        1        2       0.01316010       0.38291570      -0.72603436
O       -1.07718501       3.13058929      16.75676254  F        1        2       0.03043935       0.37364818       0.17912515
Si       2.31422079       0.01029093      17.46406302  T        0        1       0.00177225      -0.00632361      -0.00587906
Si      -1.24347725       1.70681851      21.10658865  T        0        1       0.01194665       0.00717985      -0.00115586
Si       1.26585460       2.24568258      19.31998641  T        0        1       0.02072497       0.01120934      -0.03795008
O        1.37593268       1.17213222      18.08075820  T        1        1      -0.00652288      -0.00834068      -0.01603093
O        0.22545109       1.70283521      20.42542231  T        1        1       0.02815365       0.00151491      -0.01630099
O        3.12337332       0.54385350      21.92182953  T        1        1      -0.00044304       0.05917779       0.03229948
O        0.76881319       3.63963964      18.63449074  T        1        1       0.01956783       0.03218465       0.00516544
O        2.70633163       2.49226122      20.01786096  T        1        1      -0.01464897      -0.01229122       0.01967085
O       -1.26799779       2.21658325      22.66126116  T        1        1      -0.00886553       0.03126482       0.01441782
Si       7.23815181       0.00000000      12.00000000  F        0        2      -0.13343866      -0.36649256      -1.70391470
Si       3.76227409       2.00679893      15.60606667  F        0        2      -0.11252165       0.08496199       1.23166654
Si       6.22272410       2.25482548      13.80303333  F        0        2       0.02899630      -0.16184199       1.01502540
O        6.30416499       1.13103512      12.65233746  F        1        2      -0.50553873       0.21499542      -0.21849880
O        5.20877265       1.76346018      14.95372921  F        1        2       0.43208994      -0.24651551      -0.37980225
O        8.17066236       0.63242506      16.25840413  F        1        2      -0.16628719      -0.55686326       0.08393480
O        5.71021236       3.62919935      13.15069587  F        1        2       0.42637826       0.28621546       0.53631972
O        7.66922265       2.49816423      14.45537079  F        1        2       0.02075951       0.38553781      -0.72479804
O        3.84371499       3.13058929      16.75676254  F        1        2       0.01120207       0.26786570       0.09812616
Si       7.24241579       0.00037865      17.46246129  T        0        1       0.00389710       0.00731667       0.01565570
Si       3.70177045       1.86476148      21.15466660  T        0        1       0.01138347      -0.02451922      -0.03125816
Si       6.17501083       2.22411453      19.31433689  T        0        1      -0.01339666      -0.00378598      -0.00891324
O        6.29721052       1.15444370      18.07638914  T        1        1       0.00536308       0.02797797      -0.01967256
O        5.11237907       1.64663879      20.38426970  T        1        1       0.04275826       0.02097740       0.03725726
O        8.08511835       0.23527022      21.61079964  T        1        1      -0.01930320      -0.01009677       0.02159950
O        5.71119833       3.62867270      18.62375457  T        1        1       0.00502190       0.00629040       0.01093465
O        7.61590156       2.44810286      20.02881144  T        1        1      -0.02342708      -0.00290780       0.00338167
O        3.79031743       2.66981949      22.57136073  T        1        1      -0.01205656      -0.01373224      -0.00343594
F        2.83233392       0.07739233      24.33905019  T        0        0       0.01375812       0.00448580      -0.01137751
H        2.91413249       0.20130683      23.35586290  T        0        0      -0.01273317      -0.00394198      -0.01290756
O        4.10648001       2.43779313      25.34449847  T        0        0      -0.00996291       0.00950403       0.02346345
H        3.60405193       1.60048746      25.43115325  T        0        0      -0.01190788      -0.01827955      -0.00757732
H        4.05559381       2.62355445      24.37648724  T        0        0       0.00440999       0.01177907      -0.01518784
41
Lattice="9.8418 0.0 0.0 -2.460449999999999 4.261624409482844 0.0 0.0 -0.0 34.16586254" Properties=species:S:1:pos:R:3:move_mask:L:1:spacegroup_kinds:I:1:tags:I:1:forces:R:3 surface=alpha_quartz_001 coadsorbate=H2O start=1 calculation_kind="Local coadsorbate relaxation; not a reaction path" host_atoms=36 energy=-289.50189042714726 pbc="T T F"
Si       2.31725181       0.00000000      12.00000000  F        0        2      -0.13401283      -0.36666944      -1.70761800
Si      -1.15862590       2.00679893      15.60606667  F        0        2      -0.12885148       0.05927174       1.23299613
Si       1.30182410       2.25482548      13.80303333  F        0        2       0.03409292      -0.15763628       1.00389315
O        1.38326499       1.13103512      12.65233746  F        1        2      -0.50631120       0.21736532      -0.21396189
O        0.28787265       1.76346018      14.95372921  F        1        2       0.43999722      -0.24576433      -0.37787184
O        3.24976236       0.63242506      16.25840413  F        1        2      -0.19641763      -0.57228921       0.10218750
O        0.78931236       3.62919935      13.15069587  F        1        2       0.42706033       0.28359819       0.54196620
O        2.74832265       2.49816423      14.45537079  F        1        2       0.01325284       0.38290197      -0.72547095
O       -1.07718501       3.13058929      16.75676254  F        1        2       0.02150827       0.35613295       0.16866198
Si       2.31452058       0.00989120      17.46266307  T        0        1       0.00145815      -0.00017569       0.00557164
Si      -1.24244067       1.70805825      21.10530354  T        0        1       0.01141144       0.00873833      -0.00796301
Si       1.26690472       2.24547739      19.31624319  T        0        1       0.00283029       0.00973389      -0.02197151
O        1.37547488       1.17194184      18.07727610  T        1        1      -0.00664648      -0.00063047      -0.00674465
O        0.22531824       1.70263816      20.42083418  T        1        1       0.01992906       0.00645883      -0.00908540
O        3.12142293       0.54798153      21.92244000  T        1        1      -0.00479489       0.03435350       0.02640532
O        0.77038493       3.64037906      18.63246644  T        1        1       0.01997480       0.03049920       0.00953932
O        2.70675838       2.49136209      20.01527683  T        1        1      -0.01245712      -0.00560558       0.00668007
O       -1.26508541       2.21878608      22.65987876  T        1        1      -0.00667545       0.03078820       0.00460941
Si       7.23815181       0.00000000      12.00000000  F        0        2      -0.13354979      -0.36663200      -1.70483248
Si       3.76227409       2.00679893      15.60606667  F        0        2      -0.11249741       0.08379369       1.23007845
Si       6.22272410       2.25482548      13.80303333  F        0        2       0.02830472      -0.16204162       1.01363380
O        6.30416499       1.13103512      12.65233746  F        1        2      -0.50575595       0.21542781      -0.21797718
O        5.20877265       1.76346018      14.95372921  F        1        2       0.43207888      -0.24649210      -0.37931081
O        8.17066236       0.63242506      16.25840413  F        1        2      -0.16540471      -0.55083883       0.08028392
O        5.71021236       3.62919935      13.15069587  F        1        2       0.42686654       0.28601006       0.53715045
O        7.66922265       2.49816423      14.45537079  F        1        2       0.02153790       0.38561328      -0.72334312
O        3.84371499       3.13058929      16.75676254  F        1        2       0.00778666       0.26121363       0.09211540
Si       7.24204213       0.00073194      17.46190036  T        0        1      -0.00240113       0.00559415       0.02225122
Si       3.70181532       1.86610664      21.15299792  T        0        1       0.00797520      -0.02516359      -0.02241773
Si       6.17388336       2.22408496      19.31306229  T        0        1       0.00519234       0.00110763       0.00100065
O        6.29471937       1.15352292      18.07555207  T        1        1       0.01153757       0.03571189      -0.01396780
O        5.11379228       1.64802629      20.38608941  T        1        1       0.03703855       0.01352620       0.02314316
O        8.08742889       0.23660406      21.61151644  T        1        1      -0.01888504      -0.00745798       0.01872737
O        5.71109732       3.62933180      18.62309342  T        1        1       0.00257458       0.00026890       0.01326877
O        7.61445576       2.44831413      20.02844714  T        1        1      -0.00940403      -0.00979440       0.00237328
O        3.78916332       2.67082847      22.56945341  T        1        1      -0.00987185       0.00238243       0.01489075
F        2.83704408       0.07571469      24.33877376  T        0        0       0.00933986       0.00369293      -0.00002716
H        2.91544298       0.20089566      23.35587380  T        0        0      -0.00997884       0.00034369      -0.01858874
O        4.09889651       2.44162421      25.34501209  T        0        0       0.00243097       0.00428331       0.06211894
H        3.59962140       1.60244355      25.43037510  T        0        0      -0.01392259      -0.02138845      -0.01014637
H        4.05839787       2.62283104      24.37666226  T        0        0      -0.00634066       0.01976824      -0.05224826
41
Lattice="9.8418 0.0 0.0 -2.460449999999999 4.261624409482844 0.0 0.0 -0.0 34.16586254" Properties=species:S:1:pos:R:3:move_mask:L:1:spacegroup_kinds:I:1:tags:I:1:forces:R:3 surface=alpha_quartz_001 coadsorbate=H2O start=1 calculation_kind="Local coadsorbate relaxation; not a reaction path" host_atoms=36 energy=-289.5024976196929 pbc="T T F"
Si       2.31725181       0.00000000      12.00000000  F        0        2      -0.13402006      -0.36675632      -1.70827350
Si      -1.15862590       2.00679893      15.60606667  F        0        2      -0.12903030       0.05624733       1.22861690
Si       1.30182410       2.25482548      13.80303333  F        0        2       0.03442217      -0.15755243       1.00267579
O        1.38326499       1.13103512      12.65233746  F        1        2      -0.50653798       0.21758006      -0.21351663
O        0.28787265       1.76346018      14.95372921  F        1        2       0.43900210      -0.24549351      -0.37716119
O        3.24976236       0.63242506      16.25840413  F        1        2      -0.18218210      -0.56451246       0.07931144
O        0.78931236       3.62919935      13.15069587  F        1        2       0.42722690       0.28345530       0.54255166
O        2.74832265       2.49816423      14.45537079  F        1        2       0.01335392       0.38293287      -0.72495906
O       -1.07718501       3.13058929      16.75676254  F        1        2       0.01726575       0.34459976       0.16450456
Si       2.31488973       0.00954751      17.46157617  T        0        1       0.00102744       0.00606230       0.01183976
Si      -1.24156510       1.71040366      21.10468479  T        0        1       0.00980596       0.00529825      -0.00922869
Si       1.26779795       2.24554840      19.31290697  T        0        1      -0.01350469       0.00706313      -0.00270496
O        1.37535286       1.17206601      18.07415920  T        1        1      -0.00657527       0.00694608       0.00185584
O        0.22476499       1.70204900      20.41612478  T        1        1       0.00592176       0.00989606       0.00003222
O        3.11999558       0.55017175      21.92208991  T        1        1      -0.00935255       0.00684339       0.01753317
O        0.77232779       3.64177578      18.63099967  T        1        1       0.01770143       0.02491616       0.01143422
O        2.70646639       2.49087068      20.01429698  T        1        1      -0.00502944      -0.00235165      -0.00855293
O       -1.26166086       2.22489473      22.65835908  T        1        1      -0.00436775       0.02577872      -0.00986666
Si       7.23815181       0.00000000      12.00000000  F        0        2      -0.13359679      -0.36668765      -1.70530195
Si       3.76227409       2.00679893      15.60606667  F        0        2      -0.11172166       0.08267466       1.22874651
Si       6.22272410       2.25482548      13.80303333  F        0        2       0.02763141      -0.16215995       1.01291717
O        6.30416499       1.13103512      12.65233746  F        1        2      -0.50580420       0.21563230      -0.21765320
O        5.20877265       1.76346018      14.95372921  F        1        2       0.43179038      -0.24639078      -0.37928905
O        8.17066236       0.63242506      16.25840413  F        1        2      -0.16373541      -0.54750258       0.07771306
O        5.71021236       3.62919935      13.15069587  F        1        2       0.42711358       0.28593884       0.53757852
O        7.66922265       2.49816423      14.45537079  F        1        2       0.02237820       0.38594844      -0.72219899
O        3.84371499       3.13058929      16.75676254  F        1        2       0.00812662       0.26121008       0.09341726
Si       7.24160063       0.00133974      17.46166482  T        0        1      -0.00660898       0.00262426       0.01614699
Si       3.70224544       1.86548593      21.15080619  T        0        1       0.00458573      -0.01194599      -0.00373043
Si       6.17303285       2.22427794      19.31143824  T        0        1       0.02053184       0.00820847       0.00896370
O        6.29281959       1.15437882      18.07321179  T        1        1       0.01799727       0.03497709      -0.00682233
O        5.11538905       1.64854374      20.38666653  T        1        1       0.02451508       0.00530469       0.01172808
O        8.08767461       0.24017479      21.61541771  T        1        1      -0.01260385       0.00432317       0.01234328
O        5.71089272       3.63052774      18.62298196  T        1        1      -0.00526818      -0.00073711       0.01477504
O        7.61278040       2.44877073      20.02824626  T        1        1       0.00842025      -0.01484590       0.00164730
O        3.79038057       2.66953510      22.56768888  T        1        1      -0.00857782       0.01532317       0.02328091
F        2.84026024       0.07679012      24.33675679  T        0        0       0.00649298       0.00158208       0.01092248
H        2.91627623       0.20114252      23.35355254  T        0        0      -0.00806860       0.00490872      -0.01914320
O        4.09211161       2.44489163      25.34594585  T        0        0       0.00360704      -0.00562613       0.07376572
H        3.59567527       1.60320475      25.42681320  T        0        0      -0.00914444      -0.01182576      -0.01226397
H        4.06000173       2.62592773      24.37759223  T        0        0      -0.01318769       0.01811281      -0.06363485
41
Lattice="9.8418 0.0 0.0 -2.460449999999999 4.261624409482844 0.0 0.0 -0.0 34.16586254" Properties=species:S:1:pos:R:3:move_mask:L:1:spacegroup_kinds:I:1:tags:I:1:forces:R:3 surface=alpha_quartz_001 coadsorbate=H2O start=1 calculation_kind="Local coadsorbate relaxation; not a reaction path" host_atoms=36 energy=-289.50296540217676 pbc="T T F"
Si       2.31725181       0.00000000      12.00000000  F        0        2      -0.13401285      -0.36676012      -1.70844086
Si      -1.15862590       2.00679893      15.60606667  F        0        2      -0.12969615       0.05238195       1.22611506
Si       1.30182410       2.25482548      13.80303333  F        0        2       0.03444399      -0.15754694       1.00220549
O        1.38326499       1.13103512      12.65233746  F        1        2      -0.50656600       0.21761781      -0.21334906
O        0.28787265       1.76346018      14.95372921  F        1        2       0.43860007      -0.24503576      -0.37706110
O        3.24976236       0.63242506      16.25840413  F        1        2      -0.17321431      -0.56020898       0.06459788
O        0.78931236       3.62919935      13.15069587  F        1        2       0.42724058       0.28344261       0.54272316
O        2.74832265       2.49816423      14.45537079  F        1        2       0.01347445       0.38303047      -0.72467431
O       -1.07718501       3.13058929      16.75676254  F        1        2       0.01944663       0.34351365       0.16874852
Si       2.31512287       0.00956609      17.46104914  T        0        1      -0.00058015       0.00962222       0.01190290
Si      -1.24090612       1.71300358      21.10477099  T        0        1       0.00677288       0.00015693      -0.00748841
Si       1.26802163       2.24601917      19.31069554  T        0        1      -0.01816706       0.00571467       0.01220821
O        1.37545086       1.17294595      18.07176307  T        1        1      -0.00658420       0.01004966       0.00733095
O        0.22383317       1.70119343      20.41228929  T        1        1      -0.00361514       0.01053943       0.00654945
O        3.11873871       0.54999926      21.92059626  T        1        1      -0.01044083      -0.01135921       0.00813808
O        0.77397055       3.64378987      18.63058627  T        1        1       0.01109426       0.01732794       0.00984613
O        2.70561768       2.49093050      20.01449403  T        1        1       0.00548748      -0.00454109      -0.01732553
O       -1.25820530       2.23296517      22.65674383  T        1        1      -0.00291739       0.01977059      -0.01763476
Si       7.23815181       0.00000000      12.00000000  F        0        2      -0.13357188      -0.36666048      -1.70524398
Si       3.76227409       2.00679893      15.60606667  F        0        2      -0.11068558       0.08167393       1.22793139
Si       6.22272410       2.25482548      13.80303333  F        0        2       0.02720041      -0.16217979       1.01300708
O        6.30416499       1.13103512      12.65233746  F        1        2      -0.50570882       0.21558909      -0.21760084
O        5.20877265       1.76346018      14.95372921  F        1        2       0.43133883      -0.24620357      -0.37967548
O        8.17066236       0.63242506      16.25840413  F        1        2      -0.16165793      -0.54779310       0.07677285
O        5.71021236       3.62919935      13.15069587  F        1        2       0.42708860       0.28599484       0.53753305
O        7.66922265       2.49816423      14.45537079  F        1        2       0.02295828       0.38637808      -0.72171582
O        3.84371499       3.13058929      16.75676254  F        1        2       0.01057829       0.26495343       0.09890192
Si       7.24126242       0.00185462      17.46172189  T        0        1      -0.00695136       0.00129334       0.00380202
Si       3.70270601       1.86344056      21.14864949  T        0        1       0.00109724       0.00573665       0.01311132
Si       6.17283357       2.22447668      19.31001251  T        0        1       0.02313470       0.01342886       0.01375412
O        6.29198834       1.15632850      18.07029842  T        1        1       0.02348160       0.02803821      -0.00016536
O        5.11666621       1.64801551      20.38604812  T        1        1       0.00922871       0.00050843       0.00582038
O        8.08615137       0.24491447      21.62086307  T        1        1      -0.00477806       0.01438218       0.00777831
O        5.71060257       3.63166423      18.62341683  T        1        1      -0.01441264       0.00281716       0.01433781
O        7.61143794       2.44902881      20.02837131  T        1        1       0.02170819      -0.01310381      -0.00238365
O        3.79302202       2.66629458      22.56654059  T        1        1      -0.00866151       0.02316828       0.02029629
F        2.84349745       0.08020434      24.33387407  T        0        0       0.00457407      -0.00075404       0.01345744
H        2.91764483       0.20202343      23.34969503  T        0        0      -0.00795296       0.00762032      -0.01119242
O        4.08533741       2.44847486      25.34695160  T        0        0      -0.00019324      -0.00805788       0.05235754
H        3.59059942       1.60469373      25.42123914  T        0        0      -0.00341492      -0.00258297      -0.01115228
H        4.05827185       2.63314576      24.37865758  T        0        0      -0.01516627       0.00803701      -0.04412350
41
Lattice="9.8418 0.0 0.0 -2.460449999999999 4.261624409482844 0.0 0.0 -0.0 34.16586254" Properties=species:S:1:pos:R:3:move_mask:L:1:spacegroup_kinds:I:1:tags:I:1:forces:R:3 surface=alpha_quartz_001 coadsorbate=H2O start=1 calculation_kind="Local coadsorbate relaxation; not a reaction path" host_atoms=36 energy=-289.50326695786197 pbc="T T F"
Si       2.31725181       0.00000000      12.00000000  F        0        2      -0.13399505      -0.36670783      -1.70822195
Si      -1.15862590       2.00679893      15.60606667  F        0        2      -0.13021763       0.04971691       1.22562719
Si       1.30182410       2.25482548      13.80303333  F        0        2       0.03429677      -0.15761107       1.00242436
O        1.38326499       1.13103512      12.65233746  F        1        2      -0.50646734       0.21752925      -0.21343053
O        0.28787265       1.76346018      14.95372921  F        1        2       0.43867011      -0.24467284      -0.37734788
O        3.24976236       0.63242506      16.25840413  F        1        2      -0.16958349      -0.55854615       0.05798204
O        0.78931236       3.62919935      13.15069587  F        1        2       0.42715224       0.28351049       0.54255480
O        2.74832265       2.49816423      14.45537079  F        1        2       0.01357014       0.38316147      -0.72467569
O       -1.07718501       3.13058929      16.75676254  F        1        2       0.02651597       0.35090536       0.17855366
Si       2.31537864       0.00975502      17.46109192  T        0        1      -0.00329874       0.00943932       0.00734394
Si      -1.24055570       1.71508140      21.10459194  T        0        1       0.00277072      -0.00349880      -0.00091762
Si       1.26808253       2.24672178      19.30999068  T        0        1      -0.01033948       0.00644364       0.01594039
O        1.37603453       1.17396503      18.07085476  T        1        1      -0.00749593       0.00888255       0.00882943
O        0.22307689       1.70084896      20.41004294  T        1        1      -0.00511202       0.00786866       0.00997333
O        3.11791973       0.54859031      21.91943892  T        1        1      -0.00723043      -0.01356539      -0.00025010
O        0.77550784       3.64560199      18.63071628  T        1        1       0.00319812       0.01040239       0.00705591
O        2.70506445       2.49138548      20.01544424  T        1        1       0.01357091      -0.00989201      -0.01717636
O       -1.25605308       2.24005075      22.65479628  T        1        1      -0.00261389       0.01547636      -0.01703086
Si       7.23815181       0.00000000      12.00000000  F        0        2      -0.13351067      -0.36660018      -1.70489620
Si       3.76227409       2.00679893      15.60606667  F        0        2      -0.11010972       0.08060474       1.22781484
Si       6.22272410       2.25482548      13.80303333  F        0        2       0.02705386      -0.16210685       1.01354926
O        6.30416499       1.13103512      12.65233746  F        1        2      -0.50556108       0.21541353      -0.21772292
O        5.20877265       1.76346018      14.95372921  F        1        2       0.43096093      -0.24596704      -0.38023204
O        8.17066236       0.63242506      16.25840413  F        1        2      -0.15968449      -0.55032467       0.07661423
O        5.71021236       3.62919935      13.15069587  F        1        2       0.42690449       0.28611677       0.53721617
O        7.66922265       2.49816423      14.45537079  F        1        2       0.02315678       0.38669426      -0.72182082
O        3.84371499       3.13058929      16.75676254  F        1        2       0.01188078       0.26853784       0.10329365
Si       7.24088826       0.00226988      17.46180446  T        0        1      -0.00403448       0.00207640      -0.00540197
Si       3.70321593       1.86136164      21.14758172  T        0        1      -0.00110026       0.01724855       0.02230014
Si       6.17300708       2.22473847      19.30906852  T        0        1       0.01371503       0.01453325       0.01381321
O        6.29195002       1.15857132      18.06770300  T        1        1       0.02503153       0.02053149       0.00406208
O        5.11746940       1.64690717      20.38504679  T        1        1      -0.00208121       0.00044122       0.00577150
O        8.08405541       0.24916205      21.62485937  T        1        1       0.00066906       0.01712820       0.00681539
O        5.70974293       3.63253236      18.62424998  T        1        1      -0.01941759       0.00694191       0.01330300
O        7.61099751       2.44903480      20.02781326  T        1        1       0.02561665      -0.00506307      -0.00804736
O        3.79586845       2.66305524      22.56649754  T        1        1      -0.01028359       0.02420024       0.00960737
F        2.84478312       0.08391429      24.33211056  T        0        0       0.00429831      -0.00269367       0.00924454
H        2.91798238       0.20304428      23.34690993  T        0        0      -0.00851881       0.00810170      -0.00085330
O        4.08120651       2.45116192      25.34748098  T        0        0      -0.01154596      -0.01479682       0.01622664
H        3.58846253       1.60515396      25.41666878  T        0        0       0.00406595       0.01048705      -0.00599311
H        4.05380219       2.63986689      24.37911252  T        0        0      -0.01089648      -0.00034716      -0.01189837
41
Lattice="9.8418 0.0 0.0 -2.460449999999999 4.261624409482844 0.0 0.0 -0.0 34.16586254" Properties=species:S:1:pos:R:3:move_mask:L:1:spacegroup_kinds:I:1:tags:I:1:forces:R:3 surface=alpha_quartz_001 coadsorbate=H2O start=1 calculation_kind="Local coadsorbate relaxation; not a reaction path" host_atoms=36 energy=-289.5034726929449 pbc="T T F"
Si       2.31725181       0.00000000      12.00000000  F        0        2      -0.13397822      -0.36665265      -1.70790958
Si      -1.15862590       2.00679893      15.60606667  F        0        2      -0.13019604       0.04879030       1.22632097
Si       1.30182410       2.25482548      13.80303333  F        0        2       0.03405341      -0.15769577       1.00292350
O        1.38326499       1.13103512      12.65233746  F        1        2      -0.50634181       0.21741582      -0.21358975
O        0.28787265       1.76346018      14.95372921  F        1        2       0.43887407      -0.24449605      -0.37779822
O        3.24976236       0.63242506      16.25840413  F        1        2      -0.16958016      -0.55845866       0.05718559
O        0.78931236       3.62919935      13.15069587  F        1        2       0.42705634       0.28359956       0.54229144
O        2.74832265       2.49816423      14.45537079  F        1        2       0.01366812       0.38327987      -0.72480200
O       -1.07718501       3.13058929      16.75676254  F        1        2       0.03406216       0.36076163       0.18849725
Si       2.31543515       0.01013189      17.46137086  T        0        1      -0.00596374       0.00710766       0.00282285
Si      -1.24032136       1.71598453      21.10432586  T        0        1      -0.00029243      -0.00288087       0.00275126
Si       1.26793168       2.24746484      19.31007591  T        0        1       0.00181266       0.00785561       0.01234466
O        1.37641380       1.17501528      18.07062338  T        1        1      -0.00827849       0.00513005       0.00740536
O        0.22272054       1.70085933      20.40920078  T        1        1      -0.00013917       0.00446882       0.01022619
O        3.11723638       0.54741773      21.91881803  T        1        1      -0.00243652      -0.00675521      -0.00504870
O        0.77635284       3.64708209      18.63123063  T        1        1      -0.00363794       0.00528510       0.00400261
O        2.70497372       2.49162951      20.01590989  T        1        1       0.01740006      -0.01354461      -0.01181054
O       -1.25513512       2.24412937      22.65319196  T        1        1      -0.00272814       0.01461741      -0.00902544
Si       7.23815181       0.00000000      12.00000000  F        0        2      -0.13345562      -0.36655530      -1.70457856
Si       3.76227409       2.00679893      15.60606667  F        0        2      -0.11004432       0.07985161       1.22785145
Si       6.22272410       2.25482548      13.80303333  F        0        2       0.02711529      -0.16200514       1.01402777
O        6.30416499       1.13103512      12.65233746  F        1        2      -0.50546550       0.21526546      -0.21785450
O        5.20877265       1.76346018      14.95372921  F        1        2       0.43071595      -0.24579038      -0.38058224
O        8.17066236       0.63242506      16.25840413  F        1        2      -0.15783224      -0.55309150       0.07602931
O        5.71021236       3.62919935      13.15069587  F        1        2       0.42673733       0.28620359       0.53692721
O        7.66922265       2.49816423      14.45537079  F        1        2       0.02308532       0.38679402      -0.72212351
O        3.84371499       3.13058929      16.75676254  F        1        2       0.01206834       0.27084238       0.10536335
Si       7.24065421       0.00247625      17.46181835  T        0        1      -0.00074540       0.00400949      -0.00703592
Si       3.70348451       1.86029143      21.14739363  T        0        1      -0.00158562       0.01884020       0.02139161
Si       6.17338572       2.22500565      19.30880274  T        0        1       0.00092606       0.01208486       0.01206386
O        6.29255795       1.16024855      18.06628102  T        1        1       0.02230433       0.01570459       0.00525043
O        5.11787842       1.64606558      20.38450657  T        1        1      -0.00732699       0.00315414       0.00785047
O        8.08262784       0.25161201      21.62670302  T        1        1       0.00214132       0.01201703       0.00922522
O        5.70877154       3.63298328      18.62510863  T        1        1      -0.01932897       0.00890658       0.01211614
O        7.61132725       2.44870957      20.02712650  T        1        1       0.02179440       0.00495399      -0.01356545
O        3.79734499       2.66123835      22.56688388  T        1        1      -0.01209416       0.02305493       0.00053734
F        2.84617870       0.08619458      24.33161851  T        0        0       0.00365138      -0.00322400       0.00117627
H        2.91829230       0.20383817      23.34566514  T        0        0      -0.00870079       0.00681565       0.00863607
O        4.07775424       2.45386172      25.34758547  T        0        0      -0.01737540      -0.01144133      -0.01945136
H        3.58674394       1.60645748      25.41422060  T        0        0       0.00527026       0.01136786       0.00029932
H        4.04820469       2.64490480      24.37887602  T        0        0      -0.00520915      -0.00558676       0.01965828
41
Lattice="9.8418 0.0 0.0 -2.460449999999999 4.261624409482844 0.0 0.0 -0.0 34.16586254" Properties=species:S:1:pos:R:3:move_mask:L:1:spacegroup_kinds:I:1:tags:I:1:forces:R:3 surface=alpha_quartz_001 coadsorbate=H2O start=1 calculation_kind="Local coadsorbate relaxation; not a reaction path" host_atoms=36 energy=-289.50368711168585 pbc="T T F"
Si       2.31725181       0.00000000      12.00000000  F        0        2      -0.13396139      -0.36660436      -1.70760815
Si      -1.15862590       2.00679893      15.60606667  F        0        2      -0.12971899       0.04897962       1.22723377
Si       1.30182410       2.25482548      13.80303333  F        0        2       0.03384272      -0.15779129       1.00346925
O        1.38326499       1.13103512      12.65233746  F        1        2      -0.50623765       0.21731421      -0.21375287
O        0.28787265       1.76346018      14.95372921  F        1        2       0.43899684      -0.24445256      -0.37822358
O        3.24976236       0.63242506      16.25840413  F        1        2      -0.16972216      -0.55760148       0.05610051
O        0.78931236       3.62919935      13.15069587  F        1        2       0.42697143       0.28367603       0.54202944
O        2.74832265       2.49816423      14.45537079  F        1        2       0.01374685       0.38341395      -0.72503152
O       -1.07718501       3.13058929      16.75676254  F        1        2       0.04148187       0.37040709       0.19782424
Si       2.31548928       0.01051954      17.46165873  T        0        1      -0.00815518       0.00378110      -0.00100364
Si      -1.24004000       1.71660532      21.10345380  T        0        1      -0.00310397       0.00025460       0.00699540
Si       1.26811244       2.24830257      19.31020087  T        0        1       0.01338925       0.00856694       0.00548833
O        1.37674761       1.17589271      18.07061124  T        1        1      -0.00892103       0.00126360       0.00489951
O        0.22269173       1.70128786      20.40849054  T        1        1       0.00701685       0.00096321       0.01085823
O        3.11659634       0.54699370      21.91893487  T        1        1       0.00281398       0.00346085      -0.00872652
O        0.77740916       3.64846998      18.63152142  T        1        1      -0.00950343       0.00052224       0.00180098
O        2.70552038       2.49150542      20.01585041  T        1        1       0.01745961      -0.01410582      -0.00518311
O       -1.25469824       2.24743751      22.65116886  T        1        1      -0.00302366       0.01447754      -0.00024041
Si       7.23815181       0.00000000      12.00000000  F        0        2      -0.13341128      -0.36653154      -1.70434403
Si       3.76227409       2.00679893      15.60606667  F        0        2      -0.11034946       0.07896375       1.22798094
Si       6.22272410       2.25482548      13.80303333  F        0        2       0.02720239      -0.16188106       1.01438696
O        6.30416499       1.13103512      12.65233746  F        1        2      -0.50540677       0.21516181      -0.21795042
O        5.20877265       1.76346018      14.95372921  F        1        2       0.43056415      -0.24562543      -0.38085034
O        8.17066236       0.63242506      16.25840413  F        1        2      -0.15566975      -0.55543286       0.07425864
O        5.71021236       3.62919935      13.15069587  F        1        2       0.42661122       0.28626880       0.53670464
O        7.66922265       2.49816423      14.45537079  F        1        2       0.02294036       0.38677914      -0.72242670
O        3.84371499       3.13058929      16.75676254  F        1        2       0.01111988       0.27302271       0.10589223
Si       7.24026929       0.00282893      17.46168057  T        0        1       0.00187260       0.00581154      -0.00324775
Si       3.70380841       1.86006577      21.14780415  T        0        1      -0.00104181       0.01436870       0.01628406
Si       6.17361015       2.22554592      19.30872733  T        0        1      -0.01078441       0.00793463       0.00900131
O        6.29330209       1.16205985      18.06512183  T        1        1       0.01572166       0.01243175       0.00499091
O        5.11832124       1.64558319      20.38451557  T        1        1      -0.00770918       0.00658590       0.00980968
O        8.08184537       0.25352399      21.62746768  T        1        1       0.00202742       0.00502790       0.01197378
O        5.70720804       3.63357928      18.62615643  T        1        1      -0.01583322       0.00837227       0.01174962
O        7.61216421       2.44839273      20.02561779  T        1        1       0.01413139       0.01498280      -0.01702040
O        3.79812060       2.66080701      22.56741349  T        1        1      -0.01425926       0.02082823      -0.00685118
F        2.84698181       0.08726580      24.33204548  T        0        0       0.00272378      -0.00295079      -0.00498720
H        2.91771871       0.20441413      23.34566952  T        0        0      -0.00741862       0.00514571       0.01448535
O        4.07410699       2.45702634      25.34740564  T        0        0      -0.02284406      -0.01275551      -0.04328580
H        3.58649736       1.60746401      25.41327539  T        0        0       0.00584409       0.01294587       0.00622920
H        4.04181235       2.64855255      24.37827249  T        0        0       0.00059692      -0.00597979       0.04028662
41
Lattice="9.8418 0.0 0.0 -2.460449999999999 4.261624409482844 0.0 0.0 -0.0 34.16586254" Properties=species:S:1:pos:R:3:move_mask:L:1:spacegroup_kinds:I:1:tags:I:1:forces:R:3 surface=alpha_quartz_001 coadsorbate=H2O start=1 calculation_kind="Local coadsorbate relaxation; not a reaction path" host_atoms=36 energy=-289.50399385871674 pbc="T T F"
Si       2.31725181       0.00000000      12.00000000  F        0        2      -0.13394217      -0.36655449      -1.70727098
Si      -1.15862590       2.00679893      15.60606667  F        0        2      -0.12865595       0.05001268       1.22850790
Si       1.30182410       2.25482548      13.80303333  F        0        2       0.03357360      -0.15791652       1.00415213
O        1.38326499       1.13103512      12.65233746  F        1        2      -0.50612426       0.21719902      -0.21393601
O        0.28787265       1.76346018      14.95372921  F        1        2       0.43900198      -0.24446872      -0.37881770
O        3.24976236       0.63242506      16.25840413  F        1        2      -0.17007809      -0.55562153       0.05435562
O        0.78931236       3.62919935      13.15069587  F        1        2       0.42687317       0.28377146       0.54172790
O        2.74832265       2.49816423      14.45537079  F        1        2       0.01382884       0.38360935      -0.72542235
O       -1.07718501       3.13058929      16.75676254  F        1        2       0.04924887       0.38048828       0.20742483
Si       2.31531246       0.01115305      17.46190210  T        0        1      -0.00930285      -0.00059817      -0.00394326
Si      -1.23947777       1.71711981      21.10220418  T        0        1      -0.00512731       0.00732903       0.00779784
Si       1.26849905       2.24947909      19.30992860  T        0        1       0.02252447       0.00724508      -0.00250577
O        1.37649405       1.17697132      18.07017927  T        1        1      -0.00804686      -0.00318188       0.00098959
O        0.22298795       1.70197095      20.40748581  T        1        1       0.01583665      -0.00193545       0.01255526
O        3.11557337       0.54768322      21.91941973  T        1        1       0.00813445       0.01420905      -0.01051936
O        0.77859445       3.65041459      18.63177500  T        1        1      -0.01589405      -0.00564043      -0.00039694
O        2.70679551       2.49056187      20.01457253  T        1        1       0.01444714      -0.00929510       0.00253295
O       -1.25412818       2.25114847      22.64856620  T        1        1      -0.00328178       0.01444728       0.01056143
Si       7.23815181       0.00000000      12.00000000  F        0        2      -0.13336563      -0.36651666      -1.70412143
Si       3.76227409       2.00679893      15.60606667  F        0        2      -0.11085891       0.07806456       1.22805366
Si       6.22272410       2.25482548      13.80303333  F        0        2       0.02731158      -0.16171546       1.01472467
O        6.30416499       1.13103512      12.65233746  F        1        2      -0.50536601       0.21507862      -0.21803670
O        5.20877265       1.76346018      14.95372921  F        1        2       0.43043075      -0.24548148      -0.38105888
O        8.17066236       0.63242506      16.25840413  F        1        2      -0.15285666      -0.55808731       0.07119842
O        5.71021236       3.62919935      13.15069587  F        1        2       0.42650355       0.28632167       0.53648983
O        7.66922265       2.49816423      14.45537079  F        1        2       0.02273342       0.38666138      -0.72275163
O        3.84371499       3.13058929      16.75676254  F        1        2       0.01063383       0.27814678       0.10738120
Si       7.23973548       0.00344053      17.46146309  T        0        1       0.00324400       0.00706256       0.00540928
Si       3.70412837       1.86083869      21.14860802  T        0        1       0.00060124       0.00488893       0.00472074
Si       6.17378039       2.22659613      19.30898328  T        0        1      -0.01992102       0.00187641       0.00474870
O        6.29460032       1.16461678      18.06407976  T        1        1       0.00335855       0.00831071       0.00318198
O        5.11907871       1.64575540      20.38541622  T        1        1      -0.00418983       0.01003816       0.01096432
O        8.08175997       0.25543237      21.62824520  T        1        1       0.00111598      -0.00286730       0.01467100
O        5.70485798       3.63455814      18.62773246  T        1        1      -0.00934040       0.00574865       0.01129429
O        7.61364154       2.44809950      20.02341345  T        1        1       0.00258201       0.02512522      -0.01765829
O        3.79773840       2.66215960      22.56774285  T        1        1      -0.01636156       0.01855141      -0.01186665
F        2.84909809       0.08714688      24.33288817  T        0        0      -0.00020223      -0.00130862      -0.01011316
H        2.91699433       0.20493692      23.34626053  T        0        0      -0.00377912       0.00288196       0.01878156
O        4.06744554       2.46203976      25.34718806  T        0        0      -0.01947280      -0.00496380      -0.05980301
H        3.58497543       1.60980139      25.41309963  T        0        0       0.00034224       0.00402413       0.01118439
H        4.03402915       2.65254158      24.37744867  T        0        0       0.00384115      -0.00493947       0.05481266
41
Lattice="9.8418 0.0 0.0 -2.460449999999999 4.261624409482844 0.0 0.0 -0.0 34.16586254" Properties=species:S:1:pos:R:3:move_mask:L:1:spacegroup_kinds:I:1:tags:I:1:forces:R:3 surface=alpha_quartz_001 coadsorbate=H2O start=1 calculation_kind="Local coadsorbate relaxation; not a reaction path" host_atoms=36 energy=-289.5043400598187 pbc="T T F"
Si       2.31725181       0.00000000      12.00000000  F        0        2      -0.13392370      -0.36650613      -1.70696842
Si      -1.15862590       2.00679893      15.60606667  F        0        2      -0.12737523       0.05146860       1.22960533
Si       1.30182410       2.25482548      13.80303333  F        0        2       0.03341230      -0.15803911       1.00475626
O        1.38326499       1.13103512      12.65233746  F        1        2      -0.50603561       0.21709211      -0.21409664
O        0.28787265       1.76346018      14.95372921  F        1        2       0.43882274      -0.24451346      -0.37937444
O        3.24976236       0.63242506      16.25840413  F        1        2      -0.16973431      -0.55193054       0.05030275
O        0.78931236       3.62919935      13.15069587  F        1        2       0.42676278       0.28385691       0.54145689
O        2.74832265       2.49816423      14.45537079  F        1        2       0.01381981       0.38384003      -0.72598406
O       -1.07718501       3.13058929      16.75676254  F        1        2       0.05457950       0.38650764       0.21365755
Si       2.31500775       0.01175223      17.46194865  T        0        1      -0.00764048      -0.00442365      -0.00538067
Si      -1.23870974       1.71796742      21.10046656  T        0        1      -0.00572716       0.01527300       0.00788529
Si       1.26949966       2.25073328      19.30899108  T        0        1       0.02172574       0.00230973      -0.00718867
O        1.37566238       1.17766906      18.06937904  T        1        1      -0.00499075      -0.00521000      -0.00246905
O        0.22371529       1.70294513      20.40600236  T        1        1       0.02088352      -0.00258877       0.01684418
O        3.11461901       0.54986733      21.92053186  T        1        1       0.01077739       0.01948838      -0.01011165
O        0.78011704       3.65240002      18.63149949  T        1        1      -0.02013893      -0.01188961      -0.00087631
O        2.70887452       2.48880237      20.01225420  T        1        1       0.00757182       0.00153194       0.00650719
O       -1.25341164       2.25559525      22.64556766  T        1        1      -0.00348206       0.01235985       0.01511961
Si       7.23815181       0.00000000      12.00000000  F        0        2      -0.13332582      -0.36650115      -1.70390012
Si       3.76227409       2.00679893      15.60606667  F        0        2      -0.11129737       0.07734064       1.22828357
Si       6.22272410       2.25482548      13.80303333  F        0        2       0.02731250      -0.16154141       1.01508216
O        6.30416499       1.13103512      12.65233746  F        1        2      -0.50530969       0.21500404      -0.21812170
O        5.20877265       1.76346018      14.95372921  F        1        2       0.43037131      -0.24539423      -0.38131363
O        8.17066236       0.63242506      16.25840413  F        1        2      -0.15073263      -0.56074712       0.06853273
O        5.71021236       3.62919935      13.15069587  F        1        2       0.42641173       0.28638578       0.53626867
O        7.66922265       2.49816423      14.45537079  F        1        2       0.02259811       0.38653013      -0.72302013
O        3.84371499       3.13058929      16.75676254  F        1        2       0.01160235       0.28783025       0.11135101
Si       7.23893420       0.00449741      17.46126322  T        0        1       0.00207422       0.00591663       0.01367973
Si       3.70462202       1.86260054      21.14970991  T        0        1       0.00249861      -0.00422748      -0.00687673
Si       6.17357961       2.22823456      19.30937392  T        0        1      -0.01949163      -0.00320465      -0.00041039
O        6.29593136       1.16801490      18.06291327  T        1        1      -0.01252340       0.00238122       0.00068938
O        5.12026570       1.64681061      20.38727583  T        1        1       0.00391429       0.01091722       0.01017015
O        8.08254625       0.25750329      21.62938592  T        1        1       0.00135187      -0.00346189       0.01346293
O        5.70175206       3.63613307      18.62977038  T        1        1      -0.00237645       0.00218666       0.01096533
O        7.61546176       2.44835375      20.02034068  T        1        1      -0.00801295       0.02956680      -0.01158439
O        3.79633748       2.66573544      22.56765903  T        1        1      -0.01779383       0.01532685      -0.01419268
F        2.85079458       0.08553805      24.33393826  T        0        0      -0.00407622       0.00125300      -0.00767186
H        2.91517159       0.20513798      23.34749837  T        0        0       0.00261520       0.00160722       0.01671963
O        4.05930091       2.46770155      25.34700999  T        0        0      -0.01300954      -0.00563612      -0.04839456
H        3.58412023       1.61166026      25.41394028  T        0        0      -0.00422724      -0.00009499       0.01164546
H        4.02716328       2.65544238      24.37689225  T        0        0       0.00211922      -0.00006431       0.04495030
41
Lattice="9.8418 0.0 0.0 -2.460449999999999 4.261624409482844 0.0 0.0 -0.0 34.16586254" Properties=species:S:1:pos:R:3:move_mask:L:1:spacegroup_kinds:I:1:tags:I:1:forces:R:3 surface=alpha_quartz_001 coadsorbate=H2O start=1 calculation_kind="Local coadsorbate relaxation; not a reaction path" host_atoms=36 energy=-289.5045957656087 pbc="T T F"
Si       2.31725181       0.00000000      12.00000000  F        0        2      -0.13391569      -0.36647354      -1.70680207
Si      -1.15862590       2.00679893      15.60606667  F        0        2      -0.12660812       0.05231892       1.23029941
Si       1.30182410       2.25482548      13.80303333  F        0        2       0.03335362      -0.15809728       1.00504898
O        1.38326499       1.13103512      12.65233746  F        1        2      -0.50597797       0.21701901      -0.21417654
O        0.28787265       1.76346018      14.95372921  F        1        2       0.43861182      -0.24448875      -0.37978743
O        3.24976236       0.63242506      16.25840413  F        1        2      -0.17029769      -0.54940835       0.04840144
O        0.78931236       3.62919935      13.15069587  F        1        2       0.42667068       0.28392080       0.54131192
O        2.74832265       2.49816423      14.45537079  F        1        2       0.01372992       0.38398528      -0.72644415
O       -1.07718501       3.13058929      16.75676254  F        1        2       0.05407711       0.38542006       0.21286918
Si       2.31445907       0.01219518      17.46177165  T        0        1      -0.00336796      -0.00532416      -0.00427942
Si      -1.23804345       1.71867569      21.09966018  T        0        1      -0.00296653       0.02033900       0.00270364
Si       1.27027672       2.25145839      19.30779704  T        0        1       0.01022700      -0.00399163      -0.00460879
O        1.37414527       1.17790814      18.06824648  T        1        1      -0.00006738      -0.00437663      -0.00364508
O        0.22460756       1.70349353      20.40515066  T        1        1       0.01853543       0.00021176       0.02022380
O        3.11405435       0.55258443      21.92124975  T        1        1       0.00859561       0.01428052      -0.00569640
O        0.78054747       3.65361069      18.63121814  T        1        1      -0.02003862      -0.01516367      -0.00013123
O        2.71060381       2.48697905      20.00961532  T        1        1       0.00121493       0.01322130       0.00437247
O       -1.25271371       2.25859101      22.64410921  T        1        1      -0.00343229       0.00983339       0.01338388
Si       7.23815181       0.00000000      12.00000000  F        0        2      -0.13330325      -0.36647239      -1.70369758
Si       3.76227409       2.00679893      15.60606667  F        0        2      -0.11115260       0.07769357       1.22850537
Si       6.22272410       2.25482548      13.80303333  F        0        2       0.02723247      -0.16145123       1.01539940
O        6.30416499       1.13103512      12.65233746  F        1        2      -0.50524029       0.21494152      -0.21820739
O        5.20877265       1.76346018      14.95372921  F        1        2       0.43036954      -0.24546058      -0.38147417
O        8.17066236       0.63242506      16.25840413  F        1        2      -0.15135981      -0.56319392       0.06955677
O        5.71021236       3.62919935      13.15069587  F        1        2       0.42634993       0.28643563       0.53608076
O        7.66922265       2.49816423      14.45537079  F        1        2       0.02258177       0.38646781      -0.72317483
O        3.84371499       3.13058929      16.75676254  F        1        2       0.01547510       0.29949823       0.11820346
Si       7.23840802       0.00539164      17.46137933  T        0        1      -0.00127108       0.00280879       0.01434157
Si       3.70489567       1.86457956      21.15031124  T        0        1       0.00362312      -0.00642560      -0.01422786
Si       6.17331999       2.22964059      19.30995373  T        0        1      -0.00889598      -0.00428967      -0.00351513
O        6.29690078       1.17058068      18.06246796  T        1        1      -0.02342852      -0.00393602      -0.00145307
O        5.12139703       1.64847913      20.38936960  T        1        1       0.01075697       0.00795214       0.00826830
O        8.08388429       0.25867269      21.63093978  T        1        1       0.00257551       0.00376453       0.00889789
O        5.69967539       3.63745086      18.63140656  T        1        1       0.00060272       0.00103437       0.00916063
O        7.61673467       2.44910117      20.01854139  T        1        1      -0.01109856       0.02495331      -0.00180910
O        3.79399791       2.67004852      22.56689033  T        1        1      -0.01698292       0.01311354      -0.01187390
F        2.85278698       0.08337165      24.33425947  T        0        0      -0.00803393       0.00367458      -0.00096828
H        2.91419140       0.20511485      23.34823383  T        0        0       0.00835269       0.00160533       0.01129733
O        4.05267776       2.47123496      25.34714288  T        0        0       0.00295722       0.00506012      -0.02183194
H        3.58190913       1.61336685      25.41495584  T        0        0      -0.01300845      -0.01331157       0.00713822
H        4.02516563       2.65647109      24.37701738  T        0        0      -0.00544551       0.00231149       0.02233993
41
Lattice="9.8418 0.0 0.0 -2.460449999999999 4.261624409482844 0.0 0.0 -0.0 34.16586254" Properties=species:S:1:pos:R:3:move_mask:L:1:spacegroup_kinds:I:1:tags:I:1:forces:R:3 surface=alpha_quartz_001 coadsorbate=H2O start=1 calculation_kind="Local coadsorbate relaxation; not a reaction path" host_atoms=36 energy=-289.5047522068392 pbc="T T F"
Si       2.31725181       0.00000000      12.00000000  F        0        2      -0.13391462      -0.36645578      -1.70676778
Si      -1.15862590       2.00679893      15.60606667  F        0        2      -0.12660493       0.05231312       1.23033403
Si       1.30182410       2.25482548      13.80303333  F        0        2       0.03343561      -0.15809223       1.00501340
O        1.38326499       1.13103512      12.65233746  F        1        2      -0.50596371       0.21699226      -0.21418153
O        0.28787265       1.76346018      14.95372921  F        1        2       0.43846356      -0.24441214      -0.37989395
O        3.24976236       0.63242506      16.25840413  F        1        2      -0.17033694      -0.54814483       0.04707914
O        0.78931236       3.62919935      13.15069587  F        1        2       0.42661700       0.28393888       0.54129282
O        2.74832265       2.49816423      14.45537079  F        1        2       0.01360241       0.38402251      -0.72667828
O       -1.07718501       3.13058929      16.75676254  F        1        2       0.05027861       0.38028973       0.20816005
Si       2.31410825       0.01226135      17.46150909  T        0        1       0.00077799      -0.00395425      -0.00246356
Si      -1.23770191       1.71953375      21.09925889  T        0        1       0.00016751       0.01997198       0.00147407
Si       1.27091477       2.25159309      19.30690692  T        0        1      -0.00265458      -0.00821107       0.00114048
O        1.37310766       1.17768378      18.06746838  T        1        1       0.00353112      -0.00162470      -0.00210405
O        0.22539113       1.70376163      20.40490615  T        1        1       0.01196180       0.00366554       0.02160448
O        3.11415644       0.55456764      21.92168926  T        1        1       0.00473761       0.00586611      -0.00196907
O        0.78044104       3.65376284      18.63083538  T        1        1      -0.01685436      -0.01500819       0.00165485
O        2.71161905       2.48611182      20.00803831  T        1        1      -0.00274271       0.01917938      -0.00154578
O       -1.25226064       2.26049163      22.64360848  T        1        1      -0.00351432       0.00737655       0.00658197
Si       7.23815181       0.00000000      12.00000000  F        0        2      -0.13329582      -0.36643855      -1.70354014
Si       3.76227409       2.00679893      15.60606667  F        0        2      -0.11060997       0.07841167       1.22879917
Si       6.22272410       2.25482548      13.80303333  F        0        2       0.02706956      -0.16144078       1.01565655
O        6.30416499       1.13103512      12.65233746  F        1        2      -0.50515869       0.21488577      -0.21827512
O        5.20877265       1.76346018      14.95372921  F        1        2       0.43038011      -0.24555890      -0.38165366
O        8.17066236       0.63242506      16.25840413  F        1        2      -0.15411468      -0.56513768       0.07375063
O        5.71021236       3.62919935      13.15069587  F        1        2       0.42630354       0.28648405       0.53593982
O        7.66922265       2.49816423      14.45537079  F        1        2       0.02268530       0.38652824      -0.72324508
O        3.84371499       3.13058929      16.75676254  F        1        2       0.01925133       0.30801177       0.12416528
Si       7.23803213       0.00601280      17.46165262  T        0        1      -0.00412017      -0.00022848       0.00767780
Si       3.70516075       1.86580060      21.15035902  T        0        1       0.00308118      -0.00208369      -0.01264007
Si       6.17299926       2.23046730      19.31015590  T        0        1       0.00274501      -0.00174414      -0.00448464
O        6.29686124       1.17200611      18.06208982  T        1        1      -0.02586073      -0.00845271      -0.00170739
O        5.12222857       1.64972335      20.39067977  T        1        1       0.01401929       0.00367094       0.00670625
O        8.08496178       0.25948539      21.63220015  T        1        1       0.00424843       0.01435091       0.00294528
O        5.69858562       3.63836573      18.63240160  T        1        1      -0.00035558       0.00234730       0.00681278
O        7.61719093       2.45012608      20.01758669  T        1        1      -0.00737187       0.01618617       0.00626393
O        3.79238624       2.67322209      22.56596013  T        1        1      -0.01542907       0.01075390      -0.00959005
F        2.85306778       0.08185652      24.33424010  T        0        0      -0.00952366       0.00488275       0.00775213
H        2.91340246       0.20491585      23.34867916  T        0        0       0.01152953       0.00292119       0.00411446
O        4.04934237       2.47280892      25.34729881  T        0        0       0.00744894      -0.00211968       0.00826853
H        3.58116089       1.61354197      25.41586741  T        0        0      -0.01201306      -0.00836081       0.00080600
H        4.02540127       2.65633720      24.37744131  T        0        0      -0.01189596       0.00441787      -0.00325375
41
Lattice="9.8418 0.0 0.0 -2.460449999999999 4.261624409482844 0.0 0.0 -0.0 34.16586254" Properties=species:S:1:pos:R:3:move_mask:L:1:spacegroup_kinds:I:1:tags:I:1:forces:R:3 surface=alpha_quartz_001 coadsorbate=H2O start=1 calculation_kind="Local coadsorbate relaxation; not a reaction path" host_atoms=36 energy=-289.50490482967405 pbc="T T F"
Si       2.31725181       0.00000000      12.00000000  F        0        2      -0.13391775      -0.36644178      -1.70677034
Si      -1.15862590       2.00679893      15.60606667  F        0        2      -0.12682676       0.05206887       1.23035414
Si       1.30182410       2.25482548      13.80303333  F        0        2       0.03346465      -0.15806474       1.00488504
O        1.38326499       1.13103512      12.65233746  F        1        2      -0.50594104       0.21697561      -0.21415846
O        0.28787265       1.76346018      14.95372921  F        1        2       0.43837788      -0.24430004      -0.37998774
O        3.24976236       0.63242506      16.25840413  F        1        2      -0.17128399      -0.54848412       0.04827454
O        0.78931236       3.62919935      13.15069587  F        1        2       0.42658103       0.28395416       0.54131369
O        2.74832265       2.49816423      14.45537079  F        1        2       0.01352227       0.38400136      -0.72674036
O       -1.07718501       3.13058929      16.75676254  F        1        2       0.04529525       0.37491100       0.20241394
Si       2.31366246       0.01235187      17.46126043  T        0        1       0.00427900      -0.00184721      -0.00002995
Si      -1.23742969       1.72060154      21.09949669  T        0        1       0.00415681       0.01787908      -0.00097308
Si       1.27109557       2.25151708      19.30631200  T        0        1      -0.01266144      -0.01009546       0.00723597
O        1.37204134       1.17764981      18.06664396  T        1        1       0.00654253       0.00043419       0.00065196
O        0.22621753       1.70380901      20.40547229  T        1        1       0.00485714       0.00728800       0.01965584
O        3.11423684       0.55611430      21.92150704  T        1        1       0.00121748      -0.00240727       0.00267879
O        0.77947111       3.65362112      18.63086680  T        1        1      -0.01282980      -0.01349135       0.00293934
O        2.71221145       2.48578005      20.00663946  T        1        1      -0.00421066       0.02124185      -0.00734414
O       -1.25180493       2.26228741      22.64374406  T        1        1      -0.00368899       0.00634337       0.00225836
Si       7.23815181       0.00000000      12.00000000  F        0        2      -0.13329308      -0.36639760      -1.70338854
Si       3.76227409       2.00679893      15.60606667  F        0        2      -0.10976056       0.07959479       1.22894355
Si       6.22272410       2.25482548      13.80303333  F        0        2       0.02691963      -0.16145953       1.01586892
O        6.30416499       1.13103512      12.65233746  F        1        2      -0.50507540       0.21483400      -0.21833026
O        5.20877265       1.76346018      14.95372921  F        1        2       0.43032249      -0.24569694      -0.38176044
O        8.17066236       0.63242506      16.25840413  F        1        2      -0.15854710      -0.56793332       0.08092122
O        5.71021236       3.62919935      13.15069587  F        1        2       0.42626250       0.28651524       0.53582231
O        7.66922265       2.49816423      14.45537079  F        1        2       0.02279025       0.38660765      -0.72332357
O        3.84371499       3.13058929      16.75676254  F        1        2       0.02364092       0.31542930       0.13027937
Si       7.23781247       0.00639130      17.46209197  T        0        1      -0.00631608      -0.00207568      -0.00203947
Si       3.70530873       1.86674434      21.14998556  T        0        1       0.00140108       0.00412428      -0.01028337
Si       6.17293424       2.23100906      19.31038562  T        0        1       0.01164380       0.00199399      -0.00402100
O        6.29650000       1.17280761      18.06198029  T        1        1      -0.02345799      -0.01178933      -0.00104823
O        5.12308589       1.65084714      20.39184056  T        1        1       0.01336280      -0.00037464       0.00563459
O        8.08582219       0.26047629      21.63375126  T        1        1       0.00494228       0.02268775      -0.00187154
O        5.69797737       3.63903693      18.63332956  T        1        1      -0.00248550       0.00472735       0.00244175
O        7.61738481       2.45132966      20.01747522  T        1        1      -0.00137613       0.00684335       0.01064111
O        3.79066887       2.67574846      22.56488249  T        1        1      -0.01303430       0.00916061      -0.00695266
F        2.85409114       0.08131624      24.33394096  T        0        0      -0.01070540       0.00542233       0.01213978
H        2.91379186       0.20515219      23.34864526  T        0        0       0.01266693       0.00371158      -0.00021344
O        4.04703910       2.47297617      25.34751655  T        0        0       0.01687181       0.00553890       0.02815858
H        3.57901359       1.61387624      25.41604945  T        0        0      -0.01554639      -0.01434077      -0.00489264
H        4.02668923       2.65619179      24.37799933  T        0        0      -0.01816015       0.00291115      -0.01938353
41
Lattice="9.8418 0.0 0.0 -2.460449999999999 4.261624409482844 0.0 0.0 -0.0 34.16586254" Properties=species:S:1:pos:R:3:move_mask:L:1:spacegroup_kinds:I:1:tags:I:1:forces:R:3 surface=alpha_quartz_001 coadsorbate=H2O start=1 calculation_kind="Local coadsorbate relaxation; not a reaction path" host_atoms=36 energy=-289.50515099049574 pbc="T T F"
Si       2.31725181       0.00000000      12.00000000  F        0        2      -0.13392279      -0.36642264      -1.70680325
Si      -1.15862590       2.00679893      15.60606667  F        0        2      -0.12714736       0.05200029       1.23020034
Si       1.30182410       2.25482548      13.80303333  F        0        2       0.03349370      -0.15802768       1.00461935
O        1.38326499       1.13103512      12.65233746  F        1        2      -0.50591720       0.21697403      -0.21409838
O        0.28787265       1.76346018      14.95372921  F        1        2       0.43823555      -0.24416964      -0.38002333
O        3.24976236       0.63242506      16.25840413  F        1        2      -0.17175555      -0.54914718       0.04923532
O        0.78931236       3.62919935      13.15069587  F        1        2       0.42655712       0.28395188       0.54137985
O        2.74832265       2.49816423      14.45537079  F        1        2       0.01346779       0.38394608      -0.72670177
O       -1.07718501       3.13058929      16.75676254  F        1        2       0.03874118       0.36859800       0.19498068
Si       2.31317686       0.01242019      17.46093564  T        0        1       0.00763662       0.00088947       0.00316897
Si      -1.23701733       1.72303081      21.09943607  T        0        1       0.00845264       0.01359299       0.00130492
Si       1.27147256       2.25142936      19.30571688  T        0        1      -0.02140060      -0.01027131       0.01340424
O        1.37105083       1.17776819      18.06564068  T        1        1       0.00905557       0.00258418       0.00570431
O        0.22764570       1.70414056      20.40662272  T        1        1      -0.00460238       0.01114620       0.01477034
O        3.11453770       0.55799035      21.92122920  T        1        1      -0.00180093      -0.00931892       0.00700691
O        0.77801577       3.65323676      18.63096818  T        1        1      -0.00664746      -0.01015701       0.00471392
O        2.71314456       2.48606691      20.00493749  T        1        1      -0.00483492       0.01899537      -0.01434309
O       -1.25112202       2.26641728      22.64328194  T        1        1      -0.00434117       0.00549433      -0.00287378
Si       7.23815181       0.00000000      12.00000000  F        0        2      -0.13329062      -0.36634424      -1.70320567
Si       3.76227409       2.00679893      15.60606667  F        0        2      -0.10843254       0.08108726       1.22909404
Si       6.22272410       2.25482548      13.80303333  F        0        2       0.02666134      -0.16146815       1.01611785
O        6.30416499       1.13103512      12.65233746  F        1        2      -0.50495214       0.21476940      -0.21836654
O        5.20877265       1.76346018      14.95372921  F        1        2       0.43012641      -0.24584310      -0.38198365
O        8.17066236       0.63242506      16.25840413  F        1        2      -0.16577276      -0.57291622       0.09304369
O        5.71021236       3.62919935      13.15069587  F        1        2       0.42620598       0.28656031       0.53568669
O        7.66922265       2.49816423      14.45537079  F        1        2       0.02295344       0.38672942      -0.72347289
O        3.84371499       3.13058929      16.75676254  F        1        2       0.02859019       0.32446632       0.13761944
Si       7.23720591       0.00706735      17.46267143  T        0        1      -0.00791541      -0.00317529      -0.01587658
Si       3.70576340       1.86785063      21.14924111  T        0        1      -0.00228170       0.01293492      -0.00416258
Si       6.17285375       2.23187289      19.31034173  T        0        1       0.01904417       0.00775347      -0.00301239
O        6.29529362       1.17420817      18.06114386  T        1        1      -0.01672883      -0.01505784       0.00159653
O        5.12462296       1.65206700      20.39330437  T        1        1       0.01016308      -0.00432653       0.00443640
O        8.08675712       0.26318373      21.63610925  T        1        1       0.00482031       0.03131594      -0.00818785
O        5.69645211       3.64033397      18.63507578  T        1        1      -0.00489174       0.00755338      -0.00537704
O        7.61770835       2.45345470      20.01669217  T        1        1       0.00732183      -0.00550231       0.01322800
O        3.78861602       2.67908383      22.56322870  T        1        1      -0.00993358       0.00548249      -0.00524926
F        2.85474653       0.08133295      24.33387328  T        0        0      -0.01085515       0.00606392       0.01681328
H        2.91416232       0.20567120      23.34889404  T        0        0       0.01324831       0.00489529      -0.00595814
O        4.04282611       2.47465053      25.34772890  T        0        0       0.01456911      -0.00774202       0.05009735
H        3.57664055       1.61416576      25.41602938  T        0        0      -0.00920641      -0.00108373      -0.01073629
H        4.02490631       2.65763035      24.37862597  T        0        0      -0.02271312       0.00318887      -0.03778993
41
Lattice="9.8418 0.0 0.0 -2.460449999999999 4.261624409482844 0.0 0.0 -0.0 34.16586254" Properties=species:S:1:pos:R:3:move_mask:L:1:spacegroup_kinds:I:1:tags:I:1:forces:R:3 surface=alpha_quartz_001 coadsorbate=H2O start=1 calculation_kind="Local coadsorbate relaxation; not a reaction path" host_atoms=36 energy=-289.50552122510214 pbc="T T F"
Si       2.31725181       0.00000000      12.00000000  F        0        2      -0.13393337      -0.36639885      -1.70686120
Si      -1.15862590       2.00679893      15.60606667  F        0        2      -0.12701828       0.05310970       1.23014162
Si       1.30182410       2.25482548      13.80303333  F        0        2       0.03335864      -0.15799256       1.00426196
O        1.38326499       1.13103512      12.65233746  F        1        2      -0.50586545       0.21699095      -0.21398734
O        0.28787265       1.76346018      14.95372921  F        1        2       0.43798598      -0.24411150      -0.38008030
O        3.24976236       0.63242506      16.25840413  F        1        2      -0.17361186      -0.55163676       0.05355496
O        0.78931236       3.62919935      13.15069587  F        1        2       0.42656569       0.28393813       0.54149306
O        2.74832265       2.49816423      14.45537079  F        1        2       0.01356367       0.38384541      -0.72644918
O       -1.07718501       3.13058929      16.75676254  F        1        2       0.03214865       0.36504709       0.18810470
Si       2.31244236       0.01275929      17.46068865  T        0        1       0.00939251       0.00303242       0.00660223
Si      -1.23630553       1.72739096      21.09968322  T        0        1       0.01272033       0.00890284       0.00440353
Si       1.27158100       2.25150109      19.30548324  T        0        1      -0.02287721      -0.00697671       0.01644052
O        1.36995000       1.17863642      18.06436737  T        1        1       0.01031913       0.00195011       0.01229968
O        0.22987955       1.70488439      20.40925201  T        1        1      -0.01337311       0.01457692       0.00372084
O        3.11447071       0.56012353      21.92020920  T        1        1      -0.00204160      -0.01133712       0.01301673
O        0.77531994       3.65290921      18.63182157  T        1        1       0.00090272      -0.00527624       0.00537235
O        2.71448378       2.48705005      20.00243506  T        1        1      -0.00320389       0.01170669      -0.01919177
O       -1.25021256       2.27414954      22.64234052  T        1        1      -0.00543305       0.00645773      -0.00219878
Si       7.23815181       0.00000000      12.00000000  F        0        2      -0.13329561      -0.36628767      -1.70306478
Si       3.76227409       2.00679893      15.60606667  F        0        2      -0.10666431       0.08316090       1.22893246
Si       6.22272410       2.25482548      13.80303333  F        0        2       0.02636827      -0.16143327       1.01619927
O        6.30416499       1.13103512      12.65233746  F        1        2      -0.50482299       0.21473558      -0.21831858
O        5.20877265       1.76346018      14.95372921  F        1        2       0.42970240      -0.24603166      -0.38212654
O        8.17066236       0.63242506      16.25840413  F        1        2      -0.17639150      -0.58128881       0.11132236
O        5.71021236       3.62919935      13.15069587  F        1        2       0.42616984       0.28657058       0.53562440
O        7.66922265       2.49816423      14.45537079  F        1        2       0.02308433       0.38676163      -0.72367760
O        3.84371499       3.13058929      16.75676254  F        1        2       0.03419573       0.33542469       0.14599195
Si       7.23620905       0.00799003      17.46339932  T        0        1      -0.00852387      -0.00183941      -0.02925187
Si       3.70639800       1.86936062      21.14803315  T        0        1      -0.00719506       0.02020820       0.00008834
Si       6.17312061       2.23324446      19.31036064  T        0        1       0.01972531       0.01354853      -0.00116943
O        6.29344182       1.17620673      18.05995695  T        1        1      -0.00570024      -0.01627740       0.00598614
O        5.12723550       1.65356077      20.39567431  T        1        1       0.00203165      -0.00566799       0.00246491
O        8.08748453       0.26863127      21.63995882  T        1        1       0.00212560       0.03382102      -0.01289181
O        5.69363550       3.64235025      18.63811873  T        1        1      -0.00454662       0.00846268      -0.01855368
O        7.61851907       2.45670472      20.01555485  T        1        1       0.01555586      -0.01778632       0.00975786
O        3.78549570       2.68296787      22.56110392  T        1        1      -0.00565726       0.00178888      -0.00377151
F        2.85700257       0.08317727      24.33409398  T        0        0      -0.01103668       0.00630947       0.01356410
H        2.91587979       0.20748416      23.34918252  T        0        0       0.01187957       0.00442730      -0.00811769
O        4.03630783       2.47652386      25.34794151  T        0        0       0.01922734      -0.00054684       0.05623209
H        3.57145346       1.61525918      25.41455962  T        0        0      -0.01028345      -0.00415305      -0.01319700
H        4.01963775       2.66144466      24.37937957  T        0        0      -0.02554782       0.00026472      -0.04266698
41
Lattice="9.8418 0.0 0.0 -2.460449999999999 4.261624409482844 0.0 0.0 -0.0 34.16586254" Properties=species:S:1:pos:R:3:move_mask:L:1:spacegroup_kinds:I:1:tags:I:1:forces:R:3 surface=alpha_quartz_001 coadsorbate=H2O start=1 calculation_kind="Local coadsorbate relaxation; not a reaction path" host_atoms=36 energy=-289.5059022724796 pbc="T T F"
Si       2.31725181       0.00000000      12.00000000  F        0        2      -0.13394624      -0.36638806      -1.70697414
Si      -1.15862590       2.00679893      15.60606667  F        0        2      -0.12613355       0.05592541       1.22983022
Si       1.30182410       2.25482548      13.80303333  F        0        2       0.03315402      -0.15799090       1.00387874
O        1.38326499       1.13103512      12.65233746  F        1        2      -0.50584397       0.21706082      -0.21383189
O        0.28787265       1.76346018      14.95372921  F        1        2       0.43758418      -0.24428405      -0.37994618
O        3.24976236       0.63242506      16.25840413  F        1        2      -0.17450922      -0.55405109       0.05709133
O        0.78931236       3.62919935      13.15069587  F        1        2       0.42664494       0.28387485       0.54165720
O        2.74832265       2.49816423      14.45537079  F        1        2       0.01381005       0.38374721      -0.72607381
O       -1.07718501       3.13058929      16.75676254  F        1        2       0.02963063       0.36724656       0.18594430
Si       2.31199796       0.01313467      17.46065610  T        0        1       0.00725263       0.00283157       0.00762431
Si      -1.23544965       1.73281192      21.09923756  T        0        1       0.01216077       0.00661225       0.01218318
Si       1.27190163       2.25189460      19.30573262  T        0        1      -0.01413674      -0.00110230       0.01174122
O        1.36982306       1.17991214      18.06362098  T        1        1       0.00794105      -0.00195800       0.01700949
O        0.23230516       1.70631918      20.41206247  T        1        1      -0.01722084       0.01432860      -0.00738463
O        3.11440754       0.56180888      21.91943308  T        1        1       0.00183339      -0.00334557       0.01470732
O        0.77296547       3.65272569      18.63285241  T        1        1       0.00713593       0.00061676       0.00447315
O        2.71617940       2.48871222      20.00011441  T        1        1      -0.00001529       0.00036506      -0.01839881
O       -1.24955480       2.28398374      22.64019839  T        1        1      -0.00667927       0.00865493       0.00235309
Si       7.23815181       0.00000000      12.00000000  F        0        2      -0.13331250      -0.36627775      -1.70314402
Si       3.76227409       2.00679893      15.60606667  F        0        2      -0.10541467       0.08439711       1.22855178
Si       6.22272410       2.25482548      13.80303333  F        0        2       0.02611411      -0.16131410       1.01590750
O        6.30416499       1.13103512      12.65233746  F        1        2      -0.50476855       0.21479270      -0.21812261
O        5.20877265       1.76346018      14.95372921  F        1        2       0.42916905      -0.24611435      -0.38218960
O        8.17066236       0.63242506      16.25840413  F        1        2      -0.18545371      -0.58912367       0.12678536
O        5.71021236       3.62919935      13.15069587  F        1        2       0.42620276       0.28653364       0.53575674
O        7.66922265       2.49816423      14.45537079  F        1        2       0.02313643       0.38664773      -0.72383056
O        3.84371499       3.13058929      16.75676254  F        1        2       0.03543764       0.34259205       0.14940424
Si       7.23469895       0.00920932      17.46367855  T        0        1      -0.00665308       0.00158474      -0.03111527
Si       3.70723959       1.87075820      21.14686728  T        0        1      -0.01044427       0.02068269       0.00334869
Si       6.17336503       2.23502957      19.30999789  T        0        1       0.01141525       0.01564882       0.00020234
O        6.29112087       1.17873361      18.05804121  T        1        1       0.00450003      -0.01344781       0.01095453
O        5.13019533       1.65450376      20.39798298  T        1        1      -0.00648362      -0.00132293      -0.00033389
O        8.08765342       0.27590158      21.64349214  T        1        1      -0.00269527       0.02652925      -0.01405069
O        5.68949521       3.64490073      18.64161356  T        1        1       0.00093902       0.00452135      -0.03095324
O        7.61980749       2.46005766      20.01306071  T        1        1       0.01783115      -0.02360667       0.00159596
O        3.78275374       2.68628299      22.55916374  T        1        1      -0.00291512      -0.00148325      -0.00346376
F        2.85857264       0.08573834      24.33521001  T        0        0      -0.00945165       0.00718298       0.00646419
H        2.91728059       0.20945278      23.35027235  T        0        0       0.00963412       0.00332965      -0.00826622
O        4.02671580       2.48220161      25.34801205  T        0        0       0.00466455      -0.01899213       0.04019652
H        3.56667831       1.61752002      25.41273685  T        0        0      -0.00004676       0.01433110      -0.00862477
H        4.00613491       2.66926165      24.37960187  T        0        0      -0.02006736       0.00076478      -0.03095732
41
Lattice="9.8418 0.0 0.0 -2.460449999999999 4.261624409482844 0.0 0.0 -0.0 34.16586254" Properties=species:S:1:pos:R:3:move_mask:L:1:spacegroup_kinds:I:1:tags:I:1:forces:R:3 surface=alpha_quartz_001 coadsorbate=H2O start=1 calculation_kind="Local coadsorbate relaxation; not a reaction path" host_atoms=36 energy=-289.50614733344287 pbc="T T F"
Si       2.31725181       0.00000000      12.00000000  F        0        2      -0.13395925      -0.36639707      -1.70708644
Si      -1.15862590       2.00679893      15.60606667  F        0        2      -0.12471970       0.05938620       1.22947276
Si       1.30182410       2.25482548      13.80303333  F        0        2       0.03295476      -0.15800955       1.00367041
O        1.38326499       1.13103512      12.65233746  F        1        2      -0.50585351       0.21714545      -0.21370472
O        0.28787265       1.76346018      14.95372921  F        1        2       0.43721082      -0.24465886      -0.37967692
O        3.24976236       0.63242506      16.25840413  F        1        2      -0.17605564      -0.55640428       0.06143149
O        0.78931236       3.62919935      13.15069587  F        1        2       0.42675394       0.28379932       0.54178918
O        2.74832265       2.49816423      14.45537079  F        1        2       0.01409224       0.38368514      -0.72577236
O       -1.07718501       3.13058929      16.75676254  F        1        2       0.03269409       0.37488113       0.19004432
Si       2.31190594       0.01347538      17.46095623  T        0        1       0.00279723       0.00018114       0.00503587
Si      -1.23486711       1.73654379      21.09918276  T        0        1       0.00695654       0.00820391       0.01461851
Si       1.27190836       2.25238433      19.30651576  T        0        1      -0.00028750       0.00389220       0.00205471
O        1.37041896       1.18102261      18.06384516  T        1        1       0.00311080      -0.00786454       0.01628171
O        0.23356814       1.70768767      20.41411569  T        1        1      -0.01236502       0.01108886      -0.01353297
O        3.11394439       0.56229270      21.91890204  T        1        1       0.00758603       0.00801515       0.01412917
O        0.77171328       3.65285873      18.63389893  T        1        1       0.00881314       0.00418555       0.00148874
O        2.71726708       2.48986289      19.99887638  T        1        1       0.00304424      -0.00639392      -0.01184839
O       -1.24970222       2.29073439      22.63874968  T        1        1      -0.00707270       0.01121857       0.01044917
Si       7.23815181       0.00000000      12.00000000  F        0        2      -0.13334277      -0.36632163      -1.70344950
Si       3.76227409       2.00679893      15.60606667  F        0        2      -0.10542795       0.08461137       1.22812824
Si       6.22272410       2.25482548      13.80303333  F        0        2       0.02609259      -0.16117112       1.01524412
O        6.30416499       1.13103512      12.65233746  F        1        2      -0.50484069       0.21494037      -0.21785650
O        5.20877265       1.76346018      14.95372921  F        1        2       0.42886622      -0.24613054      -0.38194487
O        8.17066236       0.63242506      16.25840413  F        1        2      -0.18878512      -0.59196087       0.13146961
O        5.71021236       3.62919935      13.15069587  F        1        2       0.42631532       0.28643340       0.53607480
O        7.66922265       2.49816423      14.45537079  F        1        2       0.02304526       0.38638934      -0.72377486
O        3.84371499       3.13058929      16.75676254  F        1        2       0.03223153       0.34292290       0.14637825
Si       7.23362386       0.00997427      17.46340811  T        0        1      -0.00392492       0.00496092      -0.01887872
Si       3.70761468       1.87153137      21.14638495  T        0        1      -0.00901309       0.01240693       0.00036713
Si       6.17364386       2.23634355      19.30987497  T        0        1      -0.00026634       0.01118508       0.00059023
O        6.28987253       1.18003983      18.05724353  T        1        1       0.00778747      -0.00725701       0.01230066
O        5.13199992       1.65482721      20.39954406  T        1        1      -0.01114918       0.00664800      -0.00349623
O        8.08701563       0.28121534      21.64521907  T        1        1      -0.00714819       0.01232640      -0.00920721
O        5.68656137       3.64640776      18.64351561  T        1        1       0.01001260      -0.00287320      -0.03510912
O        7.62099880       2.46172585      20.01120754  T        1        1       0.01146375      -0.01861900      -0.00758991
O        3.78122923       2.68690337      22.55872000  T        1        1      -0.00253792       0.00074440      -0.00259967
F        2.85990459       0.08846788      24.33642355  T        0        0      -0.00810682       0.00702910      -0.00475250
H        2.91863880       0.21133974      23.35123387  T        0        0       0.00654481       0.00092978      -0.00390447
O        4.02096674       2.48532264      25.34785711  T        0        0       0.00374562      -0.00324598       0.00673296
H        3.56331716       1.61948064      25.41068145  T        0        0      -0.00509143       0.00207080       0.00017714
H        3.99478824       2.67564049      24.37950286  T        0        0      -0.01217125      -0.00197384      -0.00374381
41
Lattice="9.8418 0.0 0.0 -2.460449999999999 4.261624409482844 0.0 0.0 -0.0 34.16586254" Properties=species:S:1:pos:R:3:move_mask:L:1:spacegroup_kinds:I:1:tags:I:1:forces:R:3 surface=alpha_quartz_001 coadsorbate=H2O start=1 calculation_kind="Local coadsorbate relaxation; not a reaction path" host_atoms=36 energy=-289.5062853653603 pbc="T T F"
Si       2.31725181       0.00000000      12.00000000  F        0        2      -0.13396872      -0.36641824      -1.70719051
Si      -1.15862590       2.00679893      15.60606667  F        0        2      -0.12370015       0.06171519       1.22892231
Si       1.30182410       2.25482548      13.80303333  F        0        2       0.03292132      -0.15803690       1.00357514
O        1.38326499       1.13103512      12.65233746  F        1        2      -0.50590465       0.21722187      -0.21362649
O        0.28787265       1.76346018      14.95372921  F        1        2       0.43694165      -0.24499546      -0.37936012
O        3.24976236       0.63242506      16.25840413  F        1        2      -0.17597067      -0.55672003       0.06199506
O        0.78931236       3.62919935      13.15069587  F        1        2       0.42684418       0.28373112       0.54187771
O        2.74832265       2.49816423      14.45537079  F        1        2       0.01422255       0.38366922      -0.72572670
O       -1.07718501       3.13058929      16.75676254  F        1        2       0.03649511       0.38016060       0.19425129
Si       2.31210708       0.01354529      17.46119697  T        0        1      -0.00065870      -0.00189624       0.00162601
Si      -1.23454803       1.73823225      21.09887397  T        0        1       0.00076905       0.01085506       0.01404591
Si       1.27213640       2.25276508      19.30686085  T        0        1       0.00686456       0.00545392      -0.00519438
O        1.37120946       1.18136123      18.06440357  T        1        1      -0.00118662      -0.01123312       0.01247871
O        0.23383107       1.70869784      20.41437112  T        1        1      -0.00664750       0.00753027      -0.01139657
O        3.11389587       0.56252628      21.91924749  T        1        1       0.01044960       0.01474241       0.01006799
O        0.77183894       3.65305865      18.63419511  T        1        1       0.00857718       0.00602279      -0.00108872
O        2.71790387       2.49027681      19.99830090  T        1        1       0.00420922      -0.00784259      -0.00564900
O       -1.25010034       2.29356081      22.63785892  T        1        1      -0.00688749       0.01206617       0.01306343
Si       7.23815181       0.00000000      12.00000000  F        0        2      -0.13336559      -0.36638273      -1.70376503
Si       3.76227409       2.00679893      15.60606667  F        0        2      -0.10609976       0.08414229       1.22807570
Si       6.22272410       2.25482548      13.80303333  F        0        2       0.02616789      -0.16105224       1.01467076
O        6.30416499       1.13103512      12.65233746  F        1        2      -0.50494979       0.21507828      -0.21765857
O        5.20877265       1.76346018      14.95372921  F        1        2       0.42882032      -0.24610666      -0.38172378
O        8.17066236       0.63242506      16.25840413  F        1        2      -0.18763539      -0.58974194       0.12721904
O        5.71021236       3.62919935      13.15069587  F        1        2       0.42642071       0.28635603       0.53635686
O        7.66922265       2.49816423      14.45537079  F        1        2       0.02295473       0.38622910      -0.72365364
O        3.84371499       3.13058929      16.75676254  F        1        2       0.02680461       0.33976574       0.14053177
Si       7.23291755       0.01050076      17.46282246  T        0        1      -0.00140066       0.00539971      -0.00392221
Si       3.70767152       1.87190787      21.14629575  T        0        1      -0.00508735       0.00467869      -0.00095201
Si       6.17357056       2.23717384      19.30963620  T        0        1      -0.00551498       0.00492617      -0.00013786
O        6.28933267       1.18058706      18.05692064  T        1        1       0.00582365      -0.00283510       0.01096746
O        5.13252948       1.65487538      20.39999004  T        1        1      -0.01021535       0.01292813      -0.00554811
O        8.08655925       0.28363191      21.64513087  T        1        1      -0.00906182       0.00232219      -0.00454737
O        5.68515352       3.64706476      18.64365165  T        1        1       0.01700677      -0.00857505      -0.03124207
O        7.62173147       2.46191592      20.00965845  T        1        1       0.00375718      -0.01109506      -0.01052351
O        3.78076267       2.68690075      22.55868491  T        1        1      -0.00369808       0.00376297      -0.00104003
F        2.85989872       0.08908817      24.33733419  T        0        0      -0.00653822       0.00795023      -0.00811185
H        2.91893079       0.21169547      23.35211895  T        0        0       0.00526176       0.00042478      -0.00193801
O        4.01622767       2.48972957      25.34777334  T        0        0      -0.00674947      -0.01111729      -0.01781215
H        3.56208357       1.62174374      25.41020783  T        0        0      -0.00138416       0.00809084       0.00692700
H        3.98527743       2.68070928      24.37913510  T        0        0      -0.00468689      -0.00117512       0.01515655
41
Lattice="9.8418 0.0 0.0 -2.460449999999999 4.261624409482844 0.0 0.0 -0.0 34.16586254" Properties=species:S:1:pos:R:3:move_mask:L:1:spacegroup_kinds:I:1:tags:I:1:forces:R:3 surface=alpha_quartz_001 coadsorbate=H2O start=1 calculation_kind="Local coadsorbate relaxation; not a reaction path" host_atoms=36 energy=-289.5064221816468 pbc="T T F"
Si       2.31725181       0.00000000      12.00000000  F        0        2      -0.13398246      -0.36643970      -1.70728859
Si      -1.15862590       2.00679893      15.60606667  F        0        2      -0.12288304       0.06357541       1.22819756
Si       1.30182410       2.25482548      13.80303333  F        0        2       0.03297125      -0.15805858       1.00348934
O        1.38326499       1.13103512      12.65233746  F        1        2      -0.50596331       0.21728965      -0.21356476
O        0.28787265       1.76346018      14.95372921  F        1        2       0.43671068      -0.24532508      -0.37898529
O        3.24976236       0.63242506      16.25840413  F        1        2      -0.17654347      -0.55687514       0.06291563
O        0.78931236       3.62919935      13.15069587  F        1        2       0.42691744       0.28367049       0.54194943
O        2.74832265       2.49816423      14.45537079  F        1        2       0.01426168       0.38364459      -0.72582055
O       -1.07718501       3.13058929      16.75676254  F        1        2       0.03996628       0.38391308       0.19780753
Si       2.31230023       0.01354598      17.46142743  T        0        1      -0.00268522      -0.00339107      -0.00212047
Si      -1.23425893       1.73982872      21.09904923  T        0        1      -0.00508332       0.01193976       0.00964487
Si       1.27234638       2.25308854      19.30702475  T        0        1       0.00978737       0.00528731      -0.00966997
O        1.37179469       1.18131620      18.06511876  T        1        1      -0.00536228      -0.01298068       0.00732615
O        0.23377635       1.70974546      20.41430813  T        1        1      -0.00072592       0.00491865      -0.00633542
O        3.11382181       0.56312017      21.91976401  T        1        1       0.01157432       0.01658451       0.00625532
O        0.77221780       3.65330422      18.63435164  T        1        1       0.00841076       0.00685284      -0.00398106
O        2.71851015       2.49025737      19.99754607  T        1        1       0.00371919      -0.00577648      -0.00015521
O       -1.25066014       2.29588909      22.63762632  T        1        1      -0.00635240       0.01116685       0.01218110
Si       7.23815181       0.00000000      12.00000000  F        0        2      -0.13338780      -0.36643989      -1.70406015
Si       3.76227409       2.00679893      15.60606667  F        0        2      -0.10688519       0.08401614       1.22833230
Si       6.22272410       2.25482548      13.80303333  F        0        2       0.02630271      -0.16093108       1.01411724
O        6.30416499       1.13103512      12.65233746  F        1        2      -0.50506198       0.21520639      -0.21749792
O        5.20877265       1.76346018      14.95372921  F        1        2       0.42890515      -0.24616411      -0.38143721
O        8.17066236       0.63242506      16.25840413  F        1        2      -0.18639743      -0.58533534       0.12097008
O        5.71021236       3.62919935      13.15069587  F        1        2       0.42651186       0.28628302       0.53661171
O        7.66922265       2.49816423      14.45537079  F        1        2       0.02286608       0.38614882      -0.72350386
O        3.84371499       3.13058929      16.75676254  F        1        2       0.02108310       0.33687543       0.13453734
Si       7.23231112       0.01101089      17.46221156  T        0        1       0.00105086       0.00347156       0.01019889
Si       3.70754905       1.87245763      21.14629150  T        0        1       0.00021036      -0.00191720      -0.00190920
Si       6.17346123       2.23800713      19.30956488  T        0        1      -0.00683996      -0.00234204      -0.00143891
O        6.28900418       1.18073636      18.05721553  T        1        1       0.00263030       0.00021774       0.00766340
O        5.13280041       1.65538991      20.40051042  T        1        1      -0.00727452       0.01786710      -0.00772290
O        8.08607610       0.28561087      21.64495728  T        1        1      -0.00916876      -0.00380419       0.00044014
O        5.68449440       3.64737354      18.64295118  T        1        1       0.02326815      -0.01292537      -0.02328870
O        7.62240163       2.46179143      20.00841158  T        1        1      -0.00411493      -0.00245320      -0.01050430
O        3.78013108       2.68685991      22.55884499  T        1        1      -0.00461827       0.00864224       0.00095459
F        2.85989294       0.08974369      24.33796285  T        0        0      -0.00542176       0.00786116      -0.00958928
H        2.91939337       0.21220923      23.35274840  T        0        0       0.00368047       0.00032665      -0.00037637
O        4.01328729       2.49178151      25.34762291  T        0        0      -0.00384824       0.00238134      -0.03031785
H        3.56092979       1.62320655      25.40973524  T        0        0      -0.00767143      -0.00496185       0.01133006
H        3.97917622       2.68392530      24.37906312  T        0        0      -0.00055631      -0.00201972       0.02464530
41
Lattice="9.8418 0.0 0.0 -2.460449999999999 4.261624409482844 0.0 0.0 -0.0 34.16586254" Properties=species:S:1:pos:R:3:move_mask:L:1:spacegroup_kinds:I:1:tags:I:1:forces:R:3 surface=alpha_quartz_001 coadsorbate=H2O start=1 calculation_kind="Local coadsorbate relaxation; not a reaction path" host_atoms=36 energy=-289.50661052027095 pbc="T T F"
Si       2.31725181       0.00000000      12.00000000  F        0        2      -0.13400942      -0.36646270      -1.70740947
Si      -1.15862590       2.00679893      15.60606667  F        0        2      -0.12242609       0.06492094       1.22721767
Si       1.30182410       2.25482548      13.80303333  F        0        2       0.03307947      -0.15810223       1.00336084
O        1.38326499       1.13103512      12.65233746  F        1        2      -0.50603510       0.21736503      -0.21350388
O        0.28787265       1.76346018      14.95372921  F        1        2       0.43652933      -0.24563101      -0.37856348
O        3.24976236       0.63242506      16.25840413  F        1        2      -0.17740003      -0.55651237       0.06349907
O        0.78931236       3.62919935      13.15069587  F        1        2       0.42699121       0.28361303       0.54202861
O        2.74832265       2.49816423      14.45537079  F        1        2       0.01419596       0.38358767      -0.72609226
O       -1.07718501       3.13058929      16.75676254  F        1        2       0.04179106       0.38450455       0.19879448
Si       2.31237904       0.01350388      17.46153524  T        0        1      -0.00337181      -0.00345402      -0.00556507
Si      -1.23372699       1.74235134      21.09948356  T        0        1      -0.01063363       0.01098011       0.00065201
Si       1.27272705       2.25347678      19.30664369  T        0        1       0.00689901       0.00339977      -0.01058843
O        1.37194215       1.18086812      18.06576091  T        1        1      -0.00961384      -0.01233420       0.00048871
O        0.23386639       1.71124190      20.41398306  T        1        1       0.00365580       0.00344843       0.00274504
O        3.11424173       0.56502271      21.92081518  T        1        1       0.00970103       0.01271298       0.00007509
O        0.77252844       3.65365348      18.63437209  T        1        1       0.01010145       0.00779303      -0.00764002
O        2.71953873       2.49003928      19.99560500  T        1        1       0.00180532      -0.00221573       0.00516263
O       -1.25121972       2.29922818      22.63766780  T        1        1      -0.00567980       0.00840316       0.00572937
Si       7.23815181       0.00000000      12.00000000  F        0        2      -0.13339923      -0.36649028      -1.70430596
Si       3.76227409       2.00679893      15.60606667  F        0        2      -0.10747356       0.08469816       1.22902153
Si       6.22272410       2.25482548      13.80303333  F        0        2       0.02652793      -0.16075456       1.01364475
O        6.30416499       1.13103512      12.65233746  F        1        2      -0.50516856       0.21531089      -0.21738180
O        5.20877265       1.76346018      14.95372921  F        1        2       0.42901317      -0.24636379      -0.38112946
O        8.17066236       0.63242506      16.25840413  F        1        2      -0.18647351      -0.57829187       0.11338879
O        5.71021236       3.62919935      13.15069587  F        1        2       0.42655846       0.28622876       0.53680051
O        7.66922265       2.49816423      14.45537079  F        1        2       0.02276464       0.38624545      -0.72347299
O        3.84371499       3.13058929      16.75676254  F        1        2       0.01427655       0.33550715       0.12854089
Si       7.23140792       0.01187818      17.46153366  T        0        1       0.00508209      -0.00206200       0.02248787
Si       3.70733542       1.87379487      21.14593315  T        0        1       0.00673842      -0.00503963       0.00024498
Si       6.17327804       2.23932269      19.30939997  T        0        1      -0.00276644      -0.01043742      -0.00365820
O        6.28837219       1.18104826      18.05767991  T        1        1      -0.00041715       0.00027848       0.00241827
O        5.13320866       1.65691373      20.40126578  T        1        1      -0.00271128       0.02136645      -0.00917321
O        8.08597272       0.28828249      21.64497747  T        1        1      -0.00782433      -0.00628222       0.00537766
O        5.68415984       3.64780158      18.64146885  T        1        1       0.02849129      -0.01467668      -0.01088442
O        7.62330046       2.46172229      20.00664310  T        1        1      -0.01083391       0.00641160      -0.00572247
O        3.77833236       2.68867655      22.55814562  T        1        1      -0.00447137       0.01355443       0.00492006
F        2.86011410       0.08971010      24.33846774  T        0        0      -0.00388540       0.00860205      -0.00626530
H        2.92037710       0.21244998      23.35343963  T        0        0       0.00217093       0.00219529      -0.00028162
O        4.00689158       2.49649638      25.34764974  T        0        0      -0.00572824       0.00211455      -0.03568508
H        3.55795355       1.62619528      25.41004643  T        0        0      -0.00798724      -0.00630852       0.01292528
H        3.97060120       2.68858078      24.37905366  T        0        0       0.00193683      -0.00182274       0.02779902
41
Lattice="9.8418 0.0 0.0 -2.460449999999999 4.261624409482844 0.0 0.0 -0.0 34.16586254" Properties=species:S:1:pos:R:3:move_mask:L:1:spacegroup_kinds:I:1:tags:I:1:forces:R:3 surface=alpha_quartz_001 coadsorbate=H2O start=1 calculation_kind="Local coadsorbate relaxation; not a reaction path" host_atoms=36 energy=-289.50681122970485 pbc="T T F"
Si       2.31725181       0.00000000      12.00000000  F        0        2      -0.13404734      -0.36646399      -1.70746365
Si      -1.15862590       2.00679893      15.60606667  F        0        2      -0.12273931       0.06492996       1.22645878
Si       1.30182410       2.25482548      13.80303333  F        0        2       0.03318405      -0.15816195       1.00324396
O        1.38326499       1.13103512      12.65233746  F        1        2      -0.50606307       0.21739997      -0.21349228
O        0.28787265       1.76346018      14.95372921  F        1        2       0.43658007      -0.24576890      -0.37825994
O        3.24976236       0.63242506      16.25840413  F        1        2      -0.17987340      -0.55636450       0.06560198
O        0.78931236       3.62919935      13.15069587  F        1        2       0.42701855       0.28359661       0.54205482
O        2.74832265       2.49816423      14.45537079  F        1        2       0.01402923       0.38349035      -0.72644526
O       -1.07718501       3.13058929      16.75676254  F        1        2       0.04123330       0.38195693       0.19676215
Si       2.31222685       0.01346777      17.46152489  T        0        1      -0.00194529      -0.00180909      -0.00700999
Si      -1.23311227       1.74601249      21.10051034  T        0        1      -0.01286987       0.00531995      -0.00900810
Si       1.27305715       2.25382386      19.30603938  T        0        1       0.00040246       0.00069715      -0.00697325
O        1.37137319       1.18005548      18.06633152  T        1        1      -0.01245625      -0.00858549      -0.00489419
O        0.23426391       1.71303691      20.41425040  T        1        1       0.00519343       0.00455384       0.01059542
O        3.11496553       0.56793461      21.92188554  T        1        1       0.00593232       0.00369918      -0.00512378
O        0.77247132       3.65401126      18.63440336  T        1        1       0.01355667       0.00739677      -0.01106747
O        2.72081836       2.48980756      19.99293713  T        1        1      -0.00185999       0.00118838       0.00819410
O       -1.25178801       2.30420247      22.63817763  T        1        1      -0.00518236       0.00351111      -0.00495581
Si       7.23815181       0.00000000      12.00000000  F        0        2      -0.13338857      -0.36649099      -1.70431088
Si       3.76227409       2.00679893      15.60606667  F        0        2      -0.10733503       0.08662269       1.23004453
Si       6.22272410       2.25482548      13.80303333  F        0        2       0.02681343      -0.16056513       1.01354205
O        6.30416499       1.13103512      12.65233746  F        1        2      -0.50519340       0.21530875      -0.21740093
O        5.20877265       1.76346018      14.95372921  F        1        2       0.42906994      -0.24672884      -0.38089603
O        8.17066236       0.63242506      16.25840413  F        1        2      -0.19019210      -0.57175256       0.11008402
O        5.71021236       3.62919935      13.15069587  F        1        2       0.42648853       0.28623025       0.53676891
O        7.66922265       2.49816423      14.45537079  F        1        2       0.02266179       0.38657094      -0.72367598
O        3.84371499       3.13058929      16.75676254  F        1        2       0.00972233       0.33785441       0.12615812
Si       7.23047938       0.01283568      17.46121616  T        0        1       0.00981639      -0.00954872       0.02383232
Si       3.70722584       1.87579826      21.14535871  T        0        1       0.01049477      -0.00243801       0.00469807
Si       6.17329040       2.24080335      19.30930925  T        0        1       0.00417182      -0.01580461      -0.00628730
O        6.28748993       1.18138020      18.05837966  T        1        1      -0.00030935      -0.00398689      -0.00284144
O        5.13395273       1.65952835      20.40243648  T        1        1       0.00148357       0.02122543      -0.00928609
O        8.08594193       0.29195944      21.64592662  T        1        1      -0.00479124      -0.00249912       0.00913834
O        5.68441650       3.64820930      18.63969796  T        1        1       0.03006863      -0.01155664       0.00136543
O        7.62428235       2.46218598      20.00496448  T        1        1      -0.01313608       0.01295103       0.00116158
O        3.77555686       2.69195396      22.55698478  T        1        1      -0.00235963       0.01712105       0.00787344
F        2.86044758       0.09055212      24.33863661  T        0        0      -0.00257030       0.00752635      -0.00109774
H        2.92192670       0.21339883      23.35380279  T        0        0      -0.00021886       0.00510594      -0.00120656
O        4.00161795       2.49852863      25.34760326  T        0        0       0.00144976       0.01187346      -0.02062156
H        3.55422269       1.62775546      25.41035156  T        0        0      -0.01240796      -0.01473020       0.00937215
H        3.96522215       2.69121860      24.37949230  T        0        0      -0.00043165      -0.00287486       0.01536808
41
Lattice="9.8418 0.0 0.0 -2.460449999999999 4.261624409482844 0.0 0.0 -0.0 34.16586254" Properties=species:S:1:pos:R:3:move_mask:L:1:spacegroup_kinds:I:1:tags:I:1:forces:R:3 surface=alpha_quartz_001 coadsorbate=H2O start=1 calculation_kind="Local coadsorbate relaxation; not a reaction path" host_atoms=36 energy=-289.50697914415457 pbc="T T F"
Si       2.31725181       0.00000000      12.00000000  F        0        2      -0.13408573      -0.36644410      -1.70742628
Si      -1.15862590       2.00679893      15.60606667  F        0        2      -0.12382958       0.06327300       1.22652056
Si       1.30182410       2.25482548      13.80303333  F        0        2       0.03314172      -0.15824546       1.00323100
O        1.38326499       1.13103512      12.65233746  F        1        2      -0.50602324       0.21737976      -0.21354529
O        0.28787265       1.76346018      14.95372921  F        1        2       0.43694671      -0.24563031      -0.37833694
O        3.24976236       0.63242506      16.25840413  F        1        2      -0.18303668      -0.55614712       0.06822834
O        0.78931236       3.62919935      13.15069587  F        1        2       0.42699756       0.28364333       0.54200995
O        2.74832265       2.49816423      14.45537079  F        1        2       0.01386302       0.38340448      -0.72669846
O       -1.07718501       3.13058929      16.75676254  F        1        2       0.03824401       0.37710388       0.19205386
Si       2.31179103       0.01355734      17.46134436  T        0        1       0.00029622       0.00110187      -0.00481495
Si      -1.23257368       1.74931868      21.10160869  T        0        1      -0.01027799      -0.00155034      -0.01619234
Si       1.27309262       2.25408942      19.30530548  T        0        1      -0.00612562      -0.00134960      -0.00072879
O        1.37000871       1.17929762      18.06639914  T        1        1      -0.01191648      -0.00331342      -0.00673381
O        0.23498326       1.71450959      20.41510714  T        1        1       0.00326672       0.00764062       0.01343270
O        3.11605012       0.57098953      21.92263646  T        1        1       0.00161737      -0.00541714      -0.00856442
O        0.77187294       3.65441908      18.63449854  T        1        1       0.01707701       0.00553240      -0.01313465
O        2.72186087       2.48976117      19.99016425  T        1        1      -0.00512320       0.00160187       0.00876869
O       -1.25209859       2.30873664      22.63881640  T        1        1      -0.00512875      -0.00033833      -0.01382934
Si       7.23815181       0.00000000      12.00000000  F        0        2      -0.13334907      -0.36643930      -1.70403934
Si       3.76227409       2.00679893      15.60606667  F        0        2      -0.10635248       0.08910383       1.23078689
Si       6.22272410       2.25482548      13.80303333  F        0        2       0.02712058      -0.16042674       1.01393763
O        6.30416499       1.13103512      12.65233746  F        1        2      -0.50513121       0.21518306      -0.21757024
O        5.20877265       1.76346018      14.95372921  F        1        2       0.42894729      -0.24711880      -0.38082820
O        8.17066236       0.63242506      16.25840413  F        1        2      -0.19558805      -0.56811449       0.11145772
O        5.71021236       3.62919935      13.15069587  F        1        2       0.42630744       0.28629411       0.53648989
O        7.66922265       2.49816423      14.45537079  F        1        2       0.02254712       0.38702808      -0.72414948
O        3.84371499       3.13058929      16.75676254  F        1        2       0.00929665       0.34260516       0.12850807
Si       7.22995047       0.01344656      17.46138068  T        0        1       0.01396014      -0.01534682       0.01341423
Si       3.70723995       1.87799545      21.14459997  T        0        1       0.00952348       0.00521678       0.00922291
Si       6.17363646       2.24185460      19.30918291  T        0        1       0.01053487      -0.01574434      -0.00822194
O        6.28676761       1.18163247      18.05887912  T        1        1       0.00301878      -0.01160665      -0.00535360
O        5.13473160       1.66244297      20.40334973  T        1        1       0.00257070       0.01712804      -0.00613853
O        8.08622617       0.29518918      21.64733256  T        1        1      -0.00220903       0.00333069       0.01054030
O        5.68541955       3.64847293      18.63824226  T        1        1       0.02622546      -0.00378923       0.00764127
O        7.62505012       2.46294219      20.00395029  T        1        1      -0.00935064       0.01457134       0.00712601
O        3.77239394       2.69646397      22.55523448  T        1        1       0.00122901       0.01589464       0.00926367
F        2.86136439       0.09132023      24.33840472  T        0        0      -0.00183856       0.00660966       0.00382534
H        2.92391165       0.21427757      23.35371344  T        0        0      -0.00216849       0.00847611      -0.00178860
O        3.99628819       2.50060003      25.34774002  T        0        0       0.00166697       0.00514380      -0.00346668
H        3.54953239       1.62935028      25.41118973  T        0        0      -0.00834331      -0.00720189       0.00308424
H        3.96155261       2.69279845      24.37984982  T        0        0      -0.00452072      -0.00304244       0.00201863
41
Lattice="9.8418 0.0 0.0 -2.460449999999999 4.261624409482844 0.0 0.0 -0.0 34.16586254" Properties=species:S:1:pos:R:3:move_mask:L:1:spacegroup_kinds:I:1:tags:I:1:forces:R:3 surface=alpha_quartz_001 coadsorbate=H2O start=1 calculation_kind="Local coadsorbate relaxation; not a reaction path" host_atoms=36 energy=-289.5071268672117 pbc="T T F"
Si       2.31725181       0.00000000      12.00000000  F        0        2      -0.13411489      -0.36640810      -1.70730758
Si      -1.15862590       2.00679893      15.60606667  F        0        2      -0.12508313       0.06093650       1.22718671
Si       1.30182410       2.25482548      13.80303333  F        0        2       0.03299504      -0.15833429       1.00333141
O        1.38326499       1.13103512      12.65233746  F        1        2      -0.50593485       0.21731699      -0.21364966
O        0.28787265       1.76346018      14.95372921  F        1        2       0.43747649      -0.24536857      -0.37863312
O        3.24976236       0.63242506      16.25840413  F        1        2      -0.18645898      -0.55554609       0.07067396
O        0.78931236       3.62919935      13.15069587  F        1        2       0.42694159       0.28372694       0.54190260
O        2.74832265       2.49816423      14.45537079  F        1        2       0.01376554       0.38338071      -0.72678475
O       -1.07718501       3.13058929      16.75676254  F        1        2       0.03582123       0.37362640       0.18847177
Si       2.31134789       0.01372399      17.46117612  T        0        1       0.00195951       0.00341201      -0.00097836
Si      -1.23229478       1.75220831      21.10251036  T        0        1      -0.00517139      -0.00852191      -0.01657352
Si       1.27293487       2.25433389      19.30489695  T        0        1      -0.00792073      -0.00198168       0.00400618
O        1.36852825       1.17868581      18.06643804  T        1        1      -0.00935755       0.00152453      -0.00531369
O        0.23572319       1.71582029      20.41645269  T        1        1       0.00079593       0.01070839       0.01102907
O        3.11703489       0.57331241      21.92289309  T        1        1      -0.00038571      -0.01020536      -0.00921030
O        0.77148550       3.65488863      18.63451818  T        1        1       0.01830263       0.00175407      -0.01371804
O        2.72255322       2.48990408      19.98823775  T        1        1      -0.00785458       0.00026225       0.00810394
O       -1.25241207       2.31314331      22.63916493  T        1        1      -0.00536063      -0.00309859      -0.01884038
Si       7.23815181       0.00000000      12.00000000  F        0        2      -0.13330257      -0.36636279      -1.70364962
Si       3.76227409       2.00679893      15.60606667  F        0        2      -0.10514058       0.09109934       1.23105366
Si       6.22272410       2.25482548      13.80303333  F        0        2       0.02739072      -0.16036101       1.01456340
O        6.30416499       1.13103512      12.65233746  F        1        2      -0.50502476       0.21500044      -0.21779977
O        5.20877265       1.76346018      14.95372921  F        1        2       0.42873968      -0.24741251      -0.38087474
O        8.17066236       0.63242506      16.25840413  F        1        2      -0.20045334      -0.56716843       0.11507432
O        5.71021236       3.62919935      13.15069587  F        1        2       0.42609047       0.28638581       0.53611408
O        7.66922265       2.49816423      14.45537079  F        1        2       0.02242627       0.38745263      -0.72467847
O        3.84371499       3.13058929      16.75676254  F        1        2       0.01175629       0.34703913       0.13318316
Si       7.22989807       0.01358102      17.46181570  T        0        1       0.01610587      -0.01735861      -0.00242144
Si       3.70747202       1.87991797      21.14414012  T        0        1       0.00475156       0.01240739       0.01129043
Si       6.17425553       2.24234210      19.30897539  T        0        1       0.01204067      -0.01193017      -0.00892817
O        6.28634445       1.18161281      18.05915076  T        1        1       0.00760687      -0.01877120      -0.00451110
O        5.13544724       1.66513011      20.40397048  T        1        1       0.00216827       0.01141997      -0.00197180
O        8.08616389       0.29825524      21.64905588  T        1        1      -0.00025723       0.00849939       0.01058218
O        5.68685061       3.64858438      18.63727597  T        1        1       0.01970724       0.00442826       0.00838229
O        7.62558481       2.46394579      20.00341793  T        1        1      -0.00320767       0.01406679       0.00900455
O        3.76995264       2.70037721      22.55398150  T        1        1       0.00470480       0.01216110       0.00741864
F        2.86199834       0.09311617      24.33807946  T        0        0      -0.00154694       0.00425791       0.00560828
H        2.92560584       0.21569774      23.35336237  T        0        0      -0.00434555       0.01069687      -0.00177040
O        3.99411592       2.49977370      25.34770078  T        0        0       0.00334637       0.00170882       0.01697778
H        3.54612805       1.62903690      25.41159598  T        0        0      -0.00527113      -0.00128901      -0.00338679
H        3.96097564       2.69224749      24.38024249  T        0        0      -0.00870083      -0.00315432      -0.01295672
41
Lattice="9.8418 0.0 0.0 -2.460449999999999 4.261624409482844 0.0 0.0 -0.0 34.16586254" Properties=species:S:1:pos:R:3:move_mask:L:1:spacegroup_kinds:I:1:tags:I:1:forces:R:3 surface=alpha_quartz_001 coadsorbate=H2O start=1 calculation_kind="Local coadsorbate relaxation; not a reaction path" host_atoms=36 energy=-289.5072996040773 pbc="T T F"
Si       2.31725181       0.00000000      12.00000000  F        0        2      -0.13414064      -0.36636999      -1.70716248
Si      -1.15862590       2.00679893      15.60606667  F        0        2      -0.12622665       0.05832070       1.22835443
Si       1.30182410       2.25482548      13.80303333  F        0        2       0.03270512      -0.15844889       1.00353610
O        1.38326499       1.13103512      12.65233746  F        1        2      -0.50581861       0.21723881      -0.21378168
O        0.28787265       1.76346018      14.95372921  F        1        2       0.43811702      -0.24506354      -0.37911918
O        3.24976236       0.63242506      16.25840413  F        1        2      -0.19020681      -0.55389464       0.07257396
O        0.78931236       3.62919935      13.15069587  F        1        2       0.42688270       0.28383708       0.54176497
O        2.74832265       2.49816423      14.45537079  F        1        2       0.01377638       0.38345890      -0.72670850
O       -1.07718501       3.13058929      16.75676254  F        1        2       0.03432157       0.37162452       0.18616450
Si       2.31084782       0.01404460      17.46101300  T        0        1       0.00230365       0.00484674       0.00377520
Si      -1.23214093       1.75492272      21.10318781  T        0        1       0.00122015      -0.01333412      -0.01399488
Si       1.27257122       2.25470115      19.30457421  T        0        1      -0.00584849      -0.00151950       0.00676375
O        1.36673527       1.17820878      18.06638532  T        1        1      -0.00480059       0.00529087      -0.00231036
O        0.23652031       1.71736251      20.41813718  T        1        1      -0.00121993       0.01282689       0.00518877
O        3.11822601       0.57541555      21.92285270  T        1        1      -0.00067783      -0.01041984      -0.00862462
O        0.77139728       3.65563201      18.63439613  T        1        1       0.01661749      -0.00345013      -0.01353182
O        2.72302670       2.49012795      19.98648745  T        1        1      -0.00925146      -0.00196913       0.00806270
O       -1.25285166       2.31765653      22.63912888  T        1        1      -0.00555020      -0.00363422      -0.01884298
Si       7.23815181       0.00000000      12.00000000  F        0        2      -0.13325497      -0.36628598      -1.70326162
Si       3.76227409       2.00679893      15.60606667  F        0        2      -0.10395987       0.09234403       1.23064190
Si       6.22272410       2.25482548      13.80303333  F        0        2       0.02770846      -0.16034468       1.01524131
O        6.30416499       1.13103512      12.65233746  F        1        2      -0.50493057       0.21480990      -0.21803732
O        5.20877265       1.76346018      14.95372921  F        1        2       0.42844525      -0.24761286      -0.38091029
O        8.17066236       0.63242506      16.25840413  F        1        2      -0.20300185      -0.56655573       0.11653737
O        5.71021236       3.62919935      13.15069587  F        1        2       0.42587795       0.28647735       0.53573657
O        7.66922265       2.49816423      14.45537079  F        1        2       0.02224810       0.38781543      -0.72522681
O        3.84371499       3.13058929      16.75676254  F        1        2       0.01562514       0.34963183       0.13842594
Si       7.23029465       0.01329024      17.46227004  T        0        1       0.01642497      -0.01581639      -0.01810063
Si       3.70778626       1.88208409      21.14381202  T        0        1      -0.00132900       0.01755031       0.01023572
Si       6.17519583       2.24248119      19.30851367  T        0        1       0.00997127      -0.00581668      -0.00808906
O        6.28628478       1.18121978      18.05927540  T        1        1       0.01170699      -0.02442536      -0.00070359
O        5.13609038       1.66811580      20.40426583  T        1        1       0.00045517       0.00477340       0.00386019
O        8.08590685       0.30150007      21.65103591  T        1        1       0.00043112       0.00962488       0.01003495
O        5.68898885       3.64866127      18.63633269  T        1        1       0.01097199       0.01192911       0.00539398
O        7.62609215       2.46512597      20.00302261  T        1        1       0.00411225       0.01240846       0.00789859
O        3.76755919       2.70473240      22.55272419  T        1        1       0.00791255       0.00592860       0.00407870
F        2.86300438       0.09520721      24.33771417  T        0        0      -0.00141686       0.00236200       0.00472076
H        2.92758153       0.21732021      23.35287218  T        0        0      -0.00651273       0.01223694      -0.00029701
O        3.99081107       2.50020752      25.34775558  T        0        0      -0.00136926      -0.00996590       0.02697349
H        3.54179467       1.62961575      25.41205023  T        0        0       0.00217994       0.01164669      -0.00772927
H        3.95853670       2.69257081      24.38043752  T        0        0      -0.01049891      -0.00205586      -0.01953172
41
Lattice="9.8418 0.0 0.0 -2.460449999999999 4.261624409482844 0.0 0.0 -0.0 34.16586254" Properties=species:S:1:pos:R:3:move_mask:L:1:spacegroup_kinds:I:1:tags:I:1:forces:R:3 surface=alpha_quartz_001 coadsorbate=H2O start=1 calculation_kind="Local coadsorbate relaxation; not a reaction path" host_atoms=36 energy=-289.5075169788463 pbc="T T F"
Si       2.31725181       0.00000000      12.00000000  F        0        2      -0.13415886      -0.36633709      -1.70703278
Si      -1.15862590       2.00679893      15.60606667  F        0        2      -0.12673750       0.05628632       1.22955397
Si       1.30182410       2.25482548      13.80303333  F        0        2       0.03237005      -0.15856833       1.00379286
O        1.38326499       1.13103512      12.65233746  F        1        2      -0.50570653       0.21716758      -0.21391465
O        0.28787265       1.76346018      14.95372921  F        1        2       0.43868333      -0.24488129      -0.37955584
O        3.24976236       0.63242506      16.25840413  F        1        2      -0.19415494      -0.55031275       0.07290826
O        0.78931236       3.62919935      13.15069587  F        1        2       0.42683451       0.28394270       0.54162441
O        2.74832265       2.49816423      14.45537079  F        1        2       0.01391892       0.38370863      -0.72647776
O       -1.07718501       3.13058929      16.75676254  F        1        2       0.03533444       0.37257464       0.18705542
Si       2.31048022       0.01444652      17.46095577  T        0        1       0.00106118       0.00437411       0.00716102
Si      -1.23216446       1.75819844      21.10342450  T        0        1       0.00681116      -0.01604249      -0.00606209
Si       1.27226551       2.25529646      19.30443441  T        0        1       0.00076861      -0.00014400       0.00592734
O        1.36498815       1.17770238      18.06664277  T        1        1       0.00073000       0.00714068       0.00161539
O        0.23727716       1.71976608      20.42004179  T        1        1      -0.00184240       0.01236756      -0.00251757
O        3.11955442       0.57734006      21.92259963  T        1        1       0.00164499      -0.00528652      -0.00611699
O        0.77238738       3.65666565      18.63377676  T        1        1       0.01068962      -0.00979831      -0.01234200
O        2.72345653       2.49034501      19.98512994  T        1        1      -0.00946695      -0.00287610       0.00893716
O       -1.25376035       2.32365518      22.63828711  T        1        1      -0.00534518      -0.00262478      -0.01482129
Si       7.23815181       0.00000000      12.00000000  F        0        2      -0.13323046      -0.36623552      -1.70304472
Si       3.76227409       2.00679893      15.60606667  F        0        2      -0.10338182       0.09200653       1.22946136
Si       6.22272410       2.25482548      13.80303333  F        0        2       0.02803258      -0.16038664       1.01568518
O        6.30416499       1.13103512      12.65233746  F        1        2      -0.50489252       0.21468119      -0.21819505
O        5.20877265       1.76346018      14.95372921  F        1        2       0.42819416      -0.24766096      -0.38085312
O        8.17066236       0.63242506      16.25840413  F        1        2      -0.20169074      -0.56452920       0.11253291
O        5.71021236       3.62919935      13.15069587  F        1        2       0.42574058       0.28653736       0.53550764
O        7.66922265       2.49816423      14.45537079  F        1        2       0.02203195       0.38803099      -0.72558920
O        3.84371499       3.13058929      16.75676254  F        1        2       0.01954548       0.34866115       0.14219497
Si       7.23107779       0.01263679      17.46249014  T        0        1       0.01356146      -0.01030467      -0.02831967
Si       3.70829017       1.88465264      21.14388478  T        0        1      -0.00690964       0.01753647       0.00572551
Si       6.17637393       2.24246484      19.30760192  T        0        1       0.00391853       0.00122391      -0.00474744
O        6.28648430       1.18030636      18.05929558  T        1        1       0.01352924      -0.02556874       0.00621055
O        5.13678462       1.67171017      20.40445049  T        1        1      -0.00018603      -0.00168058       0.00913041
O        8.08500833       0.30597907      21.65353287  T        1        1       0.00054559       0.00675511       0.00859067
O        5.69173571       3.64891404      18.63521829  T        1        1       0.00175248       0.01530325       0.00058564
O        7.62672416       2.46678576      20.00213042  T        1        1       0.01038049       0.01058506       0.00354684
O        3.76553262       2.70909663      22.55197353  T        1        1       0.00983338      -0.00080450      -0.00141334
F        2.86358909       0.09835009      24.33758549  T        0        0      -0.00099813       0.00005529       0.00088646
H        2.92938535       0.21975768      23.35254697  T        0        0      -0.00919330       0.01240258       0.00167108
O        3.98685665       2.50096113      25.34766019  T        0        0      -0.00626647      -0.01738438       0.03238338
H        3.53743508       1.63028393      25.41205319  T        0        0       0.00741204       0.02018313      -0.00902104
H        3.95323862       2.69410083      24.38063129  T        0        0      -0.00916328      -0.00009741      -0.02266387
41
Lattice="9.8418 0.0 0.0 -2.460449999999999 4.261624409482844 0.0 0.0 -0.0 34.16586254" Properties=species:S:1:pos:R:3:move_mask:L:1:spacegroup_kinds:I:1:tags:I:1:forces:R:3 surface=alpha_quartz_001 coadsorbate=H2O start=1 calculation_kind="Local coadsorbate relaxation; not a reaction path" host_atoms=36 energy=-289.50772656975346 pbc="T T F"
Si       2.31725181       0.00000000      12.00000000  F        0        2      -0.13416484      -0.36633793      -1.70704497
Si      -1.15862590       2.00679893      15.60606667  F        0        2      -0.12605395       0.05615719       1.23008899
Si       1.30182410       2.25482548      13.80303333  F        0        2       0.03212991      -0.15863668       1.00393939
O        1.38326499       1.13103512      12.65233746  F        1        2      -0.50567001       0.21716274      -0.21395600
O        0.28787265       1.76346018      14.95372921  F        1        2       0.43883679      -0.24500104      -0.37966422
O        3.24976236       0.63242506      16.25840413  F        1        2      -0.19716254      -0.54535746       0.07131486
O        0.78931236       3.62919935      13.15069587  F        1        2       0.42684330       0.28398320       0.54158558
O        2.74832265       2.49816423      14.45537079  F        1        2       0.01418502       0.38411419      -0.72615153
O       -1.07718501       3.13058929      16.75676254  F        1        2       0.03817079       0.37561805       0.19042771
Si       2.31033036       0.01482320      17.46101871  T        0        1      -0.00124134       0.00194209       0.00663209
Si      -1.23230087       1.76101442      21.10308051  T        0        1       0.00850479      -0.01343824       0.00104324
Si       1.27216231       2.25597780      19.30431880  T        0        1       0.00736326       0.00125998       0.00221652
O        1.36372801       1.17727763      18.06708105  T        1        1       0.00563171       0.00543056       0.00405680
O        0.23777045       1.72262596      20.42143787  T        1        1      -0.00075092       0.00833276      -0.00811312
O        3.12085688       0.57887644      21.92234199  T        1        1       0.00479265       0.00262400      -0.00262720
O        0.77426799       3.65765034      18.63264785  T        1        1       0.00213528      -0.01359494      -0.01041075
O        2.72374341       2.49033716      19.98421581  T        1        1      -0.00717967      -0.00061263       0.01064352
O       -1.25509456       2.32908640      22.63686065  T        1        1      -0.00426033       0.00106129      -0.00669823
Si       7.23815181       0.00000000      12.00000000  F        0        2      -0.13325702      -0.36625750      -1.70324866
Si       3.76227409       2.00679893      15.60606667  F        0        2      -0.10401255       0.08965395       1.22761100
Si       6.22272410       2.25482548      13.80303333  F        0        2       0.02827271      -0.16048274       1.01546277
O        6.30416499       1.13103512      12.65233746  F        1        2      -0.50498569       0.21473382      -0.21813473
O        5.20877265       1.76346018      14.95372921  F        1        2       0.42813924      -0.24751986      -0.38055898
O        8.17066236       0.63242506      16.25840413  F        1        2      -0.19515863      -0.55958914       0.10035473
O        5.71021236       3.62919935      13.15069587  F        1        2       0.42580155       0.28650279       0.53565779
O        7.66922265       2.49816423      14.45537079  F        1        2       0.02184760       0.38795084      -0.72548753
O        3.84371499       3.13058929      16.75676254  F        1        2       0.02136795       0.34305802       0.14183938
Si       7.23204309       0.01182673      17.46217464  T        0        1       0.00747083      -0.00267317      -0.02391226
Si       3.70871440       1.88721886      21.14424798  T        0        1      -0.00727818       0.01110859      -0.00077253
Si       6.17741639       2.24246117      19.30641921  T        0        1      -0.00142786       0.00596554       0.00097093
O        6.28695645       1.17890290      18.05944305  T        1        1       0.01068223      -0.01962976       0.01352961
O        5.13733340       1.67523845      20.40455537  T        1        1       0.00045390      -0.00544031       0.01184988
O        8.08391024       0.31033467      21.65572595  T        1        1      -0.00037139      -0.00111217       0.00610646
O        5.69448139       3.64938688      18.63394481  T        1        1      -0.00441352       0.01129833      -0.00350987
O        7.62741745       2.46848995      20.00081992  T        1        1       0.01277243       0.00810952      -0.00134350
O        3.76403529       2.71279346      22.55165814  T        1        1       0.00948536      -0.00527623      -0.00535877
F        2.86399021       0.10073477      24.33778976  T        0        0      -0.00034517      -0.00000117      -0.00383581
H        2.93071854       0.22197619      23.35266949  T        0        0      -0.01094372       0.01111415       0.00345990
O        3.98003659       2.50512110      25.34768341  T        0        0      -0.01229382      -0.01973660       0.01931986
H        3.53269342       1.63325030      25.41203057  T        0        0       0.00950693       0.02195551      -0.00524032
H        3.94277842       2.69896820      24.38062828  T        0        0      -0.00342308       0.00156044      -0.01204203
41
Lattice="9.8418 0.0 0.0 -2.460449999999999 4.261624409482844 0.0 0.0 -0.0 34.16586254" Properties=species:S:1:pos:R:3:move_mask:L:1:spacegroup_kinds:I:1:tags:I:1:forces:R:3 surface=alpha_quartz_001 coadsorbate=H2O start=1 calculation_kind="Local coadsorbate relaxation; not a reaction path" host_atoms=36 energy=-289.50785370802936 pbc="T T F"
Si       2.31725181       0.00000000      12.00000000  F        0        2      -0.13415497      -0.36637035      -1.70720755
Si      -1.15862590       2.00679893      15.60606667  F        0        2      -0.12456607       0.05805076       1.22939374
Si       1.30182410       2.25482548      13.80303333  F        0        2       0.03221290      -0.15859392       1.00383296
O        1.38326499       1.13103512      12.65233746  F        1        2      -0.50574110       0.21723114      -0.21387312
O        0.28787265       1.76346018      14.95372921  F        1        2       0.43843862      -0.24539837      -0.37924644
O        3.24976236       0.63242506      16.25840413  F        1        2      -0.19771602      -0.54117874       0.06805869
O        0.78931236       3.62919935      13.15069587  F        1        2       0.42689569       0.28392460       0.54168000
O        2.74832265       2.49816423      14.45537079  F        1        2       0.01439254       0.38447908      -0.72595188
O       -1.07718501       3.13058929      16.75676254  F        1        2       0.04078576       0.37828663       0.19391460
Si       2.31052139       0.01489511      17.46115215  T        0        1      -0.00239561      -0.00088183       0.00198105
Si      -1.23247146       1.76258673      21.10230134  T        0        1       0.00537155      -0.00853988       0.00521042
Si       1.27253657       2.25640297      19.30424176  T        0        1       0.00906661       0.00153744      -0.00150562
O        1.36369256       1.17694515      18.06764754  T        1        1       0.00703961       0.00164897       0.00404207
O        0.23781692       1.72483714      20.42162365  T        1        1       0.00050607       0.00263240      -0.00769261
O        3.12152476       0.57959330      21.92233972  T        1        1       0.00657885       0.00720482       0.00060404
O        0.77632976       3.65795302      18.63133023  T        1        1      -0.00394854      -0.01238348      -0.00806873
O        2.72392716       2.49013920      19.98421817  T        1        1      -0.00422443       0.00445228       0.01076788
O       -1.25632884       2.33229922      22.63544340  T        1        1      -0.00271422       0.00403460      -0.00126579
Si       7.23815181       0.00000000      12.00000000  F        0        2      -0.13332950      -0.36633860      -1.70378263
Si       3.76227409       2.00679893      15.60606667  F        0        2      -0.10559597       0.08651368       1.22621953
Si       6.22272410       2.25482548      13.80303333  F        0        2       0.02826267      -0.16058638       1.01465019
O        6.30416499       1.13103512      12.65233746  F        1        2      -0.50515279       0.21494791      -0.21787919
O        5.20877265       1.76346018      14.95372921  F        1        2       0.42838515      -0.24728908      -0.38017526
O        8.17066236       0.63242506      16.25840413  F        1        2      -0.18777448      -0.55383492       0.08699005
O        5.71021236       3.62919935      13.15069587  F        1        2       0.42603505       0.28639219       0.53612067
O        7.66922265       2.49816423      14.45537079  F        1        2       0.02183027       0.38765442      -0.72492822
O        3.84371499       3.13058929      16.75676254  F        1        2       0.02009621       0.33637897       0.13770508
Si       7.23257271       0.01140320      17.46149894  T        0        1       0.00094997       0.00234555      -0.00858412
Si       3.70898359       1.88866936      21.14476829  T        0        1      -0.00249421       0.00236971      -0.00436147
Si       6.17774702       2.24266066      19.30554027  T        0        1      -0.00206092       0.00599249       0.00609444
O        6.28721693       1.17772175      18.05974834  T        1        1       0.00509736      -0.00969207       0.01691755
O        5.13768449       1.67724086      20.40483211  T        1        1       0.00324758      -0.00501255       0.00945837
O        8.08303969       0.31305717      21.65681168  T        1        1      -0.00070085      -0.00673051       0.00289934
O        5.69574669       3.64995368      18.63307774  T        1        1      -0.00420743       0.00190183      -0.00367754
O        7.62793264       2.46972327      19.99938966  T        1        1       0.01026141       0.00556159      -0.00328686
O        3.76381517       2.71404739      22.55205274  T        1        1       0.00713760      -0.00415042      -0.00575813
F        2.86345243       0.10166567      24.33831950  T        0        0       0.00025407       0.00128791      -0.00555298
H        2.93057870       0.22331445      23.35333948  T        0        0      -0.01097944       0.00905431       0.00247365
O        3.97448283       2.50931800      25.34761941  T        0        0      -0.01198577      -0.01013422       0.00644895
H        3.53059914       1.63595651      25.41185901  T        0        0       0.00462537       0.01216157      -0.00073046
H        3.93306569       2.70418162      24.38064854  T        0        0       0.00227139       0.00107048      -0.00193466
41
Lattice="9.8418 0.0 0.0 -2.460449999999999 4.261624409482844 0.0 0.0 -0.0 34.16586254" Properties=species:S:1:pos:R:3:move_mask:L:1:spacegroup_kinds:I:1:tags:I:1:forces:R:3 surface=alpha_quartz_001 coadsorbate=H2O start=1 calculation_kind="Local coadsorbate relaxation; not a reaction path" host_atoms=36 energy=-289.5079122804976 pbc="T T F"
Si       2.31725181       0.00000000      12.00000000  F        0        2      -0.13414571      -0.36640844      -1.70740480
Si      -1.15862590       2.00679893      15.60606667  F        0        2      -0.12349160       0.05996165       1.22838817
Si       1.30182410       2.25482548      13.80303333  F        0        2       0.03243207      -0.15850513       1.00359151
O        1.38326499       1.13103512      12.65233746  F        1        2      -0.50584048       0.21731552      -0.21374681
O        0.28787265       1.76346018      14.95372921  F        1        2       0.43795795      -0.24574504      -0.37874163
O        3.24976236       0.63242506      16.25840413  F        1        2      -0.19696819      -0.53911662       0.06548147
O        0.78931236       3.62919935      13.15069587  F        1        2       0.42695136       0.28383923       0.54182376
O        2.74832265       2.49816423      14.45537079  F        1        2       0.01446417       0.38465995      -0.72590873
O       -1.07718501       3.13058929      16.75676254  F        1        2       0.04069336       0.37802926       0.19423309
Si       2.31069712       0.01479360      17.46118771  T        0        1      -0.00182089      -0.00206116      -0.00221603
Si      -1.23251372       1.76283275      21.10176821  T        0        1       0.00183273      -0.00408436       0.00370008
Si       1.27296375       2.25648996      19.30405829  T        0        1       0.00560759       0.00077403      -0.00189492
O        1.36406790       1.17674739      18.06790346  T        1        1       0.00660441      -0.00118891       0.00285952
O        0.23771741       1.72581749      20.42118553  T        1        1       0.00080632      -0.00129751      -0.00428330
O        3.12177646       0.57997988      21.92254381  T        1        1       0.00565428       0.00639764       0.00198360
O        0.77734775       3.65769128      18.63042579  T        1        1      -0.00510376      -0.00826230      -0.00607932
O        2.72399332       2.48997718      19.98438604  T        1        1      -0.00175485       0.00834610       0.00929397
O       -1.25701286       2.33289749      22.63479124  T        1        1      -0.00142521       0.00546982       0.00063188
Si       7.23815181       0.00000000      12.00000000  F        0        2      -0.13339358      -0.36641176      -1.70424564
Si       3.76227409       2.00679893      15.60606667  F        0        2      -0.10687014       0.08462788       1.22565671
Si       6.22272410       2.25482548      13.80303333  F        0        2       0.02815751      -0.16064396       1.01389552
O        6.30416499       1.13103512      12.65233746  F        1        2      -0.50528603       0.21515195      -0.21764093
O        5.20877265       1.76346018      14.95372921  F        1        2       0.42866964      -0.24716620      -0.37984904
O        8.17066236       0.63242506      16.25840413  F        1        2      -0.18403708      -0.55002404       0.07957818
O        5.71021236       3.62919935      13.15069587  F        1        2       0.42625250       0.28628546       0.53653272
O        7.66922265       2.49816423      14.45537079  F        1        2       0.02190631       0.38741451      -0.72441002
O        3.84371499       3.13058929      16.75676254  F        1        2       0.01819477       0.33280239       0.13409639
Si       7.23265825       0.01136894      17.46100014  T        0        1      -0.00250687       0.00314805       0.00437411
Si       3.70903126       1.88919555      21.14499046  T        0        1       0.00283079      -0.00213745      -0.00388945
Si       6.17766796       2.24294871      19.30529056  T        0        1       0.00153289       0.00376557       0.00846855
O        6.28725473       1.17706072      18.06025589  T        1        1       0.00101862      -0.00275898       0.01600813
O        5.13789112       1.67789478      20.40523071  T        1        1       0.00506669      -0.00313206       0.00595837
O        8.08287904       0.31366807      21.65693227  T        1        1      -0.00056510      -0.00818889       0.00033312
O        5.69591728       3.65027947      18.63266960  T        1        1      -0.00151765      -0.00505772      -0.00189201
O        7.62823142       2.47028723      19.99861371  T        1        1       0.00705623       0.00285922      -0.00185170
O        3.76386993       2.71421354      22.55228906  T        1        1       0.00534840      -0.00112125      -0.00321891
F        2.86309136       0.10108215      24.33869435  T        0        0       0.00020310       0.00339528      -0.00402201
H        2.92998981       0.22353863      23.35395949  T        0        0      -0.00961282       0.00779742       0.00043314
O        3.97055652       2.51284961      25.34771057  T        0        0      -0.00926258      -0.00020782      -0.00308351
H        3.52963833       1.63831427      25.41199062  T        0        0      -0.00064699       0.00192073       0.00177252
H        3.92717254       2.70790868      24.38066357  T        0        0       0.00500781      -0.00044207       0.00528428
41
Lattice="9.8418 0.0 0.0 -2.460449999999999 4.261624409482844 0.0 0.0 -0.0 34.16586254" Properties=species:S:1:pos:R:3:move_mask:L:1:spacegroup_kinds:I:1:tags:I:1:forces:R:3 surface=alpha_quartz_001 coadsorbate=H2O start=1 calculation_kind="Local coadsorbate relaxation; not a reaction path" host_atoms=36 energy=-289.50795131829784 pbc="T T F"
Si       2.31725181       0.00000000      12.00000000  F        0        2      -0.13414017      -0.36643733      -1.70757144
Si      -1.15862590       2.00679893      15.60606667  F        0        2      -0.12301405       0.06117598       1.22751619
Si       1.30182410       2.25482548      13.80303333  F        0        2       0.03268426      -0.15841123       1.00332987
O        1.38326499       1.13103512      12.65233746  F        1        2      -0.50592662       0.21738422      -0.21363539
O        0.28787265       1.76346018      14.95372921  F        1        2       0.43760417      -0.24597691      -0.37829748
O        3.24976236       0.63242506      16.25840413  F        1        2      -0.19588572      -0.53778489       0.06305750
O        0.78931236       3.62919935      13.15069587  F        1        2       0.42698722       0.28376445       0.54195247
O        2.74832265       2.49816423      14.45537079  F        1        2       0.01444617       0.38473912      -0.72594393
O       -1.07718501       3.13058929      16.75676254  F        1        2       0.03899097       0.37611471       0.19263847
Si       2.31081810       0.01463253      17.46113143  T        0        1      -0.00023979      -0.00219563      -0.00463489
Si      -1.23248357       1.76293891      21.10143673  T        0        1      -0.00039301      -0.00157533       0.00218581
Si       1.27339347       2.25646716      19.30385843  T        0        1       0.00130294      -0.00017858      -0.00052396
O        1.36448770       1.17653496      18.06807029  T        1        1       0.00573119      -0.00244081       0.00216373
O        0.23766968       1.72636720      20.42072239  T        1        1       0.00032418      -0.00395927      -0.00063170
O        3.12194274       0.58040695      21.92280897  T        1        1       0.00370420       0.00332135       0.00257905
O        0.77787373       3.65723555      18.62968474  T        1        1      -0.00385776      -0.00409367      -0.00383892
O        2.72407333       2.49001742      19.98459948  T        1        1      -0.00011788       0.01039060       0.00667139
O       -1.25741769       2.33328738      22.63441005  T        1        1      -0.00049916       0.00491230      -0.00008170
Si       7.23815181       0.00000000      12.00000000  F        0        2      -0.13343966      -0.36645773      -1.70454427
Si       3.76227409       2.00679893      15.60606667  F        0        2      -0.10766174       0.08377084       1.22557089
Si       6.22272410       2.25482548      13.80303333  F        0        2       0.02804938      -0.16067105       1.01338817
O        6.30416499       1.13103512      12.65233746  F        1        2      -0.50536278       0.21529300      -0.21748150
O        5.20877265       1.76346018      14.95372921  F        1        2       0.42891035      -0.24714554      -0.37960628
O        8.17066236       0.63242506      16.25840413  F        1        2      -0.18356830      -0.54799753       0.07732734
O        5.71021236       3.62919935      13.15069587  F        1        2       0.42639890       0.28621030       0.53679838
O        7.66922265       2.49816423      14.45537079  F        1        2       0.02200276       0.38730159      -0.72406888
O        3.84371499       3.13058929      16.75676254  F        1        2       0.01696074       0.33182279       0.13218316
Si       7.23255031       0.01149215      17.46076778  T        0        1      -0.00382207       0.00206206       0.01092626
Si       3.70912172       1.88947149      21.14506798  T        0        1       0.00605864      -0.00323896      -0.00156287
Si       6.17757368       2.24327484      19.30534182  T        0        1       0.00526616       0.00157025       0.00899321
O        6.28712455       1.17666930      18.06086347  T        1        1      -0.00089937       0.00097030       0.01333903
O        5.13818904       1.67819307      20.40575054  T        1        1       0.00616490      -0.00155275       0.00278090
O        8.08291495       0.31387251      21.65696339  T        1        1       0.00035644      -0.00593509      -0.00190053
O        5.69576563       3.65044868      18.63247210  T        1        1       0.00091939      -0.00873780       0.00008893
O        7.62852311       2.47075499      19.99807889  T        1        1       0.00471888       0.00027443       0.00054869
O        3.76396955       2.71424885      22.55239560  T        1        1       0.00443691       0.00184759      -0.00035053
F        2.86270227       0.10056042      24.33893493  T        0        0      -0.00025299       0.00476734      -0.00138707
H        2.92924743       0.22372329      23.35442295  T        0        0      -0.00796073       0.00703153      -0.00192303
O        3.96818842       2.51480423      25.34777204  T        0        0      -0.00519090       0.00791901      -0.00313167
H        3.52931112       1.63951745      25.41212975  T        0        0      -0.00505672      -0.00585264       0.00181040
H        3.92416702       2.71000850      24.38078412  T        0        0       0.00527065      -0.00200099       0.00526620
41
Lattice="9.8418 0.0 0.0 -2.460449999999999 4.261624409482844 0.0 0.0 -0.0 34.16586254" Properties=species:S:1:pos:R:3:move_mask:L:1:spacegroup_kinds:I:1:tags:I:1:forces:R:3 surface=alpha_quartz_001 coadsorbate=H2O start=1 calculation_kind="Local coadsorbate relaxation; not a reaction path" host_atoms=36 energy=-289.5079958620629 pbc="T T F"
Si       2.31725181       0.00000000      12.00000000  F        0        2      -0.13414160      -0.36646549      -1.70774880
Si      -1.15862590       2.00679893      15.60606667  F        0        2      -0.12303963       0.06179462       1.22686041
Si       1.30182410       2.25482548      13.80303333  F        0        2       0.03293959      -0.15831113       1.00302480
O        1.38326499       1.13103512      12.65233746  F        1        2      -0.50600684       0.21745292      -0.21352185
O        0.28787265       1.76346018      14.95372921  F        1        2       0.43739325      -0.24613755      -0.37789768
O        3.24976236       0.63242506      16.25840413  F        1        2      -0.19485094      -0.53633486       0.06043886
O        0.78931236       3.62919935      13.15069587  F        1        2       0.42701887       0.28369562       0.54209100
O        2.74832265       2.49816423      14.45537079  F        1        2       0.01438595       0.38477695      -0.72599114
O       -1.07718501       3.13058929      16.75676254  F        1        2       0.03554181       0.37264905       0.18904638
Si       2.31083058       0.01448127      17.46096721  T        0        1       0.00206040      -0.00170019      -0.00517346
Si      -1.23236772       1.76308474      21.10132315  T        0        1      -0.00113343       0.00087902      -0.00037552
Si       1.27377336       2.25643263      19.30361392  T        0        1      -0.00321892      -0.00121766       0.00235302
O        1.36476829       1.17626645      18.06820696  T        1        1       0.00516166      -0.00273507       0.00195675
O        0.23773878       1.72689627      20.42044419  T        1        1      -0.00009387      -0.00640941       0.00263532
O        3.12232120       0.58115739      21.92310615  T        1        1       0.00070250      -0.00079782       0.00257456
O        0.77808623       3.65665129      18.62888481  T        1        1      -0.00109121       0.00032935      -0.00060903
O        2.72413759       2.49033998      19.98473015  T        1        1       0.00179857       0.01059970       0.00304381
O       -1.25783044       2.33394381      22.63414520  T        1        1       0.00046217       0.00337569      -0.00067278
Si       7.23815181       0.00000000      12.00000000  F        0        2      -0.13347681      -0.36648820      -1.70475615
Si       3.76227409       2.00679893      15.60606667  F        0        2      -0.10814447       0.08361748       1.22560179
Si       6.22272410       2.25482548      13.80303333  F        0        2       0.02800118      -0.16067942       1.01301610
O        6.30416499       1.13103512      12.65233746  F        1        2      -0.50541809       0.21540355      -0.21736821
O        5.20877265       1.76346018      14.95372921  F        1        2       0.42910872      -0.24722726      -0.37930747
O        8.17066236       0.63242506      16.25840413  F        1        2      -0.18540786      -0.54677764       0.07815904
O        5.71021236       3.62919935      13.15069587  F        1        2       0.42650664       0.28614147       0.53698085
O        7.66922265       2.49816423      14.45537079  F        1        2       0.02208261       0.38728373      -0.72387007
O        3.84371499       3.13058929      16.75676254  F        1        2       0.01662159       0.33246900       0.13175584
Si       7.23244174       0.01160582      17.46074776  T        0        1      -0.00362907       0.00006036       0.01304535
Si       3.70929351       1.88996198      21.14501296  T        0        1       0.00762972      -0.00208677       0.00174081
Si       6.17772141       2.24365458      19.30563825  T        0        1       0.00865386      -0.00053890       0.00807128
O        6.28702307       1.17616538      18.06188707  T        1        1      -0.00145745       0.00275269       0.00896756
O        5.13869104       1.67869227      20.40646477  T        1        1       0.00581854      -0.00035207       0.00053626
O        8.08305925       0.31406857      21.65715171  T        1        1       0.00162083      -0.00213757      -0.00395162
O        5.69583618       3.65044358      18.63220934  T        1        1       0.00247224      -0.00986564       0.00168583
O        7.62901843       2.47136039      19.99771194  T        1        1       0.00291898      -0.00272453       0.00336179
O        3.76379833       2.71487030      22.55222477  T        1        1       0.00433047       0.00417982       0.00320105
F        2.86263989       0.10019609      24.33902995  T        0        0      -0.00135706       0.00616792       0.00160135
H        2.92861686       0.22416042      23.35471737  T        0        0      -0.00572803       0.00633436      -0.00386658
O        3.96530709       2.51685672      25.34795215  T        0        0      -0.00156734       0.01371012      -0.00163954
H        3.52814774       1.64090524      25.41240401  T        0        0      -0.00798750      -0.01106978       0.00071395
H        3.92153816       2.71194618      24.38096253  T        0        0       0.00451999      -0.00361647       0.00428613
41
Lattice="9.8418 0.0 0.0 -2.460449999999999 4.261624409482844 0.0 0.0 -0.0 34.16586254" Properties=species:S:1:pos:R:3:move_mask:L:1:spacegroup_kinds:I:1:tags:I:1:forces:R:3 surface=alpha_quartz_001 coadsorbate=H2O start=1 calculation_kind="Local coadsorbate relaxation; not a reaction path" host_atoms=36 energy=-289.50804824492945 pbc="T T F"
Si       2.31725181       0.00000000      12.00000000  F        0        2      -0.13415114      -0.36648805      -1.70791211
Si      -1.15862590       2.00679893      15.60606667  F        0        2      -0.12366493       0.06159825       1.22660414
Si       1.30182410       2.25482548      13.80303333  F        0        2       0.03316809      -0.15821924       1.00272032
O        1.38326499       1.13103512      12.65233746  F        1        2      -0.50606864       0.21751155      -0.21342755
O        0.28787265       1.76346018      14.95372921  F        1        2       0.43741409      -0.24620770      -0.37758829
O        3.24976236       0.63242506      16.25840413  F        1        2      -0.19388932      -0.53440355       0.05722687
O        0.78931236       3.62919935      13.15069587  F        1        2       0.42704056       0.28364284       0.54221721
O        2.74832265       2.49816423      14.45537079  F        1        2       0.01429204       0.38477726      -0.72602808
O       -1.07718501       3.13058929      16.75676254  F        1        2       0.03110919       0.36860486       0.18433639
Si       2.31077510       0.01435822      17.46071293  T        0        1       0.00456046      -0.00102227      -0.00312308
Si      -1.23217285       1.76354996      21.10142583  T        0        1      -0.00003490       0.00273405      -0.00152364
Si       1.27410266       2.25646022      19.30346001  T        0        1      -0.00542809      -0.00201169       0.00551023
O        1.36497308       1.17592024      18.06848312  T        1        1       0.00487715      -0.00188173       0.00256123
O        0.23793812       1.72751453      20.42048633  T        1        1       0.00026984      -0.00872495       0.00484293
O        3.12293928       0.58216156      21.92336697  T        1        1      -0.00243644      -0.00409817       0.00207936
O        0.77820076       3.65603492      18.62797734  T        1        1       0.00237170       0.00376988       0.00383939
O        2.72420503       2.49108695      19.98495467  T        1        1       0.00375352       0.00836834      -0.00114484
O       -1.25829900       2.33558592      22.63382847  T        1        1       0.00141962       0.00029067      -0.00086112
Si       7.23815181       0.00000000      12.00000000  F        0        2      -0.13350055      -0.36649708      -1.70484263
Si       3.76227409       2.00679893      15.60606667  F        0        2      -0.10826432       0.08417349       1.22571209
Si       6.22272410       2.25482548      13.80303333  F        0        2       0.02804703      -0.16066701       1.01285399
O        6.30416499       1.13103512      12.65233746  F        1        2      -0.50544337       0.21546446      -0.21732403
O        5.20877265       1.76346018      14.95372921  F        1        2       0.42923839      -0.24741537      -0.37896258
O        8.17066236       0.63242506      16.25840413  F        1        2      -0.18962107      -0.54662046       0.08230468
O        5.71021236       3.62919935      13.15069587  F        1        2       0.42655470       0.28608740       0.53704176
O        7.66922265       2.49816423      14.45537079  F        1        2       0.02211553       0.38737985      -0.72387258
O        3.84371499       3.13058929      16.75676254  F        1        2       0.01746291       0.33460302       0.13306248
Si       7.23239963       0.01163281      17.46098521  T        0        1      -0.00185008      -0.00220481       0.00952825
Si       3.70966451       1.89073445      21.14493957  T        0        1       0.00637137       0.00070922       0.00523038
Si       6.17825818       2.24404583      19.30616209  T        0        1       0.00932390      -0.00237981       0.00534751
O        6.28701950       1.17548154      18.06335109  T        1        1      -0.00049542       0.00239143       0.00319950
O        5.13946143       1.67948676      20.40735931  T        1        1       0.00416653       0.00049396      -0.00044569
O        8.08308090       0.31471276      21.65770032  T        1        1       0.00335018       0.00291921      -0.00533587
O        5.69628195       3.65021427      18.63185106  T        1        1       0.00278256      -0.00814005       0.00260059
O        7.62981055       2.47218990      19.99743167  T        1        1       0.00139853      -0.00502456       0.00533248
O        3.76356930       2.71605626      22.55194877  T        1        1       0.00495604       0.00527904       0.00624052
F        2.86266726       0.10071380      24.33897939  T        0        0      -0.00310285       0.00682895       0.00388778
H        2.92800182       0.22530425      23.35475909  T        0        0      -0.00323349       0.00535871      -0.00494178
O        3.96268892       2.51805998      25.34817704  T        0        0       0.00097423       0.01583047       0.00394492
H        3.52647029       1.64168611      25.41255627  T        0        0      -0.00883837      -0.01212806      -0.00140171
H        3.91980684       2.71315904      24.38126307  T        0        0       0.00300479      -0.00468235       0.00051060
41
Lattice="9.8418 0.0 0.0 -2.460449999999999 4.261624409482844 0.0 0.0 -0.0 34.16586254" Properties=species:S:1:pos:R:3:move_mask:L:1:spacegroup_kinds:I:1:tags:I:1:forces:R:3 surface=alpha_quartz_001 coadsorbate=H2O start=1 calculation_kind="Local coadsorbate relaxation; not a reaction path" host_atoms=36 energy=-289.5080960137557 pbc="T T F"
Si       2.31725181       0.00000000      12.00000000  F        0        2      -0.13416854      -0.36649859      -1.70800503
Si      -1.15862590       2.00679893      15.60606667  F        0        2      -0.12468853       0.06061418       1.22701155
Si       1.30182410       2.25482548      13.80303333  F        0        2       0.03324098      -0.15818035       1.00254729
O        1.38326499       1.13103512      12.65233746  F        1        2      -0.50608457       0.21754058      -0.21338957
O        0.28787265       1.76346018      14.95372921  F        1        2       0.43771995      -0.24615961      -0.37752580
O        3.24976236       0.63242506      16.25840413  F        1        2      -0.19352169      -0.53269419       0.05483061
O        0.78931236       3.62919935      13.15069587  F        1        2       0.42705172       0.28362916       0.54228579
O        2.74832265       2.49816423      14.45537079  F        1        2       0.01421847       0.38473557      -0.72600771
O       -1.07718501       3.13058929      16.75676254  F        1        2       0.02764886       0.36603555       0.18057716
Si       2.31065957       0.01434662      17.46047546  T        0        1       0.00580927      -0.00070381       0.00118042
Si      -1.23191933       1.76410308      21.10183123  T        0        1       0.00265876       0.00409109      -0.00172443
Si       1.27418769       2.25657293      19.30353019  T        0        1      -0.00338021      -0.00220041       0.00725095
O        1.36500708       1.17565500      18.06885751  T        1        1       0.00511078      -0.00042535       0.00345878
O        0.23821797       1.72794234      20.42095280  T        1        1       0.00217064      -0.00991465       0.00475428
O        3.12365058       0.58304958      21.92343136  T        1        1      -0.00439084      -0.00416225       0.00107262
O        0.77814312       3.65565635      18.62734281  T        1        1       0.00484653       0.00460899       0.00785986
O        2.72421556       2.49209099      19.98519465  T        1        1       0.00541634       0.00398999      -0.00366084
O       -1.25869905       2.33758674      22.63363672  T        1        1       0.00221176      -0.00279146       0.00089069
Si       7.23815181       0.00000000      12.00000000  F        0        2      -0.13350077      -0.36648248      -1.70477492
Si       3.76227409       2.00679893      15.60606667  F        0        2      -0.10797247       0.08529135       1.22576603
Si       6.22272410       2.25482548      13.80303333  F        0        2       0.02822156      -0.16063410       1.01296138
O        6.30416499       1.13103512      12.65233746  F        1        2      -0.50543978       0.21545524      -0.21736702
O        5.20877265       1.76346018      14.95372921  F        1        2       0.42922970      -0.24765574      -0.37864211
O        8.17066236       0.63242506      16.25840413  F        1        2      -0.19444448      -0.54753132       0.08787583
O        5.71021236       3.62919935      13.15069587  F        1        2       0.42652542       0.28606004       0.53695964
O        7.66922265       2.49816423      14.45537079  F        1        2       0.02205338       0.38754416      -0.72410351
O        3.84371499       3.13058929      16.75676254  F        1        2       0.01936007       0.33722653       0.13568116
Si       7.23254359       0.01146371      17.46140918  T        0        1       0.00107540      -0.00361061       0.00226621
Si       3.71009979       1.89162325      21.14489284  T        0        1       0.00273086       0.00366239       0.00693235
Si       6.17915236       2.24426049      19.30680613  T        0        1       0.00602770      -0.00354243       0.00146124
O        6.28729845       1.17471252      18.06492266  T        1        1       0.00136583       0.00006796      -0.00210844
O        5.14023660       1.68036839      20.40811896  T        1        1       0.00118988       0.00098018       0.00072529
O        8.08295193       0.31556917      21.65844804  T        1        1       0.00446926       0.00572616      -0.00481940
O        5.69717448       3.64972910      18.63143765  T        1        1       0.00158531      -0.00401353       0.00219263
O        7.63071176       2.47290294      19.99749038  T        1        1       0.00033883      -0.00512283       0.00507845
O        3.76332974       2.71757358      22.55164552  T        1        1       0.00607715       0.00410571       0.00748627
F        2.86300381       0.10205899      24.33871747  T        0        0      -0.00507854       0.00678844       0.00385959
H        2.92777342       0.22687547      23.35439647  T        0        0      -0.00127404       0.00422297      -0.00386690
O        3.96075192       2.51845355      25.34849776  T        0        0      -0.00028201       0.01131782       0.00717073
H        3.52421637       1.64203719      25.41248554  T        0        0      -0.00611701      -0.00715377      -0.00265749
H        3.91918933       2.71350512      24.38158223  T        0        0       0.00198909      -0.00421659      -0.00148363
41
Lattice="9.8418 0.0 0.0 -2.460449999999999 4.261624409482844 0.0 0.0 -0.0 34.16586254" Properties=species:S:1:pos:R:3:move_mask:L:1:spacegroup_kinds:I:1:tags:I:1:forces:R:3 surface=alpha_quartz_001 coadsorbate=H2O start=1 calculation_kind="Local coadsorbate relaxation; not a reaction path" host_atoms=36 energy=-289.50813037443186 pbc="T T F"
Si       2.31725181       0.00000000      12.00000000  F        0        2      -0.13418406      -0.36649551      -1.70800575
Si      -1.15862590       2.00679893      15.60606667  F        0        2      -0.12550711       0.05957849       1.22771866
Si       1.30182410       2.25482548      13.80303333  F        0        2       0.03317790      -0.15819782       1.00255250
O        1.38326499       1.13103512      12.65233746  F        1        2      -0.50606199       0.21753654      -0.21341058
O        0.28787265       1.76346018      14.95372921  F        1        2       0.43810402      -0.24606906      -0.37764119
O        3.24976236       0.63242506      16.25840413  F        1        2      -0.19363425      -0.53185745       0.05390006
O        0.78931236       3.62919935      13.15069587  F        1        2       0.42705217       0.28364571       0.54228139
O        2.74832265       2.49816423      14.45537079  F        1        2       0.01419484       0.38467956      -0.72594623
O       -1.07718501       3.13058929      16.75676254  F        1        2       0.02708594       0.36640399       0.17991294
Si       2.31062916       0.01438912      17.46039393  T        0        1       0.00529728      -0.00114808       0.00503699
Si      -1.23168379       1.76463160      21.10228959  T        0        1       0.00499211       0.00424543      -0.00006563
Si       1.27414067       2.25671631      19.30384690  T        0        1       0.00182892      -0.00184410       0.00640671
O        1.36508618       1.17553192      18.06931188  T        1        1       0.00525744       0.00070898       0.00395589
O        0.23845937       1.72802481      20.42153937  T        1        1       0.00470084      -0.00959736       0.00330225
O        3.12411597       0.58343546      21.92330581  T        1        1      -0.00433177      -0.00104861       0.00027016
O        0.77816933       3.65559798      18.62715096  T        1        1       0.00506813       0.00292683       0.00981916
O        2.72423285       2.49295856      19.98550577  T        1        1       0.00609709      -0.00009340      -0.00357560
O       -1.25890935       2.33933452      22.63355641  T        1        1       0.00274316      -0.00491155       0.00303959
Si       7.23815181       0.00000000      12.00000000  F        0        2      -0.13348709      -0.36645966      -1.70464056
Si       3.76227409       2.00679893      15.60606667  F        0        2      -0.10760219       0.08622737       1.22577923
Si       6.22272410       2.25482548      13.80303333  F        0        2       0.02841719      -0.16060118       1.01319099
O        6.30416499       1.13103512      12.65233746  F        1        2      -0.50542150       0.21540644      -0.21744683
O        5.20877265       1.76346018      14.95372921  F        1        2       0.42915178      -0.24782430      -0.37845804
O        8.17066236       0.63242506      16.25840413  F        1        2      -0.19752644      -0.54879236       0.09192189
O        5.71021236       3.62919935      13.15069587  F        1        2       0.42645983       0.28605826       0.53682348
O        7.66922265       2.49816423      14.45537079  F        1        2       0.02194128       0.38767098      -0.72437818
O        3.84371499       3.13058929      16.75676254  F        1        2       0.02117334       0.33888775       0.13793325
Si       7.23279163       0.01119118      17.46177843  T        0        1       0.00344127      -0.00363706      -0.00398736
Si       3.71046423       1.89225063      21.14499844  T        0        1      -0.00093352       0.00485844       0.00634458
Si       6.17998781       2.24425191      19.30730401  T        0        1       0.00047400      -0.00403059      -0.00173863
O        6.28772738       1.17413130      18.06600933  T        1        1       0.00276068      -0.00225631      -0.00497753
O        5.14074904       1.68095405      20.40854479  T        1        1      -0.00110133       0.00140079       0.00249707
O        8.08267392       0.31644739      21.65911217  T        1        1       0.00471899       0.00555992      -0.00287838
O        5.69803592       3.64922456      18.63114275  T        1        1       0.00019305      -0.00035793       0.00118977
O        7.63139655       2.47327920      19.99772481  T        1        1      -0.00047197      -0.00299240       0.00283161
O        3.76342683       2.71859248      22.55162482  T        1        1       0.00678740       0.00178376       0.00646157
F        2.86316015       0.10381631      24.33840910  T        0        0      -0.00641358       0.00600758       0.00185672
H        2.92772265       0.22838143      23.35385569  T        0        0      -0.00054805       0.00313317      -0.00164221
O        3.96042133       2.51770629      25.34877524  T        0        0      -0.00395101       0.00337966       0.00865972
H        3.52269433       1.64155612      25.41207936  T        0        0      -0.00189611       0.00046761      -0.00233625
H        3.91987961       2.71290579      24.38188157  T        0        0       0.00195333      -0.00235251      -0.00255724
41
Lattice="9.8418 0.0 0.0 -2.460449999999999 4.261624409482844 0.0 0.0 -0.0 34.16586254" Properties=species:S:1:pos:R:3:move_mask:L:1:spacegroup_kinds:I:1:tags:I:1:forces:R:3 surface=alpha_quartz_001 coadsorbate=H2O start=1 calculation_kind="Local coadsorbate relaxation; not a reaction path" host_atoms=36 energy=-289.5081592878973 pbc="T T F"
Si       2.31725181       0.00000000      12.00000000  F        0        2      -0.13419493      -0.36648780      -1.70796500
Si      -1.15862590       2.00679893      15.60606667  F        0        2      -0.12591220       0.05892980       1.22837234
Si       1.30182410       2.25482548      13.80303333  F        0        2       0.03305831      -0.15824103       1.00265292
O        1.38326499       1.13103512      12.65233746  F        1        2      -0.50602799       0.21752035      -0.21345217
O        0.28787265       1.76346018      14.95372921  F        1        2       0.43841305      -0.24600317      -0.37779545
O        3.24976236       0.63242506      16.25840413  F        1        2      -0.19404181      -0.53197924       0.05436911
O        0.78931236       3.62919935      13.15069587  F        1        2       0.42705251       0.28366849       0.54224494
O        2.74832265       2.49816423      14.45537079  F        1        2       0.01421327       0.38462829      -0.72586496
O       -1.07718501       3.13058929      16.75676254  F        1        2       0.02864255       0.36863933       0.18150341
Si       2.31070017       0.01441882      17.46046102  T        0        1       0.00377477      -0.00197217       0.00711878
Si      -1.23143051       1.76501929      21.10272549  T        0        1       0.00613571       0.00398001       0.00131563
Si       1.27409842       2.25682134      19.30427627  T        0        1       0.00710409      -0.00135573       0.00421446
O        1.36527581       1.17550097      18.06977996  T        1        1       0.00515945       0.00107354       0.00365389
O        0.23868708       1.72780073      20.42207041  T        1        1       0.00696180      -0.00809178       0.00178703
O        3.12436773       0.58351974      21.92311431  T        1        1      -0.00338681       0.00309299      -0.00019752
O        0.77827375       3.65568190      18.62728766  T        1        1       0.00377338       0.00053662       0.00985277
O        2.72430426       2.49360160      19.98578780  T        1        1       0.00625225      -0.00285267      -0.00179127
O       -1.25899099       2.34044171      22.63363141  T        1        1       0.00332483      -0.00563282       0.00507677
Si       7.23815181       0.00000000      12.00000000  F        0        2      -0.13347404      -0.36644320      -1.70453740
Si       3.76227409       2.00679893      15.60606667  F        0        2      -0.10739964       0.08670774       1.22576392
Si       6.22272410       2.25482548      13.80303333  F        0        2       0.02857772      -0.16057999       1.01336969
O        6.30416499       1.13103512      12.65233746  F        1        2      -0.50541131       0.21536428      -0.21750984
O        5.20877265       1.76346018      14.95372921  F        1        2       0.42909004      -0.24790286      -0.37835419
O        8.17066236       0.63242506      16.25840413  F        1        2      -0.19860934      -0.54971210       0.09361952
O        5.71021236       3.62919935      13.15069587  F        1        2       0.42640762       0.28605936       0.53672411
O        7.66922265       2.49816423      14.45537079  F        1        2       0.02182693       0.38771740      -0.72455978
O        3.84371499       3.13058929      16.75676254  F        1        2       0.02246667       0.33941004       0.13920504
Si       7.23308725       0.01088652      17.46200326  T        0        1       0.00468321      -0.00287152      -0.00680076
Si       3.71070381       1.89268056      21.14521300  T        0        1      -0.00282665       0.00447859       0.00457380
Si       6.18063787       2.24411648      19.30766521  T        0        1      -0.00438826      -0.00423317      -0.00369135
O        6.28822749       1.17368071      18.06672357  T        1        1       0.00309444      -0.00348151      -0.00598247
O        5.14103833       1.68131114      20.40879791  T        1        1      -0.00243155       0.00187368       0.00382950
O        8.08244651       0.31712734      21.65958578  T        1        1       0.00416965       0.00312784      -0.00051985
O        5.69874808       3.64878129      18.63093645  T        1        1      -0.00066723       0.00168489       0.00016031
O        7.63187246       2.47339945      19.99805424  T        1        1      -0.00112947      -0.00035081       0.00015386
O        3.76373673       2.71921339      22.55179014  T        1        1       0.00686111      -0.00058863       0.00467794
F        2.86316559       0.10536330      24.33810773  T        0        0      -0.00715909       0.00541086      -0.00072384
H        2.92773657       0.22956786      23.35330642  T        0        0      -0.00048065       0.00218287       0.00087801
O        3.96038285       2.51709151      25.34909922  T        0        0      -0.00845297      -0.00486401       0.00659197
H        3.52150342       1.64118370      25.41158215  T        0        0       0.00221329       0.00755865      -0.00058930
H        3.92063342       2.71238070      24.38216078  T        0        0       0.00273729      -0.00000142      -0.00137460
41
Lattice="9.8418 0.0 0.0 -2.460449999999999 4.261624409482844 0.0 0.0 -0.0 34.16586254" Properties=species:S:1:pos:R:3:move_mask:L:1:spacegroup_kinds:I:1:tags:I:1:forces:R:3 surface=alpha_quartz_001 coadsorbate=H2O start=1 calculation_kind="Local coadsorbate relaxation; not a reaction path" host_atoms=36 energy=-289.5081986086558 pbc="T T F"
Si       2.31725181       0.00000000      12.00000000  F        0        2      -0.13420263      -0.36647702      -1.70790327
Si      -1.15862590       2.00679893      15.60606667  F        0        2      -0.12601769       0.05859756       1.22890972
Si       1.30182410       2.25482548      13.80303333  F        0        2       0.03293449      -0.15829517       1.00280703
O        1.38326499       1.13103512      12.65233746  F        1        2      -0.50599171       0.21749958      -0.21350294
O        0.28787265       1.76346018      14.95372921  F        1        2       0.43866309      -0.24597823      -0.37790751
O        3.24976236       0.63242506      16.25840413  F        1        2      -0.19454977      -0.53294827       0.05580458
O        0.78931236       3.62919935      13.15069587  F        1        2       0.42705416       0.28368588       0.54219166
O        2.74832265       2.49816423      14.45537079  F        1        2       0.01425359       0.38457383      -0.72576216
O       -1.07718501       3.13058929      16.75676254  F        1        2       0.03212232       0.37251180       0.18512190
Si       2.31095198       0.01435019      17.46067992  T        0        1       0.00156818      -0.00305775       0.00752578
Si      -1.23101965       1.76556072      21.10319198  T        0        1       0.00612359       0.00297016       0.00305244
Si       1.27426314       2.25688163      19.30490166  T        0        1       0.01227248      -0.00079936       0.00090019
O        1.36580060       1.17543730      18.07048304  T        1        1       0.00448963       0.00088729       0.00255273
O        0.23905993       1.72731284      20.42262872  T        1        1       0.00883859      -0.00514231       0.00075337
O        3.12455145       0.58359392      21.92293011  T        1        1      -0.00207095       0.00790009      -0.00033391
O        0.77862494       3.65574636      18.62760449  T        1        1       0.00126642      -0.00220710       0.00849025
O        2.72456682       2.49431406      19.98618908  T        1        1       0.00598645      -0.00484642       0.00104279
O       -1.25904090       2.34155434      22.63379634  T        1        1       0.00441620      -0.00577075       0.00636391
Si       7.23815181       0.00000000      12.00000000  F        0        2      -0.13346811      -0.36643324      -1.70447942
Si       3.76227409       2.00679893      15.60606667  F        0        2      -0.10745125       0.08675154       1.22581103
Si       6.22272410       2.25482548      13.80303333  F        0        2       0.02870753      -0.16057307       1.01346828
O        6.30416499       1.13103512      12.65233746  F        1        2      -0.50541076       0.21533999      -0.21754968
O        5.20877265       1.76346018      14.95372921  F        1        2       0.42910456      -0.24791854      -0.37826095
O        8.17066236       0.63242506      16.25840413  F        1        2      -0.19861867      -0.55035414       0.09399168
O        5.71021236       3.62919935      13.15069587  F        1        2       0.42637784       0.28605181       0.53667200
O        7.66922265       2.49816423      14.45537079  F        1        2       0.02171708       0.38769920      -0.72462473
O        3.84371499       3.13058929      16.75676254  F        1        2       0.02357586       0.33920601       0.13980257
Si       7.23347246       0.01050447      17.46215394  T        0        1       0.00496284      -0.00159677      -0.00705882
Si       3.71098299       1.89318392      21.14564181  T        0        1      -0.00306728       0.00296050       0.00222612
Si       6.18129063       2.24390366      19.30804427  T        0        1      -0.00852991      -0.00431031      -0.00495776
O        6.28885337       1.17312693      18.06747347  T        1        1       0.00247235      -0.00353356      -0.00617535
O        5.14136125       1.68171182      20.40920359  T        1        1      -0.00272514       0.00243696       0.00414285
O        8.08226836       0.31798502      21.66009070  T        1        1       0.00317290      -0.00043436       0.00203920
O        5.69947780       3.64828511      18.63072315  T        1        1      -0.00087427       0.00243544      -0.00077921
O        7.63240328       2.47351866      19.99839570  T        1        1      -0.00182388       0.00233307      -0.00275737
O        3.76442497       2.71976691      22.55221517  T        1        1       0.00618322      -0.00289240       0.00241301
F        2.86274555       0.10718896      24.33777964  T        0        0      -0.00771260       0.00492362      -0.00345085
H        2.92750235       0.23098136      23.35270938  T        0        0      -0.00055751       0.00100289       0.00350162
O        3.96003618       2.51669124      25.34958313  T        0        0      -0.01293530      -0.01301028       0.00375555
H        3.52026794       1.64088441      25.41093625  T        0        0       0.00587236       0.01402574       0.00209984
H        3.92122374       2.71212013      24.38259664  T        0        0       0.00387169       0.00278609       0.00006384
41
Lattice="9.8418 0.0 0.0 -2.460449999999999 4.261624409482844 0.0 0.0 -0.0 34.16586254" Properties=species:S:1:pos:R:3:move_mask:L:1:spacegroup_kinds:I:1:tags:I:1:forces:R:3 surface=alpha_quartz_001 coadsorbate=H2O start=1 calculation_kind="Local coadsorbate relaxation; not a reaction path" host_atoms=36 energy=-289.5082605079279 pbc="T T F"
Si       2.31725181       0.00000000      12.00000000  F        0        2      -0.13420714      -0.36646450      -1.70783273
Si      -1.15862590       2.00679893      15.60606667  F        0        2      -0.12580102       0.05859684       1.22921590
Si       1.30182410       2.25482548      13.80303333  F        0        2       0.03283721      -0.15835299       1.00299913
O        1.38326499       1.13103512      12.65233746  F        1        2      -0.50595949       0.21747969      -0.21355369
O        0.28787265       1.76346018      14.95372921  F        1        2       0.43883335      -0.24601006      -0.37790740
O        3.24976236       0.63242506      16.25840413  F        1        2      -0.19514484      -0.53527954       0.05864006
O        0.78931236       3.62919935      13.15069587  F        1        2       0.42706055       0.28368703       0.54213062
O        2.74832265       2.49816423      14.45537079  F        1        2       0.01431126       0.38450653      -0.72562147
O       -1.07718501       3.13058929      16.75676254  F        1        2       0.03781012       0.37801763       0.19097486
Si       2.31149077       0.01407228      17.46110652  T        0        1      -0.00118882      -0.00402886       0.00560879
Si      -1.23024723       1.76640671      21.10376841  T        0        1       0.00471845       0.00100711       0.00414344
Si       1.27487527       2.25684070      19.30580666  T        0        1       0.01590974      -0.00022291      -0.00307097
O        1.36689068       1.17524085      18.07159334  T        1        1       0.00301251       0.00010453       0.00034116
O        0.23981994       1.72644086      20.42331633  T        1        1       0.00973267       0.00024319       0.00064649
O        3.12479018       0.58400311      21.92285957  T        1        1      -0.00102279       0.01258129      -0.00019536
O        0.77931703       3.65563518      18.62812458  T        1        1      -0.00241949      -0.00482558       0.00528080
O        2.72521977       2.49532202      19.98673935  T        1        1       0.00526226      -0.00612964       0.00469208
O       -1.25909492       2.34277478      22.63414208  T        1        1       0.00659988      -0.00501687       0.00659965
Si       7.23815181       0.00000000      12.00000000  F        0        2      -0.13347684      -0.36643268      -1.70449797
Si       3.76227409       2.00679893      15.60606667  F        0        2      -0.10790806       0.08620418       1.22599839
Si       6.22272410       2.25482548      13.80303333  F        0        2       0.02879522      -0.16059289       1.01342882
O        6.30416499       1.13103512      12.65233746  F        1        2      -0.50542641       0.21535098      -0.21755165
O        5.20877265       1.76346018      14.95372921  F        1        2       0.42927089      -0.24786277      -0.37812696
O        8.17066236       0.63242506      16.25840413  F        1        2      -0.19774129      -0.55056325       0.09315227
O        5.71021236       3.62919935      13.15069587  F        1        2       0.42638893       0.28602221       0.53669745
O        7.66922265       2.49816423      14.45537079  F        1        2       0.02162603       0.38760361      -0.72449566
O        3.84371499       3.13058929      16.75676254  F        1        2       0.02473754       0.33825816       0.13972902
Si       7.23404133       0.00996001      17.46225566  T        0        1       0.00395833       0.00014241      -0.00435593
Si       3.71140885       1.89406590      21.14640362  T        0        1      -0.00076336       0.00056438      -0.00037609
Si       6.18208668       2.24358971      19.30856539  T        0        1      -0.01051575      -0.00395641      -0.00546797
O        6.28970520       1.17221627      18.06859234  T        1        1       0.00066493      -0.00201414      -0.00586339
O        5.14191079       1.68244354      20.41007091  T        1        1      -0.00179692       0.00271611       0.00288617
O        8.08231164       0.31915975      21.66071424  T        1        1       0.00156187      -0.00512865       0.00453866
O        5.70043104       3.64760046      18.63039138  T        1        1      -0.00035275       0.00189318      -0.00171559
O        7.63319625       2.47379167      19.99876711  T        1        1      -0.00216555       0.00396430      -0.00534759
O        3.76560675       2.72068831      22.55293067  T        1        1       0.00447372      -0.00497532       0.00026533
F        2.86172601       0.10945275      24.33737324  T        0        0      -0.00834660       0.00499209      -0.00559585
H        2.92682938       0.23293251      23.35203604  T        0        0      -0.00029448      -0.00051053       0.00615099
O        3.95788886       2.51754867      25.35045421  T        0        0      -0.01663085      -0.02024750      -0.00075235
H        3.51811873       1.64141017      25.41028901  T        0        0       0.00854692       0.01907409       0.00553117
H        3.92070402       2.71293270      24.38332552  T        0        0       0.00505006       0.00560557       0.00267738
41
Lattice="9.8418 0.0 0.0 -2.460449999999999 4.261624409482844 0.0 0.0 -0.0 34.16586254" Properties=species:S:1:pos:R:3:move_mask:L:1:spacegroup_kinds:I:1:tags:I:1:forces:R:3 surface=alpha_quartz_001 coadsorbate=H2O start=1 calculation_kind="Local coadsorbate relaxation; not a reaction path" host_atoms=36 energy=-289.508339342436 pbc="T T F"
Si       2.31725181       0.00000000      12.00000000  F        0        2      -0.13420466      -0.36645380      -1.70778375
Si      -1.15862590       2.00679893      15.60606667  F        0        2      -0.12529475       0.05890948       1.22894554
Si       1.30182410       2.25482548      13.80303333  F        0        2       0.03286228      -0.15838361       1.00314558
O        1.38326499       1.13103512      12.65233746  F        1        2      -0.50595139       0.21747136      -0.21357941
O        0.28787265       1.76346018      14.95372921  F        1        2       0.43881901      -0.24610597      -0.37767468
O        3.24976236       0.63242506      16.25840413  F        1        2      -0.19540482      -0.53891282       0.06225130
O        0.78931236       3.62919935      13.15069587  F        1        2       0.42706947       0.28365533       0.54208774
O        2.74832265       2.49816423      14.45537079  F        1        2       0.01435382       0.38443482      -0.72547304
O       -1.07718501       3.13058929      16.75676254  F        1        2       0.04448004       0.38342816       0.19769733
Si       2.31234079       0.01348102      17.46168804  T        0        1      -0.00333093      -0.00395888       0.00102760
Si      -1.22909371       1.76759133      21.10427297  T        0        1       0.00196358      -0.00228357       0.00428121
Si       1.27616875       2.25662794      19.30682792  T        0        1       0.01478037       0.00022883      -0.00586752
O        1.36860852       1.17480723      18.07302546  T        1        1       0.00069554      -0.00085876      -0.00236176
O        0.24107481       1.72535988      20.42401637  T        1        1       0.00818990       0.00757231       0.00215317
O        3.12510692       0.58508517      21.92312263  T        1        1      -0.00113894       0.01427202       0.00024640
O        0.78037318       3.65515797      18.62868687  T        1        1      -0.00602483      -0.00601737       0.00053566
O        2.72639308       2.49659558      19.98739838  T        1        1       0.00380063      -0.00607716       0.00731307
O       -1.25913471       2.34401176      22.63458630  T        1        1       0.00979870      -0.00352269       0.00440329
Si       7.23815181       0.00000000      12.00000000  F        0        2      -0.13350807      -0.36644419      -1.70462300
Si       3.76227409       2.00679893      15.60606667  F        0        2      -0.10883937       0.08493378       1.22643165
Si       6.22272410       2.25482548      13.80303333  F        0        2       0.02876620      -0.16065560       1.01319913
O        6.30416499       1.13103512      12.65233746  F        1        2      -0.50545400       0.21541312      -0.21749728
O        5.20877265       1.76346018      14.95372921  F        1        2       0.42965142      -0.24772196      -0.37797230
O        8.17066236       0.63242506      16.25840413  F        1        2      -0.19648350      -0.55011668       0.09163125
O        5.71021236       3.62919935      13.15069587  F        1        2       0.42645946       0.28596880       0.53682804
O        7.66922265       2.49816423      14.45537079  F        1        2       0.02162237       0.38745131      -0.72409048
O        3.84371499       3.13058929      16.75676254  F        1        2       0.02577148       0.33673054       0.13888111
Si       7.23470263       0.00934057      17.46230070  T        0        1       0.00134956       0.00178797       0.00047106
Si       3.71205947       1.89540669      21.14748107  T        0        1       0.00422357      -0.00160888      -0.00189539
Si       6.18290147       2.24323308      19.30915375  T        0        1      -0.00777055      -0.00258710      -0.00471976
O        6.29054880       1.17096085      18.07002452  T        1        1      -0.00189435       0.00116041      -0.00510883
O        5.14278713       1.68361874      20.41152538  T        1        1       0.00092460       0.00187118      -0.00056502
O        8.08275925       0.32057171      21.66136348  T        1        1      -0.00004666      -0.00857974       0.00548889
O        5.70147942       3.64680182      18.62993227  T        1        1       0.00089985       0.00013439      -0.00227781
O        7.63425207       2.47435819      19.99893319  T        1        1      -0.00137717       0.00247156      -0.00601889
O        3.76723404       2.72209669      22.55387346  T        1        1       0.00179625      -0.00560811      -0.00054936
F        2.85987788       0.11181434      24.33703155  T        0        0      -0.00903315       0.00572221      -0.00516746
H        2.92550156       0.23527208      23.35156160  T        0        0       0.00066142      -0.00189587       0.00732295
O        3.95307584       2.52031559      25.35164036  T        0        0      -0.01601227      -0.02144254      -0.00324856
H        3.51512439       1.64314008      25.41004875  T        0        0       0.00769170       0.01892642       0.00761389
H        3.91824337       2.71536923      24.38431185  T        0        0       0.00513821       0.00669131       0.00451842
41
Lattice="9.8418 0.0 0.0 -2.460449999999999 4.261624409482844 0.0 0.0 -0.0 34.16586254" Properties=species:S:1:pos:R:3:move_mask:L:1:spacegroup_kinds:I:1:tags:I:1:forces:R:3 surface=alpha_quartz_001 coadsorbate=H2O start=1 calculation_kind="Local coadsorbate relaxation; not a reaction path" host_atoms=36 energy=-289.50840774279254 pbc="T T F"
Si       2.31725181       0.00000000      12.00000000  F        0        2      -0.13419663      -0.36645127      -1.70779210
Si      -1.15862590       2.00679893      15.60606667  F        0        2      -0.12486986       0.05914770       1.22814187
Si       1.30182410       2.25482548      13.80303333  F        0        2       0.03302308      -0.15836557       1.00314497
O        1.38326499       1.13103512      12.65233746  F        1        2      -0.50597655       0.21748331      -0.21355948
O        0.28787265       1.76346018      14.95372921  F        1        2       0.43863173      -0.24619769      -0.37727891
O        3.24976236       0.63242506      16.25840413  F        1        2      -0.19498773      -0.54236548       0.06483842
O        0.78931236       3.62919935      13.15069587  F        1        2       0.42707851       0.28359923       0.54209434
O        2.74832265       2.49816423      14.45537079  F        1        2       0.01434986       0.38437831      -0.72537064
O       -1.07718501       3.13058929      16.75676254  F        1        2       0.04856164       0.38546896       0.20153169
Si       2.31314956       0.01276924      17.46213836  T        0        1      -0.00348771      -0.00221775      -0.00368919
Si      -1.22796525       1.76858675      21.10446887  T        0        1      -0.00045997      -0.00544406       0.00263377
Si       1.27773609       2.25629890      19.30747936  T        0        1       0.00786954       0.00044903      -0.00517512
O        1.37024914       1.17426404      18.07414183  T        1        1      -0.00135945      -0.00113343      -0.00386681
O        0.24245054       1.72461725      20.42450224  T        1        1       0.00443680       0.01348217       0.00441729
O        3.12543671       0.58669201      21.92374470  T        1        1      -0.00271768       0.01090425       0.00057632
O        0.78128095       3.65440661      18.62901611  T        1        1      -0.00713543      -0.00484781      -0.00365701
O        2.72769847       2.49768126      19.98786099  T        1        1       0.00208969      -0.00486137       0.00679363
O       -1.25907023       2.34465180      22.63494260  T        1        1       0.01250856      -0.00178070       0.00079060
Si       7.23815181       0.00000000      12.00000000  F        0        2      -0.13354880      -0.36646077      -1.70479306
Si       3.76227409       2.00679893      15.60606667  F        0        2      -0.10979863       0.08353352       1.22696905
Si       6.22272410       2.25482548      13.80303333  F        0        2       0.02862313      -0.16074122       1.01289601
O        6.30416499       1.13103512      12.65233746  F        1        2      -0.50547683       0.21549861      -0.21741425
O        5.20877265       1.76346018      14.95372921  F        1        2       0.43009166      -0.24756244      -0.37786119
O        8.17066236       0.63242506      16.25840413  F        1        2      -0.19582804      -0.54922503       0.09066401
O        5.71021236       3.62919935      13.15069587  F        1        2       0.42655745       0.28591506       0.53699965
O        7.66922265       2.49816423      14.45537079  F        1        2       0.02172998       0.38733792      -0.72357675
O        3.84371499       3.13058929      16.75676254  F        1        2       0.02638537       0.33540905       0.13784939
Si       7.23518965       0.00889155      17.46231417  T        0        1      -0.00157801       0.00243041       0.00404174
Si       3.71277502       1.89680657      21.14842657  T        0        1       0.00922798      -0.00180289      -0.00133566
Si       6.18346231       2.24296870      19.30956155  T        0        1      -0.00056749      -0.00025264      -0.00305160
O        6.29097707       1.16981626      18.07122317  T        1        1      -0.00360123       0.00417068      -0.00427553
O        5.14373664       1.68488549      20.41302748  T        1        1       0.00404930      -0.00043043      -0.00435707
O        8.08357751       0.32154452      21.66172436  T        1        1      -0.00076687      -0.00862869       0.00400415
O        5.70229097       3.64616447      18.62946535  T        1        1       0.00193534      -0.00124854      -0.00228740
O        7.63522045       2.47501716      19.99877518  T        1        1       0.00079762      -0.00246504      -0.00387559
O        3.76857307       2.72369843      22.55457495  T        1        1      -0.00051593      -0.00427753       0.00089411
F        2.85793175       0.11321723      24.33694012  T        0        0      -0.00955846       0.00691620      -0.00141251
H        2.92405760       0.23701676      23.35157988  T        0        0       0.00209418      -0.00218314       0.00615080
O        3.94652803       2.52466647      25.35269789  T        0        0      -0.01017734      -0.01433380      -0.00246245
H        3.51203264       1.64597444      25.41065873  T        0        0       0.00297995       0.01252584       0.00635611
H        3.91402980       2.71897690      24.38512328  T        0        0       0.00358729       0.00462702       0.00530438
41
Lattice="9.8418 0.0 0.0 -2.460449999999999 4.261624409482844 0.0 0.0 -0.0 34.16586254" Properties=species:S:1:pos:R:3:move_mask:L:1:spacegroup_kinds:I:1:tags:I:1:forces:R:3 surface=alpha_quartz_001 coadsorbate=H2O start=1 calculation_kind="Local coadsorbate relaxation; not a reaction path" host_atoms=36 energy=-289.50845377302176 pbc="T T F"
Si       2.31725181       0.00000000      12.00000000  F        0        2      -0.13418931      -0.36645497      -1.70783859
Si      -1.15862590       2.00679893      15.60606667  F        0        2      -0.12483751       0.05896654       1.22732964
Si       1.30182410       2.25482548      13.80303333  F        0        2       0.03321140      -0.15832352       1.00302898
O        1.38326499       1.13103512      12.65233746  F        1        2      -0.50601400       0.21750529      -0.21351687
O        0.28787265       1.76346018      14.95372921  F        1        2       0.43844339      -0.24621837      -0.37693492
O        3.24976236       0.63242506      16.25840413  F        1        2      -0.19398181      -0.54414617       0.06515372
O        0.78931236       3.62919935      13.15069587  F        1        2       0.42708483       0.28354923       0.54213511
O        2.74832265       2.49816423      14.45537079  F        1        2       0.01431134       0.38434180      -0.72532396
O       -1.07718501       3.13058929      16.75676254  F        1        2       0.04894554       0.38406440       0.20147738
Si       2.31362156       0.01223553      17.46228457  T        0        1      -0.00219051       0.00023241      -0.00563852
Si      -1.22724300       1.76908501      21.10434846  T        0        1      -0.00114375      -0.00723353       0.00094336
Si       1.27895940       2.25603666      19.30762469  T        0        1      -0.00000104       0.00062749      -0.00215640
O        1.37122313       1.17384085      18.07461343  T        1        1      -0.00240453      -0.00040523      -0.00337565
O        0.24347258       1.72454144      20.42473645  T        1        1       0.00082411       0.01540705       0.00586415
O        3.12565003       0.58819526      21.92443632  T        1        1      -0.00424959       0.00526100       0.00058706
O        0.78172805       3.65373471      18.62901523  T        1        1      -0.00554101      -0.00270859      -0.00560427
O        2.72866131       2.49828520      19.98806208  T        1        1       0.00073789      -0.00358967       0.00378606
O       -1.25882022       2.34481217      22.63501347  T        1        1       0.01338660      -0.00086431      -0.00214653
Si       7.23815181       0.00000000      12.00000000  F        0        2      -0.13357652      -0.36647045      -1.70490020
Si       3.76227409       2.00679893      15.60606667  F        0        2      -0.11029839       0.08269659       1.22738257
Si       6.22272410       2.25482548      13.80303333  F        0        2       0.02846991      -0.16080655       1.01271591
O        6.30416499       1.13103512      12.65233746  F        1        2      -0.50548000       0.21555514      -0.21735804
O        5.20877265       1.76346018      14.95372921  F        1        2       0.43037219      -0.24746331      -0.37783698
O        8.17066236       0.63242506      16.25840413  F        1        2      -0.19616186      -0.54853511       0.09095608
O        5.71021236       3.62919935      13.15069587  F        1        2       0.42662187       0.28588827       0.53710509
O        7.66922265       2.49816423      14.45537079  F        1        2       0.02187193       0.38732892      -0.72323194
O        3.84371499       3.13058929      16.75676254  F        1        2       0.02657769       0.33485597       0.13734754
Si       7.23536756       0.00872486      17.46234251  T        0        1      -0.00316763       0.00208447       0.00391204
Si       3.71340862       1.89779213      21.14895005  T        0        1       0.01103650      -0.00025733       0.00027342
Si       6.18373699       2.24286332      19.30966056  T        0        1       0.00606771       0.00198771      -0.00166281
O        6.29092491       1.16919894      18.07176214  T        1        1      -0.00355175       0.00525913      -0.00366428
O        5.14447370       1.68576304      20.41396207  T        1        1       0.00592563      -0.00306402      -0.00623994
O        8.08435248       0.32189488      21.66177409  T        1        1      -0.00028217      -0.00589582       0.00143476
O        5.70269559       3.64584800      18.62913590  T        1        1       0.00210518      -0.00103610      -0.00188136
O        7.63585463       2.47545758      19.99837753  T        1        1       0.00311731      -0.00755683      -0.00083858
O        3.76925952       2.72493721      22.55486316  T        1        1      -0.00145775      -0.00227526       0.00299733
F        2.85651866       0.11366034      24.33710867  T        0        0      -0.00968493       0.00763304       0.00322957
H        2.92306551       0.23779944      23.35197983  T        0        0       0.00310982      -0.00136406       0.00379056
O        3.94104629       2.52852057      25.35326453  T        0        0      -0.00267425      -0.00384013       0.00148603
H        3.50997194       1.64850631      25.41174345  T        0        0      -0.00269091       0.00425466       0.00276520
H        3.91002798       2.72202815      24.38550783  T        0        0       0.00135838       0.00101024       0.00444826
41
Lattice="9.8418 0.0 0.0 -2.460449999999999 4.261624409482844 0.0 0.0 -0.0 34.16586254" Properties=species:S:1:pos:R:3:move_mask:L:1:spacegroup_kinds:I:1:tags:I:1:forces:R:3 surface=alpha_quartz_001 coadsorbate=H2O start=1 calculation_kind="Local coadsorbate relaxation; not a reaction path" host_atoms=36 energy=-289.5084934023856 pbc="T T F"
Si       2.31725181       0.00000000      12.00000000  F        0        2      -0.13418638      -0.36646042      -1.70789277
Si      -1.15862590       2.00679893      15.60606667  F        0        2      -0.12513039       0.05839035       1.22678214
Si       1.30182410       2.25482548      13.80303333  F        0        2       0.03334636      -0.15828917       1.00288514
O        1.38326499       1.13103512      12.65233746  F        1        2      -0.50604540       0.21752857      -0.21347574
O        0.28787265       1.76346018      14.95372921  F        1        2       0.43835502      -0.24617429      -0.37670786
O        3.24976236       0.63242506      16.25840413  F        1        2      -0.19271231      -0.54479985       0.06414066
O        0.78931236       3.62919935      13.15069587  F        1        2       0.42709331       0.28351377       0.54218366
O        2.74832265       2.49816423      14.45537079  F        1        2       0.01427492       0.38430427      -0.72527499
O       -1.07718501       3.13058929      16.75676254  F        1        2       0.04763173       0.38149925       0.19964552
Si       2.31387307       0.01187299      17.46225474  T        0        1      -0.00080983       0.00262584      -0.00502407
Si      -1.22670930       1.76924856      21.10415949  T        0        1      -0.00044049      -0.00763579      -0.00048427
Si       1.27988381       2.25588205      19.30757424  T        0        1      -0.00601214       0.00097153       0.00123086
O        1.37176957       1.17355788      18.07475659  T        1        1      -0.00278109       0.00083184      -0.00173647
O        0.24431011       1.72488334      20.42498008  T        1        1      -0.00152126       0.01452973       0.00604671
O        3.12578482       0.58958059      21.92507344  T        1        1      -0.00476106       0.00003127       0.00033169
O        0.78185970       3.65320784      18.62888621  T        1        1      -0.00263266      -0.00081617      -0.00615823
O        2.72940215       2.49866285      19.98815195  T        1        1      -0.00019850      -0.00276380       0.00006561
O       -1.25831476       2.34486198      22.63491544  T        1        1       0.01279273      -0.00054591      -0.00339162
Si       7.23815181       0.00000000      12.00000000  F        0        2      -0.13358914      -0.36647250      -1.70493645
Si       3.76227409       2.00679893      15.60606667  F        0        2      -0.11040911       0.08235376       1.22764041
Si       6.22272410       2.25482548      13.80303333  F        0        2       0.02837572      -0.16084584       1.01267237
O        6.30416499       1.13103512      12.65233746  F        1        2      -0.50547203       0.21557838      -0.21733693
O        5.20877265       1.76346018      14.95372921  F        1        2       0.43049175      -0.24741880      -0.37785146
O        8.17066236       0.63242506      16.25840413  F        1        2      -0.19690144      -0.54813748       0.09181591
O        5.71021236       3.62919935      13.15069587  F        1        2       0.42664593       0.28588114       0.53713864
O        7.66922265       2.49816423      14.45537079  F        1        2       0.02198405       0.38738787      -0.72307629
O        3.84371499       3.13058929      16.75676254  F        1        2       0.02671706       0.33476662       0.13743595
Si       7.23542433       0.00866394      17.46240647  T        0        1      -0.00340412       0.00141714       0.00138736
Si       3.71407817       1.89858185      21.14925503  T        0        1       0.00989369       0.00170839       0.00149057
Si       6.18403611       2.24282818      19.30960834  T        0        1       0.00993807       0.00365902      -0.00091678
O        6.29073916       1.16889131      18.07193705  T        1        1      -0.00242083       0.00470013      -0.00319480
O        5.14512855       1.68637320      20.41447071  T        1        1       0.00632825      -0.00531455      -0.00606686
O        8.08502916       0.32194819      21.66174044  T        1        1       0.00076706      -0.00288804      -0.00075432
O        5.70301962       3.64565332      18.62884881  T        1        1       0.00159637       0.00054549      -0.00134953
O        7.63640388       2.47562480      19.99794179  T        1        1       0.00489866      -0.01101753       0.00152061
O        3.76962422       2.72604196      22.55494500  T        1        1      -0.00141730      -0.00085904       0.00448512
F        2.85545650       0.11393709      24.33737604  T        0        0      -0.00946602       0.00788910       0.00699960
H        2.92249105       0.23821346      23.35246203  T        0        0       0.00344922      -0.00000797       0.00183780
O        3.93631639       2.53193433      25.35364592  T        0        0       0.00371047       0.00537012       0.00482759
H        3.50823039       1.65080175      25.41296022  T        0        0      -0.00739906      -0.00269006      -0.00096699
H        3.90637902       2.72453366      24.38568717  T        0        0      -0.00057981      -0.00234637       0.00403252
41
Lattice="9.8418 0.0 0.0 -2.460449999999999 4.261624409482844 0.0 0.0 -0.0 34.16586254" Properties=species:S:1:pos:R:3:move_mask:L:1:spacegroup_kinds:I:1:tags:I:1:forces:R:3 surface=alpha_quartz_001 coadsorbate=H2O start=1 calculation_kind="Local coadsorbate relaxation; not a reaction path" host_atoms=36 energy=-289.50854727357415 pbc="T T F"
Si       2.31725181       0.00000000      12.00000000  F        0        2      -0.13418805      -0.36646537      -1.70794897
Si      -1.15862590       2.00679893      15.60606667  F        0        2      -0.12572351       0.05738116       1.22643321
Si       1.30182410       2.25482548      13.80303333  F        0        2       0.03343788      -0.15826774       1.00272530
O        1.38326499       1.13103512      12.65233746  F        1        2      -0.50607065       0.21755532      -0.21343870
O        0.28787265       1.76346018      14.95372921  F        1        2       0.43838037      -0.24607966      -0.37652077
O        3.24976236       0.63242506      16.25840413  F        1        2      -0.19104580      -0.54511784       0.06234794
O        0.78931236       3.62919935      13.15069587  F        1        2       0.42710901       0.28348130       0.54223589
O        2.74832265       2.49816423      14.45537079  F        1        2       0.01425406       0.38424166      -0.72516450
O       -1.07718501       3.13058929      16.75676254  F        1        2       0.04597573       0.37888930       0.19735405
Si       2.31413296       0.01150930      17.46217295  T        0        1       0.00021221       0.00508652      -0.00240283
Si      -1.22597098       1.76932171      21.10403076  T        0        1       0.00117945      -0.00705709      -0.00144461
Si       1.28096504       2.25579617      19.30761255  T        0        1      -0.01041639       0.00171067       0.00448462
O        1.37238658       1.17329382      18.07496800  T        1        1      -0.00309503       0.00245913       0.00086292
O        0.24543518       1.72559205      20.42554739  T        1        1      -0.00282783       0.01143105       0.00496864
O        3.12590575       0.59134994      21.92580693  T        1        1      -0.00361050      -0.00489224       0.00008675
O        0.78193183       3.65262297      18.62871523  T        1        1       0.00150759       0.00082725      -0.00621700
O        2.73033628       2.49915269      19.98837533  T        1        1      -0.00102962      -0.00199435      -0.00451974
O       -1.25730241       2.34518042      22.63472254  T        1        1       0.01080215      -0.00074165      -0.00328061
Si       7.23815181       0.00000000      12.00000000  F        0        2      -0.13359382      -0.36646927      -1.70492785
Si       3.76227409       2.00679893      15.60606667  F        0        2      -0.11031644       0.08218493       1.22784211
Si       6.22272410       2.25482548      13.80303333  F        0        2       0.02834143      -0.16087479       1.01272372
O        6.30416499       1.13103512      12.65233746  F        1        2      -0.50545844       0.21558117      -0.21733939
O        5.20877265       1.76346018      14.95372921  F        1        2       0.43052699      -0.24739295      -0.37787542
O        8.17066236       0.63242506      16.25840413  F        1        2      -0.19767697      -0.54781437       0.09273002
O        5.71021236       3.62919935      13.15069587  F        1        2       0.42664212       0.28588298       0.53712718
O        7.66922265       2.49816423      14.45537079  F        1        2       0.02206664       0.38748996      -0.72303049
O        3.84371499       3.13058929      16.75676254  F        1        2       0.02708289       0.33478816       0.13805238
Si       7.23552674       0.00855460      17.46252161  T        0        1      -0.00262806       0.00063274      -0.00283166
Si       3.71517326       1.89963714      21.14967746  T        0        1       0.00588559       0.00347879       0.00175436
Si       6.18470380       2.24279117      19.30950332  T        0        1       0.01104608       0.00486810      -0.00058940
O        6.29061474       1.16859156      18.07205379  T        1        1      -0.00049271       0.00291565      -0.00256240
O        5.14608642       1.68702518      20.41490444  T        1        1       0.00557175      -0.00725293      -0.00417742
O        8.08579323       0.32204195      21.66182663  T        1        1       0.00249773       0.00001668      -0.00241858
O        5.70361668       3.64536972      18.62842084  T        1        1       0.00062261       0.00336344      -0.00046816
O        7.63729041       2.47555131      19.99742848  T        1        1       0.00612553      -0.01276541       0.00292898
O        3.77020613       2.72747815      22.55513186  T        1        1      -0.00083275      -0.00014168       0.00483911
F        2.85391349       0.11493696      24.33774058  T        0        0      -0.00871891       0.00761853       0.01002281
H        2.92194032       0.23898868      23.35300622  T        0        0       0.00289925       0.00189675       0.00051347
O        3.93061890       2.53590945      25.35422872  T        0        0       0.00990006       0.01401213       0.00799619
H        3.50584186       1.65350440      25.41442621  T        0        0      -0.01201481      -0.00922343      -0.00462504
H        3.90208320       2.72730728      24.38599724  T        0        0      -0.00232684      -0.00524264       0.00375387
41
Lattice="9.8418 0.0 0.0 -2.460449999999999 4.261624409482844 0.0 0.0 -0.0 34.16586254" Properties=species:S:1:pos:R:3:move_mask:L:1:spacegroup_kinds:I:1:tags:I:1:forces:R:3 surface=alpha_quartz_001 coadsorbate=H2O start=1 calculation_kind="Local coadsorbate relaxation; not a reaction path" host_atoms=36 energy=-289.50862032776615 pbc="T T F"
Si       2.31725181       0.00000000      12.00000000  F        0        2      -0.13419660      -0.36646703      -1.70798986
Si      -1.15862590       2.00679893      15.60606667  F        0        2      -0.12654297       0.05608665       1.22645424
Si       1.30182410       2.25482548      13.80303333  F        0        2       0.03344229      -0.15827273       1.00259521
O        1.38326499       1.13103512      12.65233746  F        1        2      -0.50607901       0.21758280      -0.21341843
O        0.28787265       1.76346018      14.95372921  F        1        2       0.43857456      -0.24596148      -0.37638247
O        3.24976236       0.63242506      16.25840413  F        1        2      -0.18940908      -0.54552917       0.06069572
O        0.78931236       3.62919935      13.15069587  F        1        2       0.42713571       0.28345272       0.54227673
O        2.74832265       2.49816423      14.45537079  F        1        2       0.01427837       0.38414900      -0.72494328
O       -1.07718501       3.13058929      16.75676254  F        1        2       0.04523081       0.37786332       0.19597412
Si       2.31448466       0.01113014      17.46214298  T        0        1       0.00017220       0.00686460       0.00173519
Si      -1.22479636       1.76933075      21.10420607  T        0        1       0.00312554      -0.00505236      -0.00196286
Si       1.28230723       2.25580492      19.30800891  T        0        1      -0.01152759       0.00292358       0.00619121
O        1.37328415       1.17304695      18.07553854  T        1        1      -0.00358042       0.00380407       0.00379360
O        0.24706713       1.72662526      20.42674627  T        1        1      -0.00238072       0.00612172       0.00233429
O        3.12605910       0.59361070      21.92658029  T        1        1       0.00013954      -0.00824575       0.00024730
O        0.78204263       3.65192623      18.62859510  T        1        1       0.00630380       0.00204746      -0.00611702
O        2.73161171       2.49990390      19.98889077  T        1        1      -0.00134145      -0.00096131      -0.00916764
O       -1.25555716       2.34592881      22.63460320  T        1        1       0.00720691      -0.00146882      -0.00130997
Si       7.23815181       0.00000000      12.00000000  F        0        2      -0.13359221      -0.36646246      -1.70488616
Si       3.76227409       2.00679893      15.60606667  F        0        2      -0.11011608       0.08203815       1.22793902
Si       6.22272410       2.25482548      13.80303333  F        0        2       0.02841561      -0.16089379       1.01284855
O        6.30416499       1.13103512      12.65233746  F        1        2      -0.50544966       0.21556701      -0.21736236
O        5.20877265       1.76346018      14.95372921  F        1        2       0.43048786      -0.24737341      -0.37786857
O        8.17066236       0.63242506      16.25840413  F        1        2      -0.19775196      -0.54734968       0.09262212
O        5.71021236       3.62919935      13.15069587  F        1        2       0.42661201       0.28588631       0.53708372
O        7.66922265       2.49816423      14.45537079  F        1        2       0.02207531       0.38759325      -0.72309755
O        3.84371499       3.13058929      16.75676254  F        1        2       0.02796956       0.33471077       0.13929199
Si       7.23582173       0.00827322      17.46267701  T        0        1      -0.00082788      -0.00005688      -0.00714475
Si       3.71690537       1.90118409      21.15039790  T        0        1      -0.00096018       0.00382412       0.00012871
Si       6.18604129       2.24271330      19.30943890  T        0        1       0.00794761       0.00492233      -0.00066138
O        6.29081816       1.16813062      18.07232638  T        1        1       0.00172416       0.00027228      -0.00167852
O        5.14754517       1.68779179      20.41537323  T        1        1       0.00323941      -0.00792789      -0.00050773
O        8.08667398       0.32231417      21.66224332  T        1        1       0.00487994       0.00147549      -0.00269563
O        5.70480091       3.64487341      18.62772921  T        1        1      -0.00061317       0.00681781       0.00093968
O        7.63878951       2.47509709      19.99699233  T        1        1       0.00603517      -0.01136683       0.00240743
O        3.77132547       2.72941832      22.55563946  T        1        1       0.00012855      -0.00081456       0.00311331
F        2.85141469       0.11739638      24.33812301  T        0        0      -0.00713969       0.00679845       0.01110961
H        2.92132934       0.24062490      23.35345888  T        0        0       0.00091196       0.00418474       0.00080282
O        3.92349372       2.54065668      25.35535672  T        0        0       0.01412708       0.01888315       0.00861113
H        3.50210559       1.65682181      25.41597156  T        0        0      -0.01541626      -0.01336598      -0.00658971
H        3.89714375       2.73051190      24.38673622  T        0        0      -0.00323902      -0.00629967       0.00458820
41
Lattice="9.8418 0.0 0.0 -2.460449999999999 4.261624409482844 0.0 0.0 -0.0 34.16586254" Properties=species:S:1:pos:R:3:move_mask:L:1:spacegroup_kinds:I:1:tags:I:1:forces:R:3 surface=alpha_quartz_001 coadsorbate=H2O start=1 calculation_kind="Local coadsorbate relaxation; not a reaction path" host_atoms=36 energy=-289.5086912584693 pbc="T T F"
Si       2.31725181       0.00000000      12.00000000  F        0        2      -0.13420926      -0.36646118      -1.70798127
Si      -1.15862590       2.00679893      15.60606667  F        0        2      -0.12714553       0.05528782       1.22693869
Si       1.30182410       2.25482548      13.80303333  F        0        2       0.03334595      -0.15830353       1.00258066
O        1.38326499       1.13103512      12.65233746  F        1        2      -0.50605918       0.21759685      -0.21343357
O        0.28787265       1.76346018      14.95372921  F        1        2       0.43888176      -0.24591347      -0.37631827
O        3.24976236       0.63242506      16.25840413  F        1        2      -0.18907282      -0.54624175       0.06086908
O        0.78931236       3.62919935      13.15069587  F        1        2       0.42716115       0.28343716       0.54227432
O        2.74832265       2.49816423      14.45537079  F        1        2       0.01435807       0.38407370      -0.72466749
O       -1.07718501       3.13058929      16.75676254  F        1        2       0.04676610       0.38031566       0.19731817
Si       2.31486474       0.01086586      17.46228597  T        0        1      -0.00120382       0.00642955       0.00475524
Si      -1.22344794       1.76931130      21.10485489  T        0        1       0.00381743      -0.00213054      -0.00156530
Si       1.28349691       2.25592410      19.30887261  T        0        1      -0.00762892       0.00406973       0.00432241
O        1.37431066       1.17288072      18.07656354  T        1        1      -0.00423470       0.00347905       0.00519305
O        0.24876383       1.72759114      20.42840640  T        1        1      -0.00004763       0.00060782      -0.00082130
O        3.12624276       0.59554842      21.92705034  T        1        1       0.00570557      -0.00799707       0.00135415
O        0.78229932       3.65129527      18.62859132  T        1        1       0.00927384       0.00260248      -0.00595105
O        2.73287182       2.50072504      19.98966730  T        1        1      -0.00055700       0.00054673      -0.01145946
O       -1.25356398       2.34695890      22.63480392  T        1        1       0.00317725      -0.00271046       0.00148355
Si       7.23815181       0.00000000      12.00000000  F        0        2      -0.13358969      -0.36645673      -1.70484888
Si       3.76227409       2.00679893      15.60606667  F        0        2      -0.11003140       0.08173979       1.22785710
Si       6.22272410       2.25482548      13.80303333  F        0        2       0.02859451      -0.16090170       1.01295390
O        6.30416499       1.13103512      12.65233746  F        1        2      -0.50545764       0.21554858      -0.21738837
O        5.20877265       1.76346018      14.95372921  F        1        2       0.43042470      -0.24734973      -0.37780010
O        8.17066236       0.63242506      16.25840413  F        1        2      -0.19638866      -0.54664414       0.09045892
O        5.71021236       3.62919935      13.15069587  F        1        2       0.42657445       0.28588291       0.53704820
O        7.66922265       2.49816423      14.45537079  F        1        2       0.02197740       0.38760742      -0.72322892
O        3.84371499       3.13058929      16.75676254  F        1        2       0.02934233       0.33445231       0.14077765
Si       7.23631599       0.00783585      17.46278895  T        0        1       0.00108718      -0.00028573      -0.00806729
Si       3.71878940       1.90279089      21.15130562  T        0        1      -0.00758833       0.00140525      -0.00324349
Si       6.18776410       2.24260842      19.30952187  T        0        1       0.00103178       0.00313984      -0.00085355
O        6.29148511       1.16753771      18.07284453  T        1        1       0.00282891      -0.00158219      -0.00082569
O        5.14912885       1.68842038      20.41583308  T        1        1       0.00006746      -0.00603399       0.00304802
O        8.08734886       0.32277733      21.66304897  T        1        1       0.00719930       0.00038827      -0.00097225
O        5.70636866       3.64428973      18.62695040  T        1        1      -0.00136181       0.00848067       0.00262640
O        7.64055668       2.47432636      19.99692975  T        1        1       0.00389510      -0.00631493      -0.00045815
O        3.77286844       2.73112389      22.55652956  T        1        1       0.00089369      -0.00286222      -0.00087085
F        2.84829694       0.12110201      24.33833460  T        0        0      -0.00497338       0.00554408       0.00895108
H        2.92071625       0.24298310      23.35355791  T        0        0      -0.00232311       0.00580980       0.00306803
O        3.91772898       2.54411457      25.35689861  T        0        0       0.01397428       0.01633435       0.00636900
H        3.49805968       1.65936592      25.41678289  T        0        0      -0.01587340      -0.01258498      -0.00489044
H        3.89387174       2.73285243      24.38797322  T        0        0      -0.00263189      -0.00400550       0.00539807
41
Lattice="9.8418 0.0 0.0 -2.460449999999999 4.261624409482844 0.0 0.0 -0.0 34.16586254" Properties=species:S:1:pos:R:3:move_mask:L:1:spacegroup_kinds:I:1:tags:I:1:forces:R:3 surface=alpha_quartz_001 coadsorbate=H2O start=1 calculation_kind="Local coadsorbate relaxation; not a reaction path" host_atoms=36 energy=-289.50873961233594 pbc="T T F"
Si       2.31725181       0.00000000      12.00000000  F        0        2      -0.13421848      -0.36645026      -1.70792977
Si      -1.15862590       2.00679893      15.60606667  F        0        2      -0.12718606       0.05550499       1.22757747
Si       1.30182410       2.25482548      13.80303333  F        0        2       0.03323131      -0.15832979       1.00267513
O        1.38326499       1.13103512      12.65233746  F        1        2      -0.50602389       0.21759160      -0.21347208
O        0.28787265       1.76346018      14.95372921  F        1        2       0.43911533      -0.24598391      -0.37630626
O        3.24976236       0.63242506      16.25840413  F        1        2      -0.19055819      -0.54704360       0.06324593
O        0.78931236       3.62919935      13.15069587  F        1        2       0.42716786       0.28343684       0.54223089
O        2.74832265       2.49816423      14.45537079  F        1        2       0.01444584       0.38407197      -0.72447988
O       -1.07718501       3.13058929      16.75676254  F        1        2       0.04962308       0.38485654       0.20057641
Si       2.31508879       0.01082036      17.46255560  T        0        1      -0.00268507       0.00398841       0.00437535
Si      -1.22250008       1.76923919      21.10572547  T        0        1       0.00265438       0.00037892      -0.00108229
Si       1.28404125       2.25607869      19.30979655  T        0        1      -0.00167232       0.00436988       0.00008515
O        1.37498115       1.17282049      18.07761206  T        1        1      -0.00461528       0.00132019       0.00411669
O        0.24982137       1.72805402      20.42980592  T        1        1       0.00241939      -0.00227008      -0.00269268
O        3.12646779       0.59636386      21.92706424  T        1        1       0.00983117      -0.00524699       0.00293017
O        0.78261580       3.65093968      18.62864203  T        1        1       0.00900270       0.00297013      -0.00560038
O        2.73359485       2.50123419      19.99027093  T        1        1       0.00109631       0.00211019      -0.01045568
O       -1.25222728       2.34759163      22.63536434  T        1        1       0.00064375      -0.00377114       0.00307665
Si       7.23815181       0.00000000      12.00000000  F        0        2      -0.13359279      -0.36645579      -1.70485301
Si       3.76227409       2.00679893      15.60606667  F        0        2      -0.11019085       0.08128452       1.22763968
Si       6.22272410       2.25482548      13.80303333  F        0        2       0.02876835      -0.16090781       1.01294909
O        6.30416499       1.13103512      12.65233746  F        1        2      -0.50547950       0.21554335      -0.21739589
O        5.20877265       1.76346018      14.95372921  F        1        2       0.43041225      -0.24732217      -0.37769226
O        8.17066236       0.63242506      16.25840413  F        1        2      -0.19414679      -0.54583639       0.08704030
O        5.71021236       3.62919935      13.15069587  F        1        2       0.42655880       0.28587103       0.53705737
O        7.66922265       2.49816423      14.45537079  F        1        2       0.02183838       0.38750933      -0.72331404
O        3.84371499       3.13058929      16.75676254  F        1        2       0.03074493       0.33424438       0.14191612
Si       7.23680063       0.00744118      17.46279579  T        0        1       0.00186754      -0.00009279      -0.00457697
Si       3.71993898       1.90377177      21.15196022  T        0        1      -0.01003477      -0.00246478      -0.00612814
Si       6.18905865       2.24253326      19.30973760  T        0        1      -0.00498026       0.00052302      -0.00068007
O        6.29230601       1.16702590      18.07344499  T        1        1       0.00214714      -0.00140061      -0.00042204
O        5.15015116       1.68868760      20.41618199  T        1        1      -0.00231124      -0.00247675       0.00417434
O        8.08765249       0.32310515      21.66388440  T        1        1       0.00846920      -0.00213049       0.00142966
O        5.70764768       3.64391350      18.62643246  T        1        1      -0.00132081       0.00696574       0.00383527
O        7.64180480       2.47361198      19.99729267  T        1        1       0.00089291      -0.00085616      -0.00357307
O        3.77407904       2.73186056      22.55736867  T        1        1       0.00102912      -0.00484720      -0.00473592
F        2.84585002       0.12428101      24.33830310  T        0        0      -0.00324037       0.00463616       0.00539781
H        2.92030443       0.24498813      23.35333557  T        0        0      -0.00515454       0.00612936       0.00558018
O        3.91559533       2.54502942      25.35826084  T        0        0       0.00952222       0.00727011       0.00233742
H        3.49524623       1.66025456      25.41658651  T        0        0      -0.01301948      -0.00682022      -0.00067291
H        3.89357061       2.73355585      24.38924138  T        0        0      -0.00105124       0.00013027       0.00581623
41
Lattice="9.8418 0.0 0.0 -2.460449999999999 4.261624409482844 0.0 0.0 -0.0 34.16586254" Properties=species:S:1:pos:R:3:move_mask:L:1:spacegroup_kinds:I:1:tags:I:1:forces:R:3 surface=alpha_quartz_001 coadsorbate=H2O start=1 calculation_kind="Local coadsorbate relaxation; not a reaction path" host_atoms=36 energy=-289.50877377913673 pbc="T T F"
Si       2.31725181       0.00000000      12.00000000  F        0        2      -0.13422160      -0.36643855      -1.70786996
Si      -1.15862590       2.00679893      15.60606667  F        0        2      -0.12688378       0.05629753       1.22804324
Si       1.30182410       2.25482548      13.80303333  F        0        2       0.03318505      -0.15832834       1.00278572
O        1.38326499       1.13103512      12.65233746  F        1        2      -0.50599331       0.21757654      -0.21350924
O        0.28787265       1.76346018      14.95372921  F        1        2       0.43920843      -0.24611893      -0.37627199
O        3.24976236       0.63242506      16.25840413  F        1        2      -0.19295202      -0.54762646       0.06637947
O        0.78931236       3.62919935      13.15069587  F        1        2       0.42715403       0.28344086       0.54217714
O        2.74832265       2.49816423      14.45537079  F        1        2       0.01449675       0.38413386      -0.72440940
O       -1.07718501       3.13058929      16.75676254  F        1        2       0.05211212       0.38898396       0.20376373
Si       2.31515690       0.01088971      17.46282780  T        0        1      -0.00315722       0.00114201       0.00159342
Si      -1.22199062       1.76913233      21.10650115  T        0        1       0.00076524       0.00181433      -0.00087948
Si       1.28415366       2.25620700      19.31048689  T        0        1       0.00284255       0.00388053      -0.00395832
O        1.37525691       1.17276644      18.07844289  T        1        1      -0.00456548      -0.00143086       0.00181007
O        0.25032854       1.72817316      20.43072971  T        1        1       0.00360778      -0.00265310      -0.00313368
O        3.12674572       0.59642763      21.92692500  T        1        1       0.01138438      -0.00278965       0.00425116
O        0.78296089       3.65076547      18.62860134  T        1        1       0.00696469       0.00364036      -0.00484024
O        2.73390823       2.50144431      19.99054626  T        1        1       0.00270801       0.00335443      -0.00802674
O       -1.25158031       2.34765555      22.63607523  T        1        1      -0.00040451      -0.00441351       0.00273689
Si       7.23815181       0.00000000      12.00000000  F        0        2      -0.13360268      -0.36645676      -1.70488718
Si       3.76227409       2.00679893      15.60606667  F        0        2      -0.11049664       0.08075108       1.22741784
Si       6.22272410       2.25482548      13.80303333  F        0        2       0.02885822      -0.16092583       1.01286216
O        6.30416499       1.13103512      12.65233746  F        1        2      -0.50549870       0.21555084      -0.21738744
O        5.20877265       1.76346018      14.95372921  F        1        2       0.43047286      -0.24729276      -0.37759162
O        8.17066236       0.63242506      16.25840413  F        1        2      -0.19214324      -0.54513864       0.08399835
O        5.71021236       3.62919935      13.15069587  F        1        2       0.42656688       0.28585781       0.53709821
O        7.66922265       2.49816423      14.45537079  F        1        2       0.02174151       0.38737001      -0.72330653
O        3.84371499       3.13058929      16.75676254  F        1        2       0.03202917       0.33428983       0.14273566
Si       7.23716082       0.00717550      17.46275106  T        0        1       0.00149938       0.00016178       0.00047411
Si       3.72036400       1.90417064      21.15228174  T        0        1      -0.00881377      -0.00577872      -0.00719427
Si       6.18974197       2.24249296      19.30999030  T        0        1      -0.00754326      -0.00158409      -0.00005884
O        6.29295913       1.16664330      18.07398743  T        1        1       0.00063401       0.00012490      -0.00037421
O        5.15064018       1.68873967      20.41649522  T        1        1      -0.00335370       0.00086581       0.00295844
O        8.08783254       0.32315443      21.66450873  T        1        1       0.00898200      -0.00384300       0.00292431
O        5.70845974       3.64377802      18.62620750  T        1        1      -0.00100360       0.00361779       0.00439370
O        7.64246024       2.47313165      19.99777596  T        1        1      -0.00151996       0.00248200      -0.00515759
O        3.77476083       2.73184463      22.55796350  T        1        1       0.00072128      -0.00564622      -0.00702997
F        2.84420302       0.12635867      24.33823533  T        0        0      -0.00229279       0.00414691       0.00270149
H        2.91997651       0.24634189      23.35313125  T        0        0      -0.00685766       0.00568164       0.00685443
O        3.91598996       2.54426409      25.35924439  T        0        0       0.00460714      -0.00167043      -0.00062484
H        3.49371880       1.66004217      25.41599033  T        0        0      -0.00948906      -0.00058765       0.00322898
H        3.89510155       2.73320267      24.39029960  T        0        0       0.00025148       0.00355868       0.00532301
41
Lattice="9.8418 0.0 0.0 -2.460449999999999 4.261624409482844 0.0 0.0 -0.0 34.16586254" Properties=species:S:1:pos:R:3:move_mask:L:1:spacegroup_kinds:I:1:tags:I:1:forces:R:3 surface=alpha_quartz_001 coadsorbate=H2O start=1 calculation_kind="Local coadsorbate relaxation; not a reaction path" host_atoms=36 energy=-289.50881272200115 pbc="T T F"
Si       2.31725181       0.00000000      12.00000000  F        0        2      -0.13422126      -0.36642552      -1.70781093
Si      -1.15862590       2.00679893      15.60606667  F        0        2      -0.12647760       0.05729311       1.22836655
Si       1.30182410       2.25482548      13.80303333  F        0        2       0.03322165      -0.15829652       1.00287925
O        1.38326499       1.13103512      12.65233746  F        1        2      -0.50596925       0.21755786      -0.21354175
O        0.28787265       1.76346018      14.95372921  F        1        2       0.43922254      -0.24628991      -0.37616804
O        3.24976236       0.63242506      16.25840413  F        1        2      -0.19594532      -0.54791176       0.06971674
O        0.78931236       3.62919935      13.15069587  F        1        2       0.42712278       0.28344185       0.54212113
O        2.74832265       2.49816423      14.45537079  F        1        2       0.01450948       0.38424707      -0.72439839
O       -1.07718501       3.13058929      16.75676254  F        1        2       0.05408471       0.39254086       0.20662299
Si       2.31516297       0.01097702      17.46309642  T        0        1      -0.00250448      -0.00176225      -0.00254948
Si      -1.22151608       1.76899107      21.10724578  T        0        1      -0.00119483       0.00276415      -0.00109386
Si       1.28425648       2.25635357      19.31105338  T        0        1       0.00576132       0.00277427      -0.00748192
O        1.37537447       1.17261822      18.07927330  T        1        1      -0.00408510      -0.00452657      -0.00114413
O        0.25084306       1.72828519      20.43156517  T        1        1       0.00360659      -0.00174001      -0.00297281
O        3.12721727       0.59642735      21.92691688  T        1        1       0.01109776      -0.00147881       0.00505317
O        0.78346461       3.65059650      18.62836256  T        1        1       0.00414920       0.00488998      -0.00336273
O        2.73426493       2.50162614      19.99054150  T        1        1       0.00409902       0.00420979      -0.00497248
O       -1.25103057       2.34731504      22.63693858  T        1        1      -0.00109549      -0.00465694       0.00089650
Si       7.23815181       0.00000000      12.00000000  F        0        2      -0.13361965      -0.36645613      -1.70493482
Si       3.76227409       2.00679893      15.60606667  F        0        2      -0.11089324       0.08005468       1.22719939
Si       6.22272410       2.25482548      13.80303333  F        0        2       0.02887665      -0.16096781       1.01273580
O        6.30416499       1.13103512      12.65233746  F        1        2      -0.50550949       0.21556507      -0.21737343
O        5.20877265       1.76346018      14.95372921  F        1        2       0.43060600      -0.24725587      -0.37749369
O        8.17066236       0.63242506      16.25840413  F        1        2      -0.19041881      -0.54447529       0.08136732
O        5.71021236       3.62919935      13.15069587  F        1        2       0.42658973       0.28584556       0.53715369
O        7.66922265       2.49816423      14.45537079  F        1        2       0.02169475       0.38721671      -0.72321851
O        3.84371499       3.13058929      16.75676254  F        1        2       0.03368857       0.33466852       0.14376671
Si       7.23750766       0.00693795      17.46271266  T        0        1       0.00041489       0.00035253       0.00598444
Si       3.72055318       1.90446847      21.15245623  T        0        1      -0.00539539      -0.00841874      -0.00669885
Si       6.19022860       2.24245660      19.31029008  T        0        1      -0.00729096      -0.00311827       0.00097028
O        6.29353280       1.16622559      18.07459827  T        1        1      -0.00121101       0.00230397      -0.00046440
O        5.15106143       1.68883811      20.41697842  T        1        1      -0.00367272       0.00381156       0.00021974
O        8.08829925       0.32297310      21.66506769  T        1        1       0.00931654      -0.00438639       0.00327836
O        5.70919843       3.64374432      18.62609306  T        1        1      -0.00088535      -0.00083773       0.00449275
O        7.64302307       2.47271756      19.99823332  T        1        1      -0.00338217       0.00401828      -0.00502560
O        3.77523479       2.73167435      22.55844060  T        1        1       0.00015818      -0.00528233      -0.00805203
F        2.84252118       0.12819389      24.33832160  T        0        0      -0.00176223       0.00396420       0.00095796
H        2.91948510       0.24765165      23.35315522  T        0        0      -0.00787994       0.00504119       0.00709807
O        3.91653608       2.54341566      25.36029308  T        0        0      -0.00037213      -0.01060449      -0.00284738
H        3.49201980       1.65989601      25.41548045  T        0        0      -0.00547792       0.00631455       0.00629932
H        3.89686340       2.73291398      24.39146810  T        0        0       0.00104400       0.00601559       0.00442509
41
Lattice="9.8418 0.0 0.0 -2.460449999999999 4.261624409482844 0.0 0.0 -0.0 34.16586254" Properties=species:S:1:pos:R:3:move_mask:L:1:spacegroup_kinds:I:1:tags:I:1:forces:R:3 surface=alpha_quartz_001 coadsorbate=H2O start=1 calculation_kind="Local coadsorbate relaxation; not a reaction path" host_atoms=36 energy=-289.5088730807447 pbc="T T F"
Si       2.31725181       0.00000000      12.00000000  F        0        2      -0.13421939      -0.36640858      -1.70775415
Si      -1.15862590       2.00679893      15.60606667  F        0        2      -0.12610396       0.05831132       1.22857104
Si       1.30182410       2.25482548      13.80303333  F        0        2       0.03338570      -0.15822139       1.00293186
O        1.38326499       1.13103512      12.65233746  F        1        2      -0.50595286       0.21753713      -0.21357038
O        0.28787265       1.76346018      14.95372921  F        1        2       0.43919750      -0.24649945      -0.37592339
O        3.24976236       0.63242506      16.25840413  F        1        2      -0.19977328      -0.54761059       0.07302036
O        0.78931236       3.62919935      13.15069587  F        1        2       0.42706768       0.28343373       0.54206349
O        2.74832265       2.49816423      14.45537079  F        1        2       0.01446728       0.38442748      -0.72441555
O       -1.07718501       3.13058929      16.75676254  F        1        2       0.05567896       0.39578628       0.20938635
Si       2.31517718       0.01102149      17.46338291  T        0        1      -0.00034095      -0.00486431      -0.00786044
Si      -1.22071803       1.76881193      21.10806944  T        0        1      -0.00272847       0.00342294      -0.00164956
Si       1.28469795       2.25659840      19.31161797  T        0        1       0.00725511       0.00082679      -0.01064007
O        1.37549293       1.17222052      18.08041570  T        1        1      -0.00300104      -0.00807302      -0.00485405
O        0.25186604       1.72868985      20.43268699  T        1        1       0.00234759       0.00025282      -0.00285473
O        3.12812469       0.59680793      21.92732753  T        1        1       0.00890061      -0.00183139       0.00494730
O        0.78442511       3.65031639      18.62772227  T        1        1       0.00049521       0.00682687      -0.00048833
O        2.73509931       2.50203180      19.99021269  T        1        1       0.00498190       0.00425203      -0.00098893
O       -1.25008967       2.34654793      22.63808238  T        1        1      -0.00227064      -0.00424665      -0.00256235
Si       7.23815181       0.00000000      12.00000000  F        0        2      -0.13364720      -0.36644920      -1.70498442
Si       3.76227409       2.00679893      15.60606667  F        0        2      -0.11137645       0.07904492       1.22696284
Si       6.22272410       2.25482548      13.80303333  F        0        2       0.02880906      -0.16105589       1.01259032
O        6.30416499       1.13103512      12.65233746  F        1        2      -0.50550249       0.21558160      -0.21736283
O        5.20877265       1.76346018      14.95372921  F        1        2       0.43084433      -0.24720719      -0.37738493
O        8.17066236       0.63242506      16.25840413  F        1        2      -0.18905796      -0.54390692       0.07935421
O        5.71021236       3.62919935      13.15069587  F        1        2       0.42662463       0.28583657       0.53721341
O        7.66922265       2.49816423      14.45537079  F        1        2       0.02171881       0.38705466      -0.72302285
O        3.84371499       3.13058929      16.75676254  F        1        2       0.03648002       0.33559046       0.14563394
Si       7.23796805       0.00662003      17.46274228  T        0        1      -0.00139055       0.00050586       0.01154840
Si       3.72082117       1.90499106      21.15261569  T        0        1       0.00018865      -0.01038769      -0.00438012
Si       6.19083232       2.24237548      19.31071386  T        0        1      -0.00413049      -0.00400498       0.00243662
O        6.29413648       1.16557372      18.07548241  T        1        1      -0.00327485       0.00499767      -0.00065215
O        5.15179534       1.68919703      20.41791432  T        1        1      -0.00341469       0.00628770      -0.00419683
O        8.08955213       0.32252083      21.66569895  T        1        1       0.00975735      -0.00341962       0.00207148
O        5.71021435       3.64371100      18.62599815  T        1        1      -0.00135778      -0.00659403       0.00399210
O        7.64392136       2.47219423      19.99857893  T        1        1      -0.00483540       0.00389709      -0.00261818
O        3.77579967       2.73161303      22.55897727  T        1        1      -0.00075232      -0.00319663      -0.00789236
F        2.83984422       0.13078274      24.33884226  T        0        0      -0.00154621       0.00379169      -0.00005534
H        2.91843490       0.24965763      23.35370769  T        0        0      -0.00844918       0.00433629       0.00622693
O        3.91591929       2.54313562      25.36187853  T        0        0      -0.00415681      -0.01746064      -0.00365643
H        3.48889979       1.66047806      25.41534777  T        0        0      -0.00189815       0.01229997       0.00824331
H        3.89825081       2.73327926      24.39321761  T        0        0       0.00098070       0.00713630       0.00257439
41
Lattice="9.8418 0.0 0.0 -2.460449999999999 4.261624409482844 0.0 0.0 -0.0 34.16586254" Properties=species:S:1:pos:R:3:move_mask:L:1:spacegroup_kinds:I:1:tags:I:1:forces:R:3 surface=alpha_quartz_001 coadsorbate=H2O start=1 calculation_kind="Local coadsorbate relaxation; not a reaction path" host_atoms=36 energy=-289.50895476144274 pbc="T T F"
Si       2.31725181       0.00000000      12.00000000  F        0        2      -0.13422002      -0.36639214      -1.70773517
Si      -1.15862590       2.00679893      15.60606667  F        0        2      -0.12612595       0.05860810       1.22855466
Si       1.30182410       2.25482548      13.80303333  F        0        2       0.03369684      -0.15811230       1.00287480
O        1.38326499       1.13103512      12.65233746  F        1        2      -0.50595806       0.21752698      -0.21358000
O        0.28787265       1.76346018      14.95372921  F        1        2       0.43918715      -0.24665823      -0.37553202
O        3.24976236       0.63242506      16.25840413  F        1        2      -0.20307706      -0.54601887       0.07400362
O        0.78931236       3.62919935      13.15069587  F        1        2       0.42700043       0.28341093       0.54203566
O        2.74832265       2.49816423      14.45537079  F        1        2       0.01434409       0.38463510      -0.72443208
O       -1.07718501       3.13058929      16.75676254  F        1        2       0.05624239       0.39735701       0.21104274
Si       2.31527016       0.01093307      17.46356348  T        0        1       0.00316972      -0.00698833      -0.01185347
Si      -1.21939218       1.76868474      21.10868809  T        0        1      -0.00228527       0.00356291      -0.00230808
Si       1.28580909       2.25700116      19.31198155  T        0        1       0.00647463      -0.00175113      -0.01198454
O        1.37569007       1.17147166      18.08178549  T        1        1      -0.00132325      -0.01048298      -0.00815135
O        0.25372218       1.72967038      20.43404192  T        1        1      -0.00004809       0.00288557      -0.00356241
O        3.12959126       0.59801840      21.92848770  T        1        1       0.00463554      -0.00450023       0.00278609
O        0.78597558       3.64996539      18.62655688  T        1        1      -0.00296648       0.00854028       0.00375361
O        2.73674619       2.50287242      19.98940459  T        1        1       0.00430994       0.00212325       0.00331777
O       -1.24845518       2.34552259      22.63917105  T        1        1      -0.00446425      -0.00248765      -0.00655314
Si       7.23815181       0.00000000      12.00000000  F        0        2      -0.13367877      -0.36643116      -1.70499489
Si       3.76227409       2.00679893      15.60606667  F        0        2      -0.11169870       0.07795498       1.22676801
Si       6.22272410       2.25482548      13.80303333  F        0        2       0.02863434      -0.16118998       1.01252523
O        6.30416499       1.13103512      12.65233746  F        1        2      -0.50546211       0.21558631      -0.21737553
O        5.20877265       1.76346018      14.95372921  F        1        2       0.43114118      -0.24716802      -0.37729817
O        8.17066236       0.63242506      16.25840413  F        1        2      -0.18899497      -0.54389892       0.07949448
O        5.71021236       3.62919935      13.15069587  F        1        2       0.42665509       0.28584022       0.53723155
O        7.66922265       2.49816423      14.45537079  F        1        2       0.02185609       0.38697083      -0.72274478
O        3.84371499       3.13058929      16.75676254  F        1        2       0.04043342       0.33714260       0.14853662
Si       7.23850399       0.00622608      17.46292892  T        0        1      -0.00330131       0.00058892       0.01405163
Si       3.72138747       1.90593887      21.15276715  T        0        1       0.00640591      -0.01033822      -0.00020154
Si       6.19166382       2.24222617      19.31119766  T        0        1       0.00169750      -0.00350234       0.00368392
O        6.29462355       1.16471120      18.07654276  T        1        1      -0.00463844       0.00690217      -0.00092606
O        5.15304308       1.69001012      20.41935232  T        1        1      -0.00250905       0.00673841      -0.00893303
O        8.09203212       0.32186619      21.66627201  T        1        1       0.01014201      -0.00090703      -0.00125114
O        5.71150034       3.64359865      18.62590846  T        1        1      -0.00284393      -0.01158734       0.00252513
O        7.64536922       2.47154281      19.99845850  T        1        1      -0.00520529       0.00179823       0.00255678
O        3.77651256       2.73210539      22.55943853  T        1        1      -0.00193951       0.00089501      -0.00599902
F        2.83600603       0.13430375      24.34010578  T        0        0      -0.00187824       0.00373770       0.00029635
H        2.91662945       0.25253762      23.35515198  T        0        0      -0.00806561       0.00394304       0.00404968
O        3.91180223       2.54520574      25.36407545  T        0        0      -0.00523514      -0.02003197      -0.00264715
H        3.48341295       1.66299630      25.41619484  T        0        0       0.00019635       0.01599813       0.00753925
H        3.89703269       2.73558331      24.39550939  T        0        0      -0.00030314       0.00570015       0.00043596
41
Lattice="9.8418 0.0 0.0 -2.460449999999999 4.261624409482844 0.0 0.0 -0.0 34.16586254" Properties=species:S:1:pos:R:3:move_mask:L:1:spacegroup_kinds:I:1:tags:I:1:forces:R:3 surface=alpha_quartz_001 coadsorbate=H2O start=1 calculation_kind="Local coadsorbate relaxation; not a reaction path" host_atoms=36 energy=-289.509034918107 pbc="T T F"
Si       2.31725181       0.00000000      12.00000000  F        0        2      -0.13422919      -0.36638602      -1.70779241
Si      -1.15862590       2.00679893      15.60606667  F        0        2      -0.12683331       0.05745258       1.22828842
Si       1.30182410       2.25482548      13.80303333  F        0        2       0.03403664      -0.15802684       1.00267217
O        1.38326499       1.13103512      12.65233746  F        1        2      -0.50599254       0.21754314      -0.21355579
O        0.28787265       1.76346018      14.95372921  F        1        2       0.43927221      -0.24663534      -0.37514094
O        3.24976236       0.63242506      16.25840413  F        1        2      -0.20364449      -0.54313585       0.07057942
O        0.78931236       3.62919935      13.15069587  F        1        2       0.42696104       0.28337774       0.54207769
O        2.74832265       2.49816423      14.45537079  F        1        2       0.01417154       0.38474816      -0.72439360
O       -1.07718501       3.13058929      16.75676254  F        1        2       0.05555866       0.39610647       0.21070315
Si       2.31549468       0.01067368      17.46349388  T        0        1       0.00616056      -0.00666885      -0.01084568
Si      -1.21783201       1.76870008      21.10873401  T        0        1       0.00111020       0.00287258      -0.00244813
Si       1.28742927       2.25747215      19.31192359  T        0        1       0.00398334      -0.00382288      -0.01024015
O        1.37597859       1.17052608      18.08291740  T        1        1       0.00030460      -0.00946321      -0.00908699
O        0.25598524       1.73110688      20.43515667  T        1        1      -0.00215978       0.00486717      -0.00565183
O        3.13118751       0.59980080      21.93019187  T        1        1       0.00008178      -0.00813385      -0.00119323
O        0.78772795       3.64974110      18.62521966  T        1        1      -0.00441334       0.00804848       0.00761688
O        2.73885590       2.50399289      19.98839173  T        1        1       0.00153922      -0.00251088       0.00627651
O       -1.24652163       2.34469463      22.63961166  T        1        1      -0.00719215       0.00063979      -0.00821575
Si       7.23815181       0.00000000      12.00000000  F        0        2      -0.13369620      -0.36640484      -1.70492766
Si       3.76227409       2.00679893      15.60606667  F        0        2      -0.11150219       0.07745509       1.22669682
Si       6.22272410       2.25482548      13.80303333  F        0        2       0.02841637      -0.16131613       1.01264451
O        6.30416499       1.13103512      12.65233746  F        1        2      -0.50539258       0.21556448      -0.21742379
O        5.20877265       1.76346018      14.95372921  F        1        2       0.43133331      -0.24718244      -0.37727137
O        8.17066236       0.63242506      16.25840413  F        1        2      -0.19097687      -0.54496645       0.08305591
O        5.71021236       3.62919935      13.15069587  F        1        2       0.42665492       0.28586072       0.53716359
O        7.66922265       2.49816423      14.45537079  F        1        2       0.02207987       0.38705988      -0.72250676
O        3.84371499       3.13058929      16.75676254  F        1        2       0.04418313       0.33876782       0.15158964
Si       7.23892423       0.00586713      17.46328966  T        0        1      -0.00403401       0.00062254       0.01021719
Si       3.72223722       1.90704254      21.15292029  T        0        1       0.00955408      -0.00757481       0.00392302
Si       6.19256680       2.24201006      19.31156818  T        0        1       0.00686509      -0.00150786       0.00349182
O        6.29476902       1.16392739      18.07738256  T        1        1      -0.00404115       0.00630704      -0.00129900
O        5.15449704       1.69107776      20.42078997  T        1        1      -0.00130446       0.00387752      -0.01093880
O        8.09520209       0.32126521      21.66645817  T        1        1       0.01003057       0.00158155      -0.00544438
O        5.71261949       3.64331876      18.62584490  T        1        1      -0.00493233      -0.01228419       0.00028111
O        7.64701601       2.47090533      19.99775524  T        1        1      -0.00410228      -0.00086257       0.00825339
O        3.77727222       2.73311093      22.55968982  T        1        1      -0.00297162       0.00556297      -0.00315562
F        2.83205001       0.13797051      24.34193808  T        0        0      -0.00285857       0.00353734       0.00160323
H        2.91446843       0.25561392      23.35725770  T        0        0      -0.00667621       0.00394115       0.00133322
O        3.90473561       2.54941615      25.36618578  T        0        0      -0.00070018      -0.01225293       0.00001140
H        3.47698202       1.66704277      25.41802480  T        0        0      -0.00221257       0.01179183       0.00393948
H        3.89273144       2.73944970      24.39759568  T        0        0      -0.00243112       0.00154992      -0.00088669
41
Lattice="9.8418 0.0 0.0 -2.460449999999999 4.261624409482844 0.0 0.0 -0.0 34.16586254" Properties=species:S:1:pos:R:3:move_mask:L:1:spacegroup_kinds:I:1:tags:I:1:forces:R:3 surface=alpha_quartz_001 coadsorbate=H2O start=1 calculation_kind="Local coadsorbate relaxation; not a reaction path" host_atoms=36 energy=-289.5090936473304 pbc="T T F"
Si       2.31725181       0.00000000      12.00000000  F        0        2      -0.13424717      -0.36639412      -1.70790873
Si      -1.15862590       2.00679893      15.60606667  F        0        2      -0.12791716       0.05530270       1.22794635
Si       1.30182410       2.25482548      13.80303333  F        0        2       0.03422314      -0.15802116       1.00241579
O        1.38326499       1.13103512      12.65233746  F        1        2      -0.50604087       0.21758324      -0.21350794
O        0.28787265       1.76346018      14.95372921  F        1        2       0.43945680      -0.24643574      -0.37494175
O        3.24976236       0.63242506      16.25840413  F        1        2      -0.20110257      -0.54010116       0.06406432
O        0.78931236       3.62919935      13.15069587  F        1        2       0.42697773       0.28334838       0.54217861
O        2.74832265       2.49816423      14.45537079  F        1        2       0.01403698       0.38470166      -0.72428780
O       -1.07718501       3.13058929      16.75676254  F        1        2       0.05462218       0.39317735       0.20917236
Si       2.31580168       0.01035354      17.46322333  T        0        1       0.00664328      -0.00434703      -0.00507054
Si      -1.21657341       1.76887356      21.10824774  T        0        1       0.00541278       0.00182156      -0.00172224
Si       1.28890496       2.25784223      19.31149661  T        0        1       0.00191937      -0.00443344      -0.00656233
O        1.37627033       1.16975551      18.08340632  T        1        1       0.00114193      -0.00524625      -0.00758568
O        0.25775407       1.73242189      20.43557079  T        1        1      -0.00265204       0.00519758      -0.00802776
O        3.13232100       0.60127400      21.93165627  T        1        1      -0.00244663      -0.00985825      -0.00489260
O        0.78902951       3.64981086      18.62432012  T        1        1      -0.00349334       0.00491840       0.00901693
O        2.74056855       2.50490228      19.98764972  T        1        1      -0.00189416      -0.00765206       0.00701394
O       -1.24508010       2.34449965      22.63923186  T        1        1      -0.00911473       0.00381927      -0.00637328
Si       7.23815181       0.00000000      12.00000000  F        0        2      -0.13368954      -0.36638359      -1.70481471
Si       3.76227409       2.00679893      15.60606667  F        0        2      -0.11082695       0.07781794       1.22673406
Si       6.22272410       2.25482548      13.80303333  F        0        2       0.02827489      -0.16137006       1.01289815
O        6.30416499       1.13103512      12.65233746  F        1        2      -0.50532972       0.21552560      -0.21748576
O        5.20877265       1.76346018      14.95372921  F        1        2       0.43131129      -0.24725369      -0.37729686
O        8.17066236       0.63242506      16.25840413  F        1        2      -0.19390196      -0.54666653       0.08818282
O        5.71021236       3.62919935      13.15069587  F        1        2       0.42662321       0.28588630       0.53703960
O        7.66922265       2.49816423      14.45537079  F        1        2       0.02227570       0.38727796      -0.72242000
O        3.84371499       3.13058929      16.75676254  F        1        2       0.04608665       0.33971306       0.15345619
Si       7.23907739       0.00567273      17.46366519  T        0        1      -0.00308802       0.00059226       0.00224049
Si       3.72307775       1.90782089      21.15305636  T        0        1       0.00802730      -0.00376381       0.00573736
Si       6.19327094       2.24182304      19.31169956  T        0        1       0.00792588       0.00063977       0.00170594
O        6.29461102       1.16356034      18.07767543  T        1        1      -0.00183906       0.00346355      -0.00168862
O        5.15557731       1.69192037      20.42157715  T        1        1      -0.00038857      -0.00078108      -0.00883329
O        8.09784183       0.32101300      21.66620076  T        1        1       0.00921990       0.00198592      -0.00815807
O        5.71312495       3.64294660      18.62582324  T        1        1      -0.00631927      -0.00833191      -0.00172223
O        7.64823565       2.47046220      19.99685557  T        1        1      -0.00241731      -0.00185333       0.01111968
O        3.77784624       2.73422753      22.55965800  T        1        1      -0.00349673       0.00816718      -0.00104895
F        2.82942684       0.14053510      24.34359000  T        0        0      -0.00399184       0.00352908       0.00274485
H        2.91276677       0.25779404      23.35913100  T        0        0      -0.00491550       0.00405013      -0.00058438
O        3.89745517       2.55428755      25.36747849  T        0        0       0.00426922      -0.00322188       0.00183467
H        3.47191258       1.67110882      25.41997389  T        0        0      -0.00555756       0.00620854      -0.00009381
H        3.88684676       2.74353286      24.39873527  T        0        0      -0.00377754      -0.00261236      -0.00047476
41
Lattice="9.8418 0.0 0.0 -2.460449999999999 4.261624409482844 0.0 0.0 -0.0 34.16586254" Properties=species:S:1:pos:R:3:move_mask:L:1:spacegroup_kinds:I:1:tags:I:1:forces:R:3 surface=alpha_quartz_001 coadsorbate=H2O start=1 calculation_kind="Local coadsorbate relaxation; not a reaction path" host_atoms=36 energy=-289.50914043207524 pbc="T T F"
Si       2.31725181       0.00000000      12.00000000  F        0        2      -0.13427051      -0.36640986      -1.70804189
Si      -1.15862590       2.00679893      15.60606667  F        0        2      -0.12893498       0.05306539       1.22765301
Si       1.30182410       2.25482548      13.80303333  F        0        2       0.03424987      -0.15807980       1.00218258
O        1.38326499       1.13103512      12.65233746  F        1        2      -0.50608590       0.21763314      -0.21345463
O        0.28787265       1.76346018      14.95372921  F        1        2       0.43968713      -0.24618184      -0.37489919
O        3.24976236       0.63242506      16.25840413  F        1        2      -0.19742632      -0.53780143       0.05755312
O        0.78931236       3.62919935      13.15069587  F        1        2       0.42703464       0.28332555       0.54230076
O        2.74832265       2.49816423      14.45537079  F        1        2       0.01396987       0.38455432      -0.72412702
O       -1.07718501       3.13058929      16.75676254  F        1        2       0.05458220       0.39059038       0.20810530
Si       2.31615960       0.01003986      17.46294634  T        0        1       0.00497446      -0.00166708       0.00202127
Si      -1.21560575       1.76906767      21.10771892  T        0        1       0.00837738       0.00090003      -0.00061346
Si       1.29003638       2.25806351      19.31102971  T        0        1       0.00127984      -0.00393985      -0.00287621
O        1.37655609       1.16917332      18.08356017  T        1        1       0.00136950       0.00005537      -0.00535614
O        0.25893220       1.73342679      20.43557587  T        1        1      -0.00185066       0.00430997      -0.00968868
O        3.13300815       0.60208158      21.93260515  T        1        1      -0.00286809      -0.00896655      -0.00652309
O        0.78990069       3.65004986      18.62393047  T        1        1      -0.00165323       0.00043735       0.00803130
O        2.74171235       2.50542126      19.98736518  T        1        1      -0.00452452      -0.01147096       0.00641302
O       -1.24429281       2.34462434      22.63861865  T        1        1      -0.00976246       0.00628263      -0.00259668
Si       7.23815181       0.00000000      12.00000000  F        0        2      -0.13367039      -0.36637281      -1.70471439
Si       3.76227409       2.00679893      15.60606667  F        0        2      -0.11002386       0.07862177       1.22677603
Si       6.22272410       2.25482548      13.80303333  F        0        2       0.02823134      -0.16136457       1.01314552
O        6.30416499       1.13103512      12.65233746  F        1        2      -0.50529272       0.21549076      -0.21753516
O        5.20877265       1.76346018      14.95372921  F        1        2       0.43116420      -0.24734940      -0.37730769
O        8.17066236       0.63242506      16.25840413  F        1        2      -0.19650828      -0.54837777       0.09283940
O        5.71021236       3.62919935      13.15069587  F        1        2       0.42658584       0.28590196       0.53692479
O        7.66922265       2.49816423      14.45537079  F        1        2       0.02239965       0.38750416      -0.72241280
O        3.84371499       3.13058929      16.75676254  F        1        2       0.04651851       0.33992648       0.15416294
Si       7.23910940       0.00555516      17.46396854  T        0        1      -0.00131828       0.00053400      -0.00553623
Si       3.72381621       1.90820709      21.15327332  T        0        1       0.00405856      -0.00077804       0.00521443
Si       6.19385078       2.24166003      19.31175711  T        0        1       0.00522541       0.00189100      -0.00067449
O        6.29444865       1.16341981      18.07773258  T        1        1       0.00078620       0.00022174      -0.00208541
O        5.15626002       1.69242342      20.42185024  T        1        1       0.00007122      -0.00521265      -0.00451513
O        8.09978574       0.32092770      21.66572160  T        1        1       0.00799065       0.00033528      -0.00877389
O        5.71325392       3.64249125      18.62579372  T        1        1      -0.00642868      -0.00268029      -0.00304579
O        7.64901336       2.47012242      19.99626954  T        1        1      -0.00118201      -0.00065199       0.01055406
O        3.77831629       2.73506696      22.55963527  T        1        1      -0.00364970       0.00844184      -0.00046349
F        2.82768522       0.14244678      24.34484547  T        0        0      -0.00494617       0.00347503       0.00228340
H        2.91148289       0.25939522      23.36049365  T        0        0      -0.00353364       0.00362541      -0.00133754
O        3.89235688       2.55773849      25.36821418  T        0        0       0.00888191       0.00662549       0.00139049
H        3.46854538       1.67402745      25.42142350  T        0        0      -0.00944661      -0.00099534      -0.00246996
H        3.88214407       2.74639611      24.39932168  T        0        0      -0.00406137      -0.00544881       0.00149751
41
Lattice="9.8418 0.0 0.0 -2.460449999999999 4.261624409482844 0.0 0.0 -0.0 34.16586254" Properties=species:S:1:pos:R:3:move_mask:L:1:spacegroup_kinds:I:1:tags:I:1:forces:R:3 surface=alpha_quartz_001 coadsorbate=H2O start=1 calculation_kind="Local coadsorbate relaxation; not a reaction path" host_atoms=36 energy=-289.5091920632535 pbc="T T F"
Si       2.31725181       0.00000000      12.00000000  F        0        2      -0.13429912      -0.36642966      -1.70818574
Si      -1.15862590       2.00679893      15.60606667  F        0        2      -0.12978982       0.05091722       1.22737059
Si       1.30182410       2.25482548      13.80303333  F        0        2       0.03417828      -0.15818598       1.00197775
O        1.38326499       1.13103512      12.65233746  F        1        2      -0.50612867       0.21769055      -0.21339894
O        0.28787265       1.76346018      14.95372921  F        1        2       0.43993891      -0.24591975      -0.37492925
O        3.24976236       0.63242506      16.25840413  F        1        2      -0.19336997      -0.53600198       0.05146832
O        0.78931236       3.62919935      13.15069587  F        1        2       0.42711887       0.28330357       0.54243470
O        2.74832265       2.49816423      14.45537079  F        1        2       0.01395005       0.38435903      -0.72392337
O       -1.07718501       3.13058929      16.75676254  F        1        2       0.05589784       0.38884331       0.20818802
Si       2.31661937       0.00969264      17.46273272  T        0        1       0.00183891       0.00084333       0.00871592
Si      -1.21449869       1.76932680      21.10731244  T        0        1       0.00893603       0.00035782       0.00079038
Si       1.29115694       2.25822113      19.31056393  T        0        1       0.00152982      -0.00288336       0.00050813
O        1.37688782       1.16858939      18.08367475  T        1        1       0.00146657       0.00585491      -0.00324114
O        0.26001089       1.73440827      20.43542589  T        1        1      -0.00066828       0.00247781      -0.00990262
O        3.13368818       0.60247589      21.93327435  T        1        1      -0.00220881      -0.00566737      -0.00600921
O        0.79074234       3.65038213      18.62380846  T        1        1       0.00029402      -0.00469888       0.00508904
O        2.74270500       2.50565164      19.98734270  T        1        1      -0.00602465      -0.01389277       0.00507648
O       -1.24382226       2.34497191      22.63803016  T        1        1      -0.00929724       0.00801168       0.00160881
Si       7.23815181       0.00000000      12.00000000  F        0        2      -0.13364689      -0.36637201      -1.70464618
Si       3.76227409       2.00679893      15.60606667  F        0        2      -0.10923987       0.07949134       1.22678459
Si       6.22272410       2.25482548      13.80303333  F        0        2       0.02824635      -0.16132669       1.01334540
O        6.30416499       1.13103512      12.65233746  F        1        2      -0.50527848       0.21546782      -0.21756662
O        5.20877265       1.76346018      14.95372921  F        1        2       0.43097520      -0.24744529      -0.37728484
O        8.17066236       0.63242506      16.25840413  F        1        2      -0.19842372      -0.54989428       0.09642853
O        5.71021236       3.62919935      13.15069587  F        1        2       0.42655682       0.28590558       0.53683852
O        7.66922265       2.49816423      14.45537079  F        1        2       0.02247800       0.38770441      -0.72240141
O        3.84371499       3.13058929      16.75676254  F        1        2       0.04618543       0.33970618       0.15419112
Si       7.23913578       0.00544034      17.46420342  T        0        1       0.00079156       0.00034879      -0.01153685
Si       3.72463946       1.90844694      21.15362158  T        0        1      -0.00073815       0.00096726       0.00325990
Si       6.19454062       2.24153016      19.31184445  T        0        1       0.00012137       0.00213601      -0.00306357
O        6.29443077       1.16334750      18.07777770  T        1        1       0.00334651      -0.00263458      -0.00235376
O        5.15688738       1.69278130      20.42194834  T        1        1       0.00050399      -0.00900463       0.00084324
O        8.10178171       0.32090241      21.66516977  T        1        1       0.00642391      -0.00265278      -0.00794276
O        5.71325948       3.64194930      18.62572953  T        1        1      -0.00510447       0.00313920      -0.00373698
O        7.64972271       2.46976171      19.99601070  T        1        1      -0.00075027       0.00217919       0.00737983
O        3.77880300       2.73591259      22.55965653  T        1        1      -0.00368273       0.00694548      -0.00079860
F        2.82576129       0.14459581      24.34600230  T        0        0      -0.00570951       0.00380471       0.00057493
H        2.91009524       0.26115830      23.36170552  T        0        0      -0.00227772       0.00251419      -0.00174011
O        3.88777908       2.56097812      25.36902078  T        0        0       0.00967922       0.01009862      -0.00078667
H        3.46509757       1.67683420      25.42259580  T        0        0      -0.01066346      -0.00346066      -0.00309412
H        3.87756497       2.74918065      24.39999907  T        0        0      -0.00315585      -0.00659729       0.00366854
41
Lattice="9.8418 0.0 0.0 -2.460449999999999 4.261624409482844 0.0 0.0 -0.0 34.16586254" Properties=species:S:1:pos:R:3:move_mask:L:1:spacegroup_kinds:I:1:tags:I:1:forces:R:3 surface=alpha_quartz_001 coadsorbate=H2O start=1 calculation_kind="Local coadsorbate relaxation; not a reaction path" host_atoms=36 energy=-289.5092536037914 pbc="T T F"
Si       2.31725181       0.00000000      12.00000000  F        0        2      -0.13433005      -0.36644893      -1.70831788
Si      -1.15862590       2.00679893      15.60606667  F        0        2      -0.13027693       0.04925277       1.22709081
Si       1.30182410       2.25482548      13.80303333  F        0        2       0.03404929      -0.15831908       1.00183125
O        1.38326499       1.13103512      12.65233746  F        1        2      -0.50616263       0.21774612      -0.21334949
O        0.28787265       1.76346018      14.95372921  F        1        2       0.44016440      -0.24571196      -0.37497074
O        3.24976236       0.63242506      16.25840413  F        1        2      -0.19019564      -0.53512063       0.04752437
O        0.78931236       3.62919935      13.15069587  F        1        2       0.42721322       0.28328162       0.54255907
O        2.74832265       2.49816423      14.45537079  F        1        2       0.01397476       0.38416777      -0.72369456
O       -1.07718501       3.13058929      16.75676254  F        1        2       0.05888705       0.38849980       0.21003346
Si       2.31718538       0.00929485      17.46269088  T        0        1      -0.00195190       0.00264646       0.01259539
Si      -1.21306151       1.76953267      21.10734252  T        0        1       0.00581297       0.00046981       0.00159817
Si       1.29235150       2.25828235      19.31023040  T        0        1       0.00194594      -0.00158897       0.00324621
O        1.37725201       1.16789537      18.08397195  T        1        1       0.00196466       0.01099961      -0.00202131
O        0.26117370       1.73545485      20.43537556  T        1        1       0.00003918      -0.00009730      -0.00793922
O        3.13455450       0.60243391      21.93371730  T        1        1      -0.00108898      -0.00046231      -0.00240874
O        0.79170833       3.65065256      18.62386114  T        1        1       0.00169620      -0.00925364       0.00044747
O        2.74364863       2.50548935      19.98760629  T        1        1      -0.00558212      -0.01389724       0.00304006
O       -1.24364726       2.34515445      22.63790965  T        1        1      -0.00753440       0.00861156       0.00492362
Si       7.23815181       0.00000000      12.00000000  F        0        2      -0.13362831      -0.36638201      -1.70464023
Si       3.76227409       2.00679893      15.60606667  F        0        2      -0.10870997       0.08005080       1.22672074
Si       6.22272410       2.25482548      13.80303333  F        0        2       0.02829970      -0.16128017       1.01341969
O        6.30416499       1.13103512      12.65233746  F        1        2      -0.50529056       0.21546889      -0.21756892
O        5.20877265       1.76346018      14.95372921  F        1        2       0.43083811      -0.24751177      -0.37719302
O        8.17066236       0.63242506      16.25840413  F        1        2      -0.19914464      -0.55092606       0.09816248
O        5.71021236       3.62919935      13.15069587  F        1        2       0.42655421       0.28589024       0.53681602
O        7.66922265       2.49816423      14.45537079  F        1        2       0.02251762       0.38781774      -0.72229902
O        3.84371499       3.13058929      16.75676254  F        1        2       0.04558691       0.33911766       0.15377653
Si       7.23928632       0.00523662      17.46435214  T        0        1       0.00264230       0.00002038      -0.01361461
Si       3.72559320       1.90857744      21.15418055  T        0        1      -0.00472996       0.00086689       0.00043517
Si       6.19546031       2.24139008      19.31210474  T        0        1      -0.00603226       0.00120938      -0.00466251
O        6.29473090       1.16312905      18.07808921  T        1        1       0.00541231      -0.00403379      -0.00239637
O        5.15760007       1.69301136      20.42211380  T        1        1       0.00087086      -0.01146564       0.00587512
O        8.10422578       0.32061376      21.66459460  T        1        1       0.00467162      -0.00603723      -0.00575567
O        5.71339086       3.64126693      18.62557495  T        1        1      -0.00220118       0.00738212      -0.00365195
O        7.65047690       2.46929302      19.99639534  T        1        1      -0.00138585       0.00599220       0.00187013
O        3.77935397       2.73666608      22.55988612  T        1        1      -0.00355165       0.00409416      -0.00185764
F        2.82286308       0.14766753      24.34714538  T        0        0      -0.00630057       0.00411839      -0.00270819
H        2.90828073       0.26362351      23.36287046  T        0        0      -0.00137839       0.00035462      -0.00227967
O        3.88472050       2.56285309      25.37026338  T        0        0       0.00931543       0.01300251      -0.00459662
H        3.46109393       1.67919829      25.42341708  T        0        0      -0.01145167      -0.00634975      -0.00145619
H        3.87470843       2.75115223      24.40124320  T        0        0      -0.00152908      -0.00617502       0.00541678
41
Lattice="9.8418 0.0 0.0 -2.460449999999999 4.261624409482844 0.0 0.0 -0.0 34.16586254" Properties=species:S:1:pos:R:3:move_mask:L:1:spacegroup_kinds:I:1:tags:I:1:forces:R:3 surface=alpha_quartz_001 coadsorbate=H2O start=1 calculation_kind="Local coadsorbate relaxation; not a reaction path" host_atoms=36 energy=-289.50931221405125 pbc="T T F"
Si       2.31725181       0.00000000      12.00000000  F        0        2      -0.13434833      -0.36645743      -1.70837281
Si      -1.15862590       2.00679893      15.60606667  F        0        2      -0.13009720       0.04882468       1.22686489
Si       1.30182410       2.25482548      13.80303333  F        0        2       0.03394908      -0.15842213       1.00183478
O        1.38326499       1.13103512      12.65233746  F        1        2      -0.50617389       0.21777179      -0.21333316
O        0.28787265       1.76346018      14.95372921  F        1        2       0.44023219      -0.24565744      -0.37498332
O        3.24976236       0.63242506      16.25840413  F        1        2      -0.18931008      -0.53542037       0.04731715
O        0.78931236       3.62919935      13.15069587  F        1        2       0.42726890       0.28326847       0.54260786
O        2.74832265       2.49816423      14.45537079  F        1        2       0.01402354       0.38409647      -0.72356845
O       -1.07718501       3.13058929      16.75676254  F        1        2       0.06255680       0.38964307       0.21319017
Si       2.31768017       0.00895379      17.46287455  T        0        1      -0.00438761       0.00301339       0.01050023
Si      -1.21153120       1.76972335      21.10783115  T        0        1      -0.00114659       0.00140412       0.00143794
Si       1.29343176       2.25824694      19.31007548  T        0        1       0.00126729      -0.00067876       0.00445306
O        1.37753126       1.16727789      18.08437109  T        1        1       0.00305598       0.01301091      -0.00230740
O        0.26228355       1.73641253      20.43546413  T        1        1      -0.00097597      -0.00266220      -0.00336957
O        3.13560473       0.60214318      21.93393842  T        1        1      -0.00065928       0.00439758       0.00307621
O        0.79265945       3.65069696      18.62392209  T        1        1       0.00178134      -0.01043251      -0.00415452
O        2.74444877       2.50491729      19.98791019  T        1        1      -0.00287769      -0.01097671       0.00057983
O       -1.24369952       2.34523364      22.63836472  T        1        1      -0.00499027       0.00719797       0.00463508
Si       7.23815181       0.00000000      12.00000000  F        0        2      -0.13362594      -0.36640010      -1.70471222
Si       3.76227409       2.00679893      15.60606667  F        0        2      -0.10880450       0.07970968       1.22664231
Si       6.22272410       2.25482548      13.80303333  F        0        2       0.02834036      -0.16125658       1.01331968
O        6.30416499       1.13103512      12.65233746  F        1        2      -0.50532307       0.21549921      -0.21753809
O        5.20877265       1.76346018      14.95372921  F        1        2       0.43087418      -0.24748450      -0.37708662
O        8.17066236       0.63242506      16.25840413  F        1        2      -0.19793497      -0.55078473       0.09658152
O        5.71021236       3.62919935      13.15069587  F        1        2       0.42658787       0.28586276       0.53687769
O        7.66922265       2.49816423      14.45537079  F        1        2       0.02251787       0.38778249      -0.72209587
O        3.84371499       3.13058929      16.75676254  F        1        2       0.04507727       0.33849127       0.15315103
Si       7.23953575       0.00501447      17.46432463  T        0        1       0.00324337      -0.00046023      -0.00974824
Si       3.72647431       1.90867658      21.15474640  T        0        1      -0.00558537      -0.00114064      -0.00145631
Si       6.19637518       2.24133546      19.31244631  T        0        1      -0.00968065      -0.00050594      -0.00421803
O        6.29530041       1.16284050      18.07857655  T        1        1       0.00588406      -0.00296663      -0.00183634
O        5.15836610       1.69309680      20.42245411  T        1        1       0.00139995      -0.01130953       0.00798056
O        8.10684292       0.32012131      21.66423689  T        1        1       0.00337195      -0.00739589      -0.00337554
O        5.71366490       3.64073931      18.62536563  T        1        1       0.00142563       0.00747205      -0.00251047
O        7.65118101       2.46890577      19.99725740  T        1        1      -0.00295150       0.00840522      -0.00343933
O        3.77971560       2.73743307      22.56009457  T        1        1      -0.00322319       0.00100564      -0.00248213
F        2.81936912       0.15098325      24.34801279  T        0        0      -0.00644503       0.00485090      -0.00526029
H        2.90635135       0.26624610      23.36378275  T        0        0      -0.00082116      -0.00191202      -0.00364243
O        3.88255361       2.56418104      25.37184596  T        0        0       0.00315047       0.00409934      -0.00667407
H        3.45656877       1.68133207      25.42387560  T        0        0      -0.00704178       0.00046802       0.00127607
H        3.87312096       2.75284426      24.40295824  T        0        0       0.00039595      -0.00395068       0.00383917
41
Lattice="9.8418 0.0 0.0 -2.460449999999999 4.261624409482844 0.0 0.0 -0.0 34.16586254" Properties=species:S:1:pos:R:3:move_mask:L:1:spacegroup_kinds:I:1:tags:I:1:forces:R:3 surface=alpha_quartz_001 coadsorbate=H2O start=1 calculation_kind="Local coadsorbate relaxation; not a reaction path" host_atoms=36 energy=-289.5093544682426 pbc="T T F"
Si       2.31725181       0.00000000      12.00000000  F        0        2      -0.13434527      -0.36645070      -1.70832410
Si      -1.15862590       2.00679893      15.60606667  F        0        2      -0.12943206       0.04959469       1.22678788
Si       1.30182410       2.25482548      13.80303333  F        0        2       0.03394246      -0.15844443       1.00198196
O        1.38326499       1.13103512      12.65233746  F        1        2      -0.50615709       0.21775282      -0.21335931
O        0.28787265       1.76346018      14.95372921  F        1        2       0.44012667      -0.24575489      -0.37495525
O        3.24976236       0.63242506      16.25840413  F        1        2      -0.19095508      -0.53675250       0.05070290
O        0.78931236       3.62919935      13.15069587  F        1        2       0.42725508       0.28327152       0.54255779
O        2.74832265       2.49816423      14.45537079  F        1        2       0.01406488       0.38417443      -0.72359320
O       -1.07718501       3.13058929      16.75676254  F        1        2       0.06503104       0.39134964       0.21600107
Si       2.31791760       0.00877010      17.46319100  T        0        1      -0.00409102       0.00213535       0.00370832
Si      -1.21049998       1.76971737      21.10861587  T        0        1      -0.00810945       0.00254010      -0.00032371
Si       1.29404111       2.25809259      19.31017756  T        0        1      -0.00079373      -0.00039476       0.00411733
O        1.37764822       1.16695676      18.08471561  T        1        1       0.00438328       0.01097100      -0.00351976
O        0.26298076       1.73696047      20.43576107  T        1        1      -0.00323975      -0.00397520       0.00128320
O        3.13641725       0.60184352      21.93403642  T        1        1      -0.00124224       0.00607437       0.00788622
O        0.79324852       3.65040841      18.62389649  T        1        1       0.00072902      -0.00758199      -0.00643319
O        2.74487437       2.50415232      19.98815624  T        1        1       0.00065803      -0.00649212      -0.00158063
O       -1.24392838       2.34489527      22.63929488  T        1        1      -0.00285692       0.00456980       0.00142284
Si       7.23815181       0.00000000      12.00000000  F        0        2      -0.13364116      -0.36641470      -1.70481524
Si       3.76227409       2.00679893      15.60606667  F        0        2      -0.10948619       0.07858587       1.22660706
Si       6.22272410       2.25482548      13.80303333  F        0        2       0.02834110      -0.16127830       1.01311217
O        6.30416499       1.13103512      12.65233746  F        1        2      -0.50535502       0.21554122      -0.21749776
O        5.20877265       1.76346018      14.95372921  F        1        2       0.43109074      -0.24737248      -0.37700770
O        8.17066236       0.63242506      16.25840413  F        1        2      -0.19560567      -0.54973325       0.09297735
O        5.71021236       3.62919935      13.15069587  F        1        2       0.42663990       0.28583612       0.53698411
O        7.66922265       2.49816423      14.45537079  F        1        2       0.02249443       0.38762699      -0.72186217
O        3.84371499       3.13058929      16.75676254  F        1        2       0.04515831       0.33805734       0.15277009
Si       7.23985026       0.00479066      17.46418585  T        0        1       0.00234575      -0.00078142      -0.00250967
Si       3.72698664       1.90869472      21.15515085  T        0        1      -0.00312638      -0.00345176      -0.00154864
Si       6.19695960       2.24128878      19.31279372  T        0        1      -0.00891414      -0.00189232      -0.00197035
O        6.29593832       1.16245657      18.07916373  T        1        1       0.00484686      -0.00019804      -0.00095001
O        5.15894703       1.69298861      20.42293770  T        1        1       0.00149456      -0.00909797       0.00635540
O        8.10885894       0.31935510      21.66409217  T        1        1       0.00279470      -0.00576901      -0.00175303
O        5.71412665       3.64045129      18.62513261  T        1        1       0.00374346       0.00383712      -0.00096658
O        7.65157174       2.46871915      19.99832735  T        1        1      -0.00428816       0.00797599      -0.00611837
O        3.77978800       2.73787653      22.56027928  T        1        1      -0.00258661      -0.00071876      -0.00233301
F        2.81636328       0.15360334      24.34836847  T        0        0      -0.00635274       0.00489341      -0.00631771
H        2.90492114       0.26825295      23.36417970  T        0        0      -0.00096291      -0.00337466      -0.00510257
O        3.88288960       2.56339600      25.37317523  T        0        0       0.00032781       0.00084820      -0.00682953
H        3.45333753       1.68209161      25.42397906  T        0        0      -0.00486110       0.00254979       0.00340966
H        3.87459634       2.75272922      24.40451547  T        0        0       0.00093457      -0.00225649       0.00100613
41
Lattice="9.8418 0.0 0.0 -2.460449999999999 4.261624409482844 0.0 0.0 -0.0 34.16586254" Properties=species:S:1:pos:R:3:move_mask:L:1:spacegroup_kinds:I:1:tags:I:1:forces:R:3 surface=alpha_quartz_001 coadsorbate=H2O start=1 calculation_kind="Local coadsorbate relaxation; not a reaction path" host_atoms=36 energy=-289.50938632110217 pbc="T T F"
Si       2.31725181       0.00000000      12.00000000  F        0        2      -0.13432687      -0.36643519      -1.70821603
Si      -1.15862590       2.00679893      15.60606667  F        0        2      -0.12874362       0.05063779       1.22682063
Si       1.30182410       2.25482548      13.80303333  F        0        2       0.03401525      -0.15841430       1.00220418
O        1.38326499       1.13103512      12.65233746  F        1        2      -0.50612947       0.21770631      -0.21341296
O        0.28787265       1.76346018      14.95372921  F        1        2       0.43994246      -0.24588390      -0.37493812
O        3.24976236       0.63242506      16.25840413  F        1        2      -0.19270041      -0.53780043       0.05368013
O        0.78931236       3.62919935      13.15069587  F        1        2       0.42719421       0.28328771       0.54244778
O        2.74832265       2.49816423      14.45537079  F        1        2       0.01407503       0.38433090      -0.72373973
O       -1.07718501       3.13058929      16.75676254  F        1        2       0.06587220       0.39248880       0.21754900
Si       2.31797321       0.00870058      17.46344177  T        0        1      -0.00210388       0.00105242      -0.00349456
Si      -1.20993663       1.76982733      21.10911976  T        0        1      -0.01260289       0.00325400      -0.00190427
Si       1.29442443       2.25796316      19.31026745  T        0        1      -0.00348118      -0.00045834       0.00309056
O        1.37774375       1.16695443      18.08479660  T        1        1       0.00518940       0.00704218      -0.00424011
O        0.26341560       1.73729252      20.43597763  T        1        1      -0.00562956      -0.00418940       0.00468755
O        3.13701971       0.60190052      21.93427954  T        1        1      -0.00249305       0.00507507       0.00969128
O        0.79360659       3.65001970      18.62368898  T        1        1      -0.00055097      -0.00287938      -0.00634880
O        2.74520967       2.50350616      19.98813015  T        1        1       0.00315416      -0.00281264      -0.00325766
O       -1.24404696       2.34486722      22.63993247  T        1        1      -0.00178390       0.00164554      -0.00286655
Si       7.23815181       0.00000000      12.00000000  F        0        2      -0.13366028      -0.36642077      -1.70488498
Si       3.76227409       2.00679893      15.60606667  F        0        2      -0.11035266       0.07715431       1.22670340
Si       6.22272410       2.25482548      13.80303333  F        0        2       0.02829763      -0.16132392       1.01296187
O        6.30416499       1.13103512      12.65233746  F        1        2      -0.50536834       0.21557016      -0.21747678
O        5.20877265       1.76346018      14.95372921  F        1        2       0.43136748      -0.24721664      -0.37702700
O        8.17066236       0.63242506      16.25840413  F        1        2      -0.19320080      -0.54842762       0.08909679
O        5.71021236       3.62919935      13.15069587  F        1        2       0.42667829       0.28582680       0.53706049
O        7.66922265       2.49816423      14.45537079  F        1        2       0.02247164       0.38747333      -0.72170629
O        3.84371499       3.13058929      16.75676254  F        1        2       0.04549687       0.33794176       0.15265141
Si       7.24007310       0.00466709      17.46401594  T        0        1       0.00089524      -0.00093282       0.00387034
Si       3.72729161       1.90876120      21.15532024  T        0        1       0.00018788      -0.00461026      -0.00020964
Si       6.19719918       2.24130151      19.31294886  T        0        1      -0.00533839      -0.00236376       0.00070203
O        6.29639494       1.16225261      18.07947605  T        1        1       0.00302420       0.00228519       0.00016122
O        5.15943439       1.69281183      20.42341322  T        1        1       0.00154770      -0.00639354       0.00310946
O        8.11036531       0.31882877      21.66407828  T        1        1       0.00245540      -0.00225458      -0.00130897
O        5.71450755       3.64044225      18.62495756  T        1        1       0.00428983      -0.00061635       0.00052895
O        7.65178598       2.46880720      19.99889034  T        1        1      -0.00478131       0.00534354      -0.00582919
O        3.77964378       2.73847179      22.56015885  T        1        1      -0.00184339      -0.00117562      -0.00117362
F        2.81422656       0.15523260      24.34844555  T        0        0      -0.00614358       0.00500142      -0.00483949
H        2.90399535       0.26940264      23.36431277  T        0        0      -0.00106068      -0.00336294      -0.00639978
O        3.88211066       2.56380017      25.37405937  T        0        0      -0.00401343      -0.00771594      -0.00352603
H        3.45064008       1.68315550      25.42426607  T        0        0      -0.00063766       0.00979059       0.00345493
H        3.87485362       2.75325682      24.40555077  T        0        0       0.00079140      -0.00121949      -0.00367144
41
Lattice="9.8418 0.0 0.0 -2.460449999999999 4.261624409482844 0.0 0.0 -0.0 34.16586254" Properties=species:S:1:pos:R:3:move_mask:L:1:spacegroup_kinds:I:1:tags:I:1:forces:R:3 surface=alpha_quartz_001 coadsorbate=H2O start=1 calculation_kind="Local coadsorbate relaxation; not a reaction path" host_atoms=36 energy=-289.5094210923944 pbc="T T F"
Si       2.31725181       0.00000000      12.00000000  F        0        2      -0.13429989      -0.36641452      -1.70807107
Si      -1.15862590       2.00679893      15.60606667  F        0        2      -0.12819445       0.05149191       1.22698061
Si       1.30182410       2.25482548      13.80303333  F        0        2       0.03413021      -0.15836160       1.00247755
O        1.38326499       1.13103512      12.65233746  F        1        2      -0.50609423       0.21764048      -0.21348858
O        0.28787265       1.76346018      14.95372921  F        1        2       0.43976095      -0.24598611      -0.37495836
O        3.24976236       0.63242506      16.25840413  F        1        2      -0.19375110      -0.53850169       0.05542138
O        0.78931236       3.62919935      13.15069587  F        1        2       0.42710460       0.28331579       0.54230144
O        2.74832265       2.49816423      14.45537079  F        1        2       0.01406566       0.38450839      -0.72393357
O       -1.07718501       3.13058929      16.75676254  F        1        2       0.06583983       0.39319815       0.21837576
Si       2.31799958       0.00864184      17.46362542  T        0        1       0.00059299       0.00011550      -0.00962729
Si      -1.20958993       1.76996032      21.10946783  T        0        1      -0.01427189       0.00330231      -0.00379560
Si       1.29480583       2.25781640      19.31039547  T        0        1      -0.00620842      -0.00044719       0.00177240
O        1.37798753       1.16713747      18.08473297  T        1        1       0.00530349       0.00199219      -0.00400808
O        0.26379552       1.73758158      20.43623640  T        1        1      -0.00734234      -0.00342200       0.00638189
O        3.13750808       0.60222603      21.93483626  T        1        1      -0.00382052       0.00241294       0.00940701
O        0.79394129       3.64951834      18.62332962  T        1        1      -0.00176353       0.00244332      -0.00461002
O        2.74563875       2.50285675      19.98804563  T        1        1       0.00457108       0.00022507      -0.00466014
O       -1.24412486       2.34486900      22.64039770  T        1        1      -0.00137317      -0.00118714      -0.00642918
Si       7.23815181       0.00000000      12.00000000  F        0        2      -0.13367904      -0.36641830      -1.70490985
Si       3.76227409       2.00679893      15.60606667  F        0        2      -0.11129968       0.07558339       1.22691306
Si       6.22272410       2.25482548      13.80303333  F        0        2       0.02823966      -0.16138747       1.01289556
O        6.30416499       1.13103512      12.65233746  F        1        2      -0.50536551       0.21558364      -0.21748261
O        5.20877265       1.76346018      14.95372921  F        1        2       0.43167934      -0.24703761      -0.37709971
O        8.17066236       0.63242506      16.25840413  F        1        2      -0.19098904      -0.54731488       0.08571994
O        5.71021236       3.62919935      13.15069587  F        1        2       0.42669933       0.28582845       0.53709568
O        7.66922265       2.49816423      14.45537079  F        1        2       0.02244750       0.38734002      -0.72160720
O        3.84371499       3.13058929      16.75676254  F        1        2       0.04620410       0.33789268       0.15280219
Si       7.24032830       0.00450402      17.46389055  T        0        1      -0.00068119      -0.00080443       0.00850774
Si       3.72762644       1.90879437      21.15549553  T        0        1       0.00320271      -0.00433853       0.00133093
Si       6.19733639       2.24122302      19.31307176  T        0        1      -0.00074950      -0.00213598       0.00323350
O        6.29685219       1.16202079      18.07975437  T        1        1       0.00088952       0.00394575       0.00122626
O        5.15998276       1.69248075      20.42396820  T        1        1       0.00096249      -0.00371442      -0.00047494
O        8.11200047       0.31820361      21.66391593  T        1        1       0.00148578       0.00197924      -0.00094769
O        5.71500334       3.64039399      18.62474674  T        1        1       0.00324419      -0.00461311       0.00185595
O        7.65193712       2.46900480      19.99924346  T        1        1      -0.00429362       0.00172139      -0.00416336
O        3.77952499       2.73915241      22.55998393  T        1        1      -0.00076039      -0.00101297       0.00022199
F        2.81198698       0.15702542      24.34850728  T        0        0      -0.00606411       0.00424508      -0.00298170
H        2.90304652       0.27053683      23.36438127  T        0        0      -0.00138932      -0.00262997      -0.00663482
O        3.88128728       2.56397042      25.37477685  T        0        0      -0.00279581      -0.00559413      -0.00007467
H        3.44800815       1.68425451      25.42486648  T        0        0      -0.00101337       0.00820390       0.00218818
H        3.87529277       2.75340027      24.40636935  T        0        0      -0.00022333      -0.00164756      -0.00715057
41
Lattice="9.8418 0.0 0.0 -2.460449999999999 4.261624409482844 0.0 0.0 -0.0 34.16586254" Properties=species:S:1:pos:R:3:move_mask:L:1:spacegroup_kinds:I:1:tags:I:1:forces:R:3 surface=alpha_quartz_001 coadsorbate=H2O start=1 calculation_kind="Local coadsorbate relaxation; not a reaction path" host_atoms=36 energy=-289.5094613165554 pbc="T T F"
Si       2.31725181       0.00000000      12.00000000  F        0        2      -0.13426949      -0.36639296      -1.70791531
Si      -1.15862590       2.00679893      15.60606667  F        0        2      -0.12799604       0.05165516       1.22728050
Si       1.30182410       2.25482548      13.80303333  F        0        2       0.03425614      -0.15831788       1.00277984
O        1.38326499       1.13103512      12.65233746  F        1        2      -0.50606058       0.21756605      -0.21358013
O        0.28787265       1.76346018      14.95372921  F        1        2       0.43964973      -0.24599216      -0.37507019
O        3.24976236       0.63242506      16.25840413  F        1        2      -0.19246320      -0.53801061       0.05336208
O        0.78931236       3.62919935      13.15069587  F        1        2       0.42700475       0.28335516       0.54214164
O        2.74832265       2.49816423      14.45537079  F        1        2       0.01403319       0.38465673      -0.72414923
O       -1.07718501       3.13058929      16.75676254  F        1        2       0.06531965       0.39333747       0.21858178
Si       2.31809156       0.00856134      17.46364653  T        0        1       0.00289547      -0.00039153      -0.01231382
Si      -1.20935179       1.77032837      21.10937461  T        0        1      -0.01234656       0.00230612      -0.00459771
Si       1.29536765       2.25774341      19.31041592  T        0        1      -0.00779579      -0.00021341       0.00020752
O        1.37852045       1.16750861      18.08443536  T        1        1       0.00400322      -0.00297880      -0.00217878
O        0.26422909       1.73799843      20.43634541  T        1        1      -0.00745466      -0.00174656       0.00600473
O        3.13801933       0.60284035      21.93585269  T        1        1      -0.00484172      -0.00050888       0.00601106
O        0.79444486       3.64908216      18.62277280  T        1        1      -0.00263567       0.00678183      -0.00149377
O        2.74636645       2.50223014      19.98781859  T        1        1       0.00407096       0.00169820      -0.00548259
O       -1.24409326       2.34534290      22.64028738  T        1        1      -0.00162921      -0.00362631      -0.00822732
Si       7.23815181       0.00000000      12.00000000  F        0        2      -0.13368841      -0.36640692      -1.70485978
Si       3.76227409       2.00679893      15.60606667  F        0        2      -0.11211667       0.07412265       1.22727256
Si       6.22272410       2.25482548      13.80303333  F        0        2       0.02817806      -0.16144970       1.01300151
O        6.30416499       1.13103512      12.65233746  F        1        2      -0.50534175       0.21556988      -0.21752910
O        5.20877265       1.76346018      14.95372921  F        1        2       0.43195149      -0.24685706      -0.37725869
O        8.17066236       0.63242506      16.25840413  F        1        2      -0.18919344      -0.54677311       0.08339950
O        5.71021236       3.62919935      13.15069587  F        1        2       0.42668677       0.28584765       0.53705222
O        7.66922265       2.49816423      14.45537079  F        1        2       0.02242193       0.38728215      -0.72162292
O        3.84371499       3.13058929      16.75676254  F        1        2       0.04702614       0.33796716       0.15315331
Si       7.24054852       0.00434692      17.46383799  T        0        1      -0.00183157      -0.00045900       0.00969405
Si       3.72814754       1.90877348      21.15568663  T        0        1       0.00432616      -0.00238123       0.00255070
Si       6.19741644       2.24108125      19.31308630  T        0        1       0.00322388      -0.00133439       0.00477824
O        6.29728082       1.16195103      18.07979449  T        1        1      -0.00147961       0.00376542       0.00219903
O        5.16068181       1.69193129      20.42450134  T        1        1       0.00009941      -0.00137431      -0.00309863
O        8.11407663       0.31772144      21.66349939  T        1        1      -0.00081008       0.00579517      -0.00043792
O        5.71544286       3.64029362      18.62455399  T        1        1       0.00070102      -0.00671127       0.00299057
O        7.65211566       2.46931702      19.99908527  T        1        1      -0.00281470      -0.00187438      -0.00165364
O        3.77950117       2.74017498      22.55960050  T        1        1       0.00054207      -0.00073988       0.00174147
F        2.80940897       0.15916755      24.34872077  T        0        0      -0.00605014       0.00333576      -0.00031663
H        2.90185103       0.27171357      23.36455083  T        0        0      -0.00151408      -0.00094960      -0.00560279
O        3.87794712       2.56633268      25.37538558  T        0        0      -0.00277509      -0.00625825       0.00431092
H        3.44434861       1.68679004      25.42605007  T        0        0      -0.00038744       0.00931064      -0.00044574
H        3.87285632       2.75510245      24.40694742  T        0        0      -0.00089414      -0.00260499      -0.01067854
41
Lattice="9.8418 0.0 0.0 -2.460449999999999 4.261624409482844 0.0 0.0 -0.0 34.16586254" Properties=species:S:1:pos:R:3:move_mask:L:1:spacegroup_kinds:I:1:tags:I:1:forces:R:3 surface=alpha_quartz_001 coadsorbate=H2O start=1 calculation_kind="Local coadsorbate relaxation; not a reaction path" host_atoms=36 energy=-289.5094954017163 pbc="T T F"
Si       2.31725181       0.00000000      12.00000000  F        0        2      -0.13425279      -0.36638236      -1.70783128
Si      -1.15862590       2.00679893      15.60606667  F        0        2      -0.12832741       0.05084423       1.22764001
Si       1.30182410       2.25482548      13.80303333  F        0        2       0.03431565      -0.15831639       1.00296001
O        1.38326499       1.13103512      12.65233746  F        1        2      -0.50604519       0.21752063      -0.21364377
O        0.28787265       1.76346018      14.95372921  F        1        2       0.43971069      -0.24587343      -0.37524064
O        3.24976236       0.63242506      16.25840413  F        1        2      -0.18884752      -0.53642250       0.04774965
O        0.78931236       3.62919935      13.15069587  F        1        2       0.42694886       0.28338784       0.54205428
O        2.74832265       2.49816423      14.45537079  F        1        2       0.01400103       0.38467114      -0.72423998
O       -1.07718501       3.13058929      16.75676254  F        1        2       0.06503964       0.39318727       0.21849919
Si       2.31829247       0.00845621      17.46348917  T        0        1       0.00312461      -0.00033674      -0.00903991
Si      -1.20930653       1.77068115      21.10897350  T        0        1      -0.00671948       0.00033718      -0.00415885
Si       1.29590192       2.25774517      19.31041565  T        0        1      -0.00652583       0.00024311      -0.00110251
O        1.37925596       1.16787018      18.08413032  T        1        1       0.00125754      -0.00556466       0.00053799
O        0.26454057       1.73839834      20.43636481  T        1        1      -0.00510699       0.00049786       0.00297782
O        3.13830266       0.60334298      21.93699082  T        1        1      -0.00458306      -0.00181600       0.00128702
O        0.79500955       3.64889153      18.62227402  T        1        1      -0.00277519       0.00728152       0.00162051
O        2.74713390       2.50175290      19.98769976  T        1        1       0.00173217       0.00123446      -0.00489491
O       -1.24411044       2.34581106      22.63975901  T        1        1      -0.00222479      -0.00421377      -0.00616444
Si       7.23815181       0.00000000      12.00000000  F        0        2      -0.13368281      -0.36639147      -1.70475165
Si       3.76227409       2.00679893      15.60606667  F        0        2      -0.11238646       0.07356750       1.22759949
Si       6.22272410       2.25482548      13.80303333  F        0        2       0.02816246      -0.16148129       1.01324349
O        6.30416499       1.13103512      12.65233746  F        1        2      -0.50531070       0.21553511      -0.21759917
O        5.20877265       1.76346018      14.95372921  F        1        2       0.43204663      -0.24677546      -0.37739390
O        8.17066236       0.63242506      16.25840413  F        1        2      -0.18876565      -0.54739548       0.08373498
O        5.71021236       3.62919935      13.15069587  F        1        2       0.42664539       0.28586968       0.53694559
O        7.66922265       2.49816423      14.45537079  F        1        2       0.02239824       0.38732497      -0.72173841
O        3.84371499       3.13058929      16.75676254  F        1        2       0.04781106       0.33802448       0.15361345
Si       7.24073117       0.00416419      17.46393572  T        0        1      -0.00192185       0.00004866       0.00638138
Si       3.72872022       1.90857671      21.15597703  T        0        1       0.00241150       0.00048700       0.00193095
Si       6.19749342       2.24081481      19.31311768  T        0        1       0.00370923      -0.00057909       0.00415080
O        6.29764254       1.16192176      18.07977093  T        1        1      -0.00302574       0.00147474       0.00225380
O        5.16127459       1.69123224      20.42484711  T        1        1      -0.00125115      -0.00032612      -0.00303338
O        8.11597379       0.31733609      21.66281493  T        1        1      -0.00417943       0.00656944       0.00074993
O        5.71577001       3.63997333      18.62441958  T        1        1      -0.00245229      -0.00534284       0.00327792
O        7.65223714       2.46951790      19.99869419  T        1        1      -0.00080968      -0.00295578      -0.00020450
O        3.77974485       2.74089290      22.55939455  T        1        1       0.00162643      -0.00076531       0.00201009
F        2.80693431       0.16147996      24.34908819  T        0        0      -0.00615032       0.00184692       0.00048872
H        2.90060874       0.27291492      23.36477921  T        0        0      -0.00183690       0.00051024      -0.00286907
O        3.87482924       2.56847926      25.37574170  T        0        0       0.00074515       0.00163849       0.00419316
H        3.44118209       1.68922095      25.42727822  T        0        0      -0.00355755       0.00300485      -0.00244995
H        3.87005009       2.75657088      24.40715465  T        0        0      -0.00094754      -0.00416861      -0.00954392
41
Lattice="9.8418 0.0 0.0 -2.460449999999999 4.261624409482844 0.0 0.0 -0.0 34.16586254" Properties=species:S:1:pos:R:3:move_mask:L:1:spacegroup_kinds:I:1:tags:I:1:forces:R:3 surface=alpha_quartz_001 coadsorbate=H2O start=1 calculation_kind="Local coadsorbate relaxation; not a reaction path" host_atoms=36 energy=-289.5095140746213 pbc="T T F"
Si       2.31725181       0.00000000      12.00000000  F        0        2      -0.13425627      -0.36638667      -1.70785342
Si      -1.15862590       2.00679893      15.60606667  F        0        2      -0.12886788       0.04973420       1.22784760
Si       1.30182410       2.25482548      13.80303333  F        0        2       0.03428971      -0.15835399       1.00294756
O        1.38326499       1.13103512      12.65233746  F        1        2      -0.50605501       0.21752471      -0.21364949
O        0.28787265       1.76346018      14.95372921  F        1        2       0.43986852      -0.24572279      -0.37536927
O        3.24976236       0.63242506      16.25840413  F        1        2      -0.18503022      -0.53460096       0.04182355
O        0.78931236       3.62919935      13.15069587  F        1        2       0.42696033       0.28339622       0.54207415
O        2.74832265       2.49816423      14.45537079  F        1        2       0.01398621       0.38457027      -0.72418826
O       -1.07718501       3.13058929      16.75676254  F        1        2       0.06535344       0.39307436       0.21847266
Si       2.31849399       0.00839019      17.46326865  T        0        1       0.00138882      -0.00006464      -0.00277063
Si      -1.20941241       1.77092974      21.10848884  T        0        1      -0.00143143      -0.00131870      -0.00241657
Si       1.29616660       2.25783482      19.31036226  T        0        1      -0.00333114       0.00048985      -0.00169543
O        1.37980070       1.16803871      18.08397413  T        1        1      -0.00157298      -0.00487411       0.00236734
O        0.26459993       1.73865294      20.43624531  T        1        1      -0.00198081       0.00198730      -0.00023425
O        3.13833261       0.60344274      21.93764488  T        1        1      -0.00344905      -0.00069777      -0.00220402
O        0.79540331       3.64904395      18.62205934  T        1        1      -0.00232924       0.00430802       0.00302166
O        2.74758647       2.50154904      19.98766630  T        1        1      -0.00085976      -0.00022021      -0.00334121
O       -1.24421415       2.34618357      22.63911330  T        1        1      -0.00259321      -0.00313960      -0.00244836
Si       7.23815181       0.00000000      12.00000000  F        0        2      -0.13366852      -0.36638272      -1.70466183
Si       3.76227409       2.00679893      15.60606667  F        0        2      -0.11208694       0.07400621       1.22773266
Si       6.22272410       2.25482548      13.80303333  F        0        2       0.02818651      -0.16146923       1.01346039
O        6.30416499       1.13103512      12.65233746  F        1        2      -0.50529256       0.21550516      -0.21764676
O        5.20877265       1.76346018      14.95372921  F        1        2       0.43194885      -0.24681374      -0.37744456
O        8.17066236       0.63242506      16.25840413  F        1        2      -0.18945068      -0.54860644       0.08576302
O        5.71021236       3.62919935      13.15069587  F        1        2       0.42660627       0.28588129       0.53685031
O        7.66922265       2.49816423      14.45537079  F        1        2       0.02238831       0.38741835      -0.72186749
O        3.84371499       3.13058929      16.75676254  F        1        2       0.04809044       0.33810402       0.15385444
Si       7.24076929       0.00408177      17.46408385  T        0        1      -0.00120261       0.00030803       0.00161035
Si       3.72905722       1.90831792      21.15618659  T        0        1      -0.00089185       0.00215634       0.00023179
Si       6.19751159       2.24061667      19.31313798  T        0        1       0.00111605      -0.00043505       0.00208321
O        6.29778311       1.16201199      18.07965817  T        1        1      -0.00342398      -0.00118725       0.00159158
O        5.16150437       1.69070186      20.42486969  T        1        1      -0.00192970      -0.00038371      -0.00102895
O        8.11684362       0.31731911      21.66229910  T        1        1      -0.00681516       0.00435857       0.00175255
O        5.71575428       3.63968155      18.62444304  T        1        1      -0.00426834      -0.00219062       0.00288256
O        7.65226262       2.46956722      19.99825803  T        1        1       0.00033723      -0.00144618      -0.00035395
O        3.78004324       2.74106467      22.55936657  T        1        1       0.00187663      -0.00110195       0.00122681
F        2.80556519       0.16282604      24.34938511  T        0        0      -0.00613691       0.00109208       0.00017360
H        2.89984868       0.27353008      23.36495309  T        0        0      -0.00206695       0.00119635      -0.00061550
O        3.87250627       2.57042411      25.37577829  T        0        0       0.00045486       0.00283402       0.00164123
H        3.43938403       1.69097425      25.42791752  T        0        0      -0.00407028       0.00198178      -0.00268149
H        3.86717539       2.75801423      24.40702390  T        0        0       0.00020930      -0.00453079      -0.00693758
