41
Lattice="11.518769465528859 0.0 0.0 3.839589821842953 6.650364651656328 0.0 0.0 0.0 32.62128289467409" Properties=species:S:1:pos:R:3:move_mask:L:1:tags:I:1 surface=Si111 species=SiCl4 site=bridge_Si_Si orientation=parallel height_A=6.5 substrate_atoms=36 calculation_kind="Rigid evaluated approach scan; not NEB" energy=-186.23342996647668 pbc="T T F"
Si       1.91979491       1.10839411      12.00000000  F        6
Si       5.75938473       1.10839411      12.00000000  F        6
Si       9.59897455       1.10839411      12.00000000  F        6
Si       3.83958982       4.43357643      12.00000000  F        6
Si       7.67917964       4.43357643      12.00000000  F        6
Si      11.51876947       4.43357643      12.00000000  F        6
Si       1.91979491       1.10839411      14.35125897  F        5
Si       5.75938473       1.10839411      14.35125897  F        5
Si       9.59897455       1.10839411      14.35125897  F        5
Si       3.83958982       4.43357643      14.35125897  F        5
Si       7.67917964       4.43357643      14.35125897  F        5
Si      11.51876947       4.43357643      14.35125897  F        5
Si      -0.00000000       2.21678822      15.13501196  F        4
Si       3.83958982       2.21678822      15.13501196  F        4
Si       7.67917964       2.21678822      15.13501196  F        4
Si       1.91979491       5.54197054      15.13501196  F        4
Si       5.75938473       5.54197054      15.13501196  F        4
Si       9.59897455       5.54197054      15.13501196  F        4
Si      -0.00000000       2.21678822      17.48627093  F        3
Si       3.83958982       2.21678822      17.48627093  F        3
Si       7.67917964       2.21678822      17.48627093  F        3
Si       1.91979491       5.54197054      17.48627093  F        3
Si       5.75938473       5.54197054      17.48627093  F        3
Si       9.59897455       5.54197054      17.48627093  F        3
Si       0.00000000       0.00000000      18.27002392  F        2
Si       3.83958982       0.00000000      18.27002392  F        2
Si       7.67917964       0.00000000      18.27002392  F        2
Si       1.91979491       3.32518233      18.27002392  F        2
Si       5.75938473       3.32518233      18.27002392  F        2
Si       9.59897455       3.32518233      18.27002392  F        2
Si       0.00000000       0.00000000      20.62128289  F        1
Si       3.83958982       0.00000000      20.62128289  F        1
Si       7.67917964       0.00000000      20.62128289  F        1
Si       1.91979491       3.32518233      20.62128289  F        1
Si       5.75938473       3.32518233      20.62128289  F        1
Si       9.59897455       3.32518233      20.62128289  F        1
Si       8.63907710       4.98777349      29.03934590  T        0
Cl       6.60466406       4.98777349      29.03934590  T        0
Cl       9.31721478       4.98777349      27.12128289  T        0
Cl       9.31721478       6.64886478      29.99837740  T        0
Cl       9.31721478       3.32668220      29.99837740  T        0
41
Lattice="11.518769465528859 0.0 0.0 3.839589821842953 6.650364651656328 0.0 0.0 0.0 32.62128289467409" Properties=species:S:1:pos:R:3:move_mask:L:1:tags:I:1 surface=Si111 species=SiCl4 site=bridge_Si_Si orientation=parallel height_A=5.0 substrate_atoms=36 calculation_kind="Rigid evaluated approach scan; not NEB" energy=-186.23342996647668 pbc="T T F"
Si       1.91979491       1.10839411      12.00000000  F        6
Si       5.75938473       1.10839411      12.00000000  F        6
Si       9.59897455       1.10839411      12.00000000  F        6
Si       3.83958982       4.43357643      12.00000000  F        6
Si       7.67917964       4.43357643      12.00000000  F        6
Si      11.51876947       4.43357643      12.00000000  F        6
Si       1.91979491       1.10839411      14.35125897  F        5
Si       5.75938473       1.10839411      14.35125897  F        5
Si       9.59897455       1.10839411      14.35125897  F        5
Si       3.83958982       4.43357643      14.35125897  F        5
Si       7.67917964       4.43357643      14.35125897  F        5
Si      11.51876947       4.43357643      14.35125897  F        5
Si      -0.00000000       2.21678822      15.13501196  F        4
Si       3.83958982       2.21678822      15.13501196  F        4
Si       7.67917964       2.21678822      15.13501196  F        4
Si       1.91979491       5.54197054      15.13501196  F        4
Si       5.75938473       5.54197054      15.13501196  F        4
Si       9.59897455       5.54197054      15.13501196  F        4
Si      -0.00000000       2.21678822      17.48627093  F        3
Si       3.83958982       2.21678822      17.48627093  F        3
Si       7.67917964       2.21678822      17.48627093  F        3
Si       1.91979491       5.54197054      17.48627093  F        3
Si       5.75938473       5.54197054      17.48627093  F        3
Si       9.59897455       5.54197054      17.48627093  F        3
Si       0.00000000       0.00000000      18.27002392  F        2
Si       3.83958982       0.00000000      18.27002392  F        2
Si       7.67917964       0.00000000      18.27002392  F        2
Si       1.91979491       3.32518233      18.27002392  F        2
Si       5.75938473       3.32518233      18.27002392  F        2
Si       9.59897455       3.32518233      18.27002392  F        2
Si       0.00000000       0.00000000      20.62128289  F        1
Si       3.83958982       0.00000000      20.62128289  F        1
Si       7.67917964       0.00000000      20.62128289  F        1
Si       1.91979491       3.32518233      20.62128289  F        1
Si       5.75938473       3.32518233      20.62128289  F        1
Si       9.59897455       3.32518233      20.62128289  F        1
Si       8.63907710       4.98777349      27.53934590  T        0
Cl       6.60466406       4.98777349      27.53934590  T        0
Cl       9.31721478       4.98777349      25.62128289  T        0
Cl       9.31721478       6.64886478      28.49837740  T        0
Cl       9.31721478       3.32668220      28.49837740  T        0
41
Lattice="11.518769465528859 0.0 0.0 3.839589821842953 6.650364651656328 0.0 0.0 0.0 32.62128289467409" Properties=species:S:1:pos:R:3:move_mask:L:1:tags:I:1 surface=Si111 species=SiCl4 site=bridge_Si_Si orientation=parallel height_A=4.0 substrate_atoms=36 calculation_kind="Rigid evaluated approach scan; not NEB" energy=-186.21317836893402 pbc="T T F"
Si       1.91979491       1.10839411      12.00000000  F        6
Si       5.75938473       1.10839411      12.00000000  F        6
Si       9.59897455       1.10839411      12.00000000  F        6
Si       3.83958982       4.43357643      12.00000000  F        6
Si       7.67917964       4.43357643      12.00000000  F        6
Si      11.51876947       4.43357643      12.00000000  F        6
Si       1.91979491       1.10839411      14.35125897  F        5
Si       5.75938473       1.10839411      14.35125897  F        5
Si       9.59897455       1.10839411      14.35125897  F        5
Si       3.83958982       4.43357643      14.35125897  F        5
Si       7.67917964       4.43357643      14.35125897  F        5
Si      11.51876947       4.43357643      14.35125897  F        5
Si      -0.00000000       2.21678822      15.13501196  F        4
Si       3.83958982       2.21678822      15.13501196  F        4
Si       7.67917964       2.21678822      15.13501196  F        4
Si       1.91979491       5.54197054      15.13501196  F        4
Si       5.75938473       5.54197054      15.13501196  F        4
Si       9.59897455       5.54197054      15.13501196  F        4
Si      -0.00000000       2.21678822      17.48627093  F        3
Si       3.83958982       2.21678822      17.48627093  F        3
Si       7.67917964       2.21678822      17.48627093  F        3
Si       1.91979491       5.54197054      17.48627093  F        3
Si       5.75938473       5.54197054      17.48627093  F        3
Si       9.59897455       5.54197054      17.48627093  F        3
Si       0.00000000       0.00000000      18.27002392  F        2
Si       3.83958982       0.00000000      18.27002392  F        2
Si       7.67917964       0.00000000      18.27002392  F        2
Si       1.91979491       3.32518233      18.27002392  F        2
Si       5.75938473       3.32518233      18.27002392  F        2
Si       9.59897455       3.32518233      18.27002392  F        2
Si       0.00000000       0.00000000      20.62128289  F        1
Si       3.83958982       0.00000000      20.62128289  F        1
Si       7.67917964       0.00000000      20.62128289  F        1
Si       1.91979491       3.32518233      20.62128289  F        1
Si       5.75938473       3.32518233      20.62128289  F        1
Si       9.59897455       3.32518233      20.62128289  F        1
Si       8.63907710       4.98777349      26.53934590  T        0
Cl       6.60466406       4.98777349      26.53934590  T        0
Cl       9.31721478       4.98777349      24.62128289  T        0
Cl       9.31721478       6.64886478      27.49837740  T        0
Cl       9.31721478       3.32668220      27.49837740  T        0
41
Lattice="11.518769465528859 0.0 0.0 3.839589821842953 6.650364651656328 0.0 0.0 0.0 32.62128289467409" Properties=species:S:1:pos:R:3:move_mask:L:1:tags:I:1 surface=Si111 species=SiCl4 site=bridge_Si_Si orientation=parallel height_A=3.25 substrate_atoms=36 calculation_kind="Rigid evaluated approach scan; not NEB" energy=-186.35058838046757 pbc="T T F"
Si       1.91979491       1.10839411      12.00000000  F        6
Si       5.75938473       1.10839411      12.00000000  F        6
Si       9.59897455       1.10839411      12.00000000  F        6
Si       3.83958982       4.43357643      12.00000000  F        6
Si       7.67917964       4.43357643      12.00000000  F        6
Si      11.51876947       4.43357643      12.00000000  F        6
Si       1.91979491       1.10839411      14.35125897  F        5
Si       5.75938473       1.10839411      14.35125897  F        5
Si       9.59897455       1.10839411      14.35125897  F        5
Si       3.83958982       4.43357643      14.35125897  F        5
Si       7.67917964       4.43357643      14.35125897  F        5
Si      11.51876947       4.43357643      14.35125897  F        5
Si      -0.00000000       2.21678822      15.13501196  F        4
Si       3.83958982       2.21678822      15.13501196  F        4
Si       7.67917964       2.21678822      15.13501196  F        4
Si       1.91979491       5.54197054      15.13501196  F        4
Si       5.75938473       5.54197054      15.13501196  F        4
Si       9.59897455       5.54197054      15.13501196  F        4
Si      -0.00000000       2.21678822      17.48627093  F        3
Si       3.83958982       2.21678822      17.48627093  F        3
Si       7.67917964       2.21678822      17.48627093  F        3
Si       1.91979491       5.54197054      17.48627093  F        3
Si       5.75938473       5.54197054      17.48627093  F        3
Si       9.59897455       5.54197054      17.48627093  F        3
Si       0.00000000       0.00000000      18.27002392  F        2
Si       3.83958982       0.00000000      18.27002392  F        2
Si       7.67917964       0.00000000      18.27002392  F        2
Si       1.91979491       3.32518233      18.27002392  F        2
Si       5.75938473       3.32518233      18.27002392  F        2
Si       9.59897455       3.32518233      18.27002392  F        2
Si       0.00000000       0.00000000      20.62128289  F        1
Si       3.83958982       0.00000000      20.62128289  F        1
Si       7.67917964       0.00000000      20.62128289  F        1
Si       1.91979491       3.32518233      20.62128289  F        1
Si       5.75938473       3.32518233      20.62128289  F        1
Si       9.59897455       3.32518233      20.62128289  F        1
Si       8.63907710       4.98777349      25.78934590  T        0
Cl       6.60466406       4.98777349      25.78934590  T        0
Cl       9.31721478       4.98777349      23.87128289  T        0
Cl       9.31721478       6.64886478      26.74837740  T        0
Cl       9.31721478       3.32668220      26.74837740  T        0
41
Lattice="11.518769465528859 0.0 0.0 3.839589821842953 6.650364651656328 0.0 0.0 0.0 32.62128289467409" Properties=species:S:1:pos:R:3:move_mask:L:1:tags:I:1 surface=Si111 species=SiCl4 site=bridge_Si_Si orientation=parallel height_A=2.75 substrate_atoms=36 calculation_kind="Rigid evaluated approach scan; not NEB" energy=-186.5629746796732 pbc="T T F"
Si       1.91979491       1.10839411      12.00000000  F        6
Si       5.75938473       1.10839411      12.00000000  F        6
Si       9.59897455       1.10839411      12.00000000  F        6
Si       3.83958982       4.43357643      12.00000000  F        6
Si       7.67917964       4.43357643      12.00000000  F        6
Si      11.51876947       4.43357643      12.00000000  F        6
Si       1.91979491       1.10839411      14.35125897  F        5
Si       5.75938473       1.10839411      14.35125897  F        5
Si       9.59897455       1.10839411      14.35125897  F        5
Si       3.83958982       4.43357643      14.35125897  F        5
Si       7.67917964       4.43357643      14.35125897  F        5
Si      11.51876947       4.43357643      14.35125897  F        5
Si      -0.00000000       2.21678822      15.13501196  F        4
Si       3.83958982       2.21678822      15.13501196  F        4
Si       7.67917964       2.21678822      15.13501196  F        4
Si       1.91979491       5.54197054      15.13501196  F        4
Si       5.75938473       5.54197054      15.13501196  F        4
Si       9.59897455       5.54197054      15.13501196  F        4
Si      -0.00000000       2.21678822      17.48627093  F        3
Si       3.83958982       2.21678822      17.48627093  F        3
Si       7.67917964       2.21678822      17.48627093  F        3
Si       1.91979491       5.54197054      17.48627093  F        3
Si       5.75938473       5.54197054      17.48627093  F        3
Si       9.59897455       5.54197054      17.48627093  F        3
Si       0.00000000       0.00000000      18.27002392  F        2
Si       3.83958982       0.00000000      18.27002392  F        2
Si       7.67917964       0.00000000      18.27002392  F        2
Si       1.91979491       3.32518233      18.27002392  F        2
Si       5.75938473       3.32518233      18.27002392  F        2
Si       9.59897455       3.32518233      18.27002392  F        2
Si       0.00000000       0.00000000      20.62128289  F        1
Si       3.83958982       0.00000000      20.62128289  F        1
Si       7.67917964       0.00000000      20.62128289  F        1
Si       1.91979491       3.32518233      20.62128289  F        1
Si       5.75938473       3.32518233      20.62128289  F        1
Si       9.59897455       3.32518233      20.62128289  F        1
Si       8.63907710       4.98777349      25.28934590  T        0
Cl       6.60466406       4.98777349      25.28934590  T        0
Cl       9.31721478       4.98777349      23.37128289  T        0
Cl       9.31721478       6.64886478      26.24837740  T        0
Cl       9.31721478       3.32668220      26.24837740  T        0
41
Lattice="11.518769465528859 0.0 0.0 3.839589821842953 6.650364651656328 0.0 0.0 0.0 32.62128289467409" Properties=species:S:1:pos:R:3:move_mask:L:1:tags:I:1 surface=Si111 species=SiCl4 site=bridge_Si_Si orientation=parallel height_A=2.25 substrate_atoms=36 calculation_kind="Rigid evaluated approach scan; not NEB" energy=-186.64107048579334 pbc="T T F"
Si       1.91979491       1.10839411      12.00000000  F        6
Si       5.75938473       1.10839411      12.00000000  F        6
Si       9.59897455       1.10839411      12.00000000  F        6
Si       3.83958982       4.43357643      12.00000000  F        6
Si       7.67917964       4.43357643      12.00000000  F        6
Si      11.51876947       4.43357643      12.00000000  F        6
Si       1.91979491       1.10839411      14.35125897  F        5
Si       5.75938473       1.10839411      14.35125897  F        5
Si       9.59897455       1.10839411      14.35125897  F        5
Si       3.83958982       4.43357643      14.35125897  F        5
Si       7.67917964       4.43357643      14.35125897  F        5
Si      11.51876947       4.43357643      14.35125897  F        5
Si      -0.00000000       2.21678822      15.13501196  F        4
Si       3.83958982       2.21678822      15.13501196  F        4
Si       7.67917964       2.21678822      15.13501196  F        4
Si       1.91979491       5.54197054      15.13501196  F        4
Si       5.75938473       5.54197054      15.13501196  F        4
Si       9.59897455       5.54197054      15.13501196  F        4
Si      -0.00000000       2.21678822      17.48627093  F        3
Si       3.83958982       2.21678822      17.48627093  F        3
Si       7.67917964       2.21678822      17.48627093  F        3
Si       1.91979491       5.54197054      17.48627093  F        3
Si       5.75938473       5.54197054      17.48627093  F        3
Si       9.59897455       5.54197054      17.48627093  F        3
Si       0.00000000       0.00000000      18.27002392  F        2
Si       3.83958982       0.00000000      18.27002392  F        2
Si       7.67917964       0.00000000      18.27002392  F        2
Si       1.91979491       3.32518233      18.27002392  F        2
Si       5.75938473       3.32518233      18.27002392  F        2
Si       9.59897455       3.32518233      18.27002392  F        2
Si       0.00000000       0.00000000      20.62128289  F        1
Si       3.83958982       0.00000000      20.62128289  F        1
Si       7.67917964       0.00000000      20.62128289  F        1
Si       1.91979491       3.32518233      20.62128289  F        1
Si       5.75938473       3.32518233      20.62128289  F        1
Si       9.59897455       3.32518233      20.62128289  F        1
Si       8.63907710       4.98777349      24.78934590  T        0
Cl       6.60466406       4.98777349      24.78934590  T        0
Cl       9.31721478       4.98777349      22.87128289  T        0
Cl       9.31721478       6.64886478      25.74837740  T        0
Cl       9.31721478       3.32668220      25.74837740  T        0
41
Lattice="11.518769465528859 0.0 0.0 3.839589821842953 6.650364651656328 0.0 0.0 0.0 32.62128289467409" Properties=species:S:1:pos:R:3:move_mask:L:1:tags:I:1 surface=Si111 species=SiCl4 site=bridge_Si_Si orientation=parallel height_A=1.9 substrate_atoms=36 calculation_kind="Rigid evaluated approach scan; not NEB" energy=-186.65628474001204 pbc="T T F"
Si       1.91979491       1.10839411      12.00000000  F        6
Si       5.75938473       1.10839411      12.00000000  F        6
Si       9.59897455       1.10839411      12.00000000  F        6
Si       3.83958982       4.43357643      12.00000000  F        6
Si       7.67917964       4.43357643      12.00000000  F        6
Si      11.51876947       4.43357643      12.00000000  F        6
Si       1.91979491       1.10839411      14.35125897  F        5
Si       5.75938473       1.10839411      14.35125897  F        5
Si       9.59897455       1.10839411      14.35125897  F        5
Si       3.83958982       4.43357643      14.35125897  F        5
Si       7.67917964       4.43357643      14.35125897  F        5
Si      11.51876947       4.43357643      14.35125897  F        5
Si      -0.00000000       2.21678822      15.13501196  F        4
Si       3.83958982       2.21678822      15.13501196  F        4
Si       7.67917964       2.21678822      15.13501196  F        4
Si       1.91979491       5.54197054      15.13501196  F        4
Si       5.75938473       5.54197054      15.13501196  F        4
Si       9.59897455       5.54197054      15.13501196  F        4
Si      -0.00000000       2.21678822      17.48627093  F        3
Si       3.83958982       2.21678822      17.48627093  F        3
Si       7.67917964       2.21678822      17.48627093  F        3
Si       1.91979491       5.54197054      17.48627093  F        3
Si       5.75938473       5.54197054      17.48627093  F        3
Si       9.59897455       5.54197054      17.48627093  F        3
Si       0.00000000       0.00000000      18.27002392  F        2
Si       3.83958982       0.00000000      18.27002392  F        2
Si       7.67917964       0.00000000      18.27002392  F        2
Si       1.91979491       3.32518233      18.27002392  F        2
Si       5.75938473       3.32518233      18.27002392  F        2
Si       9.59897455       3.32518233      18.27002392  F        2
Si       0.00000000       0.00000000      20.62128289  F        1
Si       3.83958982       0.00000000      20.62128289  F        1
Si       7.67917964       0.00000000      20.62128289  F        1
Si       1.91979491       3.32518233      20.62128289  F        1
Si       5.75938473       3.32518233      20.62128289  F        1
Si       9.59897455       3.32518233      20.62128289  F        1
Si       8.63907710       4.98777349      24.43934590  T        0
Cl       6.60466406       4.98777349      24.43934590  T        0
Cl       9.31721478       4.98777349      22.52128289  T        0
Cl       9.31721478       6.64886478      25.39837740  T        0
Cl       9.31721478       3.32668220      25.39837740  T        0
41
Lattice="11.518769465528859 0.0 0.0 3.839589821842953 6.650364651656328 0.0 0.0 0.0 32.62128289467409" Properties=species:S:1:pos:R:3:move_mask:L:1:tags:I:1 surface=Si111 species=SiCl4 site=bridge_Si_Si orientation=parallel height_A=1.6 substrate_atoms=36 calculation_kind="Rigid evaluated approach scan; not NEB" energy=-186.59870951702487 pbc="T T F"
Si       1.91979491       1.10839411      12.00000000  F        6
Si       5.75938473       1.10839411      12.00000000  F        6
Si       9.59897455       1.10839411      12.00000000  F        6
Si       3.83958982       4.43357643      12.00000000  F        6
Si       7.67917964       4.43357643      12.00000000  F        6
Si      11.51876947       4.43357643      12.00000000  F        6
Si       1.91979491       1.10839411      14.35125897  F        5
Si       5.75938473       1.10839411      14.35125897  F        5
Si       9.59897455       1.10839411      14.35125897  F        5
Si       3.83958982       4.43357643      14.35125897  F        5
Si       7.67917964       4.43357643      14.35125897  F        5
Si      11.51876947       4.43357643      14.35125897  F        5
Si      -0.00000000       2.21678822      15.13501196  F        4
Si       3.83958982       2.21678822      15.13501196  F        4
Si       7.67917964       2.21678822      15.13501196  F        4
Si       1.91979491       5.54197054      15.13501196  F        4
Si       5.75938473       5.54197054      15.13501196  F        4
Si       9.59897455       5.54197054      15.13501196  F        4
Si      -0.00000000       2.21678822      17.48627093  F        3
Si       3.83958982       2.21678822      17.48627093  F        3
Si       7.67917964       2.21678822      17.48627093  F        3
Si       1.91979491       5.54197054      17.48627093  F        3
Si       5.75938473       5.54197054      17.48627093  F        3
Si       9.59897455       5.54197054      17.48627093  F        3
Si       0.00000000       0.00000000      18.27002392  F        2
Si       3.83958982       0.00000000      18.27002392  F        2
Si       7.67917964       0.00000000      18.27002392  F        2
Si       1.91979491       3.32518233      18.27002392  F        2
Si       5.75938473       3.32518233      18.27002392  F        2
Si       9.59897455       3.32518233      18.27002392  F        2
Si       0.00000000       0.00000000      20.62128289  F        1
Si       3.83958982       0.00000000      20.62128289  F        1
Si       7.67917964       0.00000000      20.62128289  F        1
Si       1.91979491       3.32518233      20.62128289  F        1
Si       5.75938473       3.32518233      20.62128289  F        1
Si       9.59897455       3.32518233      20.62128289  F        1
Si       8.63907710       4.98777349      24.13934590  T        0
Cl       6.60466406       4.98777349      24.13934590  T        0
Cl       9.31721478       4.98777349      22.22128289  T        0
Cl       9.31721478       6.64886478      25.09837740  T        0
Cl       9.31721478       3.32668220      25.09837740  T        0
41
Lattice="11.518769465528859 0.0 0.0 3.839589821842953 6.650364651656328 0.0 0.0 0.0 32.62128289467409" Properties=species:S:1:pos:R:3:move_mask:L:1:tags:I:1 surface=Si111 species=SiCl4 site=bridge_Si_Si orientation=parallel height_A=1.3 substrate_atoms=36 calculation_kind="Rigid evaluated approach scan; not NEB" energy=-186.37682106345218 pbc="T T F"
Si       1.91979491       1.10839411      12.00000000  F        6
Si       5.75938473       1.10839411      12.00000000  F        6
Si       9.59897455       1.10839411      12.00000000  F        6
Si       3.83958982       4.43357643      12.00000000  F        6
Si       7.67917964       4.43357643      12.00000000  F        6
Si      11.51876947       4.43357643      12.00000000  F        6
Si       1.91979491       1.10839411      14.35125897  F        5
Si       5.75938473       1.10839411      14.35125897  F        5
Si       9.59897455       1.10839411      14.35125897  F        5
Si       3.83958982       4.43357643      14.35125897  F        5
Si       7.67917964       4.43357643      14.35125897  F        5
Si      11.51876947       4.43357643      14.35125897  F        5
Si      -0.00000000       2.21678822      15.13501196  F        4
Si       3.83958982       2.21678822      15.13501196  F        4
Si       7.67917964       2.21678822      15.13501196  F        4
Si       1.91979491       5.54197054      15.13501196  F        4
Si       5.75938473       5.54197054      15.13501196  F        4
Si       9.59897455       5.54197054      15.13501196  F        4
Si      -0.00000000       2.21678822      17.48627093  F        3
Si       3.83958982       2.21678822      17.48627093  F        3
Si       7.67917964       2.21678822      17.48627093  F        3
Si       1.91979491       5.54197054      17.48627093  F        3
Si       5.75938473       5.54197054      17.48627093  F        3
Si       9.59897455       5.54197054      17.48627093  F        3
Si       0.00000000       0.00000000      18.27002392  F        2
Si       3.83958982       0.00000000      18.27002392  F        2
Si       7.67917964       0.00000000      18.27002392  F        2
Si       1.91979491       3.32518233      18.27002392  F        2
Si       5.75938473       3.32518233      18.27002392  F        2
Si       9.59897455       3.32518233      18.27002392  F        2
Si       0.00000000       0.00000000      20.62128289  F        1
Si       3.83958982       0.00000000      20.62128289  F        1
Si       7.67917964       0.00000000      20.62128289  F        1
Si       1.91979491       3.32518233      20.62128289  F        1
Si       5.75938473       3.32518233      20.62128289  F        1
Si       9.59897455       3.32518233      20.62128289  F        1
Si       8.63907710       4.98777349      23.83934590  T        0
Cl       6.60466406       4.98777349      23.83934590  T        0
Cl       9.31721478       4.98777349      21.92128289  T        0
Cl       9.31721478       6.64886478      24.79837740  T        0
Cl       9.31721478       3.32668220      24.79837740  T        0
