36
Lattice="11.518769465528859 0.0 0.0 0.0 7.679179643685906 0.0 0.0 0.0 30.7875" Properties=species:S:1:pos:R:3:move_mask:L:1:tags:I:1:forces:R:3 surface=Si100 species=HF site=bridge_Si_Si orientation=parallel height_A=2.25 substrate_atoms=36 calculation_kind="Rigid evaluated approach scan; not NEB" energy=-180.26270025016296 pbc="T T F"
Si       0.00000000       0.00000000      12.00000000  F        6       0.00072234       0.00000000       0.24835200
Si       3.83958982       0.00000000      12.00000000  F        6       0.00023252       0.00000000       0.24781206
Si       7.67917964       0.00000000      12.00000000  F        6      -0.00030877       0.00000000       0.24877999
Si       0.00000000       3.83958982      12.00000000  F        6       0.00075366      -0.00000000       0.25012611
Si       3.83958982       3.83958982      12.00000000  F        6      -0.00071461      -0.00000000       0.25223035
Si       7.67917964       3.83958982      12.00000000  F        6      -0.00061513      -0.00000000       0.24932998
Si       1.91979491       0.00000000      13.35750000  F        5      -0.00373624      -0.00000002      -0.49510803
Si       5.75938473       0.00000000      13.35750000  F        5      -0.00026046      -0.00000002      -0.49522620
Si       9.59897455       0.00000000      13.35750000  F        5       0.00068454      -0.00000002      -0.49098828
Si       1.91979491       3.83958982      13.35750000  F        5       0.00447605      -0.00000000      -0.49769911
Si       5.75938473       3.83958982      13.35750000  F        5      -0.00494608      -0.00000000      -0.49388740
Si       9.59897455       3.83958982      13.35750000  F        5      -0.00065789       0.00000000      -0.49153897
Si       1.91979491       1.91979491      14.71500000  F        4       0.00427572      -0.02095567       0.22634159
Si       5.75938473       1.91979491      14.71500000  F        4      -0.01768297      -0.00975375       0.21531996
Si       9.59897455       1.91979491      14.71500000  F        4      -0.01439482       0.00611025       0.23841795
Si       1.91979491       5.75938473      14.71500000  F        4       0.00427572       0.02095569       0.22634167
Si       5.75938473       5.75938473      14.71500000  F        4      -0.01768301       0.00975377       0.21532001
Si       9.59897455       5.75938473      14.71500000  F        4      -0.01439478      -0.00611023       0.23841800
Si      -0.00051791       1.92032088      16.08244657  T        3       0.01331267      -0.00966851       0.01569646
Si       3.84017374       1.91499428      16.08384377  T        3      -0.01948748      -0.01829163      -0.00920586
Si       7.67680983       1.91904598      16.08170801  T        3       0.00952634       0.01049797       0.02486001
Si      -0.00051791       5.75885876      16.08244658  T        3       0.01331270       0.00966853       0.01569638
Si       3.84017374       5.76418536      16.08384378  T        3      -0.01948749       0.01829165      -0.00920593
Si       7.67680983       5.76013366      16.08170801  T        3       0.00952633      -0.01049795       0.02486006
Si       0.00618288      -0.00000000      17.47749023  T        2      -0.02598008       0.00000001       0.00345754
Si       3.84885719      -0.00000000      17.49067777  T        2       0.00178706       0.00000001      -0.03325881
Si       7.67894702      -0.00000000      17.47753306  T        2       0.02001046      -0.00000002       0.04285366
Si       0.00183421       3.83958982      17.47732987  T        2      -0.11105771      -0.00000003       0.04292526
Si       3.81622593       3.83958982      17.46249864  T        2       0.11026670      -0.00000003       0.14670685
Si       7.65654112       3.83958982      17.47666654  T        2       0.10444641       0.00000000       0.05301448
Si       1.92345892       0.00000008      18.80138240  T        1      -0.00499227       0.00000036       0.01364183
Si       5.76945903       0.00000005      18.81610702  T        1      -0.03527120       0.00000022      -0.06222797
Si       9.60271590       0.00000003      18.79773857  T        1      -0.00998863       0.00000014      -0.02051722
Si       1.91290329       3.83958974      18.80395418  T        1       0.00310027      -0.00000036      -0.01922765
Si       5.73367327       3.83958977      18.79765467  T        1       0.01184525      -0.00000022      -0.05002164
Si       9.58889272       3.83958979      18.79801313  T        1      -0.01089511      -0.00000014      -0.07238912
