38
Lattice="9.8418 0.0 0.0 -2.460449999999999 4.261624409482844 0.0 0.0 -0.0 34.16586254" Properties=species:S:1:pos:R:3:move_mask:L:1:spacegroup_kinds:I:1:tags:I:1:forces:R:3 spacegroup="P 32 2 1" unit_cell=conventional surface=alpha_quartz_001 species=HCl height_A=6.5 substrate_atoms=36 calculation_kind="Rigid approach energy evaluation; not NEB or TS" energy=-271.4300441679105 pbc="T T F"
Si       2.31725181       0.00000000      12.00000000  F        0        2      -0.13649157      -0.37989802      -1.75845993
Si      -1.15862590       2.00679893      15.60606667  F        0        2      -0.14269403       0.05752763       1.16918857
Si       1.30182410       2.25482548      13.80303333  F        0        2       0.03365952      -0.16390327       0.98673449
O        1.38326499       1.13103512      12.65233746  F        1        2      -0.52978608       0.24144030      -0.19587315
O        0.28787265       1.76346018      14.95372921  F        1        2       0.43595743      -0.25102752      -0.36263200
O        3.24976236       0.63242506      16.25840413  F        1        2       0.32131471      -0.09409926      -0.78723906
O        0.78931236       3.62919935      13.15069587  F        1        2       0.45451070       0.27117013       0.57270972
O        2.74832265       2.49816423      14.45537079  F        1        2       0.00844212       0.38365658      -0.73059487
O       -1.07718501       3.13058929      16.75676254  F        1        2      -0.43600604      -0.29499103      -0.45509614
Si       2.31725181       0.00000000      17.40910000  F        0        1       0.03135151       0.03049999       1.06444548
Si      -1.15862590       2.00679893      21.01516667  F        0        1       0.20544838       0.24346044      -0.24892525
Si       1.30182410       2.25482548      19.21213333  F        0        1      -0.04671737       0.03282568       0.51671959
O        1.38326499       1.13103512      18.06143746  F        1        1      -0.25708786      -0.13270469      -0.58762912
O        0.28787265       1.76346018      20.36282921  F        1        1       0.49053214      -0.17439019      -0.26449994
O        3.24976236       0.63242506      21.66750413  F        1        1      -0.36047522      -0.95065507       0.88300299
O        0.78931236       3.62919935      18.55979587  F        1        1       0.02140854       0.42052298      -0.24199233
O        2.74832265       2.49816423      19.86447079  F        1        1      -0.05603693       0.34620394      -0.75998076
O       -1.07718501       3.13058929      22.16586254  F        1        1      -0.03732994       0.41436138       1.20012171
Si       7.23815181       0.00000000      12.00000000  F        0        2      -0.13649157      -0.37989802      -1.75845993
Si       3.76227409       2.00679893      15.60606667  F        0        2      -0.14269403       0.05752763       1.16918857
Si       6.22272410       2.25482548      13.80303333  F        0        2       0.03365952      -0.16390327       0.98673449
O        6.30416499       1.13103512      12.65233746  F        1        2      -0.52978608       0.24144030      -0.19587315
O        5.20877265       1.76346018      14.95372921  F        1        2       0.43595743      -0.25102752      -0.36263200
O        8.17066236       0.63242506      16.25840413  F        1        2       0.32131471      -0.09409926      -0.78723906
O        5.71021236       3.62919935      13.15069587  F        1        2       0.45451070       0.27117013       0.57270972
O        7.66922265       2.49816423      14.45537079  F        1        2       0.00844212       0.38365658      -0.73059487
O        3.84371499       3.13058929      16.75676254  F        1        2      -0.43600604      -0.29499103      -0.45509614
Si       7.23815181       0.00000000      17.40910000  F        0        1       0.03135151       0.03049999       1.06444548
Si       3.76227409       2.00679893      21.01516667  F        0        1       0.20544838       0.24346044      -0.24892525
Si       6.22272410       2.25482548      19.21213333  F        0        1      -0.04671737       0.03282568       0.51671959
O        6.30416499       1.13103512      18.06143746  F        1        1      -0.25708786      -0.13270469      -0.58762912
O        5.20877265       1.76346018      20.36282921  F        1        1       0.49053214      -0.17439019      -0.26449994
O        8.17066236       0.63242506      21.66750413  F        1        1      -0.36047522      -0.95065507       0.88300299
O        5.71021236       3.62919935      18.55979587  F        1        1       0.02140854       0.42052298      -0.24199233
O        7.66922265       2.49816423      19.86447079  F        1        1      -0.05603693       0.34620394      -0.75998076
O        3.84371499       3.13058929      22.16586254  F        1        1      -0.03732994       0.41436138       1.20012171
Cl       3.76227409       2.00679893      28.66586254  F        0        0       0.00000000       0.00000000      -0.00721176
H        3.76227409       2.00679893      29.96765180  F        0        0       0.00000000       0.00000000       0.00721176
38
Lattice="9.8418 0.0 0.0 -2.460449999999999 4.261624409482844 0.0 0.0 -0.0 34.16586254" Properties=species:S:1:pos:R:3:move_mask:L:1:spacegroup_kinds:I:1:tags:I:1:forces:R:3 spacegroup="P 32 2 1" unit_cell=conventional surface=alpha_quartz_001 species=HCl height_A=5.0 substrate_atoms=36 calculation_kind="Rigid approach energy evaluation; not NEB or TS" energy=-271.4300441679105 pbc="T T F"
Si       2.31725181       0.00000000      12.00000000  F        0        2      -0.13649157      -0.37989802      -1.75845993
Si      -1.15862590       2.00679893      15.60606667  F        0        2      -0.14269403       0.05752763       1.16918857
Si       1.30182410       2.25482548      13.80303333  F        0        2       0.03365952      -0.16390327       0.98673449
O        1.38326499       1.13103512      12.65233746  F        1        2      -0.52978608       0.24144030      -0.19587315
O        0.28787265       1.76346018      14.95372921  F        1        2       0.43595743      -0.25102752      -0.36263200
O        3.24976236       0.63242506      16.25840413  F        1        2       0.32131471      -0.09409926      -0.78723906
O        0.78931236       3.62919935      13.15069587  F        1        2       0.45451070       0.27117013       0.57270972
O        2.74832265       2.49816423      14.45537079  F        1        2       0.00844212       0.38365658      -0.73059487
O       -1.07718501       3.13058929      16.75676254  F        1        2      -0.43600604      -0.29499103      -0.45509614
Si       2.31725181       0.00000000      17.40910000  F        0        1       0.03135151       0.03049999       1.06444548
Si      -1.15862590       2.00679893      21.01516667  F        0        1       0.20544838       0.24346044      -0.24892525
Si       1.30182410       2.25482548      19.21213333  F        0        1      -0.04671737       0.03282568       0.51671959
O        1.38326499       1.13103512      18.06143746  F        1        1      -0.25708786      -0.13270469      -0.58762912
O        0.28787265       1.76346018      20.36282921  F        1        1       0.49053214      -0.17439019      -0.26449994
O        3.24976236       0.63242506      21.66750413  F        1        1      -0.36047522      -0.95065507       0.88300299
O        0.78931236       3.62919935      18.55979587  F        1        1       0.02140854       0.42052298      -0.24199233
O        2.74832265       2.49816423      19.86447079  F        1        1      -0.05603693       0.34620394      -0.75998076
O       -1.07718501       3.13058929      22.16586254  F        1        1      -0.03732994       0.41436138       1.20012171
Si       7.23815181       0.00000000      12.00000000  F        0        2      -0.13649157      -0.37989802      -1.75845993
Si       3.76227409       2.00679893      15.60606667  F        0        2      -0.14269403       0.05752763       1.16918857
Si       6.22272410       2.25482548      13.80303333  F        0        2       0.03365952      -0.16390327       0.98673449
O        6.30416499       1.13103512      12.65233746  F        1        2      -0.52978608       0.24144030      -0.19587315
O        5.20877265       1.76346018      14.95372921  F        1        2       0.43595743      -0.25102752      -0.36263200
O        8.17066236       0.63242506      16.25840413  F        1        2       0.32131471      -0.09409926      -0.78723906
O        5.71021236       3.62919935      13.15069587  F        1        2       0.45451070       0.27117013       0.57270972
O        7.66922265       2.49816423      14.45537079  F        1        2       0.00844212       0.38365658      -0.73059487
O        3.84371499       3.13058929      16.75676254  F        1        2      -0.43600604      -0.29499103      -0.45509614
Si       7.23815181       0.00000000      17.40910000  F        0        1       0.03135151       0.03049999       1.06444548
Si       3.76227409       2.00679893      21.01516667  F        0        1       0.20544838       0.24346044      -0.24892525
Si       6.22272410       2.25482548      19.21213333  F        0        1      -0.04671737       0.03282568       0.51671959
O        6.30416499       1.13103512      18.06143746  F        1        1      -0.25708786      -0.13270469      -0.58762912
O        5.20877265       1.76346018      20.36282921  F        1        1       0.49053214      -0.17439019      -0.26449994
O        8.17066236       0.63242506      21.66750413  F        1        1      -0.36047522      -0.95065507       0.88300299
O        5.71021236       3.62919935      18.55979587  F        1        1       0.02140854       0.42052298      -0.24199233
O        7.66922265       2.49816423      19.86447079  F        1        1      -0.05603693       0.34620394      -0.75998076
O        3.84371499       3.13058929      22.16586254  F        1        1      -0.03732994       0.41436138       1.20012171
Cl       3.76227409       2.00679893      27.16586254  F        0        0       0.00000000       0.00000000      -0.00721176
H        3.76227409       2.00679893      28.46765180  F        0        0       0.00000000       0.00000000       0.00721176
38
Lattice="9.8418 0.0 0.0 -2.460449999999999 4.261624409482844 0.0 0.0 -0.0 34.16586254" Properties=species:S:1:pos:R:3:move_mask:L:1:spacegroup_kinds:I:1:tags:I:1:forces:R:3 spacegroup="P 32 2 1" unit_cell=conventional surface=alpha_quartz_001 species=HCl height_A=4.0 substrate_atoms=36 calculation_kind="Rigid approach energy evaluation; not NEB or TS" energy=-271.4250375860315 pbc="T T F"
Si       2.31725181       0.00000000      12.00000000  F        0        2      -0.13648992      -0.37989482      -1.75844771
Si      -1.15862590       2.00679893      15.60606667  F        0        2      -0.14263611       0.05755137       1.16917233
Si       1.30182410       2.25482548      13.80303333  F        0        2       0.03367469      -0.16391164       0.98682363
O        1.38326499       1.13103512      12.65233746  F        1        2      -0.52978601       0.24144097      -0.19588391
O        0.28787265       1.76346018      14.95372921  F        1        2       0.43595933      -0.25103268      -0.36269729
O        3.24976236       0.63242506      16.25840413  F        1        2       0.32143595      -0.09412151      -0.78709074
O        0.78931236       3.62919935      13.15069587  F        1        2       0.45451190       0.27117122       0.57269503
O        2.74832265       2.49816423      14.45537079  F        1        2       0.00844753       0.38367019      -0.73063283
O       -1.07718501       3.13058929      16.75676254  F        1        2      -0.43598116      -0.29492475      -0.45521578
Si       2.31725181       0.00000000      17.40910000  F        0        1       0.03139020       0.02993564       1.06412014
Si      -1.15862590       2.00679893      21.01516667  F        0        1       0.20051219       0.23041227      -0.23928039
Si       1.30182410       2.25482548      19.21213333  F        0        1      -0.03949169       0.03183024       0.52646983
O        1.38326499       1.13103512      18.06143746  F        1        1      -0.25763328      -0.13316930      -0.58901807
O        0.28787265       1.76346018      20.36282921  F        1        1       0.49254499      -0.17434548      -0.26853281
O        3.24976236       0.63242506      21.66750413  F        1        1      -0.36459902      -0.95937719       0.87402170
O        0.78931236       3.62919935      18.55979587  F        1        1       0.02083877       0.42093292      -0.24291248
O        2.74832265       2.49816423      19.86447079  F        1        1      -0.05889438       0.35211929      -0.76930691
O       -1.07718501       3.13058929      22.16586254  F        1        1      -0.03922361       0.41481716       1.20198479
Si       7.23815181       0.00000000      12.00000000  F        0        2      -0.13649303      -0.37989970      -1.75844109
Si       3.76227409       2.00679893      15.60606667  F        0        2      -0.14281470       0.05730657       1.16918658
Si       6.22272410       2.25482548      13.80303333  F        0        2       0.03366695      -0.16392050       0.98682448
O        6.30416499       1.13103512      12.65233746  F        1        2      -0.52978395       0.24143541      -0.19590324
O        5.20877265       1.76346018      14.95372921  F        1        2       0.43593377      -0.25100014      -0.36259790
O        8.17066236       0.63242506      16.25840413  F        1        2       0.32120193      -0.09421129      -0.78713161
O        5.71021236       3.62919935      13.15069587  F        1        2       0.45451086       0.27117779       0.57267228
O        7.66922265       2.49816423      14.45537079  F        1        2       0.00844269       0.38364909      -0.73060027
O        3.84371499       3.13058929      16.75676254  F        1        2      -0.43597835      -0.29469835      -0.45494500
Si       7.23815181       0.00000000      17.40910000  F        0        1       0.03134544       0.03089943       1.06347553
Si       3.76227409       2.00679893      21.01516667  F        0        1       0.19997989       0.25133646      -0.22632830
Si       6.22272410       2.25482548      19.21213333  F        0        1      -0.05125250       0.03094448       0.52666940
O        6.30416499       1.13103512      18.06143746  F        1        1      -0.25680839      -0.13363808      -0.58812041
O        5.20877265       1.76346018      20.36282921  F        1        1       0.50000056      -0.17159386      -0.27333503
O        8.17066236       0.63242506      21.66750413  F        1        1      -0.34373342      -0.92887371       0.87342880
O        5.71021236       3.62919935      18.55979587  F        1        1       0.02016265       0.42122084      -0.24148891
O        7.66922265       2.49816423      19.86447079  F        1        1      -0.05743900       0.34806128      -0.76392715
O        3.84371499       3.13058929      22.16586254  F        1        1      -0.04532518       0.39588115       1.15422869
Cl       3.76227409       2.00679893      26.16586254  F        0        0      -0.00012681       0.03166592      -0.03575834
H        3.76227409       2.00679893      27.46765180  F        0        0      -0.00006978      -0.02884669       0.07582297
38
Lattice="9.8418 0.0 0.0 -2.460449999999999 4.261624409482844 0.0 0.0 -0.0 34.16586254" Properties=species:S:1:pos:R:3:move_mask:L:1:spacegroup_kinds:I:1:tags:I:1:forces:R:3 spacegroup="P 32 2 1" unit_cell=conventional surface=alpha_quartz_001 species=HCl height_A=3.25 substrate_atoms=36 calculation_kind="Rigid approach energy evaluation; not NEB or TS" energy=-271.4416453209287 pbc="T T F"
Si       2.31725181       0.00000000      12.00000000  F        0        2      -0.13646127      -0.37988708      -1.75821347
Si      -1.15862590       2.00679893      15.60606667  F        0        2      -0.14281507       0.05746755       1.17069553
Si       1.30182410       2.25482548      13.80303333  F        0        2       0.03391503      -0.16398605       0.98801024
O        1.38326499       1.13103512      12.65233746  F        1        2      -0.52979212       0.24134213      -0.19618799
O        0.28787265       1.76346018      14.95372921  F        1        2       0.43634391      -0.25091588      -0.36355239
O        3.24976236       0.63242506      16.25840413  F        1        2       0.32142668      -0.09444997      -0.78828443
O        0.78931236       3.62919935      13.15069587  F        1        2       0.45442274       0.27124736       0.57233856
O        2.74832265       2.49816423      14.45537079  F        1        2       0.00782803       0.38373329      -0.73167804
O       -1.07718501       3.13058929      16.75676254  F        1        2      -0.43603023      -0.29536365      -0.45627278
Si       2.31725181       0.00000000      17.40910000  F        0        1       0.03533583       0.03362787       1.06765627
Si      -1.15862590       2.00679893      21.01516667  F        0        1       0.20036598       0.23048224      -0.21314257
Si       1.30182410       2.25482548      19.21213333  F        0        1       0.00437643       0.02535341       0.55399935
O        1.38326499       1.13103512      18.06143746  F        1        1      -0.26268728      -0.13694572      -0.59484639
O        0.28787265       1.76346018      20.36282921  F        1        1       0.50132953      -0.17372569      -0.27355450
O        3.24976236       0.63242506      21.66750413  F        1        1      -0.35732277      -0.96928684       0.84221749
O        0.78931236       3.62919935      18.55979587  F        1        1       0.01532673       0.42149323      -0.24693303
O        2.74832265       2.49816423      19.86447079  F        1        1      -0.07382995       0.34882784      -0.78773301
O       -1.07718501       3.13058929      22.16586254  F        1        1      -0.06105823       0.39323667       1.20218520
Si       7.23815181       0.00000000      12.00000000  F        0        2      -0.13645553      -0.37992301      -1.75815538
Si       3.76227409       2.00679893      15.60606667  F        0        2      -0.14336753       0.05713747       1.17225384
Si       6.22272410       2.25482548      13.80303333  F        0        2       0.03346562      -0.16411046       0.98804915
O        6.30416499       1.13103512      12.65233746  F        1        2      -0.52972246       0.24132190      -0.19625644
O        5.20877265       1.76346018      14.95372921  F        1        2       0.43658115      -0.25093590      -0.36360090
O        8.17066236       0.63242506      16.25840413  F        1        2       0.32145010      -0.09403021      -0.78769877
O        5.71021236       3.62919935      13.15069587  F        1        2       0.45444432       0.27131140       0.57227162
O        7.66922265       2.49816423      14.45537079  F        1        2       0.00820383       0.38373288      -0.73139129
O        3.84371499       3.13058929      16.75676254  F        1        2      -0.43517191      -0.29294382      -0.46041326
Si       7.23815181       0.00000000      17.40910000  F        0        1       0.02658088       0.02848579       1.06567654
Si       3.76227409       2.00679893      21.01516667  F        0        1       0.20182474       0.24848862      -0.20888476
Si       6.22272410       2.25482548      19.21213333  F        0        1      -0.08585700       0.01553505       0.55964792
O        6.30416499       1.13103512      18.06143746  F        1        1      -0.25141342      -0.13454001      -0.59509839
O        5.20877265       1.76346018      20.36282921  F        1        1       0.50023099      -0.16416536      -0.28462392
O        8.17066236       0.63242506      21.66750413  F        1        1      -0.32889486      -0.90987898       0.86167366
O        5.71021236       3.62919935      18.55979587  F        1        1       0.02395043       0.42625478      -0.24242842
O        7.66922265       2.49816423      19.86447079  F        1        1      -0.05899164       0.35302153      -0.77178644
O        3.84371499       3.13058929      22.16586254  F        1        1      -0.04918233       0.38481549       1.31214293
Cl       3.76227409       2.00679893      25.41586254  F        0        0      -0.00738540       0.03404902      -0.12218385
H        3.76227409       2.00679893      26.71765180  F        0        0       0.00903603       0.00412311       0.00410212
38
Lattice="9.8418 0.0 0.0 -2.460449999999999 4.261624409482844 0.0 0.0 -0.0 34.16586254" Properties=species:S:1:pos:R:3:move_mask:L:1:spacegroup_kinds:I:1:tags:I:1:forces:R:3 spacegroup="P 32 2 1" unit_cell=conventional surface=alpha_quartz_001 species=HCl height_A=2.75 substrate_atoms=36 calculation_kind="Rigid approach energy evaluation; not NEB or TS" energy=-271.4945850713066 pbc="T T F"
Si       2.31725181       0.00000000      12.00000000  F        0        2      -0.13646066      -0.37987777      -1.75816111
Si      -1.15862590       2.00679893      15.60606667  F        0        2      -0.14281758       0.05754990       1.17224242
Si       1.30182410       2.25482548      13.80303333  F        0        2       0.03394212      -0.16405256       0.98846992
O        1.38326499       1.13103512      12.65233746  F        1        2      -0.52977711       0.24133097      -0.19626204
O        0.28787265       1.76346018      14.95372921  F        1        2       0.43654034      -0.25094241      -0.36442822
O        3.24976236       0.63242506      16.25840413  F        1        2       0.32249433      -0.09385750      -0.79149534
O        0.78931236       3.62919935      13.15069587  F        1        2       0.45441414       0.27127682       0.57224826
O        2.74832265       2.49816423      14.45537079  F        1        2       0.00769799       0.38373794      -0.73221048
O       -1.07718501       3.13058929      16.75676254  F        1        2      -0.43713477      -0.29595466      -0.45962268
Si       2.31725181       0.00000000      17.40910000  F        0        1       0.03676521       0.03384685       1.07774660
Si      -1.15862590       2.00679893      21.01516667  F        0        1       0.20050210       0.21646565      -0.20315939
Si       1.30182410       2.25482548      19.21213333  F        0        1      -0.01568082       0.02461874       0.55180032
O        1.38326499       1.13103512      18.06143746  F        1        1      -0.26518804      -0.13869390      -0.59946823
O        0.28787265       1.76346018      20.36282921  F        1        1       0.51166409      -0.17103055      -0.27984028
O        3.24976236       0.63242506      21.66750413  F        1        1      -0.34428782      -0.93510652       0.89579720
O        0.78931236       3.62919935      18.55979587  F        1        1       0.01625051       0.41709385      -0.25123230
O        2.74832265       2.49816423      19.86447079  F        1        1      -0.04996875       0.34931844      -0.76393562
O       -1.07718501       3.13058929      22.16586254  F        1        1      -0.07687078       0.37538879       1.19427672
Si       7.23815181       0.00000000      12.00000000  F        0        2      -0.13645580      -0.37992365      -1.75805130
Si       3.76227409       2.00679893      15.60606667  F        0        2      -0.14380642       0.05718604       1.17448850
Si       6.22272410       2.25482548      13.80303333  F        0        2       0.03350409      -0.16420948       0.98860080
O        6.30416499       1.13103512      12.65233746  F        1        2      -0.52971559       0.24128527      -0.19642185
O        5.20877265       1.76346018      14.95372921  F        1        2       0.43655486      -0.25097071      -0.36410711
O        8.17066236       0.63242506      16.25840413  F        1        2       0.32130451      -0.09373719      -0.78994937
O        5.71021236       3.62919935      13.15069587  F        1        2       0.45442158       0.27135489       0.57208851
O        7.66922265       2.49816423      14.45537079  F        1        2       0.00812539       0.38374329      -0.73184300
O        3.84371499       3.13058929      16.75676254  F        1        2      -0.43542756      -0.29198148      -0.46588985
Si       7.23815181       0.00000000      17.40910000  F        0        1       0.02792327       0.02861528       1.07206969
Si       3.76227409       2.00679893      21.01516667  F        0        1       0.21654111       0.24785706      -0.27736790
Si       6.22272410       2.25482548      19.21213333  F        0        1      -0.07198792       0.01491897       0.55767144
O        6.30416499       1.13103512      18.06143746  F        1        1      -0.24961366      -0.13460489      -0.60022571
O        5.20877265       1.76346018      20.36282921  F        1        1       0.45849085      -0.15860607      -0.25096172
O        8.17066236       0.63242506      21.66750413  F        1        1      -0.30836224      -0.87874529       0.84851380
O        5.71021236       3.62919935      18.55979587  F        1        1       0.02657290       0.42868979      -0.24603174
O        7.66922265       2.49816423      19.86447079  F        1        1      -0.06940274       0.35463370      -0.77656634
O        3.84371499       3.13058929      22.16586254  F        1        1      -0.07091065       0.25693976       1.37952467
Cl       3.76227409       2.00679893      24.91586254  F        0        0       0.01622948       0.23667893       0.15314379
H        3.76227409       2.00679893      26.21765180  F        0        0      -0.00606993      -0.11023632      -0.34145107
38
Lattice="9.8418 0.0 0.0 -2.460449999999999 4.261624409482844 0.0 0.0 -0.0 34.16586254" Properties=species:S:1:pos:R:3:move_mask:L:1:spacegroup_kinds:I:1:tags:I:1:forces:R:3 spacegroup="P 32 2 1" unit_cell=conventional surface=alpha_quartz_001 species=HCl height_A=2.25 substrate_atoms=36 calculation_kind="Rigid approach energy evaluation; not NEB or TS" energy=-271.5958435700756 pbc="T T F"
Si       2.31725181       0.00000000      12.00000000  F        0        2      -0.13648629      -0.37985912      -1.75828111
Si      -1.15862590       2.00679893      15.60606667  F        0        2      -0.14325374       0.05697978       1.16903029
Si       1.30182410       2.25482548      13.80303333  F        0        2       0.03426154      -0.16391348       0.98716689
O        1.38326499       1.13103512      12.65233746  F        1        2      -0.52977467       0.24132918      -0.19610793
O        0.28787265       1.76346018      14.95372921  F        1        2       0.43572443      -0.25097616      -0.36333846
O        3.24976236       0.63242506      16.25840413  F        1        2       0.32316522      -0.09380107      -0.79140980
O        0.78931236       3.62919935      13.15069587  F        1        2       0.45439419       0.27128682       0.57250046
O        2.74832265       2.49816423      14.45537079  F        1        2       0.00817913       0.38351623      -0.73117520
O       -1.07718501       3.13058929      16.75676254  F        1        2      -0.43846006      -0.29597499      -0.45932956
Si       2.31725181       0.00000000      17.40910000  F        0        1       0.03079857       0.03074517       1.07516318
Si      -1.15862590       2.00679893      21.01516667  F        0        1       0.19688826       0.19496926      -0.19615449
Si       1.30182410       2.25482548      19.21213333  F        0        1      -0.11818206       0.02256634       0.48475438
O        1.38326499       1.13103512      18.06143746  F        1        1      -0.25852875      -0.13161382      -0.58500049
O        0.28787265       1.76346018      20.36282921  F        1        1       0.53363569      -0.16481422      -0.27962951
O        3.24976236       0.63242506      21.66750413  F        1        1      -0.31664145      -0.95395158       0.78907939
O        0.78931236       3.62919935      18.55979587  F        1        1       0.02924665       0.41351142      -0.23655986
O        2.74832265       2.49816423      19.86447079  F        1        1       0.00724783       0.36249382      -0.67207680
O       -1.07718501       3.13058929      22.16586254  F        1        1      -0.05930165       0.39088890       1.19383392
Si       7.23815181       0.00000000      12.00000000  F        0        2      -0.13648552      -0.37991883      -1.75820287
Si       3.76227409       2.00679893      15.60606667  F        0        2      -0.14366209       0.05828342       1.17257838
Si       6.22272410       2.25482548      13.80303333  F        0        2       0.03374535      -0.16412805       0.98744046
O        6.30416499       1.13103512      12.65233746  F        1        2      -0.52975404       0.24131608      -0.19618567
O        5.20877265       1.76346018      14.95372921  F        1        2       0.43591251      -0.25104773      -0.36338973
O        8.17066236       0.63242506      16.25840413  F        1        2       0.32175149      -0.09450950      -0.78986250
O        5.71021236       3.62919935      13.15069587  F        1        2       0.45436606       0.27130505       0.57248671
O        7.66922265       2.49816423      14.45537079  F        1        2       0.00866232       0.38358730      -0.73062253
O        3.84371499       3.13058929      16.75676254  F        1        2      -0.43516327      -0.29246973      -0.46518953
Si       7.23815181       0.00000000      17.40910000  F        0        1       0.02888897       0.03948068       1.06422444
Si       3.76227409       2.00679893      21.01516667  F        0        1       0.20038370       0.14860558      -0.16906380
Si       6.22272410       2.25482548      19.21213333  F        0        1       0.00367663       0.03116120       0.48629043
O        6.30416499       1.13103512      18.06143746  F        1        1      -0.25540565      -0.12796102      -0.58376228
O        5.20877265       1.76346018      20.36282921  F        1        1       0.43605256      -0.18478085      -0.23180688
O        8.17066236       0.63242506      21.66750413  F        1        1      -0.25195820      -0.80860367       0.82500978
O        5.71021236       3.62919935      18.55979587  F        1        1       0.02237672       0.41838338      -0.23421004
O        7.66922265       2.49816423      19.86447079  F        1        1      -0.09019925       0.35272995      -0.76807376
O        3.84371499       3.13058929      22.16586254  F        1        1      -0.13514070       0.35098945       1.11099609
Cl       3.76227409       2.00679893      24.41586254  F        0        0      -0.01962594       0.23763628       0.72038687
H        3.76227409       2.00679893      25.71765180  F        0        0      -0.00133449      -0.16344150      -0.65150890
38
Lattice="9.8418 0.0 0.0 -2.460449999999999 4.261624409482844 0.0 0.0 -0.0 34.16586254" Properties=species:S:1:pos:R:3:move_mask:L:1:spacegroup_kinds:I:1:tags:I:1:forces:R:3 spacegroup="P 32 2 1" unit_cell=conventional surface=alpha_quartz_001 species=HCl height_A=1.9 substrate_atoms=36 calculation_kind="Rigid approach energy evaluation; not NEB or TS" energy=-271.38386696908674 pbc="T T F"
Si       2.31725181       0.00000000      12.00000000  F        0        2      -0.13653756      -0.37984277      -1.75862225
Si      -1.15862590       2.00679893      15.60606667  F        0        2      -0.14341400       0.05575494       1.15463010
Si       1.30182410       2.25482548      13.80303333  F        0        2       0.03534886      -0.16330246       0.98326178
O        1.38326499       1.13103512      12.65233746  F        1        2      -0.52983467       0.24132123      -0.19564380
O        0.28787265       1.76346018      14.95372921  F        1        2       0.43354288      -0.25094683      -0.35866437
O        3.24976236       0.63242506      16.25840413  F        1        2       0.32158415      -0.09631438      -0.78306501
O        0.78931236       3.62919935      13.15069587  F        1        2       0.45429547       0.27123871       0.57326989
O        2.74832265       2.49816423      14.45537079  F        1        2       0.00912131       0.38298025      -0.72775498
O       -1.07718501       3.13058929      16.75676254  F        1        2      -0.43864353      -0.29503425      -0.44801676
Si       2.31725181       0.00000000      17.40910000  F        0        1       0.02388676       0.03102519       1.05043517
Si      -1.15862590       2.00679893      21.01516667  F        0        1       0.22412137       0.24230794      -0.22838421
Si       1.30182410       2.25482548      19.21213333  F        0        1      -0.16384424       0.01884275       0.39761257
O        1.38326499       1.13103512      18.06143746  F        1        1      -0.25113382      -0.11815030      -0.55249618
O        0.28787265       1.76346018      20.36282921  F        1        1       0.51308044      -0.16151023      -0.24106195
O        3.24976236       0.63242506      21.66750413  F        1        1      -0.34677332      -1.17427806       0.66059720
O        0.78931236       3.62919935      18.55979587  F        1        1       0.04674373       0.41491817      -0.19739464
O        2.74832265       2.49816423      19.86447079  F        1        1       0.02530722       0.36806043      -0.63467232
O       -1.07718501       3.13058929      22.16586254  F        1        1      -0.06168241       0.35435997       1.17595693
Si       7.23815181       0.00000000      12.00000000  F        0        2      -0.13649072      -0.37995518      -1.75850642
Si       3.76227409       2.00679893      15.60606667  F        0        2      -0.14249269       0.05966201       1.16095657
Si       6.22272410       2.25482548      13.80303333  F        0        2       0.03403027      -0.16369865       0.98362613
O        6.30416499       1.13103512      12.65233746  F        1        2      -0.52980811       0.24131619      -0.19552446
O        5.20877265       1.76346018      14.95372921  F        1        2       0.43474512      -0.25095099      -0.35971812
O        8.17066236       0.63242506      16.25840413  F        1        2       0.32233583      -0.09764693      -0.78222945
O        5.71021236       3.62919935      13.15069587  F        1        2       0.45420588       0.27123984       0.57353071
O        7.66922265       2.49816423      14.45537079  F        1        2       0.01022025       0.38307916      -0.72653288
O        3.84371499       3.13058929      16.75676254  F        1        2      -0.43297798      -0.29062753      -0.45858071
Si       7.23815181       0.00000000      17.40910000  F        0        1       0.02175641       0.05251500       1.03439345
Si       3.76227409       2.00679893      21.01516667  F        0        1       0.22838440       0.07703518      -0.80263286
Si       6.22272410       2.25482548      19.21213333  F        0        1       0.00975231       0.03531447       0.41420924
O        6.30416499       1.13103512      18.06143746  F        1        1      -0.25588005      -0.12336577      -0.54750917
O        5.20877265       1.76346018      20.36282921  F        1        1       0.44210720      -0.21400581      -0.21064079
O        8.17066236       0.63242506      21.66750413  F        1        1      -0.27990899      -0.80312753       0.81719536
O        5.71021236       3.62919935      18.55979587  F        1        1       0.02450375       0.41441367      -0.21281677
O        7.66922265       2.49816423      19.86447079  F        1        1      -0.08236503       0.34280822      -0.71996501
O        3.84371499       3.13058929      22.16586254  F        1        1      -0.06246694       0.90996249       0.70123855
Cl       3.76227409       2.00679893      24.06586254  F        0        0      -0.11860209      -0.04357917       1.57688341
H        3.76227409       2.00679893      25.36765180  F        0        0       0.04378256      -0.16181897      -0.35736394
38
Lattice="9.8418 0.0 0.0 -2.460449999999999 4.261624409482844 0.0 0.0 -0.0 34.16586254" Properties=species:S:1:pos:R:3:move_mask:L:1:spacegroup_kinds:I:1:tags:I:1:forces:R:3 spacegroup="P 32 2 1" unit_cell=conventional surface=alpha_quartz_001 species=HCl height_A=1.6 substrate_atoms=36 calculation_kind="Rigid approach energy evaluation; not NEB or TS" energy=-270.8843894234328 pbc="T T F"
Si       2.31725181       0.00000000      12.00000000  F        0        2      -0.13669293      -0.37982296      -1.75978092
Si      -1.15862590       2.00679893      15.60606667  F        0        2      -0.14360582       0.05435769       1.12892886
Si       1.30182410       2.25482548      13.80303333  F        0        2       0.03705946      -0.16206775       0.97441049
O        1.38326499       1.13103512      12.65233746  F        1        2      -0.52997727       0.24148851      -0.19416127
O        0.28787265       1.76346018      14.95372921  F        1        2       0.42936988      -0.25128020      -0.34923003
O        3.24976236       0.63242506      16.25840413  F        1        2       0.31766720      -0.10358201      -0.76689023
O        0.78931236       3.62919935      13.15069587  F        1        2       0.45419990       0.27097382       0.57533631
O        2.74832265       2.49816423      14.45537079  F        1        2       0.01167898       0.38202762      -0.71999712
O       -1.07718501       3.13058929      16.75676254  F        1        2      -0.43498308      -0.29097226      -0.42769320
Si       2.31725181       0.00000000      17.40910000  F        0        1       0.01454206       0.03185330       1.00601736
Si      -1.15862590       2.00679893      21.01516667  F        0        1       0.28112896       0.34153455      -0.35638374
Si       1.30182410       2.25482548      19.21213333  F        0        1      -0.09561901       0.01434913       0.35917774
O        1.38326499       1.13103512      18.06143746  F        1        1      -0.25230217      -0.10266989      -0.52088481
O        0.28787265       1.76346018      20.36282921  F        1        1       0.46222871      -0.15497951      -0.16820532
O        3.24976236       0.63242506      21.66750413  F        1        1      -0.38956849      -1.47732471       0.45110301
O        0.78931236       3.62919935      18.55979587  F        1        1       0.05921087       0.42131832      -0.15049471
O        2.74832265       2.49816423      19.86447079  F        1        1       0.05681831       0.37068538      -0.54834576
O       -1.07718501       3.13058929      22.16586254  F        1        1      -0.08094879       0.33003269       1.17284015
Si       7.23815181       0.00000000      12.00000000  F        0        2      -0.13656607      -0.37999280      -1.75963015
Si       3.76227409       2.00679893      15.60606667  F        0        2      -0.13989426       0.06171900       1.13940726
Si       6.22272410       2.25482548      13.80303333  F        0        2       0.03448381      -0.16269195       0.97482720
O        6.30416499       1.13103512      12.65233746  F        1        2      -0.52992685       0.24151582      -0.19383692
O        5.20877265       1.76346018      14.95372921  F        1        2       0.43174745      -0.25100089      -0.35198164
O        8.17066236       0.63242506      16.25840413  F        1        2       0.32353867      -0.10252357      -0.77156195
O        5.71021236       3.62919935      13.15069587  F        1        2       0.45406026       0.27094302       0.57598923
O        7.66922265       2.49816423      14.45537079  F        1        2       0.01344585       0.38192851      -0.71833063
O        3.84371499       3.13058929      16.75676254  F        1        2      -0.43304953      -0.28490789      -0.45754308
Si       7.23815181       0.00000000      17.40910000  F        0        1       0.01516046       0.06601733       1.00831964
Si       3.76227409       2.00679893      21.01516667  F        0        1       0.29300458       0.05346123      -1.75541847
Si       6.22272410       2.25482548      19.21213333  F        0        1      -0.04955648       0.02235379       0.36352602
O        6.30416499       1.13103512      18.06143746  F        1        1      -0.25384938      -0.11390843      -0.52397518
O        5.20877265       1.76346018      20.36282921  F        1        1       0.34828275      -0.21238817      -0.10653875
O        8.17066236       0.63242506      21.66750413  F        1        1      -0.41119512      -0.94709834       0.91879241
O        5.71021236       3.62919935      18.55979587  F        1        1       0.03173368       0.41557936      -0.19679090
O        7.66922265       2.49816423      19.86447079  F        1        1      -0.03119775       0.32990727      -0.63122616
O        3.84371499       3.13058929      22.16586254  F        1        1       0.02066226       1.28958130       0.80880185
Cl       3.76227409       2.00679893      23.76586254  F        0        0      -0.14384925      -0.25135855       1.70268043
H        3.76227409       2.00679893      25.06765180  F        0        0       0.10275815       0.03694224       0.26874300
38
Lattice="9.8418 0.0 0.0 -2.460449999999999 4.261624409482844 0.0 0.0 -0.0 34.16586254" Properties=species:S:1:pos:R:3:move_mask:L:1:spacegroup_kinds:I:1:tags:I:1:forces:R:3 spacegroup="P 32 2 1" unit_cell=conventional surface=alpha_quartz_001 species=HCl height_A=1.3 substrate_atoms=36 calculation_kind="Rigid approach energy evaluation; not NEB or TS" energy=-270.1374178007373 pbc="T T F"
Si       2.31725181       0.00000000      12.00000000  F        0        2      -0.13691668      -0.37975633      -1.76126798
Si      -1.15862590       2.00679893      15.60606667  F        0        2      -0.14310419       0.05385685       1.10294094
Si       1.30182410       2.25482548      13.80303333  F        0        2       0.03870638      -0.16069127       0.96430202
O        1.38326499       1.13103512      12.65233746  F        1        2      -0.53012602       0.24184576      -0.19217635
O        0.28787265       1.76346018      14.95372921  F        1        2       0.42467855      -0.25221645      -0.33990169
O        3.24976236       0.63242506      16.25840413  F        1        2       0.31780903      -0.11040489      -0.75523056
O        0.78931236       3.62919935      13.15069587  F        1        2       0.45421231       0.27057347       0.57799325
O        2.74832265       2.49816423      14.45537079  F        1        2       0.01529773       0.38101473      -0.71072140
O       -1.07718501       3.13058929      16.75676254  F        1        2      -0.43303107      -0.28828179      -0.41303531
Si       2.31725181       0.00000000      17.40910000  F        0        1       0.01166027       0.02875943       0.98317619
Si      -1.15862590       2.00679893      21.01516667  F        0        1       0.33238327       0.31592704      -0.42358608
Si       1.30182410       2.25482548      19.21213333  F        0        1      -0.01931635       0.00529219       0.42140218
O        1.38326499       1.13103512      18.06143746  F        1        1      -0.25568193      -0.09971723      -0.52782743
O        0.28787265       1.76346018      20.36282921  F        1        1       0.48685632      -0.14742433      -0.14335368
O        3.24976236       0.63242506      21.66750413  F        1        1      -0.42146884      -2.04207840      -0.42442621
O        0.78931236       3.62919935      18.55979587  F        1        1       0.05838783       0.43386753      -0.14837749
O        2.74832265       2.49816423      19.86447079  F        1        1       0.17945496       0.44414859      -0.48090398
O       -1.07718501       3.13058929      22.16586254  F        1        1      -0.10511072       0.41908350       1.22963171
Si       7.23815181       0.00000000      12.00000000  F        0        2      -0.13664652      -0.38003203      -1.76075756
Si       3.76227409       2.00679893      15.60606667  F        0        2      -0.13807813       0.06218352       1.11577968
Si       6.22272410       2.25482548      13.80303333  F        0        2       0.03521325      -0.16148904       0.96499561
O        6.30416499       1.13103512      12.65233746  F        1        2      -0.53007497       0.24168999      -0.19208154
O        5.20877265       1.76346018      14.95372921  F        1        2       0.42675696      -0.25130123      -0.34244312
O        8.17066236       0.63242506      16.25840413  F        1        2       0.32293835      -0.10860122      -0.76013990
O        5.71021236       3.62919935      13.15069587  F        1        2       0.45392024       0.27066183       0.57851077
O        7.66922265       2.49816423      14.45537079  F        1        2       0.01745985       0.38054197      -0.70893335
O        3.84371499       3.13058929      16.75676254  F        1        2      -0.43257562      -0.27973795      -0.44837493
Si       7.23815181       0.00000000      17.40910000  F        0        1       0.01384398       0.07855337       0.98439985
Si       3.76227409       2.00679893      21.01516667  F        0        1      -0.05114534      -0.49473216      -3.32212594
Si       6.22272410       2.25482548      19.21213333  F        0        1      -0.01169193       0.03096675       0.31697661
O        6.30416499       1.13103512      18.06143746  F        1        1      -0.26599413      -0.09639228      -0.50595032
O        5.20877265       1.76346018      20.36282921  F        1        1       0.30142995      -0.13169255      -0.03589056
O        8.17066236       0.63242506      21.66750413  F        1        1      -0.37635744      -0.90952794       0.92351886
O        5.71021236       3.62919935      18.55979587  F        1        1       0.02692041       0.39975435      -0.17681628
O        7.66922265       2.49816423      19.86447079  F        1        1      -0.01940220       0.32952804      -0.59409392
O        3.84371499       3.13058929      22.16586254  F        1        1      -0.08559857       1.62819348       1.41077637
Cl       3.76227409       2.00679893      23.46586254  F        0        0       0.02578917      -0.11674043       2.40074900
H        3.76227409       2.00679893      24.76765180  F        0        0       0.14860183       0.39437509       1.19326256
