38
Lattice="11.518769465528859 0.0 0.0 0.0 7.679179643685906 0.0 0.0 0.0 30.7875" Properties=species:S:1:pos:R:3:move_mask:L:1:tags:I:1:forces:R:3 surface=Si100 species=F2 site=hollow orientation=parallel height_A=6.5 substrate_atoms=36 calculation_kind="Rigid evaluated approach scan; not NEB" energy=-183.06452351256468 pbc="T T F"
Si       0.00000000       0.00000000      12.00000000  F        6      -0.00000004       0.00000000       0.24903484
Si       3.83958982       0.00000000      12.00000000  F        6      -0.00000000       0.00000000       0.24903482
Si       7.67917964       0.00000000      12.00000000  F        6       0.00000000       0.00000000       0.24903482
Si       0.00000000       3.83958982      12.00000000  F        6      -0.00000004      -0.00000000       0.24903484
Si       3.83958982       3.83958982      12.00000000  F        6      -0.00000000      -0.00000000       0.24903482
Si       7.67917964       3.83958982      12.00000000  F        6       0.00000000      -0.00000000       0.24903482
Si       1.91979491       0.00000000      13.35750000  F        5       0.00000000      -0.00000002      -0.52822352
Si       5.75938473       0.00000000      13.35750000  F        5       0.00000000      -0.00000002      -0.52822353
Si       9.59897455       0.00000000      13.35750000  F        5       0.00000003      -0.00000002      -0.52822354
Si       1.91979491       3.83958982      13.35750000  F        5       0.00000000       0.00000000      -0.52822354
Si       5.75938473       3.83958982      13.35750000  F        5       0.00000000       0.00000000      -0.52822354
Si       9.59897455       3.83958982      13.35750000  F        5       0.00000003       0.00000000      -0.52822356
Si       1.91979491       1.91979491      14.71500000  F        4      -0.00000000       0.00000000       0.14537709
Si       5.75938473       1.91979491      14.71500000  F        4       0.00000000       0.00000000       0.14537709
Si       9.59897455       1.91979491      14.71500000  F        4       0.00000004       0.00000000       0.14537711
Si       1.91979491       5.75938473      14.71500000  F        4      -0.00000000       0.00000002       0.14537707
Si       5.75938473       5.75938473      14.71500000  F        4       0.00000000       0.00000002       0.14537707
Si       9.59897455       5.75938473      14.71500000  F        4       0.00000004       0.00000002       0.14537709
Si       0.00000000       1.91979491      16.07250000  F        3      -0.00000004       0.00000000      -0.14537711
Si       3.83958982       1.91979491      16.07250000  F        3      -0.00000000       0.00000000      -0.14537709
Si       7.67917964       1.91979491      16.07250000  F        3       0.00000000       0.00000000      -0.14537709
Si       0.00000000       5.75938473      16.07250000  F        3      -0.00000004       0.00000002      -0.14537709
Si       3.83958982       5.75938473      16.07250000  F        3      -0.00000000       0.00000002      -0.14537707
Si       7.67917964       5.75938473      16.07250000  F        3       0.00000000       0.00000002      -0.14537707
Si       0.00000000       0.00000000      17.43000000  F        2      -0.00000003      -0.00000002       0.52822354
Si       3.83958982       0.00000000      17.43000000  F        2      -0.00000000      -0.00000002       0.52822353
Si       7.67917964       0.00000000      17.43000000  F        2      -0.00000000      -0.00000002       0.52822352
Si       0.00000000       3.83958982      17.43000000  F        2      -0.00000003       0.00000000       0.52822356
Si       3.83958982       3.83958982      17.43000000  F        2      -0.00000000       0.00000000       0.52822354
Si       7.67917964       3.83958982      17.43000000  F        2      -0.00000000       0.00000000       0.52822354
Si       1.91979491       0.00000000      18.78750000  F        1      -0.00000000       0.00000000      -0.24903482
Si       5.75938473       0.00000000      18.78750000  F        1       0.00000000       0.00000000      -0.24903482
Si       9.59897455       0.00000000      18.78750000  F        1       0.00000004       0.00000000      -0.24903484
Si       1.91979491       3.83958982      18.78750000  F        1      -0.00000000      -0.00000000      -0.24903482
Si       5.75938473       3.83958982      18.78750000  F        1       0.00000000      -0.00000000      -0.24903482
Si       9.59897455       3.83958982      18.78750000  F        1       0.00000004      -0.00000000      -0.24903484
F        6.93889177       1.91979491      25.28750000  T        0       0.00152110       0.00000000       0.00000000
F        8.41946751       1.91979491      25.28750000  T        0      -0.00152110       0.00000000       0.00000000
38
Lattice="11.518769465528859 0.0 0.0 0.0 7.679179643685906 0.0 0.0 0.0 30.7875" Properties=species:S:1:pos:R:3:move_mask:L:1:tags:I:1:forces:R:3 surface=Si100 species=F2 site=hollow orientation=parallel height_A=5.0 substrate_atoms=36 calculation_kind="Rigid evaluated approach scan; not NEB" energy=-183.06452351256468 pbc="T T F"
Si       0.00000000       0.00000000      12.00000000  F        6      -0.00000004       0.00000000       0.24903484
Si       3.83958982       0.00000000      12.00000000  F        6      -0.00000000       0.00000000       0.24903482
Si       7.67917964       0.00000000      12.00000000  F        6       0.00000000       0.00000000       0.24903482
Si       0.00000000       3.83958982      12.00000000  F        6      -0.00000004      -0.00000000       0.24903484
Si       3.83958982       3.83958982      12.00000000  F        6      -0.00000000      -0.00000000       0.24903482
Si       7.67917964       3.83958982      12.00000000  F        6       0.00000000      -0.00000000       0.24903482
Si       1.91979491       0.00000000      13.35750000  F        5       0.00000000      -0.00000002      -0.52822352
Si       5.75938473       0.00000000      13.35750000  F        5       0.00000000      -0.00000002      -0.52822353
Si       9.59897455       0.00000000      13.35750000  F        5       0.00000003      -0.00000002      -0.52822354
Si       1.91979491       3.83958982      13.35750000  F        5       0.00000000       0.00000000      -0.52822354
Si       5.75938473       3.83958982      13.35750000  F        5       0.00000000       0.00000000      -0.52822354
Si       9.59897455       3.83958982      13.35750000  F        5       0.00000003       0.00000000      -0.52822356
Si       1.91979491       1.91979491      14.71500000  F        4      -0.00000000       0.00000000       0.14537709
Si       5.75938473       1.91979491      14.71500000  F        4       0.00000000       0.00000000       0.14537709
Si       9.59897455       1.91979491      14.71500000  F        4       0.00000004       0.00000000       0.14537711
Si       1.91979491       5.75938473      14.71500000  F        4      -0.00000000       0.00000002       0.14537707
Si       5.75938473       5.75938473      14.71500000  F        4       0.00000000       0.00000002       0.14537707
Si       9.59897455       5.75938473      14.71500000  F        4       0.00000004       0.00000002       0.14537709
Si       0.00000000       1.91979491      16.07250000  F        3      -0.00000004       0.00000000      -0.14537711
Si       3.83958982       1.91979491      16.07250000  F        3      -0.00000000       0.00000000      -0.14537709
Si       7.67917964       1.91979491      16.07250000  F        3       0.00000000       0.00000000      -0.14537709
Si       0.00000000       5.75938473      16.07250000  F        3      -0.00000004       0.00000002      -0.14537709
Si       3.83958982       5.75938473      16.07250000  F        3      -0.00000000       0.00000002      -0.14537707
Si       7.67917964       5.75938473      16.07250000  F        3       0.00000000       0.00000002      -0.14537707
Si       0.00000000       0.00000000      17.43000000  F        2      -0.00000003      -0.00000002       0.52822354
Si       3.83958982       0.00000000      17.43000000  F        2      -0.00000000      -0.00000002       0.52822353
Si       7.67917964       0.00000000      17.43000000  F        2      -0.00000000      -0.00000002       0.52822352
Si       0.00000000       3.83958982      17.43000000  F        2      -0.00000003       0.00000000       0.52822356
Si       3.83958982       3.83958982      17.43000000  F        2      -0.00000000       0.00000000       0.52822354
Si       7.67917964       3.83958982      17.43000000  F        2      -0.00000000       0.00000000       0.52822354
Si       1.91979491       0.00000000      18.78750000  F        1      -0.00000000       0.00000000      -0.24903482
Si       5.75938473       0.00000000      18.78750000  F        1       0.00000000       0.00000000      -0.24903482
Si       9.59897455       0.00000000      18.78750000  F        1       0.00000004       0.00000000      -0.24903484
Si       1.91979491       3.83958982      18.78750000  F        1      -0.00000000      -0.00000000      -0.24903482
Si       5.75938473       3.83958982      18.78750000  F        1       0.00000000      -0.00000000      -0.24903482
Si       9.59897455       3.83958982      18.78750000  F        1       0.00000004      -0.00000000      -0.24903484
F        6.93889177       1.91979491      23.78750000  T        0       0.00152110       0.00000000       0.00000000
F        8.41946751       1.91979491      23.78750000  T        0      -0.00152110       0.00000000       0.00000000
38
Lattice="11.518769465528859 0.0 0.0 0.0 7.679179643685906 0.0 0.0 0.0 30.7875" Properties=species:S:1:pos:R:3:move_mask:L:1:tags:I:1:forces:R:3 surface=Si100 species=F2 site=hollow orientation=parallel height_A=4.0 substrate_atoms=36 calculation_kind="Rigid evaluated approach scan; not NEB" energy=-183.09795212257043 pbc="T T F"
Si       0.00000000       0.00000000      12.00000000  F        6       0.00007257       0.00000856       0.24910256
Si       3.83958982       0.00000000      12.00000000  F        6      -0.00007261       0.00000856       0.24910255
Si       7.67917964       0.00000000      12.00000000  F        6       0.00000000       0.00000900       0.24918686
Si       0.00000000       3.83958982      12.00000000  F        6       0.00007257      -0.00000856       0.24910256
Si       3.83958982       3.83958982      12.00000000  F        6      -0.00007261      -0.00000856       0.24910255
Si       7.67917964       3.83958982      12.00000000  F        6       0.00000000      -0.00000900       0.24918686
Si       1.91979491       0.00000000      13.35750000  F        5       0.00000000       0.00000034      -0.52729424
Si       5.75938473       0.00000000      13.35750000  F        5       0.00035254      -0.00005951      -0.52671906
Si       9.59897455       0.00000000      13.35750000  F        5      -0.00035251      -0.00005951      -0.52671908
Si       1.91979491       3.83958982      13.35750000  F        5       0.00000000      -0.00000036      -0.52729426
Si       5.75938473       3.83958982      13.35750000  F        5       0.00035254       0.00005949      -0.52671908
Si       9.59897455       3.83958982      13.35750000  F        5      -0.00035251       0.00005949      -0.52671909
Si       1.91979491       1.91979491      14.71500000  F        4      -0.00000000       0.00000000       0.14807766
Si       5.75938473       1.91979491      14.71500000  F        4       0.00220729       0.00000000       0.14024691
Si       9.59897455       1.91979491      14.71500000  F        4      -0.00220725       0.00000000       0.14024693
Si       1.91979491       5.75938473      14.71500000  F        4      -0.00000000       0.00000002       0.14803749
Si       5.75938473       5.75938473      14.71500000  F        4       0.00252528       0.00000002       0.14095608
Si       9.59897455       5.75938473      14.71500000  F        4      -0.00252524       0.00000002       0.14095610
Si       0.00000000       1.91979491      16.07250000  F        3       0.00378597       0.00000000      -0.14850941
Si       3.83958982       1.91979491      16.07250000  F        3      -0.00378601       0.00000000      -0.14850939
Si       7.67917964       1.91979491      16.07250000  F        3       0.00000000       0.00000000      -0.15810522
Si       0.00000000       5.75938473      16.07250000  F        3       0.00122528       0.00000002      -0.14451467
Si       3.83958982       5.75938473      16.07250000  F        3      -0.00122532       0.00000002      -0.14451465
Si       7.67917964       5.75938473      16.07250000  F        3       0.00000000       0.00000002      -0.15024542
Si       0.00000000       0.00000000      17.43000000  F        2      -0.01538173       0.00277761       0.54764330
Si       3.83958982       0.00000000      17.43000000  F        2       0.01538169       0.00277761       0.54764328
Si       7.67917964       0.00000000      17.43000000  F        2      -0.00000000      -0.00357760       0.56608850
Si       0.00000000       3.83958982      17.43000000  F        2      -0.01538173      -0.00277763       0.54764331
Si       3.83958982       3.83958982      17.43000000  F        2       0.01538169      -0.00277763       0.54764329
Si       7.67917964       3.83958982      17.43000000  F        2      -0.00000000       0.00357758       0.56608852
Si       1.91979491       0.00000000      18.78750000  F        1      -0.00000000      -0.00026973      -0.24650929
Si       5.75938473       0.00000000      18.78750000  F        1       0.02779943       0.00670042      -0.25371959
Si       9.59897455       0.00000000      18.78750000  F        1      -0.02779939       0.00670042      -0.25371961
Si       1.91979491       3.83958982      18.78750000  F        1      -0.00000000       0.00026973      -0.24650929
Si       5.75938473       3.83958982      18.78750000  F        1       0.02779943      -0.00670042      -0.25371959
Si       9.59897455       3.83958982      18.78750000  F        1      -0.02779939      -0.00670042      -0.25371961
F        6.93889177       1.91979491      22.78750000  T        0       0.36943842       0.00000000      -0.05614736
F        8.41946751       1.91979491      22.78750000  T        0      -0.36943842       0.00000000      -0.05614736
38
Lattice="11.518769465528859 0.0 0.0 0.0 7.679179643685906 0.0 0.0 0.0 30.7875" Properties=species:S:1:pos:R:3:move_mask:L:1:tags:I:1:forces:R:3 surface=Si100 species=F2 site=hollow orientation=parallel height_A=3.25 substrate_atoms=36 calculation_kind="Rigid evaluated approach scan; not NEB" energy=-183.44613487828377 pbc="T T F"
Si       0.00000000       0.00000000      12.00000000  F        6       0.00066438       0.00002594       0.24887399
Si       3.83958982       0.00000000      12.00000000  F        6      -0.00066441       0.00002594       0.24887398
Si       7.67917964       0.00000000      12.00000000  F        6       0.00000000       0.00003353       0.24885167
Si       0.00000000       3.83958982      12.00000000  F        6       0.00066438      -0.00002594       0.24887399
Si       3.83958982       3.83958982      12.00000000  F        6      -0.00066441      -0.00002594       0.24887398
Si       7.67917964       3.83958982      12.00000000  F        6       0.00000000      -0.00003353       0.24885167
Si       1.91979491       0.00000000      13.35750000  F        5       0.00000000       0.00015360      -0.52445238
Si       5.75938473       0.00000000      13.35750000  F        5       0.00124608      -0.00015719      -0.52169204
Si       9.59897455       0.00000000      13.35750000  F        5      -0.00124605      -0.00015719      -0.52169206
Si       1.91979491       3.83958982      13.35750000  F        5       0.00000000      -0.00015362      -0.52445239
Si       5.75938473       3.83958982      13.35750000  F        5       0.00124608       0.00015717      -0.52169205
Si       9.59897455       3.83958982      13.35750000  F        5      -0.00124605       0.00015717      -0.52169207
Si       1.91979491       1.91979491      14.71500000  F        4      -0.00000000      -0.00000000       0.15768928
Si       5.75938473       1.91979491      14.71500000  F        4       0.01020879       0.00000000       0.16392520
Si       9.59897455       1.91979491      14.71500000  F        4      -0.01020875       0.00000000       0.16392522
Si       1.91979491       5.75938473      14.71500000  F        4      -0.00000000       0.00000002       0.15836605
Si       5.75938473       5.75938473      14.71500000  F        4       0.01110529       0.00000002       0.17237553
Si       9.59897455       5.75938473      14.71500000  F        4      -0.01110526       0.00000002       0.17237555
Si       0.00000000       1.91979491      16.07250000  F        3       0.00527711      -0.00000000      -0.15707697
Si       3.83958982       1.91979491      16.07250000  F        3      -0.00527714      -0.00000000      -0.15707695
Si       7.67917964       1.91979491      16.07250000  F        3       0.00000000       0.00000000      -0.20273688
Si       0.00000000       5.75938473      16.07250000  F        3      -0.01539564       0.00000002      -0.13020987
Si       3.83958982       5.75938473      16.07250000  F        3       0.01539560       0.00000002      -0.13020985
Si       7.67917964       5.75938473      16.07250000  F        3       0.00000000       0.00000002      -0.17044960
Si       0.00000000       0.00000000      17.43000000  F        2      -0.00143129       0.01003737       0.53540875
Si       3.83958982       0.00000000      17.43000000  F        2       0.00143125       0.01003737       0.53540873
Si       7.67917964       0.00000000      17.43000000  F        2      -0.00000000      -0.01787081       0.54327773
Si       0.00000000       3.83958982      17.43000000  F        2      -0.00143129      -0.01003739       0.53540876
Si       3.83958982       3.83958982      17.43000000  F        2       0.00143125      -0.01003739       0.53540874
Si       7.67917964       3.83958982      17.43000000  F        2      -0.00000000       0.01787079       0.54327774
Si       1.91979491       0.00000000      18.78750000  F        1      -0.00000000      -0.00222043      -0.23010158
Si       5.75938473       0.00000000      18.78750000  F        1       0.18713940       0.11115087      -0.07118511
Si       9.59897455       0.00000000      18.78750000  F        1      -0.18713936       0.11115087      -0.07118513
Si       1.91979491       3.83958982      18.78750000  F        1      -0.00000000       0.00222043      -0.23010158
Si       5.75938473       3.83958982      18.78750000  F        1       0.18713940      -0.11115087      -0.07118511
Si       9.59897455       3.83958982      18.78750000  F        1      -0.18713936      -0.11115087      -0.07118513
F        6.93889177       1.91979491      22.03750000  T        0      -0.49690998       0.00000000      -0.44083490
F        8.41946751       1.91979491      22.03750000  T        0       0.49690998       0.00000000      -0.44083490
38
Lattice="11.518769465528859 0.0 0.0 0.0 7.679179643685906 0.0 0.0 0.0 30.7875" Properties=species:S:1:pos:R:3:move_mask:L:1:tags:I:1:forces:R:3 surface=Si100 species=F2 site=hollow orientation=parallel height_A=2.75 substrate_atoms=36 calculation_kind="Rigid evaluated approach scan; not NEB" energy=-183.89690461620984 pbc="T T F"
Si       0.00000000       0.00000000      12.00000000  F        6       0.00105858       0.00001630       0.24879688
Si       3.83958982       0.00000000      12.00000000  F        6      -0.00105861       0.00001630       0.24879687
Si       7.67917964       0.00000000      12.00000000  F        6       0.00000000       0.00007693       0.24824012
Si       0.00000000       3.83958982      12.00000000  F        6       0.00105858      -0.00001630       0.24879688
Si       3.83958982       3.83958982      12.00000000  F        6      -0.00105861      -0.00001630       0.24879687
Si       7.67917964       3.83958982      12.00000000  F        6       0.00000000      -0.00007693       0.24824012
Si       1.91979491       0.00000000      13.35750000  F        5       0.00000000       0.00025364      -0.52340040
Si       5.75938473       0.00000000      13.35750000  F        5       0.00074255       0.00108165      -0.52004645
Si       9.59897455       0.00000000      13.35750000  F        5      -0.00074252       0.00108165      -0.52004647
Si       1.91979491       3.83958982      13.35750000  F        5       0.00000000      -0.00025367      -0.52340041
Si       5.75938473       3.83958982      13.35750000  F        5       0.00074255      -0.00108167      -0.52004647
Si       9.59897455       3.83958982      13.35750000  F        5      -0.00074252      -0.00108167      -0.52004649
Si       1.91979491       1.91979491      14.71500000  F        4      -0.00000000      -0.00000000       0.16196725
Si       5.75938473       1.91979491      14.71500000  F        4       0.01692788      -0.00000000       0.19338848
Si       9.59897455       1.91979491      14.71500000  F        4      -0.01692784      -0.00000000       0.19338850
Si       1.91979491       5.75938473      14.71500000  F        4      -0.00000000       0.00000002       0.16136259
Si       5.75938473       5.75938473      14.71500000  F        4       0.01634894       0.00000002       0.20211541
Si       9.59897455       5.75938473      14.71500000  F        4      -0.01634890       0.00000002       0.20211543
Si       0.00000000       1.91979491      16.07250000  F        3      -0.00313847      -0.00000000      -0.15521660
Si       3.83958982       1.91979491      16.07250000  F        3       0.00313843      -0.00000000      -0.15521658
Si       7.67917964       1.91979491      16.07250000  F        3       0.00000000      -0.00000000      -0.20729638
Si       0.00000000       5.75938473      16.07250000  F        3      -0.02762642       0.00000002      -0.11705815
Si       3.83958982       5.75938473      16.07250000  F        3       0.02762638       0.00000002      -0.11705813
Si       7.67917964       5.75938473      16.07250000  F        3       0.00000000       0.00000002      -0.18064363
Si       0.00000000       0.00000000      17.43000000  F        2       0.01256438       0.01015372       0.50413225
Si       3.83958982       0.00000000      17.43000000  F        2      -0.01256441       0.01015372       0.50413223
Si       7.67917964       0.00000000      17.43000000  F        2      -0.00000000       0.00098527       0.50140486
Si       0.00000000       3.83958982      17.43000000  F        2       0.01256438      -0.01015374       0.50413226
Si       3.83958982       3.83958982      17.43000000  F        2      -0.01256441      -0.01015374       0.50413224
Si       7.67917964       3.83958982      17.43000000  F        2      -0.00000000      -0.00098530       0.50140487
Si       1.91979491       0.00000000      18.78750000  F        1      -0.00000000      -0.00631971      -0.22589916
Si       5.75938473       0.00000000      18.78750000  F        1       0.14358198       0.05815284      -0.04979915
Si       9.59897455       0.00000000      18.78750000  F        1      -0.14358194       0.05815284      -0.04979917
Si       1.91979491       3.83958982      18.78750000  F        1      -0.00000000       0.00631971      -0.22589916
Si       5.75938473       3.83958982      18.78750000  F        1       0.14358198      -0.05815284      -0.04979915
Si       9.59897455       3.83958982      18.78750000  F        1      -0.14358194      -0.05815284      -0.04979917
F        6.93889177       1.91979491      21.53750000  T        0      -1.08786803       0.00000000      -0.45743650
F        8.41946751       1.91979491      21.53750000  T        0       1.08786803       0.00000000      -0.45743650
38
Lattice="11.518769465528859 0.0 0.0 0.0 7.679179643685906 0.0 0.0 0.0 30.7875" Properties=species:S:1:pos:R:3:move_mask:L:1:tags:I:1:forces:R:3 surface=Si100 species=F2 site=hollow orientation=parallel height_A=2.25 substrate_atoms=36 calculation_kind="Rigid evaluated approach scan; not NEB" energy=-184.36629499863363 pbc="T T F"
Si       0.00000000       0.00000000      12.00000000  F        6       0.00130867       0.00004338       0.24920724
Si       3.83958982       0.00000000      12.00000000  F        6      -0.00130871       0.00004338       0.24920722
Si       7.67917964       0.00000000      12.00000000  F        6       0.00000000       0.00026033       0.24751380
Si       0.00000000       3.83958982      12.00000000  F        6       0.00130867      -0.00004338       0.24920724
Si       3.83958982       3.83958982      12.00000000  F        6      -0.00130871      -0.00004338       0.24920722
Si       7.67917964       3.83958982      12.00000000  F        6       0.00000000      -0.00026033       0.24751380
Si       1.91979491       0.00000000      13.35750000  F        5       0.00000000       0.00061523      -0.52408770
Si       5.75938473       0.00000000      13.35750000  F        5       0.00005247       0.00285377      -0.51936956
Si       9.59897455       0.00000000      13.35750000  F        5      -0.00005244       0.00285377      -0.51936958
Si       1.91979491       3.83958982      13.35750000  F        5       0.00000000      -0.00061526      -0.52408771
Si       5.75938473       3.83958982      13.35750000  F        5       0.00005247      -0.00285379      -0.51936957
Si       9.59897455       3.83958982      13.35750000  F        5      -0.00005244      -0.00285379      -0.51936959
Si       1.91979491       1.91979491      14.71500000  F        4      -0.00000000      -0.00000000       0.16224455
Si       5.75938473       1.91979491      14.71500000  F        4       0.01807450      -0.00000000       0.20697221
Si       9.59897455       1.91979491      14.71500000  F        4      -0.01807447      -0.00000000       0.20697223
Si       1.91979491       5.75938473      14.71500000  F        4      -0.00000000       0.00000002       0.15552542
Si       5.75938473       5.75938473      14.71500000  F        4       0.02538059       0.00000002       0.21563544
Si       9.59897455       5.75938473      14.71500000  F        4      -0.02538056       0.00000002       0.21563546
Si       0.00000000       1.91979491      16.07250000  F        3      -0.01371461      -0.00000000      -0.15328898
Si       3.83958982       1.91979491      16.07250000  F        3       0.01371457      -0.00000000      -0.15328896
Si       7.67917964       1.91979491      16.07250000  F        3       0.00000000      -0.00000000      -0.21677426
Si       0.00000000       5.75938473      16.07250000  F        3      -0.03572588       0.00000002      -0.10003439
Si       3.83958982       5.75938473      16.07250000  F        3       0.03572584       0.00000002      -0.10003437
Si       7.67917964       5.75938473      16.07250000  F        3       0.00000000       0.00000002      -0.16429115
Si       0.00000000       0.00000000      17.43000000  F        2      -0.01459756      -0.00710396       0.50639078
Si       3.83958982       0.00000000      17.43000000  F        2       0.01459752      -0.00710396       0.50639076
Si       7.67917964       0.00000000      17.43000000  F        2      -0.00000000      -0.02388819       0.49852002
Si       0.00000000       3.83958982      17.43000000  F        2      -0.01459756       0.00710393       0.50639079
Si       3.83958982       3.83958982      17.43000000  F        2       0.01459752       0.00710393       0.50639077
Si       7.67917964       3.83958982      17.43000000  F        2      -0.00000000       0.02388817       0.49852004
Si       1.91979491       0.00000000      18.78750000  F        1      -0.00000000      -0.01471808      -0.24107562
Si       5.75938473       0.00000000      18.78750000  F        1       0.06575669       0.05959303      -0.00790552
Si       9.59897455       0.00000000      18.78750000  F        1      -0.06575665       0.05959303      -0.00790554
Si       1.91979491       3.83958982      18.78750000  F        1      -0.00000000       0.01471808      -0.24107562
Si       5.75938473       3.83958982      18.78750000  F        1       0.06575669      -0.05959303      -0.00790552
Si       9.59897455       3.83958982      18.78750000  F        1      -0.06575665      -0.05959303      -0.00790554
F        6.93889177       1.91979491      21.03750000  T        0      -1.36336006       0.00000000      -0.57515290
F        8.41946751       1.91979491      21.03750000  T        0       1.36336006       0.00000000      -0.57515290
38
Lattice="11.518769465528859 0.0 0.0 0.0 7.679179643685906 0.0 0.0 0.0 30.7875" Properties=species:S:1:pos:R:3:move_mask:L:1:tags:I:1:forces:R:3 surface=Si100 species=F2 site=hollow orientation=parallel height_A=1.9 substrate_atoms=36 calculation_kind="Rigid evaluated approach scan; not NEB" energy=-184.7943603914183 pbc="T T F"
Si       0.00000000       0.00000000      12.00000000  F        6       0.00233576       0.00004203       0.25025906
Si       3.83958982       0.00000000      12.00000000  F        6      -0.00233580       0.00004203       0.25025905
Si       7.67917964       0.00000000      12.00000000  F        6       0.00000000      -0.00098473       0.24483999
Si       0.00000000       3.83958982      12.00000000  F        6       0.00233576      -0.00004203       0.25025906
Si       3.83958982       3.83958982      12.00000000  F        6      -0.00233580      -0.00004203       0.25025905
Si       7.67917964       3.83958982      12.00000000  F        6       0.00000000       0.00098473       0.24483999
Si       1.91979491       0.00000000      13.35750000  F        5       0.00000000       0.00116337      -0.52508738
Si       5.75938473       0.00000000      13.35750000  F        5       0.00153305       0.00437004      -0.51547664
Si       9.59897455       0.00000000      13.35750000  F        5      -0.00153301       0.00437004      -0.51547666
Si       1.91979491       3.83958982      13.35750000  F        5       0.00000000      -0.00116340      -0.52508739
Si       5.75938473       3.83958982      13.35750000  F        5       0.00153305      -0.00437007      -0.51547666
Si       9.59897455       3.83958982      13.35750000  F        5      -0.00153301      -0.00437007      -0.51547667
Si       1.91979491       1.91979491      14.71500000  F        4      -0.00000000      -0.00000000       0.16308807
Si       5.75938473       1.91979491      14.71500000  F        4       0.01690321      -0.00000000       0.21804839
Si       9.59897455       1.91979491      14.71500000  F        4      -0.01690317      -0.00000000       0.21804841
Si       1.91979491       5.75938473      14.71500000  F        4      -0.00000000       0.00000002       0.14746154
Si       5.75938473       5.75938473      14.71500000  F        4       0.03927445       0.00000002       0.20651417
Si       9.59897455       5.75938473      14.71500000  F        4      -0.03927442       0.00000002       0.20651419
Si       0.00000000       1.91979491      16.07250000  F        3      -0.01362290      -0.00000000      -0.15679998
Si       3.83958982       1.91979491      16.07250000  F        3       0.01362286      -0.00000000      -0.15679996
Si       7.67917964       1.91979491      16.07250000  F        3       0.00000000      -0.00000000      -0.46890063
Si       0.00000000       5.75938473      16.07250000  F        3      -0.04278332       0.00000002      -0.07962295
Si       3.83958982       5.75938473      16.07250000  F        3       0.04278328       0.00000002      -0.07962293
Si       7.67917964       5.75938473      16.07250000  F        3       0.00000000       0.00000002      -0.11750653
Si       0.00000000       0.00000000      17.43000000  F        2       0.01797160      -0.00902295       0.48497709
Si       3.83958982       0.00000000      17.43000000  F        2      -0.01797164      -0.00902295       0.48497707
Si       7.67917964       0.00000000      17.43000000  F        2      -0.00000000      -0.00238808       0.61496968
Si       0.00000000       3.83958982      17.43000000  F        2       0.01797160       0.00902293       0.48497710
Si       3.83958982       3.83958982      17.43000000  F        2      -0.01797164       0.00902293       0.48497708
Si       7.67917964       3.83958982      17.43000000  F        2      -0.00000000       0.00238806       0.61496969
Si       1.91979491       0.00000000      18.78750000  F        1      -0.00000000      -0.02173571      -0.25203145
Si       5.75938473       0.00000000      18.78750000  F        1       0.06183330       0.08386789      -0.01299602
Si       9.59897455       0.00000000      18.78750000  F        1      -0.06183326       0.08386790      -0.01299604
Si       1.91979491       3.83958982      18.78750000  F        1      -0.00000000       0.02173571      -0.25203145
Si       5.75938473       3.83958982      18.78750000  F        1       0.06183330      -0.08386789      -0.01299602
Si       9.59897455       3.83958982      18.78750000  F        1      -0.06183326      -0.08386790      -0.01299603
F        6.93889177       1.91979491      20.68750000  T        0      -2.81787019       0.00000000      -0.54642865
F        8.41946751       1.91979491      20.68750000  T        0       2.81787019       0.00000000      -0.54642865
38
Lattice="11.518769465528859 0.0 0.0 0.0 7.679179643685906 0.0 0.0 0.0 30.7875" Properties=species:S:1:pos:R:3:move_mask:L:1:tags:I:1:forces:R:3 surface=Si100 species=F2 site=hollow orientation=parallel height_A=1.6 substrate_atoms=36 calculation_kind="Rigid evaluated approach scan; not NEB" energy=-185.02886063186992 pbc="T T F"
Si       0.00000000       0.00000000      12.00000000  F        6       0.00303130      -0.00007640       0.25031415
Si       3.83958982       0.00000000      12.00000000  F        6      -0.00303134      -0.00007640       0.25031414
Si       7.67917964       0.00000000      12.00000000  F        6       0.00000000      -0.00462960       0.23931307
Si       0.00000000       3.83958982      12.00000000  F        6       0.00303130       0.00007640       0.25031415
Si       3.83958982       3.83958982      12.00000000  F        6      -0.00303134       0.00007640       0.25031414
Si       7.67917964       3.83958982      12.00000000  F        6       0.00000000       0.00462960       0.23931307
Si       1.91979491       0.00000000      13.35750000  F        5       0.00000000       0.00201983      -0.52677449
Si       5.75938473       0.00000000      13.35750000  F        5       0.00327217       0.00840323      -0.51068038
Si       9.59897455       0.00000000      13.35750000  F        5      -0.00327213       0.00840323      -0.51068040
Si       1.91979491       3.83958982      13.35750000  F        5       0.00000000      -0.00201986      -0.52677450
Si       5.75938473       3.83958982      13.35750000  F        5       0.00327217      -0.00840325      -0.51068040
Si       9.59897455       3.83958982      13.35750000  F        5      -0.00327213      -0.00840325      -0.51068041
Si       1.91979491       1.91979491      14.71500000  F        4      -0.00000000      -0.00000000       0.16406665
Si       5.75938473       1.91979491      14.71500000  F        4       0.01678773       0.00000000       0.23999038
Si       9.59897455       1.91979491      14.71500000  F        4      -0.01678769       0.00000000       0.23999040
Si       1.91979491       5.75938473      14.71500000  F        4      -0.00000000       0.00000002       0.13787861
Si       5.75938473       5.75938473      14.71500000  F        4       0.05268854       0.00000002       0.19195717
Si       9.59897455       5.75938473      14.71500000  F        4      -0.05268851       0.00000002       0.19195719
Si       0.00000000       1.91979491      16.07250000  F        3      -0.00828878      -0.00000000      -0.16279861
Si       3.83958982       1.91979491      16.07250000  F        3       0.00828874      -0.00000000      -0.16279859
Si       7.67917964       1.91979491      16.07250000  F        3       0.00000000      -0.00000000      -0.58180257
Si       0.00000000       5.75938473      16.07250000  F        3      -0.05737763       0.00000002      -0.04937786
Si       3.83958982       5.75938473      16.07250000  F        3       0.05737760       0.00000002      -0.04937784
Si       7.67917964       5.75938473      16.07250000  F        3       0.00000000       0.00000002      -0.11170979
Si       0.00000000       0.00000000      17.43000000  F        2       0.09490354       0.00035327       0.42884375
Si       3.83958982       0.00000000      17.43000000  F        2      -0.09490358       0.00035327       0.42884374
Si       7.67917964       0.00000000      17.43000000  F        2      -0.00000000       0.00068194       0.59609933
Si       0.00000000       3.83958982      17.43000000  F        2       0.09490354      -0.00035329       0.42884377
Si       3.83958982       3.83958982      17.43000000  F        2      -0.09490358      -0.00035329       0.42884375
Si       7.67917964       3.83958982      17.43000000  F        2      -0.00000000      -0.00068197       0.59609935
Si       1.91979491       0.00000000      18.78750000  F        1      -0.00000000      -0.02825955      -0.25358234
Si       5.75938473       0.00000000      18.78750000  F        1       0.02002161      -0.02370352      -0.08564133
Si       9.59897455       0.00000000      18.78750000  F        1      -0.02002157      -0.02370352      -0.08564135
Si       1.91979491       3.83958982      18.78750000  F        1      -0.00000000       0.02825955      -0.25358234
Si       5.75938473       3.83958982      18.78750000  F        1       0.02002161       0.02370352      -0.08564133
Si       9.59897455       3.83958982      18.78750000  F        1      -0.02002157       0.02370352      -0.08564135
F        6.93889177       1.91979491      20.38750000  T        0      -5.23190863       0.00000000      -0.24471547
F        8.41946751       1.91979491      20.38750000  T        0       5.23190863       0.00000000      -0.24471547
38
Lattice="11.518769465528859 0.0 0.0 0.0 7.679179643685906 0.0 0.0 0.0 30.7875" Properties=species:S:1:pos:R:3:move_mask:L:1:tags:I:1:forces:R:3 surface=Si100 species=F2 site=hollow orientation=parallel height_A=1.3 substrate_atoms=36 calculation_kind="Rigid evaluated approach scan; not NEB" energy=-185.1331787414659 pbc="T T F"
Si       0.00000000       0.00000000      12.00000000  F        6       0.00341127      -0.00006532       0.24902905
Si       3.83958982       0.00000000      12.00000000  F        6      -0.00341130      -0.00006532       0.24902903
Si       7.67917964       0.00000000      12.00000000  F        6       0.00000000      -0.00509519       0.23831214
Si       0.00000000       3.83958982      12.00000000  F        6       0.00341127       0.00006532       0.24902905
Si       3.83958982       3.83958982      12.00000000  F        6      -0.00341130       0.00006532       0.24902903
Si       7.67917964       3.83958982      12.00000000  F        6       0.00000000       0.00509519       0.23831214
Si       1.91979491       0.00000000      13.35750000  F        5       0.00000000       0.00330386      -0.52889067
Si       5.75938473       0.00000000      13.35750000  F        5       0.00561310       0.01278516      -0.50704271
Si       9.59897455       0.00000000      13.35750000  F        5      -0.00561306       0.01278516      -0.50704273
Si       1.91979491       3.83958982      13.35750000  F        5       0.00000000      -0.00330388      -0.52889068
Si       5.75938473       3.83958982      13.35750000  F        5       0.00561310      -0.01278519      -0.50704272
Si       9.59897455       3.83958982      13.35750000  F        5      -0.00561306      -0.01278519      -0.50704274
Si       1.91979491       1.91979491      14.71500000  F        4      -0.00000000       0.00000000       0.16334007
Si       5.75938473       1.91979491      14.71500000  F        4       0.00163868       0.00000000       0.22960074
Si       9.59897455       1.91979491      14.71500000  F        4      -0.00163865       0.00000000       0.22960076
Si       1.91979491       5.75938473      14.71500000  F        4      -0.00000000       0.00000002       0.13097756
Si       5.75938473       5.75938473      14.71500000  F        4       0.05677609       0.00000002       0.18935107
Si       9.59897455       5.75938473      14.71500000  F        4      -0.05677606       0.00000002       0.18935109
Si       0.00000000       1.91979491      16.07250000  F        3      -0.00308175      -0.00000000      -0.16784816
Si       3.83958982       1.91979491      16.07250000  F        3       0.00308172      -0.00000000      -0.16784814
Si       7.67917964       1.91979491      16.07250000  F        3       0.00000000      -0.00000000      -0.38770559
Si       0.00000000       5.75938473      16.07250000  F        3      -0.08508705       0.00000002      -0.00602974
Si       3.83958982       5.75938473      16.07250000  F        3       0.08508701       0.00000002      -0.00602972
Si       7.67917964       5.75938473      16.07250000  F        3       0.00000000       0.00000002      -0.17967224
Si       0.00000000       0.00000000      17.43000000  F        2       0.16592556       0.02504512       0.37534640
Si       3.83958982       0.00000000      17.43000000  F        2      -0.16592559       0.02504512       0.37534639
Si       7.67917964       0.00000000      17.43000000  F        2      -0.00000000      -0.02351721       0.53129022
Si       0.00000000       3.83958982      17.43000000  F        2       0.16592556      -0.02504514       0.37534642
Si       3.83958982       3.83958982      17.43000000  F        2      -0.16592559      -0.02504514       0.37534640
Si       7.67917964       3.83958982      17.43000000  F        2      -0.00000000       0.02351719       0.53129023
Si       1.91979491       0.00000000      18.78750000  F        1      -0.00000000      -0.03564782      -0.24712606
Si       5.75938473       0.00000000      18.78750000  F        1       0.00387977      -0.15172289      -0.09520191
Si       9.59897455       0.00000000      18.78750000  F        1      -0.00387973      -0.15172289      -0.09520193
Si       1.91979491       3.83958982      18.78750000  F        1      -0.00000000       0.03564782      -0.24712606
Si       5.75938473       3.83958982      18.78750000  F        1       0.00387977       0.15172289      -0.09520191
Si       9.59897455       3.83958982      18.78750000  F        1      -0.00387973       0.15172288      -0.09520193
F        6.93889177       1.91979491      20.08750000  T        0      -7.91033775       0.00000000      -0.14639108
F        8.41946751       1.91979491      20.08750000  T        0       7.91033775       0.00000000      -0.14639109
