8
Lattice="24.0 0.0 0.0 0.0 24.0 0.0 0.0 0.0 24.0" Properties=species:S:1:pos:R:3:move_mask:L:1:forces:R:3 charge_spin="0 1" energy=-12724.279072850943 pbc="F F F"
Si       0.00000000       0.00000000       0.00000000  F      -0.22415787       0.00000000       0.24293673
H        1.39535738       0.00000000      -0.49333333  F       0.16054702       0.00000001      -0.10750882
H       -0.69767869       1.20841494      -0.49333333  F       0.03648590      -0.07193892      -0.05465059
H       -0.69767869      -1.20841494      -0.49333333  F       0.03648590       0.07193892      -0.05465059
O       -0.00524096       0.00000001       1.64531721  T      -0.00541544      -0.00000002      -0.01007529
H        0.85409908       0.00000001       2.08058616  T       0.00303435       0.00000001       0.00277293
F        2.82137319       0.00000004       2.11268964  T      -0.00004191      -0.00000001      -0.00679806
H        2.96558201      -0.00000001       1.19512991  T      -0.00693784       0.00000001      -0.01202637
8
Lattice="24.0 0.0 0.0 0.0 24.0 0.0 0.0 0.0 24.0" Properties=species:S:1:pos:R:3:move_mask:L:1:forces:R:3 charge_spin="0 1" energy=-12724.431752830744 pbc="F F F"
Si       0.00000000       0.00000000       0.00000000  F       0.07992530      -0.06885633      -0.36290893
H        1.39535738       0.00000000      -0.49333333  F      -0.12119798       0.02441378       0.20241567
H       -0.69767869       1.20841494      -0.49333333  F       0.00918223      -0.07045828       0.10643538
H       -0.69767869      -1.20841494      -0.49333333  F      -0.00466756       0.08144617       0.05847850
O        0.06764056      -0.02813939       1.66690079  T      -0.00086570       0.00253795       0.00070043
H       -0.73529709      -0.23048494       2.15519159  T       0.00979109       0.02718198      -0.00041366
F        1.92487326      -0.06750730       3.56026744  T       0.01048124       0.00288900       0.00375592
H        1.33700831      -0.02996470       2.83047291  T       0.01735132       0.00084574      -0.00846338
8
Lattice="24.0 0.0 0.0 0.0 24.0 0.0 0.0 0.0 24.0" Properties=species:S:1:pos:R:3:move_mask:L:1:forces:R:3 charge_spin="0 1" energy=-12724.264200091362 pbc="F F F"
Si       0.00000000       0.00000000       0.00000000  F      -0.03783089       0.19161804      -0.19464882
H        1.39535738       0.00000000      -0.49333333  F      -0.08492170      -0.07068351       0.16654627
H       -0.69767869       1.20841494      -0.49333333  F       0.00837280      -0.06559160      -0.09705957
H       -0.69767869      -1.20841494      -0.49333333  F       0.06294191       0.02163360       0.08072046
O       -0.02397315       0.09262788       1.66010656  T       0.00868547      -0.00510237       0.00123282
H       -0.70400805       0.68820740       1.99641032  T      -0.00660214      -0.01828177       0.00905362
F       -0.79499524       0.56407480       4.18922851  T       0.04724861      -0.00710502       0.02879297
H       -0.13916035       0.08532304       3.73460467  T       0.00210596      -0.04648733       0.00536226
8
Lattice="24.0 0.0 0.0 0.0 24.0 0.0 0.0 0.0 24.0" Properties=species:S:1:pos:R:3:move_mask:L:1:forces:R:3 charge_spin="0 1" energy=-12724.426817297935 pbc="F F F"
Si       0.00000000       0.00000000       0.00000000  F      -0.14950959      -0.22430982      -0.39645964
H        1.39535738       0.00000000      -0.49333333  F      -0.04166103       0.07229719       0.12184948
H       -0.69767869       1.20841494      -0.49333333  F       0.08496561      -0.00726932       0.13090488
H       -0.69767869      -1.20841494      -0.49333333  F       0.08560842       0.13759996       0.10650361
O       -0.08112397      -0.13378118       1.65908898  T       0.00201574      -0.00383419       0.00026940
H        0.26514196       0.56002252       2.22479498  T       0.00180896      -0.02064425       0.00464858
F       -0.81359521      -2.47572435       2.81677632  T       0.00065688       0.02767342       0.00983911
H       -0.57866953      -1.66082854       2.41912970  T       0.01611506       0.01848703       0.02244453
8
Lattice="24.0 0.0 0.0 0.0 24.0 0.0 0.0 0.0 24.0" Properties=species:S:1:pos:R:3:move_mask:L:1:forces:R:3 charge_spin="0 1" energy=-12724.095197498798 pbc="F F F"
Si       0.00000000       0.00000000       0.00000000  F      -0.32575202      -0.84085673      -0.74331421
H        1.39535738       0.00000000      -0.49333333  F      -0.02289812       0.13127835       0.14950415
H       -0.69767869       1.20841494      -0.49333333  F       0.08705676       0.06232075       0.22281790
H       -0.69767869      -1.20841494      -0.49333333  F       0.05166182       0.11457474      -0.28798538
O       -0.14916312      -0.31660752       1.60781616  T       0.20382872       0.69325256       0.42011774
H        0.15464670       0.39950752       2.17412411  T      -0.04853475      -0.19291498       0.23629969
F       -4.08584355      -2.34191639       1.00354125  T       1.03805709       0.19246945      -0.06692401
H       -3.16322585      -2.15454994       0.94079071  T      -0.98341936      -0.16012412       0.06948408
8
Lattice="24.0 0.0 0.0 0.0 24.0 0.0 0.0 0.0 24.0" Properties=species:S:1:pos:R:3:move_mask:L:1:forces:R:3 charge_spin="0 1" energy=-12714.799391448498 pbc="F F F"
Si       0.00000000       0.00000000       0.00000000  F      -0.34705779      -0.45159054      -5.36325550
H        1.39535738       0.00000000      -0.49333333  F      -0.08141149       0.02914963      -0.54207098
H       -0.69767869       1.20841494      -0.49333333  F      -0.06604746       0.02838597       0.03662814
H       -0.69767869      -1.20841494      -0.49333333  F      -0.04293381       0.08447528       0.37250042
O        0.41760058      -4.27704095      -0.16688229  T      -0.01065003      -0.12898710      -0.00365274
H        0.32524417       0.14714426       1.23774589  T       0.52798527       0.37079149       5.49083710
F       -9.58906024      -6.32570467      -0.01095707  T       0.00000000       0.00000000       0.00000000
H       -0.40150478      -4.66591196      -0.51308068  T       0.02011549       0.06777504       0.00901353
8
Lattice="24.0 0.0 0.0 0.0 24.0 0.0 0.0 0.0 24.0" Properties=species:S:1:pos:R:3:move_mask:L:1:forces:R:3 charge_spin="0 1" energy=-12719.072530291975 pbc="F F F"
Si       0.00000000       0.00000000       0.00000000  F       0.01298559      -3.00434327      -2.39012480
H        1.39535738       0.00000000      -0.49333333  F       0.14744672       0.08402635       0.94393128
H       -0.69767869       1.20841494      -0.49333333  F      -0.25582290       0.15373787       1.39374530
H       -0.69767869      -1.20841494      -0.49333333  F       0.07643319       1.07802439      -0.82651681
O       -2.21363940      -1.66824586       1.00222914  T      -1.44265199       0.15890831      -0.09921026
H       -1.40628467      -1.38689770       1.50175736  T      -1.25024831      -1.02139878      -0.24699724
F       -0.11241950      -2.12049659       1.16511994  T       3.38032532       1.49851012       0.57700014
H       -1.84118873      -2.49064253       0.59948676  T      -0.66846752       1.05253482       0.64817256
8
Lattice="24.0 0.0 0.0 0.0 24.0 0.0 0.0 0.0 24.0" Properties=species:S:1:pos:R:3:move_mask:L:1:forces:R:3 charge_spin="0 1" energy=-12724.574706673622 pbc="F F F"
Si       0.00000000       0.00000000       0.00000000  F      -0.07070400      -0.21778674      -0.57654119
H        1.39535738       0.00000000      -0.49333333  F      -0.10337450       0.02819544       0.23000771
H       -0.69767869       1.20841494      -0.49333333  F       0.05473192      -0.04986835       0.19510514
H       -0.69767869      -1.20841494      -0.49333333  F       0.06415507       0.10974991       0.07815541
O       -3.09619756       1.58580579       2.90080969  T       0.00716439      -0.00190056       0.01869801
H       -2.66467513       1.40782495       2.06179545  T      -0.00990404       0.01269714      -0.14976318
F       -0.04686276      -0.04727501       1.60855667  T       0.05055195       0.13085070       0.05473847
H       -2.46474728       1.25557590       3.54465492  T       0.00737919      -0.01193752       0.14959946
8
Lattice="24.0 0.0 0.0 0.0 24.0 0.0 0.0 0.0 24.0" Properties=species:S:1:pos:R:3:move_mask:L:1:forces:R:3 charge_spin="0 1" energy=-12724.627000942826 pbc="F F F"
Si       0.00000000       0.00000000       0.00000000  F      -0.05908702       0.02303012      -0.59071863
H        1.39535738       0.00000000      -0.49333333  F      -0.10524918      -0.00622194       0.23573056
H       -0.69767869       1.20841494      -0.49333333  F       0.06107610      -0.08771531       0.15227425
H       -0.69767869      -1.20841494      -0.49333333  F       0.06506006       0.08729967       0.19302271
O       -1.90063535       1.53024838       3.78467248  T       0.01071203      -0.01301789      -0.01534168
H       -1.64033624       1.02944284       3.00515159  T       0.04857714      -0.01646598       0.00914237
F       -0.02605462       0.01203379       1.61456241  T      -0.00000314       0.00017080       0.00031158
H       -1.10890673       1.54401431       4.33051882  T      -0.02108602       0.01292054       0.01557881
8
Lattice="24.0 0.0 0.0 0.0 24.0 0.0 0.0 0.0 24.0" Properties=species:S:1:pos:R:3:move_mask:L:1:forces:R:3 charge_spin="0 1" energy=-12724.643792659044 pbc="F F F"
Si       0.00000000       0.00000000       0.00000000  F       0.02585292      -0.02551462      -0.65167701
H        1.39535738       0.00000000      -0.49333333  F      -0.11480913       0.00391138       0.20817959
H       -0.69767869       1.20841494      -0.49333333  F       0.04776533      -0.08323482       0.21500462
H       -0.69767869      -1.20841494      -0.49333333  F       0.05494290       0.10462382       0.21833128
O       -0.44181648       1.20912728       4.28851706  T       0.00368121       0.00430793      -0.00120631
H       -1.27252631       0.73213251       4.36897409  T      -0.00544623       0.00701012       0.02650800
F        0.00513098      -0.00915357       1.61467656  T       0.00024190      -0.00088713       0.00003923
H       -0.08453339       0.91731004       3.44372133  T      -0.01222898      -0.01021665      -0.01517948
8
Lattice="24.0 0.0 0.0 0.0 24.0 0.0 0.0 0.0 24.0" Properties=species:S:1:pos:R:3:move_mask:L:1:forces:R:3 charge_spin="0 1" energy=-12724.647834330797 pbc="F F F"
Si       0.00000000       0.00000000       0.00000000  F       0.00741076      -0.01609557      -0.65248597
H        1.39535738       0.00000000      -0.49333333  F      -0.11412266       0.00244816       0.20898095
H       -0.69767869       1.20841494      -0.49333333  F       0.05438984      -0.09514646       0.22420125
H       -0.69767869      -1.20841494      -0.49333333  F       0.05682672       0.10419086       0.21367127
O        0.00573728       0.40743409       4.55197426  T       0.00350270      -0.00163056      -0.00346074
H        0.83695931       0.01613963       4.83403213  T      -0.00551019       0.00247797       0.00662889
F        0.00656194      -0.00782065       1.61421686  T      -0.00493484      -0.00010361      -0.00180906
H       -0.01809192       0.27409439       3.59858113  T       0.00243759       0.00385918       0.00427346
