38
Lattice="11.518769465528859 0.0 0.0 0.0 7.679179643685906 0.0 0.0 0.0 30.7875" Properties=species:S:1:pos:R:3:move_mask:L:1:tags:I:1:forces:R:3 surface=Si100 species=H2 height_A=6.5 substrate_atoms=36 calculation_kind="Rigid approach energy evaluation; not NEB or TS" energy=-186.84483600270042 pbc="T T F"
Si       0.00000000       0.00000000      12.00000000  F        6       0.00000000       0.00000000       0.24903483
Si       3.83958982       0.00000000      12.00000000  F        6       0.00000000      -0.00000000       0.24903483
Si       7.67917964       0.00000000      12.00000000  F        6      -0.00000000       0.00000000       0.24903483
Si       0.00000000       3.83958982      12.00000000  F        6      -0.00000000      -0.00000000       0.24903483
Si       3.83958982       3.83958982      12.00000000  F        6       0.00000000       0.00000000       0.24903483
Si       7.67917964       3.83958982      12.00000000  F        6      -0.00000000      -0.00000000       0.24903483
Si       1.91979491       0.00000000      13.35750000  F        5       0.00000000       0.00000000      -0.52822354
Si       5.75938473       0.00000000      13.35750000  F        5      -0.00000000      -0.00000000      -0.52822354
Si       9.59897455       0.00000000      13.35750000  F        5      -0.00000000      -0.00000000      -0.52822354
Si       1.91979491       3.83958982      13.35750000  F        5       0.00000000       0.00000000      -0.52822354
Si       5.75938473       3.83958982      13.35750000  F        5       0.00000000       0.00000000      -0.52822354
Si       9.59897455       3.83958982      13.35750000  F        5       0.00000000       0.00000000      -0.52822354
Si       1.91979491       1.91979491      14.71500000  F        4      -0.00000000       0.00000000       0.14537709
Si       5.75938473       1.91979491      14.71500000  F        4      -0.00000000      -0.00000000       0.14537709
Si       9.59897455       1.91979491      14.71500000  F        4      -0.00000000       0.00000000       0.14537709
Si       1.91979491       5.75938473      14.71500000  F        4       0.00000000      -0.00000000       0.14537709
Si       5.75938473       5.75938473      14.71500000  F        4      -0.00000000      -0.00000000       0.14537709
Si       9.59897455       5.75938473      14.71500000  F        4      -0.00000000       0.00000000       0.14537709
Si       0.00000000       1.91979491      16.07250000  F        3      -0.00000000      -0.00000000      -0.14537709
Si       3.83958982       1.91979491      16.07250000  F        3      -0.00000000       0.00000000      -0.14537709
Si       7.67917964       1.91979491      16.07250000  F        3       0.00000000       0.00000000      -0.14537709
Si       0.00000000       5.75938473      16.07250000  F        3       0.00000000       0.00000000      -0.14537709
Si       3.83958982       5.75938473      16.07250000  F        3       0.00000000      -0.00000000      -0.14537709
Si       7.67917964       5.75938473      16.07250000  F        3      -0.00000000      -0.00000000      -0.14537709
Si       0.00000000       0.00000000      17.43000000  F        2      -0.00000000       0.00000000       0.52822354
Si       3.83958982       0.00000000      17.43000000  F        2       0.00000000      -0.00000000       0.52822354
Si       7.67917964       0.00000000      17.43000000  F        2       0.00000000      -0.00000000       0.52822354
Si       0.00000000       3.83958982      17.43000000  F        2       0.00000000       0.00000000       0.52822354
Si       3.83958982       3.83958982      17.43000000  F        2       0.00000000      -0.00000000       0.52822354
Si       7.67917964       3.83958982      17.43000000  F        2      -0.00000000      -0.00000000       0.52822354
Si       1.91979491       0.00000000      18.78750000  F        1       0.00000000      -0.00000000      -0.24903483
Si       5.75938473       0.00000000      18.78750000  F        1      -0.00000000       0.00000000      -0.24903483
Si       9.59897455       0.00000000      18.78750000  F        1       0.00000000      -0.00000000      -0.24903483
Si       1.91979491       3.83958982      18.78750000  F        1       0.00000000       0.00000000      -0.24903483
Si       5.75938473       3.83958982      18.78750000  F        1       0.00000000       0.00000000      -0.24903483
Si       9.59897455       3.83958982      18.78750000  F        1      -0.00000000       0.00000000      -0.24903483
H        5.75938473       3.83958982      25.28750000  F        0       0.00000000       0.00000000      -0.00400533
H        5.75938473       3.83958982      26.03830562  F        0       0.00000000       0.00000000       0.00400533
38
Lattice="11.518769465528859 0.0 0.0 0.0 7.679179643685906 0.0 0.0 0.0 30.7875" Properties=species:S:1:pos:R:3:move_mask:L:1:tags:I:1:forces:R:3 surface=Si100 species=H2 height_A=5.0 substrate_atoms=36 calculation_kind="Rigid approach energy evaluation; not NEB or TS" energy=-186.84483600270042 pbc="T T F"
Si       0.00000000       0.00000000      12.00000000  F        6       0.00000000       0.00000000       0.24903483
Si       3.83958982       0.00000000      12.00000000  F        6       0.00000000      -0.00000000       0.24903483
Si       7.67917964       0.00000000      12.00000000  F        6      -0.00000000       0.00000000       0.24903483
Si       0.00000000       3.83958982      12.00000000  F        6      -0.00000000      -0.00000000       0.24903483
Si       3.83958982       3.83958982      12.00000000  F        6       0.00000000       0.00000000       0.24903483
Si       7.67917964       3.83958982      12.00000000  F        6      -0.00000000      -0.00000000       0.24903483
Si       1.91979491       0.00000000      13.35750000  F        5       0.00000000       0.00000000      -0.52822354
Si       5.75938473       0.00000000      13.35750000  F        5      -0.00000000      -0.00000000      -0.52822354
Si       9.59897455       0.00000000      13.35750000  F        5      -0.00000000      -0.00000000      -0.52822354
Si       1.91979491       3.83958982      13.35750000  F        5       0.00000000       0.00000000      -0.52822354
Si       5.75938473       3.83958982      13.35750000  F        5       0.00000000       0.00000000      -0.52822354
Si       9.59897455       3.83958982      13.35750000  F        5       0.00000000       0.00000000      -0.52822354
Si       1.91979491       1.91979491      14.71500000  F        4      -0.00000000       0.00000000       0.14537709
Si       5.75938473       1.91979491      14.71500000  F        4      -0.00000000      -0.00000000       0.14537709
Si       9.59897455       1.91979491      14.71500000  F        4      -0.00000000       0.00000000       0.14537709
Si       1.91979491       5.75938473      14.71500000  F        4       0.00000000      -0.00000000       0.14537709
Si       5.75938473       5.75938473      14.71500000  F        4      -0.00000000      -0.00000000       0.14537709
Si       9.59897455       5.75938473      14.71500000  F        4      -0.00000000       0.00000000       0.14537709
Si       0.00000000       1.91979491      16.07250000  F        3      -0.00000000      -0.00000000      -0.14537709
Si       3.83958982       1.91979491      16.07250000  F        3      -0.00000000       0.00000000      -0.14537709
Si       7.67917964       1.91979491      16.07250000  F        3       0.00000000       0.00000000      -0.14537709
Si       0.00000000       5.75938473      16.07250000  F        3       0.00000000       0.00000000      -0.14537709
Si       3.83958982       5.75938473      16.07250000  F        3       0.00000000      -0.00000000      -0.14537709
Si       7.67917964       5.75938473      16.07250000  F        3      -0.00000000      -0.00000000      -0.14537709
Si       0.00000000       0.00000000      17.43000000  F        2      -0.00000000       0.00000000       0.52822354
Si       3.83958982       0.00000000      17.43000000  F        2       0.00000000      -0.00000000       0.52822354
Si       7.67917964       0.00000000      17.43000000  F        2       0.00000000      -0.00000000       0.52822354
Si       0.00000000       3.83958982      17.43000000  F        2       0.00000000       0.00000000       0.52822354
Si       3.83958982       3.83958982      17.43000000  F        2       0.00000000      -0.00000000       0.52822354
Si       7.67917964       3.83958982      17.43000000  F        2      -0.00000000      -0.00000000       0.52822354
Si       1.91979491       0.00000000      18.78750000  F        1       0.00000000      -0.00000000      -0.24903483
Si       5.75938473       0.00000000      18.78750000  F        1      -0.00000000       0.00000000      -0.24903483
Si       9.59897455       0.00000000      18.78750000  F        1       0.00000000      -0.00000000      -0.24903483
Si       1.91979491       3.83958982      18.78750000  F        1       0.00000000       0.00000000      -0.24903483
Si       5.75938473       3.83958982      18.78750000  F        1       0.00000000       0.00000000      -0.24903483
Si       9.59897455       3.83958982      18.78750000  F        1      -0.00000000       0.00000000      -0.24903483
H        5.75938473       3.83958982      23.78750000  F        0       0.00000000       0.00000000      -0.00400533
H        5.75938473       3.83958982      24.53830562  F        0       0.00000000       0.00000000       0.00400533
38
Lattice="11.518769465528859 0.0 0.0 0.0 7.679179643685906 0.0 0.0 0.0 30.7875" Properties=species:S:1:pos:R:3:move_mask:L:1:tags:I:1:forces:R:3 surface=Si100 species=H2 height_A=4.0 substrate_atoms=36 calculation_kind="Rigid approach energy evaluation; not NEB or TS" energy=-186.81487068040195 pbc="T T F"
Si       0.00000000       0.00000000      12.00000000  F        6      -0.00000000      -0.00000000       0.24865537
Si       3.83958982       0.00000000      12.00000000  F        6       0.00042430       0.00000000       0.24890164
Si       7.67917964       0.00000000      12.00000000  F        6      -0.00042430      -0.00000000       0.24890164
Si       0.00000000       3.83958982      12.00000000  F        6      -0.00000000      -0.00000000       0.24898153
Si       3.83958982       3.83958982      12.00000000  F        6       0.00038351      -0.00000000       0.24949462
Si       7.67917964       3.83958982      12.00000000  F        6      -0.00038351      -0.00000000       0.24949462
Si       1.91979491       0.00000000      13.35750000  F        5      -0.00083424       0.00000000      -0.52848133
Si       5.75938473       0.00000000      13.35750000  F        5       0.00000000       0.00000000      -0.52889901
Si       9.59897455       0.00000000      13.35750000  F        5       0.00083424       0.00000000      -0.52848133
Si       1.91979491       3.83958982      13.35750000  F        5       0.00030797      -0.00000000      -0.52787108
Si       5.75938473       3.83958982      13.35750000  F        5       0.00000000       0.00000000      -0.52784472
Si       9.59897455       3.83958982      13.35750000  F        5      -0.00030797       0.00000000      -0.52787108
Si       1.91979491       1.91979491      14.71500000  F        4       0.00081398       0.00036666       0.14473783
Si       5.75938473       1.91979491      14.71500000  F        4      -0.00000000      -0.00246149       0.13762568
Si       9.59897455       1.91979491      14.71500000  F        4      -0.00081398       0.00036666       0.14473783
Si       1.91979491       5.75938473      14.71500000  F        4       0.00081398      -0.00036666       0.14473783
Si       5.75938473       5.75938473      14.71500000  F        4      -0.00000000       0.00246149       0.13762568
Si       9.59897455       5.75938473      14.71500000  F        4      -0.00081398      -0.00036666       0.14473783
Si       0.00000000       1.91979491      16.07250000  F        3       0.00000000      -0.00123308      -0.14660781
Si       3.83958982       1.91979491      16.07250000  F        3      -0.00719692      -0.00298602      -0.14878739
Si       7.67917964       1.91979491      16.07250000  F        3       0.00719692      -0.00298602      -0.14878739
Si       0.00000000       5.75938473      16.07250000  F        3      -0.00000000       0.00123308      -0.14660781
Si       3.83958982       5.75938473      16.07250000  F        3      -0.00719692       0.00298602      -0.14878739
Si       7.67917964       5.75938473      16.07250000  F        3       0.00719692       0.00298602      -0.14878739
Si       0.00000000       0.00000000      17.43000000  F        2       0.00000000       0.00000000       0.53153762
Si       3.83958982       0.00000000      17.43000000  F        2       0.00232784       0.00000000       0.53439349
Si       7.67917964       0.00000000      17.43000000  F        2      -0.00232784       0.00000000       0.53439349
Si       0.00000000       3.83958982      17.43000000  F        2       0.00000000       0.00000000       0.54026999
Si       3.83958982       3.83958982      17.43000000  F        2       0.01636784      -0.00000000       0.51521470
Si       7.67917964       3.83958982      17.43000000  F        2      -0.01636784       0.00000000       0.51521470
Si       1.91979491       0.00000000      18.78750000  F        1       0.00032151       0.00000000      -0.25111485
Si       5.75938473       0.00000000      18.78750000  F        1      -0.00000000      -0.00000000      -0.23865734
Si       9.59897455       0.00000000      18.78750000  F        1      -0.00032151       0.00000000      -0.25111485
Si       1.91979491       3.83958982      18.78750000  F        1      -0.00671060      -0.00000000      -0.25089123
Si       5.75938473       3.83958982      18.78750000  F        1       0.00000000       0.00000000      -0.25962327
Si       9.59897455       3.83958982      18.78750000  F        1       0.00671060      -0.00000000      -0.25089123
H        5.75938473       3.83958982      22.78750000  F        0       0.00000000       0.00000000       0.03321626
H        5.75938473       3.83958982      23.53830562  F        0       0.00000000       0.00000000       0.00723418
38
Lattice="11.518769465528859 0.0 0.0 0.0 7.679179643685906 0.0 0.0 0.0 30.7875" Properties=species:S:1:pos:R:3:move_mask:L:1:tags:I:1:forces:R:3 surface=Si100 species=H2 height_A=3.25 substrate_atoms=36 calculation_kind="Rigid approach energy evaluation; not NEB or TS" energy=-186.7553699364941 pbc="T T F"
Si       0.00000000       0.00000000      12.00000000  F        6       0.00000000      -0.00000000       0.24840320
Si       3.83958982       0.00000000      12.00000000  F        6       0.00083201      -0.00000000       0.24954790
Si       7.67917964       0.00000000      12.00000000  F        6      -0.00083201      -0.00000000       0.24954790
Si       0.00000000       3.83958982      12.00000000  F        6      -0.00000000       0.00000000       0.24874001
Si       3.83958982       3.83958982      12.00000000  F        6       0.00049465       0.00000000       0.24994307
Si       7.67917964       3.83958982      12.00000000  F        6      -0.00049465      -0.00000000       0.24994307
Si       1.91979491       0.00000000      13.35750000  F        5      -0.00110897      -0.00000000      -0.52806473
Si       5.75938473       0.00000000      13.35750000  F        5       0.00000000       0.00000000      -0.53000128
Si       9.59897455       0.00000000      13.35750000  F        5       0.00110897       0.00000000      -0.52806473
Si       1.91979491       3.83958982      13.35750000  F        5       0.00075163       0.00000000      -0.52721048
Si       5.75938473       3.83958982      13.35750000  F        5       0.00000000      -0.00000000      -0.52881164
Si       9.59897455       3.83958982      13.35750000  F        5      -0.00075163       0.00000000      -0.52721048
Si       1.91979491       1.91979491      14.71500000  F        4       0.00275983      -0.00010307       0.14433648
Si       5.75938473       1.91979491      14.71500000  F        4       0.00000000      -0.01404509       0.11517581
Si       9.59897455       1.91979491      14.71500000  F        4      -0.00275983      -0.00010307       0.14433648
Si       1.91979491       5.75938473      14.71500000  F        4       0.00275983       0.00010307       0.14433648
Si       5.75938473       5.75938473      14.71500000  F        4      -0.00000000       0.01404509       0.11517581
Si       9.59897455       5.75938473      14.71500000  F        4      -0.00275983       0.00010307       0.14433648
Si       0.00000000       1.91979491      16.07250000  F        3      -0.00000000      -0.00534428      -0.15031940
Si       3.83958982       1.91979491      16.07250000  F        3      -0.02188856      -0.00668573      -0.15066863
Si       7.67917964       1.91979491      16.07250000  F        3       0.02188856      -0.00668573      -0.15066863
Si       0.00000000       5.75938473      16.07250000  F        3      -0.00000000       0.00534428      -0.15031940
Si       3.83958982       5.75938473      16.07250000  F        3      -0.02188856       0.00668573      -0.15066863
Si       7.67917964       5.75938473      16.07250000  F        3       0.02188856       0.00668573      -0.15066863
Si       0.00000000       0.00000000      17.43000000  F        2      -0.00000000      -0.00000000       0.53315027
Si       3.83958982       0.00000000      17.43000000  F        2       0.01131622      -0.00000000       0.54527460
Si       7.67917964       0.00000000      17.43000000  F        2      -0.01131622      -0.00000000       0.54527460
Si       0.00000000       3.83958982      17.43000000  F        2      -0.00000000      -0.00000000       0.55776048
Si       3.83958982       3.83958982      17.43000000  F        2       0.02087997      -0.00000000       0.47905692
Si       7.67917964       3.83958982      17.43000000  F        2      -0.02087997       0.00000000       0.47905692
Si       1.91979491       0.00000000      18.78750000  F        1       0.00012642       0.00000000      -0.25207093
Si       5.75938473       0.00000000      18.78750000  F        1      -0.00000000      -0.00000000      -0.22650012
Si       9.59897455       0.00000000      18.78750000  F        1      -0.00012642       0.00000000      -0.25207093
Si       1.91979491       3.83958982      18.78750000  F        1       0.00171039      -0.00000000      -0.24993285
Si       5.75938473       3.83958982      18.78750000  F        1       0.00000000       0.00000000      -0.18610008
Si       9.59897455       3.83958982      18.78750000  F        1      -0.00171039       0.00000000      -0.24993285
H        5.75938473       3.83958982      22.03750000  F        0       0.00000000       0.00000000       0.12895809
H        5.75938473       3.83958982      22.78830562  F        0       0.00000000       0.00000000      -0.08307020
38
Lattice="11.518769465528859 0.0 0.0 0.0 7.679179643685906 0.0 0.0 0.0 30.7875" Properties=species:S:1:pos:R:3:move_mask:L:1:tags:I:1:forces:R:3 surface=Si100 species=H2 height_A=2.75 substrate_atoms=36 calculation_kind="Rigid approach energy evaluation; not NEB or TS" energy=-186.6648065526775 pbc="T T F"
Si       0.00000000       0.00000000      12.00000000  F        6      -0.00000000      -0.00000000       0.24840921
Si       3.83958982       0.00000000      12.00000000  F        6       0.00085705       0.00000000       0.24933202
Si       7.67917964       0.00000000      12.00000000  F        6      -0.00085705       0.00000000       0.24933202
Si       0.00000000       3.83958982      12.00000000  F        6       0.00000000      -0.00000000       0.24875768
Si       3.83958982       3.83958982      12.00000000  F        6       0.00087461       0.00000000       0.25095922
Si       7.67917964       3.83958982      12.00000000  F        6      -0.00087461      -0.00000000       0.25095922
Si       1.91979491       0.00000000      13.35750000  F        5      -0.00087386      -0.00000000      -0.52772534
Si       5.75938473       0.00000000      13.35750000  F        5      -0.00000000       0.00000000      -0.53039255
Si       9.59897455       0.00000000      13.35750000  F        5       0.00087386       0.00000000      -0.52772534
Si       1.91979491       3.83958982      13.35750000  F        5       0.00138679      -0.00000000      -0.52707105
Si       5.75938473       3.83958982      13.35750000  F        5      -0.00000000      -0.00000000      -0.52465383
Si       9.59897455       3.83958982      13.35750000  F        5      -0.00138679      -0.00000000      -0.52707105
Si       1.91979491       1.91979491      14.71500000  F        4      -0.00097583      -0.00012320       0.14101834
Si       5.75938473       1.91979491      14.71500000  F        4      -0.00000000      -0.01409980       0.11580892
Si       9.59897455       1.91979491      14.71500000  F        4       0.00097583      -0.00012320       0.14101834
Si       1.91979491       5.75938473      14.71500000  F        4      -0.00097583       0.00012320       0.14101834
Si       5.75938473       5.75938473      14.71500000  F        4       0.00000000       0.01409980       0.11580892
Si       9.59897455       5.75938473      14.71500000  F        4       0.00097583       0.00012320       0.14101834
Si       0.00000000       1.91979491      16.07250000  F        3      -0.00000000      -0.00405888      -0.14941063
Si       3.83958982       1.91979491      16.07250000  F        3      -0.01492403      -0.01494442      -0.15072869
Si       7.67917964       1.91979491      16.07250000  F        3       0.01492403      -0.01494442      -0.15072869
Si       0.00000000       5.75938473      16.07250000  F        3       0.00000000       0.00405888      -0.14941063
Si       3.83958982       5.75938473      16.07250000  F        3      -0.01492403       0.01494442      -0.15072869
Si       7.67917964       5.75938473      16.07250000  F        3       0.01492403       0.01494442      -0.15072869
Si       0.00000000       0.00000000      17.43000000  F        2      -0.00000000      -0.00000000       0.53306839
Si       3.83958982       0.00000000      17.43000000  F        2       0.02427033      -0.00000000       0.55761856
Si       7.67917964       0.00000000      17.43000000  F        2      -0.02427033      -0.00000000       0.55761856
Si       0.00000000       3.83958982      17.43000000  F        2      -0.00000000       0.00000000       0.55242799
Si       3.83958982       3.83958982      17.43000000  F        2      -0.05249419       0.00000000       0.39583662
Si       7.67917964       3.83958982      17.43000000  F        2       0.05249419      -0.00000000       0.39583662
Si       1.91979491       0.00000000      18.78750000  F        1       0.00085474      -0.00000000      -0.25270591
Si       5.75938473       0.00000000      18.78750000  F        1      -0.00000000       0.00000000      -0.29800166
Si       9.59897455       0.00000000      18.78750000  F        1      -0.00085474       0.00000000      -0.25270591
Si       1.91979491       3.83958982      18.78750000  F        1       0.00178667       0.00000000      -0.24504357
Si       5.75938473       3.83958982      18.78750000  F        1      -0.00000000       0.00000000      -0.28303990
Si       9.59897455       3.83958982      18.78750000  F        1      -0.00178667      -0.00000000      -0.24504357
H        5.75938473       3.83958982      21.53750000  F        0      -0.00000000       0.00000000       0.14242618
H        5.75938473       3.83958982      22.28830562  F        0      -0.00000000       0.00000000       0.21464222
38
Lattice="11.518769465528859 0.0 0.0 0.0 7.679179643685906 0.0 0.0 0.0 30.7875" Properties=species:S:1:pos:R:3:move_mask:L:1:tags:I:1:forces:R:3 surface=Si100 species=H2 height_A=2.25 substrate_atoms=36 calculation_kind="Rigid approach energy evaluation; not NEB or TS" energy=-186.27840868785486 pbc="T T F"
Si       0.00000000       0.00000000      12.00000000  F        6      -0.00000000      -0.00000000       0.25046160
Si       3.83958982       0.00000000      12.00000000  F        6       0.00097459      -0.00000000       0.24944751
Si       7.67917964       0.00000000      12.00000000  F        6      -0.00097459       0.00000000       0.24944751
Si       0.00000000       3.83958982      12.00000000  F        6       0.00000000       0.00000000       0.24859328
Si       3.83958982       3.83958982      12.00000000  F        6       0.00230407      -0.00000000       0.25076155
Si       7.67917964       3.83958982      12.00000000  F        6      -0.00230407      -0.00000000       0.25076155
Si       1.91979491       0.00000000      13.35750000  F        5      -0.00135619      -0.00000000      -0.52938621
Si       5.75938473       0.00000000      13.35750000  F        5      -0.00000000      -0.00000000      -0.52751555
Si       9.59897455       0.00000000      13.35750000  F        5       0.00135619      -0.00000000      -0.52938621
Si       1.91979491       3.83958982      13.35750000  F        5      -0.00140079       0.00000000      -0.53595938
Si       5.75938473       3.83958982      13.35750000  F        5      -0.00000000       0.00000000      -0.50791002
Si       9.59897455       3.83958982      13.35750000  F        5       0.00140079      -0.00000000      -0.53595938
Si       1.91979491       1.91979491      14.71500000  F        4      -0.00415163      -0.00262059       0.13676887
Si       5.75938473       1.91979491      14.71500000  F        4      -0.00000000      -0.02439409       0.10686422
Si       9.59897455       1.91979491      14.71500000  F        4       0.00415163      -0.00262059       0.13676887
Si       1.91979491       5.75938473      14.71500000  F        4      -0.00415163       0.00262059       0.13676887
Si       5.75938473       5.75938473      14.71500000  F        4      -0.00000000       0.02439409       0.10686422
Si       9.59897455       5.75938473      14.71500000  F        4       0.00415163       0.00262059       0.13676887
Si       0.00000000       1.91979491      16.07250000  F        3       0.00000000      -0.00314537      -0.14471528
Si       3.83958982       1.91979491      16.07250000  F        3       0.00398483      -0.02318460      -0.14864444
Si       7.67917964       1.91979491      16.07250000  F        3      -0.00398483      -0.02318460      -0.14864444
Si       0.00000000       5.75938473      16.07250000  F        3       0.00000000       0.00314537      -0.14471528
Si       3.83958982       5.75938473      16.07250000  F        3       0.00398483       0.02318460      -0.14864444
Si       7.67917964       5.75938473      16.07250000  F        3      -0.00398483       0.02318460      -0.14864444
Si       0.00000000       0.00000000      17.43000000  F        2       0.00000000      -0.00000000       0.53489577
Si       3.83958982       0.00000000      17.43000000  F        2      -0.00497931      -0.00000000       0.54142004
Si       7.67917964       0.00000000      17.43000000  F        2       0.00497931      -0.00000000       0.54142004
Si       0.00000000       3.83958982      17.43000000  F        2       0.00000000       0.00000000       0.55517509
Si       3.83958982       3.83958982      17.43000000  F        2      -0.19761921      -0.00000000       0.26865421
Si       7.67917964       3.83958982      17.43000000  F        2       0.19761921       0.00000000       0.26865421
Si       1.91979491       0.00000000      18.78750000  F        1      -0.00215073      -0.00000000      -0.25651162
Si       5.75938473       0.00000000      18.78750000  F        1       0.00000000       0.00000000      -0.33820714
Si       9.59897455       0.00000000      18.78750000  F        1       0.00215073       0.00000000      -0.25651162
Si       1.91979491       3.83958982      18.78750000  F        1      -0.02871137       0.00000000      -0.25770538
Si       5.75938473       3.83958982      18.78750000  F        1       0.00000000       0.00000000      -1.28025159
Si       9.59897455       3.83958982      18.78750000  F        1       0.02871137      -0.00000000      -0.25770538
H        5.75938473       3.83958982      21.03750000  F        0      -0.00000000      -0.00000000       1.02670934
H        5.75938473       3.83958982      21.78830562  F        0      -0.00000000       0.00000000       0.69981217
38
Lattice="11.518769465528859 0.0 0.0 0.0 7.679179643685906 0.0 0.0 0.0 30.7875" Properties=species:S:1:pos:R:3:move_mask:L:1:tags:I:1:forces:R:3 surface=Si100 species=H2 height_A=1.9 substrate_atoms=36 calculation_kind="Rigid approach energy evaluation; not NEB or TS" energy=-185.55667086257503 pbc="T T F"
Si       0.00000000       0.00000000      12.00000000  F        6       0.00000000       0.00000000       0.25136745
Si       3.83958982       0.00000000      12.00000000  F        6       0.00089624       0.00000000       0.25068635
Si       7.67917964       0.00000000      12.00000000  F        6      -0.00089624       0.00000000       0.25068635
Si       0.00000000       3.83958982      12.00000000  F        6      -0.00000000      -0.00000000       0.24838710
Si       3.83958982       3.83958982      12.00000000  F        6       0.00311649       0.00000000       0.25080583
Si       7.67917964       3.83958982      12.00000000  F        6      -0.00311649       0.00000000       0.25080583
Si       1.91979491       0.00000000      13.35750000  F        5      -0.00086859      -0.00000000      -0.52960169
Si       5.75938473       0.00000000      13.35750000  F        5      -0.00000000      -0.00000000      -0.53362870
Si       9.59897455       0.00000000      13.35750000  F        5       0.00086859       0.00000000      -0.52960169
Si       1.91979491       3.83958982      13.35750000  F        5      -0.00307672       0.00000000      -0.54390949
Si       5.75938473       3.83958982      13.35750000  F        5      -0.00000000      -0.00000000      -0.49251566
Si       9.59897455       3.83958982      13.35750000  F        5       0.00307672      -0.00000000      -0.54390949
Si       1.91979491       1.91979491      14.71500000  F        4      -0.00460262      -0.00486381       0.13731493
Si       5.75938473       1.91979491      14.71500000  F        4       0.00000000      -0.05810856       0.04912636
Si       9.59897455       1.91979491      14.71500000  F        4       0.00460262      -0.00486381       0.13731493
Si       1.91979491       5.75938473      14.71500000  F        4      -0.00460262       0.00486381       0.13731493
Si       5.75938473       5.75938473      14.71500000  F        4       0.00000000       0.05810856       0.04912636
Si       9.59897455       5.75938473      14.71500000  F        4       0.00460262       0.00486381       0.13731493
Si       0.00000000       1.91979491      16.07250000  F        3       0.00000000      -0.00353447      -0.14169895
Si       3.83958982       1.91979491      16.07250000  F        3       0.00138478      -0.00601900      -0.12380973
Si       7.67917964       1.91979491      16.07250000  F        3      -0.00138478      -0.00601900      -0.12380973
Si       0.00000000       5.75938473      16.07250000  F        3       0.00000000       0.00353447      -0.14169895
Si       3.83958982       5.75938473      16.07250000  F        3       0.00138478       0.00601900      -0.12380973
Si       7.67917964       5.75938473      16.07250000  F        3      -0.00138478       0.00601900      -0.12380973
Si       0.00000000       0.00000000      17.43000000  F        2       0.00000000      -0.00000000       0.52941230
Si       3.83958982       0.00000000      17.43000000  F        2      -0.04076119       0.00000000       0.51834031
Si       7.67917964       0.00000000      17.43000000  F        2       0.04076119      -0.00000000       0.51834031
Si       0.00000000       3.83958982      17.43000000  F        2       0.00000000       0.00000000       0.57228869
Si       3.83958982       3.83958982      17.43000000  F        2      -0.44525808       0.00000000       0.21191732
Si       7.67917964       3.83958982      17.43000000  F        2       0.44525808       0.00000000       0.21191732
Si       1.91979491       0.00000000      18.78750000  F        1       0.00164204      -0.00000000      -0.26269193
Si       5.75938473       0.00000000      18.78750000  F        1       0.00000000      -0.00000000      -0.27867659
Si       9.59897455       0.00000000      18.78750000  F        1      -0.00164204       0.00000000      -0.26269193
Si       1.91979491       3.83958982      18.78750000  F        1      -0.02941034       0.00000000      -0.27700694
Si       5.75938473       3.83958982      18.78750000  F        1      -0.00000000       0.00000000      -1.01150278
Si       9.59897455       3.83958982      18.78750000  F        1       0.02941034      -0.00000000      -0.27700694
H        5.75938473       3.83958982      20.68750000  F        0       0.00000000       0.00000000      -0.29788829
H        5.75938473       3.83958982      21.43830562  F        0       0.00000000       0.00000000       1.90680133
38
Lattice="11.518769465528859 0.0 0.0 0.0 7.679179643685906 0.0 0.0 0.0 30.7875" Properties=species:S:1:pos:R:3:move_mask:L:1:tags:I:1:forces:R:3 surface=Si100 species=H2 height_A=1.6 substrate_atoms=36 calculation_kind="Rigid approach energy evaluation; not NEB or TS" energy=-185.18786111460744 pbc="T T F"
Si       0.00000000       0.00000000      12.00000000  F        6      -0.00000000      -0.00000000       0.25174483
Si       3.83958982       0.00000000      12.00000000  F        6       0.00215005      -0.00000000       0.25343241
Si       7.67917964       0.00000000      12.00000000  F        6      -0.00215005       0.00000000       0.25343241
Si       0.00000000       3.83958982      12.00000000  F        6       0.00000000      -0.00000000       0.24847780
Si       3.83958982       3.83958982      12.00000000  F        6       0.00418839       0.00000000       0.25144678
Si       7.67917964       3.83958982      12.00000000  F        6      -0.00418839      -0.00000000       0.25144678
Si       1.91979491       0.00000000      13.35750000  F        5      -0.00343704      -0.00000000      -0.52958026
Si       5.75938473       0.00000000      13.35750000  F        5       0.00000000       0.00000000      -0.53716025
Si       9.59897455       0.00000000      13.35750000  F        5       0.00343704       0.00000000      -0.52958026
Si       1.91979491       3.83958982      13.35750000  F        5      -0.00438087       0.00000000      -0.54462150
Si       5.75938473       3.83958982      13.35750000  F        5      -0.00000000      -0.00000000      -0.48518933
Si       9.59897455       3.83958982      13.35750000  F        5       0.00438087       0.00000000      -0.54462150
Si       1.91979491       1.91979491      14.71500000  F        4       0.00630321      -0.01521256       0.13971809
Si       5.75938473       1.91979491      14.71500000  F        4       0.00000000      -0.09078491       0.02614637
Si       9.59897455       1.91979491      14.71500000  F        4      -0.00630321      -0.01521256       0.13971809
Si       1.91979491       5.75938473      14.71500000  F        4       0.00630321       0.01521256       0.13971809
Si       5.75938473       5.75938473      14.71500000  F        4      -0.00000000       0.09078491       0.02614637
Si       9.59897455       5.75938473      14.71500000  F        4      -0.00630321       0.01521256       0.13971809
Si       0.00000000       1.91979491      16.07250000  F        3       0.00000000       0.00008769      -0.14266501
Si       3.83958982       1.91979491      16.07250000  F        3      -0.01617553      -0.02956536      -0.14022098
Si       7.67917964       1.91979491      16.07250000  F        3       0.01617553      -0.02956536      -0.14022098
Si       0.00000000       5.75938473      16.07250000  F        3      -0.00000000      -0.00008769      -0.14266501
Si       3.83958982       5.75938473      16.07250000  F        3      -0.01617553       0.02956536      -0.14022098
Si       7.67917964       5.75938473      16.07250000  F        3       0.01617553       0.02956536      -0.14022098
Si       0.00000000       0.00000000      17.43000000  F        2      -0.00000000       0.00000000       0.51474251
Si       3.83958982       0.00000000      17.43000000  F        2      -0.09336257       0.00000000       0.44901781
Si       7.67917964       0.00000000      17.43000000  F        2       0.09336257      -0.00000000       0.44901781
Si       0.00000000       3.83958982      17.43000000  F        2      -0.00000000      -0.00000000       0.59767838
Si       3.83958982       3.83958982      17.43000000  F        2      -0.36536576      -0.00000000       0.72170263
Si       7.67917964       3.83958982      17.43000000  F        2       0.36536576       0.00000000       0.72170263
Si       1.91979491       0.00000000      18.78750000  F        1       0.00872166      -0.00000000      -0.25776374
Si       5.75938473       0.00000000      18.78750000  F        1       0.00000000       0.00000000      -0.14740223
Si       9.59897455       0.00000000      18.78750000  F        1      -0.00872166       0.00000000      -0.25776374
Si       1.91979491       3.83958982      18.78750000  F        1      -0.10019833       0.00000000      -0.28908276
Si       5.75938473       3.83958982      18.78750000  F        1      -0.00000000       0.00000000      -1.59027159
Si       9.59897455       3.83958982      18.78750000  F        1       0.10019833       0.00000000      -0.28908276
H        5.75938473       3.83958982      20.38750000  F        0      -0.00000000      -0.00000000      -1.01339526
H        5.75938473       3.83958982      21.13830562  F        0       0.00000000      -0.00000000       2.28672125
38
Lattice="11.518769465528859 0.0 0.0 0.0 7.679179643685906 0.0 0.0 0.0 30.7875" Properties=species:S:1:pos:R:3:move_mask:L:1:tags:I:1:forces:R:3 surface=Si100 species=H2 height_A=1.3 substrate_atoms=36 calculation_kind="Rigid approach energy evaluation; not NEB or TS" energy=-184.02863727730875 pbc="T T F"
Si       0.00000000       0.00000000      12.00000000  F        6      -0.00000000      -0.00000000       0.25171014
Si       3.83958982       0.00000000      12.00000000  F        6       0.00345971       0.00000000       0.25352706
Si       7.67917964       0.00000000      12.00000000  F        6      -0.00345971       0.00000000       0.25352706
Si       0.00000000       3.83958982      12.00000000  F        6      -0.00000000       0.00000000       0.24929929
Si       3.83958982       3.83958982      12.00000000  F        6       0.00448618      -0.00000000       0.25055368
Si       7.67917964       3.83958982      12.00000000  F        6      -0.00448618      -0.00000000       0.25055368
Si       1.91979491       0.00000000      13.35750000  F        5      -0.01043564       0.00000000      -0.53407351
Si       5.75938473       0.00000000      13.35750000  F        5      -0.00000000       0.00000000      -0.54530848
Si       9.59897455       0.00000000      13.35750000  F        5       0.01043564       0.00000000      -0.53407351
Si       1.91979491       3.83958982      13.35750000  F        5      -0.01213653       0.00000000      -0.55690921
Si       5.75938473       3.83958982      13.35750000  F        5      -0.00000000      -0.00000000      -0.48431884
Si       9.59897455       3.83958982      13.35750000  F        5       0.01213653      -0.00000000      -0.55690921
Si       1.91979491       1.91979491      14.71500000  F        4       0.01954200      -0.02975762       0.14082798
Si       5.75938473       1.91979491      14.71500000  F        4       0.00000000      -0.05501283       0.11220733
Si       9.59897455       1.91979491      14.71500000  F        4      -0.01954200      -0.02975762       0.14082798
Si       1.91979491       5.75938473      14.71500000  F        4       0.01954200       0.02975762       0.14082798
Si       5.75938473       5.75938473      14.71500000  F        4       0.00000000       0.05501283       0.11220733
Si       9.59897455       5.75938473      14.71500000  F        4      -0.01954200       0.02975762       0.14082798
Si       0.00000000       1.91979491      16.07250000  F        3      -0.00000000      -0.01229340      -0.15993344
Si       3.83958982       1.91979491      16.07250000  F        3       0.03589998       0.03120249      -0.08240414
Si       7.67917964       1.91979491      16.07250000  F        3      -0.03589998       0.03120249      -0.08240414
Si       0.00000000       5.75938473      16.07250000  F        3      -0.00000000       0.01229340      -0.15993344
Si       3.83958982       5.75938473      16.07250000  F        3       0.03589998      -0.03120249      -0.08240414
Si       7.67917964       5.75938473      16.07250000  F        3      -0.03589998      -0.03120249      -0.08240414
Si       0.00000000       0.00000000      17.43000000  F        2       0.00000000      -0.00000000       0.49972071
Si       3.83958982       0.00000000      17.43000000  F        2      -0.10219835       0.00000000       0.43077258
Si       7.67917964       0.00000000      17.43000000  F        2       0.10219835       0.00000000       0.43077258
Si       0.00000000       3.83958982      17.43000000  F        2       0.00000000       0.00000000       0.64909374
Si       3.83958982       3.83958982      17.43000000  F        2      -0.45817072       0.00000000       0.94960632
Si       7.67917964       3.83958982      17.43000000  F        2       0.45817072       0.00000000       0.94960632
Si       1.91979491       0.00000000      18.78750000  F        1       0.01572692      -0.00000000      -0.24726187
Si       5.75938473       0.00000000      18.78750000  F        1      -0.00000000       0.00000000      -0.02972601
Si       9.59897455       0.00000000      18.78750000  F        1      -0.01572692      -0.00000000      -0.24726187
Si       1.91979491       3.83958982      18.78750000  F        1      -0.09571219       0.00000000      -0.26847487
Si       5.75938473       3.83958982      18.78750000  F        1      -0.00000000      -0.00000000     -10.55927711
Si       9.59897455       3.83958982      18.78750000  F        1       0.09571219       0.00000000      -0.26847487
H        5.75938473       3.83958982      20.08750000  F        0      -0.00000000       0.00000000       5.66402154
H        5.75938473       3.83958982      20.83830562  F        0      -0.00000000      -0.00000000       3.61106149
