41
Lattice="11.518769465528859 0.0 0.0 3.839589821842953 6.650364651656328 0.0 0.0 0.0 32.62128289467409" Properties=species:S:1:pos:R:3:move_mask:L:1:tags:I:1:forces:R:3 surface=Si111 species=SiCl4 height_A=6.5 substrate_atoms=36 calculation_kind="Rigid approach energy evaluation; not NEB or TS" energy=-186.23342996747962 pbc="T T F"
Si       1.91979491       1.10839411      12.00000000  F        6      -0.00000000       0.00000000       0.17150952
Si       5.75938473       1.10839411      12.00000000  F        6      -0.00000000       0.00000000       0.17150952
Si       9.59897455       1.10839411      12.00000000  F        6       0.00000000       0.00000000       0.17150952
Si       3.83958982       4.43357643      12.00000000  F        6      -0.00000000      -0.00000000       0.17150952
Si       7.67917964       4.43357643      12.00000000  F        6       0.00000000      -0.00000000       0.17150952
Si      11.51876947       4.43357643      12.00000000  F        6       0.00000000      -0.00000000       0.17150952
Si       1.91979491       1.10839411      14.35125897  F        5       0.00000000       0.00000000      -0.37518449
Si       5.75938473       1.10839411      14.35125897  F        5      -0.00000000       0.00000000      -0.37518449
Si       9.59897455       1.10839411      14.35125897  F        5      -0.00000000       0.00000000      -0.37518449
Si       3.83958982       4.43357643      14.35125897  F        5       0.00000000      -0.00000000      -0.37518449
Si       7.67917964       4.43357643      14.35125897  F        5      -0.00000000      -0.00000000      -0.37518449
Si      11.51876947       4.43357643      14.35125897  F        5      -0.00000000      -0.00000000      -0.37518449
Si      -0.00000000       2.21678822      15.13501196  F        4       0.00000000      -0.00000000      -0.14263620
Si       3.83958982       2.21678822      15.13501196  F        4      -0.00000000      -0.00000000      -0.14263620
Si       7.67917964       2.21678822      15.13501196  F        4      -0.00000000       0.00000000      -0.14263620
Si       1.91979491       5.54197054      15.13501196  F        4       0.00000000       0.00000000      -0.14263620
Si       5.75938473       5.54197054      15.13501196  F        4       0.00000000       0.00000000      -0.14263620
Si       9.59897455       5.54197054      15.13501196  F        4       0.00000000       0.00000000      -0.14263620
Si      -0.00000000       2.21678822      17.48627093  F        3       0.00000000       0.00000000       0.14263620
Si       3.83958982       2.21678822      17.48627093  F        3      -0.00000000       0.00000000       0.14263620
Si       7.67917964       2.21678822      17.48627093  F        3      -0.00000000       0.00000000       0.14263620
Si       1.91979491       5.54197054      17.48627093  F        3       0.00000000       0.00000000       0.14263620
Si       5.75938473       5.54197054      17.48627093  F        3       0.00000000       0.00000000       0.14263620
Si       9.59897455       5.54197054      17.48627093  F        3      -0.00000000       0.00000000       0.14263620
Si       0.00000000       0.00000000      18.27002392  F        2      -0.00000000      -0.00000000       0.37518449
Si       3.83958982       0.00000000      18.27002392  F        2       0.00000000      -0.00000000       0.37518449
Si       7.67917964       0.00000000      18.27002392  F        2       0.00000000      -0.00000000       0.37518449
Si       1.91979491       3.32518233      18.27002392  F        2      -0.00000000      -0.00000000       0.37518449
Si       5.75938473       3.32518233      18.27002392  F        2       0.00000000       0.00000000       0.37518449
Si       9.59897455       3.32518233      18.27002392  F        2       0.00000000      -0.00000000       0.37518449
Si       0.00000000       0.00000000      20.62128289  F        1       0.00000000       0.00000000      -0.17150952
Si       3.83958982       0.00000000      20.62128289  F        1      -0.00000000      -0.00000000      -0.17150952
Si       7.67917964       0.00000000      20.62128289  F        1      -0.00000000       0.00000000      -0.17150952
Si       1.91979491       3.32518233      20.62128289  F        1      -0.00000000      -0.00000000      -0.17150952
Si       5.75938473       3.32518233      20.62128289  F        1      -0.00000000       0.00000000      -0.17150952
Si       9.59897455       3.32518233      20.62128289  F        1       0.00000000       0.00000000      -0.17150952
Si       5.75938473       3.32518233      29.15569593  F        0      -0.00000000      -0.00000000       0.00000000
Cl       5.75938473       3.32518233      27.12128289  F        0       0.00000000       0.00000000      -0.00860048
Cl       7.67744774       3.32518233      29.83383361  F        0       0.00810861       0.00000000       0.00286683
Cl       4.80035323       4.98627361      29.83383361  F        0      -0.00405430       0.00702226       0.00286683
Cl       4.80035323       1.66409104      29.83383361  F        0      -0.00405430      -0.00702226       0.00286683
41
Lattice="11.518769465528859 0.0 0.0 3.839589821842953 6.650364651656328 0.0 0.0 0.0 32.62128289467409" Properties=species:S:1:pos:R:3:move_mask:L:1:tags:I:1:forces:R:3 surface=Si111 species=SiCl4 height_A=5.0 substrate_atoms=36 calculation_kind="Rigid approach energy evaluation; not NEB or TS" energy=-186.23342996747962 pbc="T T F"
Si       1.91979491       1.10839411      12.00000000  F        6      -0.00000000       0.00000000       0.17150952
Si       5.75938473       1.10839411      12.00000000  F        6      -0.00000000       0.00000000       0.17150952
Si       9.59897455       1.10839411      12.00000000  F        6       0.00000000       0.00000000       0.17150952
Si       3.83958982       4.43357643      12.00000000  F        6      -0.00000000      -0.00000000       0.17150952
Si       7.67917964       4.43357643      12.00000000  F        6       0.00000000      -0.00000000       0.17150952
Si      11.51876947       4.43357643      12.00000000  F        6       0.00000000      -0.00000000       0.17150952
Si       1.91979491       1.10839411      14.35125897  F        5       0.00000000       0.00000000      -0.37518449
Si       5.75938473       1.10839411      14.35125897  F        5      -0.00000000       0.00000000      -0.37518449
Si       9.59897455       1.10839411      14.35125897  F        5      -0.00000000       0.00000000      -0.37518449
Si       3.83958982       4.43357643      14.35125897  F        5       0.00000000      -0.00000000      -0.37518449
Si       7.67917964       4.43357643      14.35125897  F        5      -0.00000000      -0.00000000      -0.37518449
Si      11.51876947       4.43357643      14.35125897  F        5      -0.00000000      -0.00000000      -0.37518449
Si      -0.00000000       2.21678822      15.13501196  F        4       0.00000000      -0.00000000      -0.14263620
Si       3.83958982       2.21678822      15.13501196  F        4      -0.00000000      -0.00000000      -0.14263620
Si       7.67917964       2.21678822      15.13501196  F        4      -0.00000000       0.00000000      -0.14263620
Si       1.91979491       5.54197054      15.13501196  F        4       0.00000000       0.00000000      -0.14263620
Si       5.75938473       5.54197054      15.13501196  F        4       0.00000000       0.00000000      -0.14263620
Si       9.59897455       5.54197054      15.13501196  F        4       0.00000000       0.00000000      -0.14263620
Si      -0.00000000       2.21678822      17.48627093  F        3       0.00000000       0.00000000       0.14263620
Si       3.83958982       2.21678822      17.48627093  F        3      -0.00000000       0.00000000       0.14263620
Si       7.67917964       2.21678822      17.48627093  F        3      -0.00000000       0.00000000       0.14263620
Si       1.91979491       5.54197054      17.48627093  F        3       0.00000000       0.00000000       0.14263620
Si       5.75938473       5.54197054      17.48627093  F        3       0.00000000       0.00000000       0.14263620
Si       9.59897455       5.54197054      17.48627093  F        3      -0.00000000       0.00000000       0.14263620
Si       0.00000000       0.00000000      18.27002392  F        2      -0.00000000      -0.00000000       0.37518449
Si       3.83958982       0.00000000      18.27002392  F        2       0.00000000      -0.00000000       0.37518449
Si       7.67917964       0.00000000      18.27002392  F        2       0.00000000      -0.00000000       0.37518449
Si       1.91979491       3.32518233      18.27002392  F        2      -0.00000000      -0.00000000       0.37518449
Si       5.75938473       3.32518233      18.27002392  F        2       0.00000000       0.00000000       0.37518449
Si       9.59897455       3.32518233      18.27002392  F        2       0.00000000      -0.00000000       0.37518449
Si       0.00000000       0.00000000      20.62128289  F        1       0.00000000       0.00000000      -0.17150952
Si       3.83958982       0.00000000      20.62128289  F        1      -0.00000000      -0.00000000      -0.17150952
Si       7.67917964       0.00000000      20.62128289  F        1      -0.00000000       0.00000000      -0.17150952
Si       1.91979491       3.32518233      20.62128289  F        1      -0.00000000      -0.00000000      -0.17150952
Si       5.75938473       3.32518233      20.62128289  F        1      -0.00000000       0.00000000      -0.17150952
Si       9.59897455       3.32518233      20.62128289  F        1       0.00000000       0.00000000      -0.17150952
Si       5.75938473       3.32518233      27.65569593  F        0      -0.00000000      -0.00000000       0.00000000
Cl       5.75938473       3.32518233      25.62128289  F        0       0.00000000       0.00000000      -0.00860048
Cl       7.67744774       3.32518233      28.33383361  F        0       0.00810861       0.00000000       0.00286683
Cl       4.80035323       4.98627361      28.33383361  F        0      -0.00405430       0.00702226       0.00286683
Cl       4.80035323       1.66409104      28.33383361  F        0      -0.00405430      -0.00702226       0.00286683
41
Lattice="11.518769465528859 0.0 0.0 3.839589821842953 6.650364651656328 0.0 0.0 0.0 32.62128289467409" Properties=species:S:1:pos:R:3:move_mask:L:1:tags:I:1:forces:R:3 surface=Si111 species=SiCl4 height_A=4.0 substrate_atoms=36 calculation_kind="Rigid approach energy evaluation; not NEB or TS" energy=-186.197379488185 pbc="T T F"
Si       1.91979491       1.10839411      12.00000000  F        6      -0.00003349       0.00002289       0.17190934
Si       5.75938473       1.10839411      12.00000000  F        6       0.00000359      -0.00004959       0.17141384
Si       9.59897455       1.10839411      12.00000000  F        6       0.00002990      -0.00003108       0.17170997
Si       3.83958982       4.43357643      12.00000000  F        6      -0.00003706       0.00001785       0.17138528
Si       7.67917964       4.43357643      12.00000000  F        6       0.00004474       0.00002169       0.17141384
Si      11.51876947       4.43357643      12.00000000  F        6      -0.00000768       0.00001825       0.17151321
Si       1.91979491       1.10839411      14.35125897  F        5       0.00055293      -0.00031521      -0.37547795
Si       5.75938473       1.10839411      14.35125897  F        5       0.00029298       0.00204301      -0.37341862
Si       9.59897455       1.10839411      14.35125897  F        5      -0.00084573       0.00047311      -0.37469956
Si       3.83958982       4.43357643      14.35125897  F        5       0.00154784      -0.00089767      -0.37294443
Si       7.67917964       4.43357643      14.35125897  F        5      -0.00161102      -0.00128204      -0.37341845
Si      11.51876947       4.43357643      14.35125897  F        5       0.00006327      -0.00002135      -0.37420158
Si      -0.00000000       2.21678822      15.13501196  F        4      -0.00002902       0.00029868      -0.14609449
Si       3.83958982       2.21678822      15.13501196  F        4      -0.00176677      -0.00080590      -0.14435065
Si       7.67917964       2.21678822      15.13501196  F        4       0.00179561      -0.00104382      -0.14239254
Si       1.91979491       5.54197054      15.13501196  F        4      -0.00099007       0.00028969      -0.14601213
Si       5.75938473       5.54197054      15.13501196  F        4      -0.00018610       0.00193339      -0.14426833
Si       9.59897455       5.54197054      15.13501196  F        4       0.00117650      -0.00067213      -0.14803694
Si      -0.00000000       2.21678822      17.48627093  F        3      -0.00141214       0.00120185       0.14543986
Si       3.83958982       2.21678822      17.48627093  F        3       0.03439337       0.01742701       0.17505799
Si       7.67917964       2.21678822      17.48627093  F        3      -0.03300216       0.01831092       0.17312074
Si       1.91979491       5.54197054      17.48627093  F        3       0.00106819      -0.00100327       0.14583691
Si       5.75938473       5.54197054      17.48627093  F        3       0.00154291      -0.03817483       0.17519936
Si       9.59897455       5.54197054      17.48627093  F        3      -0.00265087       0.00227337       0.14765028
Si       0.00000000       0.00000000      18.27002392  F        2       0.00259939      -0.00463232       0.35885707
Si       3.83958982       0.00000000      18.27002392  F        2      -0.00323239       0.00166966       0.34537071
Si       7.67917964       0.00000000      18.27002392  F        2       0.00066164       0.00645147       0.35813213
Si       1.91979491       3.32518233      18.27002392  F        2       0.00196752       0.00199562       0.36264390
Si       5.75938473       3.32518233      18.27002392  F        2       0.00097337      -0.00036542       0.50744241
Si       9.59897455       3.32518233      18.27002392  F        2      -0.00294079      -0.00513561       0.36236244
Si       0.00000000       0.00000000      20.62128289  F        1      -0.03161153       0.05850898      -0.16915765
Si       3.83958982       0.00000000      20.62128289  F        1       0.00078048      -0.00069940      -0.17087634
Si       7.67917964       0.00000000      20.62128289  F        1       0.03086515      -0.06031148      -0.16920561
Si       1.91979491       3.32518233      20.62128289  F        1      -0.06656984      -0.00182394      -0.16705943
Si       5.75938473       3.32518233      20.62128289  F        1      -0.00085335       0.00074147      -0.29842018
Si       9.59897455       3.32518233      20.62128289  F        1       0.06742062       0.00356617      -0.16706488
Si       5.75938473       3.32518233      26.65569593  F        0      -0.00000000      -0.00000000      -0.06374484
Cl       5.75938473       3.32518233      24.62128289  F        0       0.00000000       0.00000000       0.01622648
Cl       7.67744774       3.32518233      27.33383361  F        0       0.01468960       0.00000000       0.00605294
Cl       4.80035323       4.98627361      27.33383361  F        0      -0.00734480       0.01272156       0.00605294
Cl       4.80035323       1.66409104      27.33383361  F        0      -0.00734480      -0.01272156       0.00605294
41
Lattice="11.518769465528859 0.0 0.0 3.839589821842953 6.650364651656328 0.0 0.0 0.0 32.62128289467409" Properties=species:S:1:pos:R:3:move_mask:L:1:tags:I:1:forces:R:3 surface=Si111 species=SiCl4 height_A=3.25 substrate_atoms=36 calculation_kind="Rigid approach energy evaluation; not NEB or TS" energy=-186.30519630774828 pbc="T T F"
Si       1.91979491       1.10839411      12.00000000  F        6      -0.00002990       0.00004042       0.17280551
Si       5.75938473       1.10839411      12.00000000  F        6       0.00000827      -0.00008125       0.17077895
Si       9.59897455       1.10839411      12.00000000  F        6       0.00002163      -0.00006466       0.17211266
Si       3.83958982       4.43357643      12.00000000  F        6      -0.00002659      -0.00000781       0.17063177
Si       7.67917964       4.43357643      12.00000000  F        6       0.00007450       0.00003347       0.17077895
Si      11.51876947       4.43357643      12.00000000  F        6      -0.00004791       0.00007984       0.17141381
Si       1.91979491       1.10839411      14.35125897  F        5       0.00080384      -0.00064211      -0.37522971
Si       5.75938473       1.10839411      14.35125897  F        5      -0.00047241       0.00041597      -0.37298272
Si       9.59897455       1.10839411      14.35125897  F        5      -0.00033115       0.00031507      -0.37425601
Si       3.83958982       4.43357643      14.35125897  F        5       0.00057917      -0.00015637      -0.37369862
Si       7.67917964       4.43357643      14.35125897  F        5      -0.00075240       0.00029117      -0.37319023
Si      11.51876947       4.43357643      14.35125897  F        5       0.00017340      -0.00022399      -0.37283448
Si      -0.00000000       2.21678822      15.13501196  F        4       0.00012024      -0.00012248      -0.14364857
Si       3.83958982       2.21678822      15.13501196  F        4      -0.00043051      -0.00070736      -0.13742883
Si       7.67917964       2.21678822      15.13501196  F        4       0.00030998      -0.00041399      -0.13632302
Si       1.91979491       5.54197054      15.13501196  F        4      -0.00244610       0.00146532      -0.14543901
Si       5.75938473       5.54197054      15.13501196  F        4       0.00027929       0.00079467      -0.13719147
Si       9.59897455       5.54197054      15.13501196  F        4       0.00216715      -0.00101619      -0.14832117
Si      -0.00000000       2.21678822      17.48627093  F        3      -0.00118223       0.00208164       0.13972369
Si       3.83958982       2.21678822      17.48627093  F        3       0.07485584       0.04772358       0.18391618
Si       7.67917964       2.21678822      17.48627093  F        3      -0.07369130       0.04253529       0.18430870
Si       1.91979491       5.54197054      17.48627093  F        3       0.00541818      -0.00452727       0.13961366
Si       5.75938473       5.54197054      17.48627093  F        3      -0.00371504      -0.08879674       0.18380814
Si       9.59897455       5.54197054      17.48627093  F        3      -0.00168147       0.00098120       0.13906925
Si       0.00000000       0.00000000      18.27002392  F        2       0.00391595      -0.00430761       0.35928188
Si       3.83958982       0.00000000      18.27002392  F        2      -0.00440914       0.00230292       0.32915494
Si       7.67917964       0.00000000      18.27002392  F        2       0.00051621       0.00749217       0.35919053
Si       1.91979491       3.32518233      18.27002392  F        2      -0.00150927       0.00291811       0.38116565
Si       5.75938473       3.32518233      18.27002392  F        2      -0.00012477       0.00031473       0.35704723
Si       9.59897455       3.32518233      18.27002392  F        2       0.00163399      -0.00873359       0.38118269
Si       0.00000000       0.00000000      20.62128289  F        1      -0.08680577       0.14612042      -0.17024163
Si       3.83958982       0.00000000      20.62128289  F        1       0.00218809      -0.00174052      -0.15203189
Si       7.67917964       0.00000000      20.62128289  F        1       0.08459903      -0.14877169      -0.17003138
Si       1.91979491       3.32518233      20.62128289  F        1      -0.16947956       0.00184598      -0.18062014
Si       5.75938473       3.32518233      20.62128289  F        1      -0.00058761       0.00081649      -0.12114115
Si       9.59897455       3.32518233      20.62128289  F        1       0.17005836       0.00174518      -0.18050591
Si       5.75938473       3.32518233      25.90569593  F        0      -0.00000000      -0.00000000      -0.20405434
Cl       5.75938473       3.32518233      23.87128289  F        0       0.00000000       0.00000000       0.06115563
Cl       7.67744774       3.32518233      26.58383361  F        0       0.04496090       0.00000000       0.01401015
Cl       4.80035323       4.98627361      26.58383361  F        0      -0.02248045       0.03893729       0.01401015
Cl       4.80035323       1.66409104      26.58383361  F        0      -0.02248045      -0.03893729       0.01401015
41
Lattice="11.518769465528859 0.0 0.0 3.839589821842953 6.650364651656328 0.0 0.0 0.0 32.62128289467409" Properties=species:S:1:pos:R:3:move_mask:L:1:tags:I:1:forces:R:3 surface=Si111 species=SiCl4 height_A=2.75 substrate_atoms=36 calculation_kind="Rigid approach energy evaluation; not NEB or TS" energy=-186.09446937911414 pbc="T T F"
Si       1.91979491       1.10839411      12.00000000  F        6      -0.00006322       0.00012112       0.17345040
Si       5.75938473       1.10839411      12.00000000  F        6       0.00006890      -0.00009457       0.16920156
Si       9.59897455       1.10839411      12.00000000  F        6      -0.00000568      -0.00007986       0.17229978
Si       3.83958982       4.43357643      12.00000000  F        6      -0.00001692      -0.00007485       0.16882072
Si       7.67917964       4.43357643      12.00000000  F        6       0.00011635      -0.00001239       0.16920156
Si      11.51876947       4.43357643      12.00000000  F        6      -0.00009943       0.00014054       0.17107260
Si       1.91979491       1.10839411      14.35125897  F        5       0.00045884      -0.00042212      -0.37368381
Si       5.75938473       1.10839411      14.35125897  F        5      -0.00103942      -0.01297781      -0.38613781
Si       9.59897455       1.10839411      14.35125897  F        5       0.00058139       0.00011781      -0.37213356
Si       3.83958982       4.43357643      14.35125897  F        5      -0.01099712       0.00650640      -0.38759605
Si       7.67917964       4.43357643      14.35125897  F        5       0.01053312       0.00749662      -0.38632017
Si      11.51876947       4.43357643      14.35125897  F        5       0.00046523      -0.00072207      -0.36880251
Si      -0.00000000       2.21678822      15.13501196  F        4       0.00093819      -0.00150158      -0.13497453
Si       3.83958982       2.21678822      15.13501196  F        4      -0.01023169      -0.00782454      -0.14706050
Si       7.67917964       2.21678822      15.13501196  F        4       0.00929527      -0.00568071      -0.14883419
Si       1.91979491       5.54197054      15.13501196  F        4      -0.00522582       0.00397705      -0.14031501
Si       5.75938473       5.54197054      15.13501196  F        4       0.00165503       0.01277627      -0.14664214
Si       9.59897455       5.54197054      15.13501196  F        4       0.00357048      -0.00174733      -0.14364414
Si      -0.00000000       2.21678822      17.48627093  F        3      -0.00102617       0.00276795       0.12996380
Si       3.83958982       2.21678822      17.48627093  F        3       0.14076949       0.08967068       0.19581388
Si       7.67917964       2.21678822      17.48627093  F        3      -0.13977368       0.08063221       0.19999338
Si       1.91979491       5.54197054      17.48627093  F        3       0.00204689      -0.00366932       0.13165579
Si       5.75938473       5.54197054      17.48627093  F        3      -0.00657659      -0.16718502       0.19493452
Si       9.59897455       5.54197054      17.48627093  F        3       0.00476274      -0.00266978       0.13115999
Si       0.00000000       0.00000000      18.27002392  F        2      -0.02697607       0.04079369       0.37124874
Si       3.83958982       0.00000000      18.27002392  F        2       0.00542234      -0.00361617       0.36353765
Si       7.67917964       0.00000000      18.27002392  F        2       0.02159336      -0.04083776       0.37152792
Si       1.91979491       3.32518233      18.27002392  F        2      -0.06051835       0.00994399       0.40233353
Si       5.75938473       3.32518233      18.27002392  F        2      -0.00183735       0.00154571       0.30345253
Si       9.59897455       3.32518233      18.27002392  F        2       0.06229859      -0.00787046       0.40254486
Si       0.00000000       0.00000000      20.62128289  F        1      -0.07304029       0.11864400      -0.14681187
Si       3.83958982       0.00000000      20.62128289  F        1      -0.00324700      -0.00138620      -0.11198846
Si       7.67917964       0.00000000      20.62128289  F        1       0.07413104      -0.11660938      -0.14407289
Si       1.91979491       3.32518233      20.62128289  F        1      -0.12664447      -0.00193729      -0.16209894
Si       5.75938473       3.32518233      20.62128289  F        1       0.00060787       0.00057523      -1.33244450
Si       9.59897455       3.32518233      20.62128289  F        1       0.12793864       0.00138223      -0.16307904
Si       5.75938473       3.32518233      25.40569593  F        0       0.00000142       0.00000249       0.13062252
Cl       5.75938473       3.32518233      23.37128289  F        0       0.00006609      -0.00017132       0.99024877
Cl       7.67744774       3.32518233      26.08383361  F        0       0.13224495      -0.00000074      -0.04881554
Cl       4.80035323       4.98627361      26.08383361  F        0      -0.06612312       0.11452712      -0.04881554
Cl       4.80035323       1.66409104      26.08383361  F        0      -0.06612382      -0.11452982      -0.04881328
41
Lattice="11.518769465528859 0.0 0.0 3.839589821842953 6.650364651656328 0.0 0.0 0.0 32.62128289467409" Properties=species:S:1:pos:R:3:move_mask:L:1:tags:I:1:forces:R:3 surface=Si111 species=SiCl4 height_A=2.25 substrate_atoms=36 calculation_kind="Rigid approach energy evaluation; not NEB or TS" energy=-185.8184117804974 pbc="T T F"
Si       1.91979491       1.10839411      12.00000000  F        6       0.00004760       0.00011235       0.17485698
Si       5.75938473       1.10839411      12.00000000  F        6       0.00010191      -0.00004773       0.16964162
Si       9.59897455       1.10839411      12.00000000  F        6      -0.00014951       0.00004581       0.17306595
Si       3.83958982       4.43357643      12.00000000  F        6       0.00002214      -0.00015261       0.16918339
Si       7.67917964       4.43357643      12.00000000  F        6       0.00009229      -0.00006439       0.16964162
Si      11.51876947       4.43357643      12.00000000  F        6      -0.00011443       0.00010658       0.17119171
Si       1.91979491       1.10839411      14.35125897  F        5       0.00389350      -0.00283203      -0.36150992
Si       5.75938473       1.10839411      14.35125897  F        5      -0.00273107      -0.01580046      -0.38029359
Si       9.59897455       1.10839411      14.35125897  F        5      -0.00114660       0.00124077      -0.36477891
Si       3.83958982       4.43357643      14.35125897  F        5      -0.01271885       0.00792735      -0.38530218
Si       7.67917964       4.43357643      14.35125897  F        5       0.01174380       0.01059696      -0.38103541
Si      11.51876947       4.43357643      14.35125897  F        5       0.00097840      -0.00114366      -0.36445629
Si      -0.00000000       2.21678822      15.13501196  F        4       0.00254472      -0.00476345      -0.12005719
Si       3.83958982       2.21678822      15.13501196  F        4      -0.01251805      -0.01448640      -0.13270936
Si       7.67917964       2.21678822      15.13501196  F        4       0.00997905      -0.00675122      -0.13805770
Si       1.91979491       5.54197054      15.13501196  F        4      -0.00582714       0.00665855      -0.13030071
Si       5.75938473       5.54197054      15.13501196  F        4       0.00594818       0.01827952      -0.13179554
Si       9.59897455       5.54197054      15.13501196  F        4      -0.00013764       0.00106928      -0.13397820
Si      -0.00000000       2.21678822      17.48627093  F        3       0.00139781      -0.00051488       0.13406943
Si       3.83958982       2.21678822      17.48627093  F        3       0.07983214       0.05381317       0.13298027
Si       7.67917964       2.21678822      17.48627093  F        3      -0.08091850       0.04515443       0.13561604
Si       1.91979491       5.54197054      17.48627093  F        3       0.00299307      -0.00317436       0.13271344
Si       5.75938473       5.54197054      17.48627093  F        3      -0.00686594      -0.09603531       0.13395074
Si       9.59897455       5.54197054      17.48627093  F        3       0.00529424      -0.00140054       0.13077779
Si       0.00000000       0.00000000      18.27002392  F        2      -0.06935836       0.13395280       0.28029095
Si       3.83958982       0.00000000      18.27002392  F        2      -0.00044910      -0.00049093       0.25241359
Si       7.67917964       0.00000000      18.27002392  F        2       0.06971946      -0.12601164       0.28030476
Si       1.91979491       3.32518233      18.27002392  F        2      -0.18195181       0.01178136       0.35336680
Si       5.75938473       3.32518233      18.27002392  F        2      -0.00193111       0.00184512       0.66582871
Si       9.59897455       3.32518233      18.27002392  F        2       0.18355768      -0.02116912       0.35283193
Si       0.00000000       0.00000000      20.62128289  F        1      -0.05873022       0.07177841      -0.05280421
Si       3.83958982       0.00000000      20.62128289  F        1      -0.00096866      -0.00127241       0.00966227
Si       7.67917964       0.00000000      20.62128289  F        1       0.05795455      -0.07115342      -0.04997538
Si       1.91979491       3.32518233      20.62128289  F        1      -0.10302299       0.02314975      -0.08620292
Si       5.75938473       3.32518233      20.62128289  F        1       0.00371894      -0.00113411      -1.10655622
Si       9.59897455       3.32518233      20.62128289  F        1       0.09941390      -0.01821674      -0.08588587
Si       5.75938473       3.32518233      24.90569593  F        0       0.00009392       0.00016372       0.74233386
Cl       5.75938473       3.32518233      22.87128289  F        0       0.00030097      -0.00090762       0.26554184
Cl       7.67744774       3.32518233      25.58383361  F        0       0.09976274      -0.00001859      -0.20820269
Cl       4.80035323       4.98627361      25.58383361  F        0      -0.04989747       0.08638777      -0.20820269
Cl       4.80035323       1.66409104      25.58383361  F        0      -0.04995354      -0.08652207      -0.20815869
41
Lattice="11.518769465528859 0.0 0.0 3.839589821842953 6.650364651656328 0.0 0.0 0.0 32.62128289467409" Properties=species:S:1:pos:R:3:move_mask:L:1:tags:I:1:forces:R:3 surface=Si111 species=SiCl4 height_A=1.9 substrate_atoms=36 calculation_kind="Rigid approach energy evaluation; not NEB or TS" energy=-185.28593649575194 pbc="T T F"
Si       1.91979491       1.10839411      12.00000000  F        6       0.00001854       0.00016688       0.17579097
Si       5.75938473       1.10839411      12.00000000  F        6       0.00019313      -0.00043636       0.16879906
Si       9.59897455       1.10839411      12.00000000  F        6      -0.00021168      -0.00001001       0.17351307
Si       3.83958982       4.43357643      12.00000000  F        6      -0.00028475      -0.00001318       0.16832160
Si       7.67917964       4.43357643      12.00000000  F        6       0.00047447       0.00005092       0.16879906
Si      11.51876947       4.43357643      12.00000000  F        6      -0.00018971       0.00024175       0.17111831
Si       1.91979491       1.10839411      14.35125897  F        5       0.00750187      -0.00542849      -0.35350520
Si       5.75938473       1.10839411      14.35125897  F        5      -0.00436108      -0.00235629      -0.35843835
Si       9.59897455       1.10839411      14.35125897  F        5      -0.00311500       0.00265955      -0.36070102
Si       3.83958982       4.43357643      14.35125897  F        5      -0.00013765       0.00117675      -0.36637802
Si       7.67917964       4.43357643      14.35125897  F        5      -0.00117869       0.00555468      -0.35992231
Si      11.51876947       4.43357643      14.35125897  F        5       0.00131640      -0.00162112      -0.36305184
Si      -0.00000000       2.21678822      15.13501196  F        4       0.00274600      -0.00604170      -0.11033552
Si       3.83958982       2.21678822      15.13501196  F        4      -0.00061660      -0.00975922      -0.12603913
Si       7.67917964       2.21678822      15.13501196  F        4      -0.00208551      -0.00054334      -0.13493776
Si       1.91979491       5.54197054      15.13501196  F        4      -0.00634606       0.00812019      -0.12710275
Si       5.75938473       5.54197054      15.13501196  F        4       0.00733780       0.00587873      -0.12470483
Si       9.59897455       5.54197054      15.13501196  F        4      -0.00101856       0.00233548      -0.13275756
Si      -0.00000000       2.21678822      17.48627093  F        3       0.00160256       0.00351201       0.14408035
Si       3.83958982       2.21678822      17.48627093  F        3       0.02200494       0.02934434       0.14038785
Si       7.67917964       2.21678822      17.48627093  F        3      -0.02277780       0.01451292       0.14052617
Si       1.91979491       5.54197054      17.48627093  F        3       0.00240496      -0.00675834       0.12838932
Si       5.75938473       5.54197054      17.48627093  F        3      -0.01194196      -0.03507504       0.14123651
Si       9.59897455       5.54197054      17.48627093  F        3       0.01205537      -0.00793259       0.11329687
Si       0.00000000       0.00000000      18.27002392  F        2      -0.04926431       0.09829663       0.33281492
Si       3.83958982       0.00000000      18.27002392  F        2       0.01199709      -0.00792595       0.32243050
Si       7.67917964       0.00000000      18.27002392  F        2       0.03718151      -0.09457509       0.33515080
Si       1.91979491       3.32518233      18.27002392  F        2      -0.15668765       0.02131851       0.44421400
Si       5.75938473       3.32518233      18.27002392  F        2      -0.00519174       0.00396397      -0.61422533
Si       9.59897455       3.32518233      18.27002392  F        2       0.16115953      -0.02094568       0.44453735
Si       0.00000000       0.00000000      20.62128289  F        1      -0.06033030       0.04562214      -0.07979339
Si       3.83958982       0.00000000      20.62128289  F        1       0.00675911       0.00164554      -0.01707666
Si       7.67917964       0.00000000      20.62128289  F        1       0.05816104      -0.05480349      -0.08056335
Si       1.91979491       3.32518233      20.62128289  F        1      -0.12058980       0.05616765      -0.13728426
Si       5.75938473       3.32518233      20.62128289  F        1       0.00512227      -0.00127072      -3.32633328
Si       9.59897455       3.32518233      20.62128289  F        1       0.10841259      -0.04443165      -0.13307925
Si       5.75938473       3.32518233      24.55569593  F        0       0.00017337       0.00030176       1.21483228
Cl       5.75938473       3.32518233      22.52128289  F        0      -0.00016389      -0.00071746       3.37548960
Cl       7.67744774       3.32518233      25.23383361  F        0      -0.03613453      -0.00003006      -0.33249645
Cl       4.80035323       4.98627361      25.23383361  F        0       0.01804120      -0.03130839      -0.33249663
Cl       4.80035323       1.66409104      25.23383361  F        0       0.01796354       0.03111376      -0.33250570
41
Lattice="11.518769465528859 0.0 0.0 3.839589821842953 6.650364651656328 0.0 0.0 0.0 32.62128289467409" Properties=species:S:1:pos:R:3:move_mask:L:1:tags:I:1:forces:R:3 surface=Si111 species=SiCl4 height_A=1.6 substrate_atoms=36 calculation_kind="Rigid approach energy evaluation; not NEB or TS" energy=-182.52058703044875 pbc="T T F"
Si       1.91979491       1.10839411      12.00000000  F        6       0.00012748       0.00013749       0.17489931
Si       5.75938473       1.10839411      12.00000000  F        6       0.00022773      -0.00034597       0.16828438
Si       9.59897455       1.10839411      12.00000000  F        6      -0.00035521      -0.00003957       0.17292812
Si       3.83958982       4.43357643      12.00000000  F        6      -0.00014637      -0.00012658       0.16764622
Si       7.67917964       4.43357643      12.00000000  F        6       0.00041742      -0.00002651       0.16828687
Si      11.51876947       4.43357643      12.00000000  F        6      -0.00027105       0.00040114       0.17071090
Si       1.91979491       1.10839411      14.35125897  F        5       0.00889727      -0.00649131      -0.35165490
Si       5.75938473       1.10839411      14.35125897  F        5      -0.00490089       0.00634832      -0.34581121
Si       9.59897455       1.10839411      14.35125897  F        5      -0.00397804       0.00283915      -0.35838626
Si       3.83958982       4.43357643      14.35125897  F        5       0.00820959      -0.00337698      -0.35456377
Si       7.67917964       4.43357643      14.35125897  F        5      -0.00894689       0.00165155      -0.34711898
Si      11.51876947       4.43357643      14.35125897  F        5       0.00073930      -0.00096905      -0.35944375
Si      -0.00000000       2.21678822      15.13501196  F        4       0.00178580      -0.00474156      -0.10644243
Si       3.83958982       2.21678822      15.13501196  F        4       0.00705714      -0.00553805      -0.12104941
Si       7.67917964       2.21678822      15.13501196  F        4      -0.00873835       0.00326983      -0.13182186
Si       1.91979491       5.54197054      15.13501196  F        4      -0.00888592       0.00884531      -0.12724219
Si       5.75938473       5.54197054      15.13501196  F        4       0.00740614      -0.00281594      -0.11935663
Si       9.59897455       5.54197054      15.13501196  F        4       0.00145625       0.00094331      -0.13380317
Si      -0.00000000       2.21678822      17.48627093  F        3      -0.00061374       0.00958162       0.15137161
Si       3.83958982       2.21678822      17.48627093  F        3      -0.10859334      -0.04319159      -0.00530431
Si       7.67917964       2.21678822      17.48627093  F        3       0.11219033      -0.06257792      -0.00765900
Si       1.91979491       5.54197054      17.48627093  F        3      -0.01764244       0.00026361       0.11549406
Si       5.75938473       5.54197054      17.48627093  F        3      -0.01626324       0.11383287      -0.00581824
Si       9.59897455       5.54197054      17.48627093  F        3       0.03487595      -0.02023272       0.07933814
Si       0.00000000       0.00000000      18.27002392  F        2      -0.05100228       0.11771410       0.38338386
Si       3.83958982       0.00000000      18.27002392  F        2       0.00578852       0.00734703       0.40697436
Si       7.67917964       0.00000000      18.27002392  F        2       0.05652515      -0.11728533       0.38393446
Si       1.91979491       3.32518233      18.27002392  F        2      -0.19867479       0.02092387       0.51667175
Si       5.75938473       3.32518233      18.27002392  F        2      -0.00674171       0.00659890      -0.29940251
Si       9.59897455       3.32518233      18.27002392  F        2       0.19406629      -0.03474046       0.51776097
Si       0.00000000       0.00000000      20.62128289  F        1      -0.10645249       0.10824787      -0.09089079
Si       3.83958982       0.00000000      20.62128289  F        1      -0.01392201      -0.00547208      -0.04081121
Si       7.67917964       0.00000000      20.62128289  F        1       0.11110806      -0.10428523      -0.10693718
Si       1.91979491       3.32518233      20.62128289  F        1      -0.20485084       0.07377981      -0.17183588
Si       5.75938473       3.32518233      20.62128289  F        1       0.00501704      -0.00194018     -15.66367447
Si       9.59897455       3.32518233      20.62128289  F        1       0.20112142      -0.07468903      -0.15484823
Si       5.75938473       3.32518233      24.25569593  F        0       0.00191150       0.00332028       0.57167776
Cl       5.75938473       3.32518233      22.22128289  F        0      -0.00027984      -0.00167760      16.30250671
Cl       7.67744774       3.32518233      24.93383361  F        0      -0.03142245      -0.00007784      -0.35569285
Cl       4.80035323       4.98627361      24.93383361  F        0       0.01523177      -0.02715302      -0.35677217
Cl       4.80035323       1.66409104      24.93383361  F        0       0.01852174       0.03174844      -0.33552806
41
Lattice="11.518769465528859 0.0 0.0 3.839589821842953 6.650364651656328 0.0 0.0 0.0 32.62128289467409" Properties=species:S:1:pos:R:3:move_mask:L:1:tags:I:1:forces:R:3 surface=Si111 species=SiCl4 height_A=1.3 substrate_atoms=36 calculation_kind="Rigid approach energy evaluation; not NEB or TS" energy=-168.877899799328 pbc="T T F"
Si       1.91979491       1.10839411      12.00000000  F        6      -0.00011572       0.00026051       0.17430782
Si       5.75938473       1.10839411      12.00000000  F        6       0.00019723      -0.00024193       0.17050924
Si       9.59897455       1.10839411      12.00000000  F        6      -0.00008152      -0.00014098       0.17256960
Si       3.83958982       4.43357643      12.00000000  F        6      -0.00011916      -0.00012490       0.16986523
Si       7.67917964       4.43357643      12.00000000  F        6       0.00031665      -0.00005476       0.17048288
Si      11.51876947       4.43357643      12.00000000  F        6      -0.00019749       0.00030207       0.17048287
Si       1.91979491       1.10839411      14.35125897  F        5       0.01016273      -0.00807228      -0.36508228
Si       5.75938473       1.10839411      14.35125897  F        5      -0.00377586       0.01877845      -0.35108569
Si       9.59897455       1.10839411      14.35125897  F        5      -0.00637389       0.00425490      -0.36625995
Si       3.83958982       4.43357643      14.35125897  F        5       0.01932041      -0.00893518      -0.35810087
Si       7.67917964       4.43357643      14.35125897  F        5      -0.01868239      -0.00580436      -0.35134123
Si      11.51876947       4.43357643      14.35125897  F        5      -0.00063914      -0.00020689      -0.36487152
Si      -0.00000000       2.21678822      15.13501196  F        4      -0.00041258      -0.00213553      -0.10938734
Si       3.83958982       2.21678822      15.13501196  F        4       0.01565688       0.00144775      -0.07838243
Si       7.67917964       2.21678822      15.13501196  F        4      -0.01510410       0.00736342      -0.08720576
Si       1.91979491       5.54197054      15.13501196  F        4      -0.00999657       0.00816394      -0.13082281
Si       5.75938473       5.54197054      15.13501196  F        4       0.00518358      -0.01349462      -0.07558282
Si       9.59897455       5.54197054      15.13501196  F        4       0.00479210      -0.00137323      -0.13786291
Si      -0.00000000       2.21678822      17.48627093  F        3      -0.00649812       0.01170382       0.15442087
Si       3.83958982       2.21678822      17.48627093  F        3       0.05279750       0.06701744      -0.27032820
Si       7.67917964       2.21678822      17.48627093  F        3      -0.04781833       0.02914167      -0.27088256
Si       1.91979491       5.54197054      17.48627093  F        3      -0.03255126       0.01004023       0.10778408
Si       5.75938473       5.54197054      17.48627093  F        3      -0.02744937      -0.08010905      -0.26851618
Si       9.59897455       5.54197054      17.48627093  F        3       0.06031981      -0.03781550       0.06252793
Si       0.00000000       0.00000000      18.27002392  F        2      -0.15341689       0.34571387       0.24051438
Si       3.83958982       0.00000000      18.27002392  F        2      -0.02735372       0.06167981       0.12686316
Si       7.67917964       0.00000000      18.27002392  F        2       0.22712222      -0.35004789       0.24283525
Si       1.91979491       3.32518233      18.27002392  F        2      -0.48773828      -0.00166530       0.38452918
Si       5.75938473       3.32518233      18.27002392  F        2      -0.00413300       0.01192444       2.56540451
Si       9.59897455       3.32518233      18.27002392  F        2       0.44730967      -0.06684374       0.38602337
Si       0.00000000       0.00000000      20.62128289  F        1      -0.17867050       0.21649584       0.14710182
Si       3.83958982       0.00000000      20.62128289  F        1      -0.06296963      -0.10852927       0.42035477
Si       7.67917964       0.00000000      20.62128289  F        1       0.11868525      -0.11872166       0.09994247
Si       1.91979491       3.32518233      20.62128289  F        1      -0.25114507       0.09732923       0.03543529
Si       5.75938473       3.32518233      20.62128289  F        1      -0.00119123      -0.01412941     -97.36306295
Si       9.59897455       3.32518233      20.62128289  F        1       0.36205231      -0.09283669       0.07965499
Si       5.75938473       3.32518233      23.95569593  F        0       0.00479035       0.00836880      -2.65822176
Cl       5.75938473       3.32518233      21.92128289  F        0      -0.00328212      -0.00431111      96.44275776
Cl       7.67744774       3.32518233      24.63383361  F        0       0.45945100       0.00559890       0.34756837
Cl       4.80035323       4.98627361      24.63383361  F        0      -0.23445799       0.39281334       0.34972758
Cl       4.80035323       1.66409104      24.63383361  F        0      -0.21398376      -0.38280420       0.38533384
