5
Lattice="11.518769465528859 0.0 0.0 3.839589821842953 6.650364651656328 0.0 0.0 0.0 32.62128289467409" Properties=species:S:1:pos:R:3:forces:R:3 energy=-19.11402975295392 pbc="T T F"
Si       0.00000000       0.00000000       2.03441304      -0.00000000      -0.00000000       0.00000000
Cl       0.00000000       0.00000000       0.00000000       0.00000000       0.00000000      -0.00860048
Cl       1.91806301      -0.00000000       2.71255072       0.00810861      -0.00000000       0.00286683
Cl      -0.95903150       1.66109129       2.71255072      -0.00405430       0.00702226       0.00286683
Cl      -0.95903150      -1.66109129       2.71255072      -0.00405430      -0.00702226       0.00286683
