41
Lattice="11.518769465528859 0.0 0.0 0.0 7.679179643685906 0.0 0.0 0.0 30.7875" Properties=species:S:1:pos:R:3:move_mask:L:1:tags:I:1:forces:R:3 surface=Si100 species=SiF4 site=bridge_Si_Si orientation=upright height_A=6.5 substrate_atoms=36 calculation_kind="Rigid evaluated approach scan; not NEB" energy=-208.21619064940802 pbc="T T F"
Si       0.00000000       0.00000000      12.00000000  F        6      -0.00000004       0.00000000       0.24903484
Si       3.83958982       0.00000000      12.00000000  F        6      -0.00000000       0.00000000       0.24903482
Si       7.67917964       0.00000000      12.00000000  F        6       0.00000000       0.00000000       0.24903482
Si       0.00000000       3.83958982      12.00000000  F        6      -0.00000004      -0.00000000       0.24903484
Si       3.83958982       3.83958982      12.00000000  F        6      -0.00000000      -0.00000000       0.24903482
Si       7.67917964       3.83958982      12.00000000  F        6       0.00000000      -0.00000000       0.24903482
Si       1.91979491       0.00000000      13.35750000  F        5       0.00000000      -0.00000002      -0.52822352
Si       5.75938473       0.00000000      13.35750000  F        5       0.00000000      -0.00000002      -0.52822353
Si       9.59897455       0.00000000      13.35750000  F        5       0.00000003      -0.00000002      -0.52822354
Si       1.91979491       3.83958982      13.35750000  F        5       0.00000000       0.00000000      -0.52822354
Si       5.75938473       3.83958982      13.35750000  F        5       0.00000000       0.00000000      -0.52822354
Si       9.59897455       3.83958982      13.35750000  F        5       0.00000003       0.00000000      -0.52822356
Si       1.91979491       1.91979491      14.71500000  F        4      -0.00000000       0.00000000       0.14537709
Si       5.75938473       1.91979491      14.71500000  F        4       0.00000000       0.00000000       0.14537709
Si       9.59897455       1.91979491      14.71500000  F        4       0.00000004       0.00000000       0.14537711
Si       1.91979491       5.75938473      14.71500000  F        4      -0.00000000       0.00000002       0.14537707
Si       5.75938473       5.75938473      14.71500000  F        4       0.00000000       0.00000002       0.14537707
Si       9.59897455       5.75938473      14.71500000  F        4       0.00000004       0.00000002       0.14537709
Si       0.00000000       1.91979491      16.07250000  F        3      -0.00000004       0.00000000      -0.14537711
Si       3.83958982       1.91979491      16.07250000  F        3      -0.00000000       0.00000000      -0.14537709
Si       7.67917964       1.91979491      16.07250000  F        3       0.00000000       0.00000000      -0.14537709
Si       0.00000000       5.75938473      16.07250000  F        3      -0.00000004       0.00000002      -0.14537709
Si       3.83958982       5.75938473      16.07250000  F        3      -0.00000000       0.00000002      -0.14537707
Si       7.67917964       5.75938473      16.07250000  F        3       0.00000000       0.00000002      -0.14537707
Si       0.00000000       0.00000000      17.43000000  F        2      -0.00000003      -0.00000002       0.52822354
Si       3.83958982       0.00000000      17.43000000  F        2      -0.00000000      -0.00000002       0.52822353
Si       7.67917964       0.00000000      17.43000000  F        2      -0.00000000      -0.00000002       0.52822352
Si       0.00000000       3.83958982      17.43000000  F        2      -0.00000003       0.00000000       0.52822356
Si       3.83958982       3.83958982      17.43000000  F        2      -0.00000000       0.00000000       0.52822354
Si       7.67917964       3.83958982      17.43000000  F        2      -0.00000000       0.00000000       0.52822354
Si       1.91979491       0.00000000      18.78750000  F        1      -0.00000000       0.00000000      -0.24903482
Si       5.75938473       0.00000000      18.78750000  F        1       0.00000000       0.00000000      -0.24903482
Si       9.59897455       0.00000000      18.78750000  F        1       0.00000004       0.00000000      -0.24903484
Si       1.91979491       3.83958982      18.78750000  F        1      -0.00000000      -0.00000000      -0.24903482
Si       5.75938473       3.83958982      18.78750000  F        1       0.00000000      -0.00000000      -0.24903482
Si       9.59897455       3.83958982      18.78750000  F        1       0.00000004      -0.00000000      -0.24903484
Si       7.67917964       3.83958982      26.86950185  T        0       0.00000017       0.00000000      -0.00000004
F        7.67917964       3.83958982      25.28750000  T        0      -0.00000000       0.00000000      -0.00049033
F        9.17070529       3.83958982      27.39683580  T        0       0.00046224      -0.00000000       0.00016342
F        6.93341682       5.13128892      27.39683580  T        0      -0.00023120       0.00040043       0.00016348
F        6.93341682       2.54789072      27.39683580  T        0      -0.00023120      -0.00040043       0.00016348
41
Lattice="11.518769465528859 0.0 0.0 0.0 7.679179643685906 0.0 0.0 0.0 30.7875" Properties=species:S:1:pos:R:3:move_mask:L:1:tags:I:1:forces:R:3 surface=Si100 species=SiF4 site=bridge_Si_Si orientation=upright height_A=5.0 substrate_atoms=36 calculation_kind="Rigid evaluated approach scan; not NEB" energy=-208.21619064940802 pbc="T T F"
Si       0.00000000       0.00000000      12.00000000  F        6      -0.00000004       0.00000000       0.24903484
Si       3.83958982       0.00000000      12.00000000  F        6      -0.00000000       0.00000000       0.24903482
Si       7.67917964       0.00000000      12.00000000  F        6       0.00000000       0.00000000       0.24903482
Si       0.00000000       3.83958982      12.00000000  F        6      -0.00000004      -0.00000000       0.24903484
Si       3.83958982       3.83958982      12.00000000  F        6      -0.00000000      -0.00000000       0.24903482
Si       7.67917964       3.83958982      12.00000000  F        6       0.00000000      -0.00000000       0.24903482
Si       1.91979491       0.00000000      13.35750000  F        5       0.00000000      -0.00000002      -0.52822352
Si       5.75938473       0.00000000      13.35750000  F        5       0.00000000      -0.00000002      -0.52822353
Si       9.59897455       0.00000000      13.35750000  F        5       0.00000003      -0.00000002      -0.52822354
Si       1.91979491       3.83958982      13.35750000  F        5       0.00000000       0.00000000      -0.52822354
Si       5.75938473       3.83958982      13.35750000  F        5       0.00000000       0.00000000      -0.52822354
Si       9.59897455       3.83958982      13.35750000  F        5       0.00000003       0.00000000      -0.52822356
Si       1.91979491       1.91979491      14.71500000  F        4      -0.00000000       0.00000000       0.14537709
Si       5.75938473       1.91979491      14.71500000  F        4       0.00000000       0.00000000       0.14537709
Si       9.59897455       1.91979491      14.71500000  F        4       0.00000004       0.00000000       0.14537711
Si       1.91979491       5.75938473      14.71500000  F        4      -0.00000000       0.00000002       0.14537707
Si       5.75938473       5.75938473      14.71500000  F        4       0.00000000       0.00000002       0.14537707
Si       9.59897455       5.75938473      14.71500000  F        4       0.00000004       0.00000002       0.14537709
Si       0.00000000       1.91979491      16.07250000  F        3      -0.00000004       0.00000000      -0.14537711
Si       3.83958982       1.91979491      16.07250000  F        3      -0.00000000       0.00000000      -0.14537709
Si       7.67917964       1.91979491      16.07250000  F        3       0.00000000       0.00000000      -0.14537709
Si       0.00000000       5.75938473      16.07250000  F        3      -0.00000004       0.00000002      -0.14537709
Si       3.83958982       5.75938473      16.07250000  F        3      -0.00000000       0.00000002      -0.14537707
Si       7.67917964       5.75938473      16.07250000  F        3       0.00000000       0.00000002      -0.14537707
Si       0.00000000       0.00000000      17.43000000  F        2      -0.00000003      -0.00000002       0.52822354
Si       3.83958982       0.00000000      17.43000000  F        2      -0.00000000      -0.00000002       0.52822353
Si       7.67917964       0.00000000      17.43000000  F        2      -0.00000000      -0.00000002       0.52822352
Si       0.00000000       3.83958982      17.43000000  F        2      -0.00000003       0.00000000       0.52822356
Si       3.83958982       3.83958982      17.43000000  F        2      -0.00000000       0.00000000       0.52822354
Si       7.67917964       3.83958982      17.43000000  F        2      -0.00000000       0.00000000       0.52822354
Si       1.91979491       0.00000000      18.78750000  F        1      -0.00000000       0.00000000      -0.24903482
Si       5.75938473       0.00000000      18.78750000  F        1       0.00000000       0.00000000      -0.24903482
Si       9.59897455       0.00000000      18.78750000  F        1       0.00000004       0.00000000      -0.24903484
Si       1.91979491       3.83958982      18.78750000  F        1      -0.00000000      -0.00000000      -0.24903482
Si       5.75938473       3.83958982      18.78750000  F        1       0.00000000      -0.00000000      -0.24903482
Si       9.59897455       3.83958982      18.78750000  F        1       0.00000004      -0.00000000      -0.24903484
Si       7.67917964       3.83958982      25.36950185  T        0       0.00000017       0.00000000      -0.00000004
F        7.67917964       3.83958982      23.78750000  T        0      -0.00000000       0.00000000      -0.00049033
F        9.17070529       3.83958982      25.89683580  T        0       0.00046224      -0.00000000       0.00016342
F        6.93341682       5.13128892      25.89683580  T        0      -0.00023120       0.00040043       0.00016348
F        6.93341682       2.54789072      25.89683580  T        0      -0.00023120      -0.00040043       0.00016348
41
Lattice="11.518769465528859 0.0 0.0 0.0 7.679179643685906 0.0 0.0 0.0 30.7875" Properties=species:S:1:pos:R:3:move_mask:L:1:tags:I:1:forces:R:3 surface=Si100 species=SiF4 site=bridge_Si_Si orientation=upright height_A=4.0 substrate_atoms=36 calculation_kind="Rigid evaluated approach scan; not NEB" energy=-208.26152494337063 pbc="T T F"
Si       0.00000000       0.00000000      12.00000000  F        6       0.00004863       0.00000000       0.24960073
Si       3.83958982       0.00000000      12.00000000  F        6      -0.00004867       0.00000000       0.24960071
Si       7.67917964       0.00000000      12.00000000  F        6       0.00000000       0.00000000       0.24984785
Si       0.00000000       3.83958982      12.00000000  F        6       0.00017969      -0.00000000       0.24913442
Si       3.83958982       3.83958982      12.00000000  F        6      -0.00017972      -0.00000000       0.24913440
Si       7.67917964       3.83958982      12.00000000  F        6       0.00000000      -0.00000000       0.24908645
Si       1.91979491       0.00000000      13.35750000  F        5       0.00000000      -0.00000002      -0.52722913
Si       5.75938473       0.00000000      13.35750000  F        5       0.00028269      -0.00000002      -0.52785781
Si       9.59897455       0.00000000      13.35750000  F        5      -0.00028266      -0.00000002      -0.52785783
Si       1.91979491       3.83958982      13.35750000  F        5       0.00000000       0.00000000      -0.52706707
Si       5.75938473       3.83958982      13.35750000  F        5      -0.00015216       0.00000000      -0.52723610
Si       9.59897455       3.83958982      13.35750000  F        5       0.00015220       0.00000000      -0.52723612
Si       1.91979491       1.91979491      14.71500000  F        4      -0.00000000      -0.00041094       0.14704868
Si       5.75938473       1.91979491      14.71500000  F        4       0.00188273      -0.00107843       0.14514410
Si       9.59897455       1.91979491      14.71500000  F        4      -0.00188258      -0.00107725       0.14514658
Si       1.91979491       5.75938473      14.71500000  F        4      -0.00000000       0.00041096       0.14704866
Si       5.75938473       5.75938473      14.71500000  F        4       0.00188273       0.00107845       0.14514409
Si       9.59897455       5.75938473      14.71500000  F        4      -0.00188258       0.00107728       0.14514656
Si       0.00000000       1.91979491      16.07250000  F        3      -0.00102491       0.00379327      -0.14159768
Si       3.83958982       1.91979491      16.07250000  F        3       0.00102492       0.00379142      -0.14160029
Si       7.67917964       1.91979491      16.07250000  F        3       0.00000007       0.00639400      -0.14560714
Si       0.00000000       5.75938473      16.07250000  F        3      -0.00102491      -0.00379325      -0.14159767
Si       3.83958982       5.75938473      16.07250000  F        3       0.00102492      -0.00379140      -0.14160028
Si       7.67917964       5.75938473      16.07250000  F        3       0.00000007      -0.00639398      -0.14560712
Si       0.00000000       0.00000000      17.43000000  F        2      -0.00133665      -0.00000002       0.52813984
Si       3.83958982       0.00000000      17.43000000  F        2       0.00133540      -0.00000002       0.52813964
Si       7.67917964       0.00000000      17.43000000  F        2       0.00000118      -0.00000002       0.53032498
Si       0.00000000       3.83958982      17.43000000  F        2       0.00864025       0.00000000       0.52674455
Si       3.83958982       3.83958982      17.43000000  F        2      -0.00861990       0.00000000       0.52676101
Si       7.67917964       3.83958982      17.43000000  F        2      -0.00002114       0.00000000       0.53059814
Si       1.91979491       0.00000000      18.78750000  F        1      -0.00000000       0.00000000      -0.24865024
Si       5.75938473       0.00000000      18.78750000  F        1      -0.00073400       0.00000000      -0.25110536
Si       9.59897455       0.00000000      18.78750000  F        1       0.00073404       0.00000000      -0.25110904
Si       1.91979491       3.83958982      18.78750000  F        1       0.00000257      -0.00000000      -0.25153989
Si       5.75938473       3.83958982      18.78750000  F        1       0.05197212      -0.00000000      -0.18800826
Si       9.59897455       3.83958982      18.78750000  F        1      -0.05191784      -0.00000000      -0.18776556
Si       7.67917964       3.83958982      24.36950185  T        0       0.00175511       0.00000000      -0.17219827
F        7.67917964       3.83958982      22.78750000  T        0       0.00017471       0.00000000      -0.06738076
F        9.17070529       3.83958982      24.89683580  T        0       0.02313997       0.00000000       0.03177483
F        6.93341682       5.13128892      24.89683580  T        0      -0.01256314       0.02304046       0.03314268
F        6.93341682       2.54789072      24.89683580  T        0      -0.01256314      -0.02304046       0.03314268
41
Lattice="11.518769465528859 0.0 0.0 0.0 7.679179643685906 0.0 0.0 0.0 30.7875" Properties=species:S:1:pos:R:3:move_mask:L:1:tags:I:1:forces:R:3 surface=Si100 species=SiF4 site=bridge_Si_Si orientation=upright height_A=3.25 substrate_atoms=36 calculation_kind="Rigid evaluated approach scan; not NEB" energy=-208.4020311824786 pbc="T T F"
Si       0.00000000       0.00000000      12.00000000  F        6       0.00036846       0.00000000       0.25031731
Si       3.83958982       0.00000000      12.00000000  F        6      -0.00036849       0.00000000       0.25031729
Si       7.67917964       0.00000000      12.00000000  F        6       0.00000000       0.00000000       0.25077210
Si       0.00000000       3.83958982      12.00000000  F        6       0.00067965      -0.00000000       0.24843094
Si       3.83958982       3.83958982      12.00000000  F        6      -0.00067969      -0.00000000       0.24843093
Si       7.67917964       3.83958982      12.00000000  F        6       0.00000000      -0.00000000       0.24783740
Si       1.91979491       0.00000000      13.35750000  F        5       0.00000000      -0.00000002      -0.52645382
Si       5.75938473       0.00000000      13.35750000  F        5       0.00040583      -0.00000002      -0.52857148
Si       9.59897455       0.00000000      13.35750000  F        5      -0.00040580      -0.00000002      -0.52857150
Si       1.91979491       3.83958982      13.35750000  F        5       0.00000000       0.00000000      -0.52546717
Si       5.75938473       3.83958982      13.35750000  F        5      -0.00072381       0.00000000      -0.52729564
Si       9.59897455       3.83958982      13.35750000  F        5       0.00072384       0.00000000      -0.52729566
Si       1.91979491       1.91979491      14.71500000  F        4      -0.00000000      -0.00279774       0.14748760
Si       5.75938473       1.91979491      14.71500000  F        4       0.00389125      -0.00284583       0.15044568
Si       9.59897455       1.91979491      14.71500000  F        4      -0.00389006      -0.00285584       0.15042093
Si       1.91979491       5.75938473      14.71500000  F        4      -0.00000000       0.00279776       0.14748759
Si       5.75938473       5.75938473      14.71500000  F        4       0.00389125       0.00284585       0.15044566
Si       9.59897455       5.75938473      14.71500000  F        4      -0.00389006       0.00285586       0.15042091
Si       0.00000000       1.91979491      16.07250000  F        3      -0.00319201       0.01679332      -0.13515452
Si       3.83958982       1.91979491      16.07250000  F        3       0.00319836       0.01678762      -0.13516055
Si       7.67917964       1.91979491      16.07250000  F        3      -0.00000505       0.01690020      -0.14603741
Si       0.00000000       5.75938473      16.07250000  F        3      -0.00319201      -0.01679330      -0.13515451
Si       3.83958982       5.75938473      16.07250000  F        3       0.00319836      -0.01678760      -0.13516053
Si       7.67917964       5.75938473      16.07250000  F        3      -0.00000505      -0.01690018      -0.14603740
Si       0.00000000       0.00000000      17.43000000  F        2      -0.00142861      -0.00000002       0.52140571
Si       3.83958982       0.00000000      17.43000000  F        2       0.00144739      -0.00000002       0.52141394
Si       7.67917964       0.00000000      17.43000000  F        2      -0.00002156      -0.00000002       0.52205785
Si       0.00000000       3.83958982      17.43000000  F        2      -0.00798064       0.00000000       0.52409799
Si       3.83958982       3.83958982      17.43000000  F        2       0.00791190       0.00000000       0.52406731
Si       7.67917964       3.83958982      17.43000000  F        2       0.00004646       0.00000000       0.52149452
Si       1.91979491       0.00000000      18.78750000  F        1      -0.00000000       0.00000000      -0.24458466
Si       5.75938473       0.00000000      18.78750000  F        1      -0.00008496       0.00000000      -0.24283107
Si       9.59897455       0.00000000      18.78750000  F        1       0.00008562       0.00000000      -0.24281671
Si       1.91979491       3.83958982      18.78750000  F        1       0.00000138      -0.00000000      -0.25364294
Si       5.75938473       3.83958982      18.78750000  F        1       0.04432736      -0.00000000      -0.19682923
Si       9.59897455       3.83958982      18.78750000  F        1      -0.04441835      -0.00000000      -0.19684367
Si       7.67917964       3.83958982      23.61950185  T        0       0.00414817       0.00000000      -0.14214969
F        7.67917964       3.83958982      22.03750000  T        0       0.00255340       0.00000000      -0.10397671
F        9.17070529       3.83958982      24.14683580  T        0       0.01743184      -0.00000000       0.02778285
F        6.93341682       5.13128892      24.14683580  T        0      -0.01201218       0.01953110       0.03245018
F        6.93341682       2.54789072      24.14683580  T        0      -0.01201218      -0.01953110       0.03245018
41
Lattice="11.518769465528859 0.0 0.0 0.0 7.679179643685906 0.0 0.0 0.0 30.7875" Properties=species:S:1:pos:R:3:move_mask:L:1:tags:I:1:forces:R:3 surface=Si100 species=SiF4 site=bridge_Si_Si orientation=upright height_A=2.75 substrate_atoms=36 calculation_kind="Rigid evaluated approach scan; not NEB" energy=-208.45445408461 pbc="T T F"
Si       0.00000000       0.00000000      12.00000000  F        6       0.00054107       0.00000000       0.25004939
Si       3.83958982       0.00000000      12.00000000  F        6      -0.00054164       0.00000000       0.25004586
Si       7.67917964       0.00000000      12.00000000  F        6       0.00000053       0.00000000       0.24990465
Si       0.00000000       3.83958982      12.00000000  F        6       0.00064405      -0.00000000       0.24839410
Si       3.83958982       3.83958982      12.00000000  F        6      -0.00064327      -0.00000000       0.24839194
Si       7.67917964       3.83958982      12.00000000  F        6      -0.00000082      -0.00000000       0.24728625
Si       1.91979491       0.00000000      13.35750000  F        5      -0.00000499      -0.00000002      -0.52718568
Si       5.75938473       0.00000000      13.35750000  F        5      -0.00034619      -0.00000002      -0.52933988
Si       9.59897455       0.00000000      13.35750000  F        5       0.00035121      -0.00000002      -0.52934896
Si       1.91979491       3.83958982      13.35750000  F        5      -0.00000729       0.00000000      -0.52790046
Si       5.75938473       3.83958982      13.35750000  F        5      -0.00001855       0.00000000      -0.52695866
Si       9.59897455       3.83958982      13.35750000  F        5       0.00002577       0.00000000      -0.52694282
Si       1.91979491       1.91979491      14.71500000  F        4      -0.00001038      -0.00225269       0.14731580
Si       5.75938473       1.91979491      14.71500000  F        4       0.00856573      -0.00127524       0.15724027
Si       9.59897455       1.91979491      14.71500000  F        4      -0.00855466      -0.00131913       0.15709083
Si       1.91979491       5.75938473      14.71500000  F        4      -0.00001038       0.00225271       0.14731579
Si       5.75938473       5.75938473      14.71500000  F        4       0.00856573       0.00127526       0.15724025
Si       9.59897455       5.75938473      14.71500000  F        4      -0.00855466       0.00131915       0.15709082
Si       0.00000000       1.91979491      16.07250000  F        3      -0.00536865       0.02292009      -0.12962858
Si       3.83958982       1.91979491      16.07250000  F        3       0.00541822       0.02286216      -0.12968402
Si       7.67917964       1.91979491      16.07250000  F        3      -0.00003297       0.02759570      -0.13272994
Si       0.00000000       5.75938473      16.07250000  F        3      -0.00536865      -0.02292007      -0.12962857
Si       3.83958982       5.75938473      16.07250000  F        3       0.00541822      -0.02286214      -0.12968400
Si       7.67917964       5.75938473      16.07250000  F        3      -0.00003297      -0.02759567      -0.13272992
Si       0.00000000       0.00000000      17.43000000  F        2       0.00055753      -0.00000002       0.52421797
Si       3.83958982       0.00000000      17.43000000  F        2      -0.00053048      -0.00000002       0.52417639
Si       7.67917964       0.00000000      17.43000000  F        2      -0.00003819      -0.00000002       0.50852450
Si       0.00000000       3.83958982      17.43000000  F        2      -0.01463783       0.00000000       0.49742480
Si       3.83958982       3.83958982      17.43000000  F        2       0.01425002       0.00000000       0.49708094
Si       7.67917964       3.83958982      17.43000000  F        2       0.00059802       0.00000000       0.57980986
Si       1.91979491       0.00000000      18.78750000  F        1      -0.00000174       0.00000000      -0.24712172
Si       5.75938473       0.00000000      18.78750000  F        1       0.00140806       0.00000000      -0.24685799
Si       9.59897455       0.00000000      18.78750000  F        1      -0.00139252       0.00000000      -0.24688749
Si       1.91979491       3.83958982      18.78750000  F        1      -0.00007660      -0.00000000      -0.25498704
Si       5.75938473       3.83958982      18.78750000  F        1      -0.03477096      -0.00000000      -0.28438087
Si       9.59897455       3.83958982      18.78750000  F        1       0.03279355      -0.00000000      -0.26687181
Si       7.67917964       3.83958982      23.11950185  T        0       0.00125704       0.00000000      -0.03476368
F        7.67917964       3.83958982      21.53750000  T        0       0.00167748       0.00000000      -0.04725915
F        9.17070529       3.83958982      23.64683580  T        0       0.01404558       0.00000000      -0.00298115
F        6.93341682       5.13128892      23.64683580  T        0      -0.00758672       0.01586425       0.01763598
F        6.93341682       2.54789072      23.64683580  T        0      -0.00758672      -0.01586425       0.01763598
41
Lattice="11.518769465528859 0.0 0.0 0.0 7.679179643685906 0.0 0.0 0.0 30.7875" Properties=species:S:1:pos:R:3:move_mask:L:1:tags:I:1:forces:R:3 surface=Si100 species=SiF4 site=bridge_Si_Si orientation=upright height_A=2.25 substrate_atoms=36 calculation_kind="Rigid evaluated approach scan; not NEB" energy=-208.48355349730394 pbc="T T F"
Si       0.00000000       0.00000000      12.00000000  F        6       0.00127398       0.00000000       0.24972693
Si       3.83958982       0.00000000      12.00000000  F        6      -0.00131112       0.00000000       0.24965642
Si       7.67917964       0.00000000      12.00000000  F        6       0.00003692       0.00000000       0.24826397
Si       0.00000000       3.83958982      12.00000000  F        6       0.00069434      -0.00000000       0.24842171
Si       3.83958982       3.83958982      12.00000000  F        6      -0.00073713      -0.00000000       0.24832300
Si       7.67917964       3.83958982      12.00000000  F        6       0.00004271      -0.00000000       0.24659640
Si       1.91979491       0.00000000      13.35750000  F        5      -0.00010135      -0.00000002      -0.52718871
Si       5.75938473       0.00000000      13.35750000  F        5      -0.00135264      -0.00000002      -0.52999963
Si       9.59897455       0.00000000      13.35750000  F        5       0.00145536      -0.00000002      -0.53007912
Si       1.91979491       3.83958982      13.35750000  F        5      -0.00015184       0.00000000      -0.53376637
Si       5.75938473       3.83958982      13.35750000  F        5       0.00632250       0.00000000      -0.51878548
Si       9.59897455       3.83958982      13.35750000  F        5      -0.00617726       0.00000000      -0.51849212
Si       1.91979491       1.91979491      14.71500000  F        4      -0.00038254       0.00294239       0.15226105
Si       5.75938473       1.91979491      14.71500000  F        4       0.01799844       0.00632272       0.16780211
Si       9.59897455       1.91979491      14.71500000  F        4      -0.01757561       0.00570254       0.16513457
Si       1.91979491       5.75938473      14.71500000  F        4      -0.00038254      -0.00294237       0.15226104
Si       5.75938473       5.75938473      14.71500000  F        4       0.01799844      -0.00632270       0.16780210
Si       9.59897455       5.75938473      14.71500000  F        4      -0.01757561      -0.00570252       0.16513455
Si       0.00000000       1.91979491      16.07250000  F        3      -0.00990456       0.02733060      -0.12081859
Si       3.83958982       1.91979491      16.07250000  F        3       0.01081129       0.02529345      -0.12180563
Si       7.67917964       1.91979491      16.07250000  F        3      -0.00030999       0.03134918      -0.13332900
Si       0.00000000       5.75938473      16.07250000  F        3      -0.00990456      -0.02733057      -0.12081858
Si       3.83958982       5.75938473      16.07250000  F        3       0.01081129      -0.02529343      -0.12180562
Si       7.67917964       5.75938473      16.07250000  F        3      -0.00030999      -0.03134916      -0.13332899
Si       0.00000000       0.00000000      17.43000000  F        2       0.00075230      -0.00000002       0.53622745
Si       3.83958982       0.00000000      17.43000000  F        2      -0.00169324      -0.00000002       0.53432556
Si       7.67917964       0.00000000      17.43000000  F        2       0.00093730      -0.00000002       0.49426891
Si       0.00000000       3.83958982      17.43000000  F        2       0.08784764       0.00000000       0.36094502
Si       3.83958982       3.83958982      17.43000000  F        2      -0.08962822       0.00000000       0.35917457
Si       7.67917964       3.83958982      17.43000000  F        2       0.00488034       0.00000000       0.52757158
Si       1.91979491       0.00000000      18.78750000  F        1      -0.00012531       0.00000000      -0.25490784
Si       5.75938473       0.00000000      18.78750000  F        1       0.01659592       0.00000000      -0.24086403
Si       9.59897455       0.00000000      18.78750000  F        1      -0.01623602       0.00000000      -0.24252665
Si       1.91979491       3.83958982      18.78750000  F        1       0.00008267      -0.00000000      -0.21311217
Si       5.75938473       3.83958982      18.78750000  F        1       0.02753015      -0.00000000      -0.16238176
Si       9.59897455       3.83958982      18.78750000  F        1      -0.00880410      -0.00000000      -0.20625200
Si       7.67917964       3.83958982      22.61950185  T        0       0.00689353       0.00000000       0.10834373
F        7.67917964       3.83958982      21.03750000  T        0      -0.00154419      -0.00000000       0.13949292
F        9.17070529       3.83958982      23.14683580  T        0       0.00658442      -0.00000000      -0.11531155
F        6.93341682       5.13128892      23.14683580  T        0      -0.01767087      -0.01072740      -0.08807987
F        6.93341682       2.54789072      23.14683580  T        0      -0.01767087       0.01072740      -0.08807987
41
Lattice="11.518769465528859 0.0 0.0 0.0 7.679179643685906 0.0 0.0 0.0 30.7875" Properties=species:S:1:pos:R:3:move_mask:L:1:tags:I:1:forces:R:3 surface=Si100 species=SiF4 site=bridge_Si_Si orientation=upright height_A=1.9 substrate_atoms=36 calculation_kind="Rigid evaluated approach scan; not NEB" energy=-208.40189827659842 pbc="T T F"
Si       0.00000000       0.00000000      12.00000000  F        6       0.00211189       0.00000000       0.24855111
Si       3.83958982       0.00000000      12.00000000  F        6      -0.00203833       0.00000000       0.24867965
Si       7.67917964       0.00000000      12.00000000  F        6      -0.00007330       0.00000000       0.24619924
Si       0.00000000       3.83958982      12.00000000  F        6       0.00109560      -0.00000000       0.24627023
Si       3.83958982       3.83958982      12.00000000  F        6      -0.00098100      -0.00000000       0.24651506
Si       7.67917964       3.83958982      12.00000000  F        6      -0.00011463      -0.00000000       0.24437462
Si       1.91979491       0.00000000      13.35750000  F        5       0.00003722      -0.00000002      -0.52697209
Si       5.75938473       0.00000000      13.35750000  F        5      -0.00265511      -0.00000002      -0.53154503
Si       9.59897455       0.00000000      13.35750000  F        5       0.00261390      -0.00000002      -0.53207836
Si       1.91979491       3.83958982      13.35750000  F        5       0.00012287       0.00000000      -0.53364305
Si       5.75938473       3.83958982      13.35750000  F        5       0.01280386       0.00000000      -0.50659258
Si       9.59897455       3.83958982      13.35750000  F        5      -0.01293113       0.00000000      -0.50708899
Si       1.91979491       1.91979491      14.71500000  F        4       0.00000772       0.00839400       0.15553236
Si       5.75938473       1.91979491      14.71500000  F        4       0.02479224       0.01220423       0.17456154
Si       9.59897455       1.91979491      14.71500000  F        4      -0.02425151       0.01368000       0.17885051
Si       1.91979491       5.75938473      14.71500000  F        4       0.00000772      -0.00839398       0.15553235
Si       5.75938473       5.75938473      14.71500000  F        4       0.02479224      -0.01220421       0.17456153
Si       9.59897455       5.75938473      14.71500000  F        4      -0.02425151      -0.01367998       0.17885050
Si       0.00000000       1.91979491      16.07250000  F        3      -0.01761155       0.03425409      -0.11875024
Si       3.83958982       1.91979491      16.07250000  F        3       0.01781353       0.03359362      -0.11645069
Si       7.67917964       1.91979491      16.07250000  F        3       0.00164440       0.02088268      -0.14903909
Si       0.00000000       5.75938473      16.07250000  F        3      -0.01761155      -0.03425407      -0.11875023
Si       3.83958982       5.75938473      16.07250000  F        3       0.01781353      -0.03359360      -0.11645068
Si       7.67917964       5.75938473      16.07250000  F        3       0.00164440      -0.02088266      -0.14903907
Si       0.00000000       0.00000000      17.43000000  F        2      -0.00660295      -0.00000002       0.54756846
Si       3.83958982       0.00000000      17.43000000  F        2       0.00446098      -0.00000002       0.54776249
Si       7.67917964       0.00000000      17.43000000  F        2       0.00114532      -0.00000002       0.48439955
Si       0.00000000       3.83958982      17.43000000  F        2       0.19762052       0.00000000       0.21516748
Si       3.83958982       3.83958982      17.43000000  F        2      -0.20656354       0.00000000       0.21843681
Si       7.67917964       3.83958982      17.43000000  F        2      -0.00922423       0.00000000       0.49413300
Si       1.91979491       0.00000000      18.78750000  F        1      -0.00026836       0.00000000      -0.26138277
Si       5.75938473       0.00000000      18.78750000  F        1       0.05733697       0.00000000      -0.19218520
Si       9.59897455       0.00000000      18.78750000  F        1      -0.05233910       0.00000000      -0.20722281
Si       1.91979491       3.83958982      18.78750000  F        1       0.00237849      -0.00000000      -0.14789517
Si       5.75938473       3.83958982      18.78750000  F        1      -0.15158160      -0.00000000      -0.37848020
Si       9.59897455       3.83958982      18.78750000  F        1       0.21438630      -0.00000000      -0.48194860
Si       7.67917964       3.83958982      22.26950185  T        0      -0.01671966      -0.00000000       0.53435608
F        7.67917964       3.83958982      20.68750000  T        0       0.00173641      -0.00000000       0.48262383
F        9.17070529       3.83958982      22.79683580  T        0      -0.00355100      -0.00000000      -0.12719599
F        6.93341682       5.13128892      22.79683580  T        0      -0.01849802      -0.02721178      -0.16010777
F        6.93341682       2.54789072      22.79683580  T        0      -0.01849802       0.02721178      -0.16010777
41
Lattice="11.518769465528859 0.0 0.0 0.0 7.679179643685906 0.0 0.0 0.0 30.7875" Properties=species:S:1:pos:R:3:move_mask:L:1:tags:I:1:forces:R:3 surface=Si100 species=SiF4 site=bridge_Si_Si orientation=upright height_A=1.6 substrate_atoms=36 calculation_kind="Rigid evaluated approach scan; not NEB" energy=-208.18248273409162 pbc="T T F"
Si       0.00000000       0.00000000      12.00000000  F        6       0.00278418       0.00000000       0.24948736
Si       3.83958982       0.00000000      12.00000000  F        6      -0.00274702       0.00000000       0.24962724
Si       7.67917964       0.00000000      12.00000000  F        6      -0.00003676       0.00000000       0.24454434
Si       0.00000000       3.83958982      12.00000000  F        6       0.00231689      -0.00000000       0.24362647
Si       3.83958982       3.83958982      12.00000000  F        6      -0.00218323      -0.00000000       0.24388213
Si       7.67917964       3.83958982      12.00000000  F        6      -0.00013380      -0.00000000       0.23984935
Si       1.91979491       0.00000000      13.35750000  F        5       0.00027245      -0.00000002      -0.52592750
Si       5.75938473       0.00000000      13.35750000  F        5      -0.00382733      -0.00000002      -0.53321339
Si       9.59897455       0.00000000      13.35750000  F        5       0.00355409      -0.00000002      -0.53411746
Si       1.91979491       3.83958982      13.35750000  F        5       0.00030150       0.00000000      -0.53108011
Si       5.75938473       3.83958982      13.35750000  F        5       0.01103698       0.00000000      -0.50517513
Si       9.59897455       3.83958982      13.35750000  F        5      -0.01136012       0.00000000      -0.50558227
Si       1.91979491       1.91979491      14.71500000  F        4       0.00067109       0.00848530       0.15514027
Si       5.75938473       1.91979491      14.71500000  F        4       0.02957442       0.01390177       0.19132799
Si       9.59897455       1.91979491      14.71500000  F        4      -0.02962096       0.01539818       0.19759032
Si       1.91979491       5.75938473      14.71500000  F        4       0.00067109      -0.00848527       0.15514026
Si       5.75938473       5.75938473      14.71500000  F        4       0.02957442      -0.01390174       0.19132798
Si       9.59897455       5.75938473      14.71500000  F        4      -0.02962096      -0.01539816       0.19759030
Si       0.00000000       1.91979491      16.07250000  F        3      -0.03310710       0.04966609      -0.11483005
Si       3.83958982       1.91979491      16.07250000  F        3       0.03477096       0.04782176      -0.11023619
Si       7.67917964       1.91979491      16.07250000  F        3       0.00252221       0.00278144      -0.17584701
Si       0.00000000       5.75938473      16.07250000  F        3      -0.03310710      -0.04966606      -0.11483004
Si       3.83958982       5.75938473      16.07250000  F        3       0.03477096      -0.04782174      -0.11023617
Si       7.67917964       5.75938473      16.07250000  F        3       0.00252221      -0.00278141      -0.17584699
Si       0.00000000       0.00000000      17.43000000  F        2      -0.00990103      -0.00000002       0.54284940
Si       3.83958982       0.00000000      17.43000000  F        2       0.01062522      -0.00000002       0.54503802
Si       7.67917964       0.00000000      17.43000000  F        2      -0.00384051      -0.00000002       0.46972432
Si       0.00000000       3.83958982      17.43000000  F        2       0.25848432       0.00000000       0.14635104
Si       3.83958982       3.83958982      17.43000000  F        2      -0.27380581       0.00000000       0.14570169
Si       7.67917964       3.83958982      17.43000000  F        2       0.01258777       0.00000000       0.42020682
Si       1.91979491       0.00000000      18.78750000  F        1       0.00284279       0.00000000      -0.25702000
Si       5.75938473       0.00000000      18.78750000  F        1       0.09931212       0.00000000      -0.10579555
Si       9.59897455       0.00000000      18.78750000  F        1      -0.07044343       0.00000000      -0.18536738
Si       1.91979491       3.83958982      18.78750000  F        1       0.00086702      -0.00000000      -0.09894703
Si       5.75938473       3.83958982      18.78750000  F        1      -0.33535578      -0.00000000      -0.49109769
Si       9.59897455       3.83958982      18.78750000  F        1       0.33326595      -0.00000000      -0.58248989
Si       7.67917964       3.83958982      21.96950185  T        0      -0.02770319      -0.00000000       0.96051860
F        7.67917964       3.83958982      20.38750000  T        0       0.01595971      -0.00000000       0.42315328
F        9.17070529       3.83958982      22.49683580  T        0       0.05536855      -0.00000000      -0.08896644
F        6.93341682       5.13128892      22.49683580  T        0      -0.03893138       0.03909672      -0.23303545
F        6.93341682       2.54789072      22.49683580  T        0      -0.03893138      -0.03909672      -0.23303545
41
Lattice="11.518769465528859 0.0 0.0 0.0 7.679179643685906 0.0 0.0 0.0 30.7875" Properties=species:S:1:pos:R:3:move_mask:L:1:tags:I:1:forces:R:3 surface=Si100 species=SiF4 site=bridge_Si_Si orientation=upright height_A=1.3 substrate_atoms=36 calculation_kind="Rigid evaluated approach scan; not NEB" energy=-207.88287965337452 pbc="T T F"
Si       0.00000000       0.00000000      12.00000000  F        6       0.00323507       0.00000000       0.25248891
Si       3.83958982       0.00000000      12.00000000  F        6      -0.00324751       0.00000000       0.25294396
Si       7.67917964       0.00000000      12.00000000  F        6       0.00000977       0.00000000       0.24056920
Si       0.00000000       3.83958982      12.00000000  F        6       0.00474899      -0.00000000       0.24095448
Si       3.83958982       3.83958982      12.00000000  F        6      -0.00470753      -0.00000000       0.24145799
Si       7.67917964       3.83958982      12.00000000  F        6      -0.00004227      -0.00000000       0.23514786
Si       1.91979491       0.00000000      13.35750000  F        5       0.00033875      -0.00000002      -0.52215657
Si       5.75938473       0.00000000      13.35750000  F        5      -0.00292479      -0.00000002      -0.52985930
Si       9.59897455       0.00000000      13.35750000  F        5       0.00256260      -0.00000002      -0.53101947
Si       1.91979491       3.83958982      13.35750000  F        5       0.00048416       0.00000000      -0.52547626
Si       5.75938473       3.83958982      13.35750000  F        5       0.00007459       0.00000000      -0.51465725
Si       9.59897455       3.83958982      13.35750000  F        5      -0.00056055       0.00000000      -0.51473423
Si       1.91979491       1.91979491      14.71500000  F        4       0.00199372       0.00053233       0.15183179
Si       5.75938473       1.91979491      14.71500000  F        4       0.03370940       0.01126531       0.21244391
Si       9.59897455       1.91979491      14.71500000  F        4      -0.03492389       0.01080166       0.21968867
Si       1.91979491       5.75938473      14.71500000  F        4       0.00199372      -0.00053230       0.15183178
Si       5.75938473       5.75938473      14.71500000  F        4       0.03370940      -0.01126529       0.21244390
Si       9.59897455       5.75938473      14.71500000  F        4      -0.03492389      -0.01080164       0.21968865
Si       0.00000000       1.91979491      16.07250000  F        3      -0.04156735       0.06551417      -0.11444724
Si       3.83958982       1.91979491      16.07250000  F        3       0.04407538       0.05710553      -0.10605375
Si       7.67917964       1.91979491      16.07250000  F        3       0.00201996       0.03620954      -0.18219457
Si       0.00000000       5.75938473      16.07250000  F        3      -0.04156735      -0.06551415      -0.11444723
Si       3.83958982       5.75938473      16.07250000  F        3       0.04407538      -0.05710551      -0.10605373
Si       7.67917964       5.75938473      16.07250000  F        3       0.00201996      -0.03620951      -0.18219456
Si       0.00000000       0.00000000      17.43000000  F        2      -0.00485170      -0.00000002       0.51040425
Si       3.83958982       0.00000000      17.43000000  F        2       0.01116699      -0.00000002       0.51381380
Si       7.67917964       0.00000000      17.43000000  F        2      -0.00761764      -0.00000002       0.43026180
Si       0.00000000       3.83958982      17.43000000  F        2       0.26353210       0.00000000       0.17160108
Si       3.83958982       3.83958982      17.43000000  F        2      -0.25372973       0.00000000       0.18197682
Si       7.67917964       3.83958982      17.43000000  F        2       0.04075711       0.00000000      -0.22152741
Si       1.91979491       0.00000000      18.78750000  F        1       0.00989018       0.00000000      -0.23921473
Si       5.75938473       0.00000000      18.78750000  F        1       0.09852706       0.00000000      -0.07500255
Si       9.59897455       0.00000000      18.78750000  F        1      -0.06892257       0.00000000      -0.14799226
Si       1.91979491       3.83958982      18.78750000  F        1      -0.00278539      -0.00000000      -0.08875532
Si       5.75938473       3.83958982      18.78750000  F        1      -0.39925605      -0.00000000      -0.48018436
Si       9.59897455       3.83958982      18.78750000  F        1       0.33926999      -0.00000000      -0.60691653
Si       7.67917964       3.83958982      21.66950185  T        0      -0.04116531      -0.00000000       1.55219790
F        7.67917964       3.83958982      20.08750000  T        0       0.00423666       0.00000000       0.14221292
F        9.17070529       3.83958982      22.19683580  T        0       0.18715384      -0.00000000       0.03989702
F        6.93341682       5.13128892      22.19683580  T        0      -0.09339562       0.19300354      -0.18548470
F        6.93341682       2.54789072      22.19683580  T        0      -0.09339562      -0.19300354      -0.18548470
