38
Lattice="11.518769465528859 0.0 0.0 3.839589821842953 6.650364651656328 0.0 0.0 0.0 32.62128289467409" Properties=species:S:1:pos:R:3:move_mask:L:1:tags:I:1:forces:R:3 surface=Si111 species=HCl height_A=6.5 substrate_atoms=36 calculation_kind="Rigid approach energy evaluation; not NEB or TS" energy=-173.24532925581062 pbc="T T F"
Si       1.91979491       1.10839411      12.00000000  F        6      -0.00000000       0.00000000       0.17150952
Si       5.75938473       1.10839411      12.00000000  F        6       0.00000000       0.00000000       0.17150952
Si       9.59897455       1.10839411      12.00000000  F        6       0.00000000       0.00000000       0.17150952
Si       3.83958982       4.43357643      12.00000000  F        6       0.00000000      -0.00000000       0.17150952
Si       7.67917964       4.43357643      12.00000000  F        6       0.00000000      -0.00000000       0.17150952
Si      11.51876947       4.43357643      12.00000000  F        6      -0.00000000      -0.00000000       0.17150952
Si       1.91979491       1.10839411      14.35125897  F        5       0.00000000       0.00000000      -0.37518449
Si       5.75938473       1.10839411      14.35125897  F        5       0.00000000       0.00000000      -0.37518449
Si       9.59897455       1.10839411      14.35125897  F        5      -0.00000000       0.00000000      -0.37518449
Si       3.83958982       4.43357643      14.35125897  F        5      -0.00000000      -0.00000000      -0.37518449
Si       7.67917964       4.43357643      14.35125897  F        5      -0.00000000      -0.00000000      -0.37518449
Si      11.51876947       4.43357643      14.35125897  F        5      -0.00000000      -0.00000000      -0.37518449
Si      -0.00000000       2.21678822      15.13501196  F        4      -0.00000000      -0.00000000      -0.14263620
Si       3.83958982       2.21678822      15.13501196  F        4      -0.00000000      -0.00000000      -0.14263620
Si       7.67917964       2.21678822      15.13501196  F        4      -0.00000000       0.00000000      -0.14263620
Si       1.91979491       5.54197054      15.13501196  F        4       0.00000000       0.00000000      -0.14263620
Si       5.75938473       5.54197054      15.13501196  F        4       0.00000000       0.00000000      -0.14263620
Si       9.59897455       5.54197054      15.13501196  F        4       0.00000000       0.00000000      -0.14263620
Si      -0.00000000       2.21678822      17.48627093  F        3       0.00000000       0.00000000       0.14263620
Si       3.83958982       2.21678822      17.48627093  F        3       0.00000000       0.00000000       0.14263620
Si       7.67917964       2.21678822      17.48627093  F        3      -0.00000000       0.00000000       0.14263620
Si       1.91979491       5.54197054      17.48627093  F        3       0.00000000       0.00000000       0.14263620
Si       5.75938473       5.54197054      17.48627093  F        3       0.00000000       0.00000000       0.14263620
Si       9.59897455       5.54197054      17.48627093  F        3       0.00000000       0.00000000       0.14263620
Si       0.00000000       0.00000000      18.27002392  F        2      -0.00000000      -0.00000000       0.37518449
Si       3.83958982       0.00000000      18.27002392  F        2      -0.00000000      -0.00000000       0.37518449
Si       7.67917964       0.00000000      18.27002392  F        2       0.00000000      -0.00000000       0.37518449
Si       1.91979491       3.32518233      18.27002392  F        2       0.00000000      -0.00000000       0.37518449
Si       5.75938473       3.32518233      18.27002392  F        2       0.00000000      -0.00000000       0.37518449
Si       9.59897455       3.32518233      18.27002392  F        2       0.00000000      -0.00000000       0.37518449
Si       0.00000000       0.00000000      20.62128289  F        1       0.00000000      -0.00000000      -0.17150952
Si       3.83958982       0.00000000      20.62128289  F        1       0.00000000      -0.00000000      -0.17150952
Si       7.67917964       0.00000000      20.62128289  F        1      -0.00000000      -0.00000000      -0.17150952
Si       1.91979491       3.32518233      20.62128289  F        1      -0.00000000       0.00000000      -0.17150952
Si       5.75938473       3.32518233      20.62128289  F        1       0.00000000       0.00000000      -0.17150952
Si       9.59897455       3.32518233      20.62128289  F        1      -0.00000000       0.00000000      -0.17150952
Cl       5.75938473       3.32518233      27.12128289  F        0       0.00000000       0.00000000      -0.00729343
H        5.75938473       3.32518233      28.42307215  F        0       0.00000000       0.00000000       0.00729343
38
Lattice="11.518769465528859 0.0 0.0 3.839589821842953 6.650364651656328 0.0 0.0 0.0 32.62128289467409" Properties=species:S:1:pos:R:3:move_mask:L:1:tags:I:1:forces:R:3 surface=Si111 species=HCl height_A=5.0 substrate_atoms=36 calculation_kind="Rigid approach energy evaluation; not NEB or TS" energy=-173.24532925581062 pbc="T T F"
Si       1.91979491       1.10839411      12.00000000  F        6      -0.00000000       0.00000000       0.17150952
Si       5.75938473       1.10839411      12.00000000  F        6       0.00000000       0.00000000       0.17150952
Si       9.59897455       1.10839411      12.00000000  F        6       0.00000000       0.00000000       0.17150952
Si       3.83958982       4.43357643      12.00000000  F        6       0.00000000      -0.00000000       0.17150952
Si       7.67917964       4.43357643      12.00000000  F        6       0.00000000      -0.00000000       0.17150952
Si      11.51876947       4.43357643      12.00000000  F        6      -0.00000000      -0.00000000       0.17150952
Si       1.91979491       1.10839411      14.35125897  F        5       0.00000000       0.00000000      -0.37518449
Si       5.75938473       1.10839411      14.35125897  F        5       0.00000000       0.00000000      -0.37518449
Si       9.59897455       1.10839411      14.35125897  F        5      -0.00000000       0.00000000      -0.37518449
Si       3.83958982       4.43357643      14.35125897  F        5      -0.00000000      -0.00000000      -0.37518449
Si       7.67917964       4.43357643      14.35125897  F        5      -0.00000000      -0.00000000      -0.37518449
Si      11.51876947       4.43357643      14.35125897  F        5      -0.00000000      -0.00000000      -0.37518449
Si      -0.00000000       2.21678822      15.13501196  F        4      -0.00000000      -0.00000000      -0.14263620
Si       3.83958982       2.21678822      15.13501196  F        4      -0.00000000      -0.00000000      -0.14263620
Si       7.67917964       2.21678822      15.13501196  F        4      -0.00000000       0.00000000      -0.14263620
Si       1.91979491       5.54197054      15.13501196  F        4       0.00000000       0.00000000      -0.14263620
Si       5.75938473       5.54197054      15.13501196  F        4       0.00000000       0.00000000      -0.14263620
Si       9.59897455       5.54197054      15.13501196  F        4       0.00000000       0.00000000      -0.14263620
Si      -0.00000000       2.21678822      17.48627093  F        3       0.00000000       0.00000000       0.14263620
Si       3.83958982       2.21678822      17.48627093  F        3       0.00000000       0.00000000       0.14263620
Si       7.67917964       2.21678822      17.48627093  F        3      -0.00000000       0.00000000       0.14263620
Si       1.91979491       5.54197054      17.48627093  F        3       0.00000000       0.00000000       0.14263620
Si       5.75938473       5.54197054      17.48627093  F        3       0.00000000       0.00000000       0.14263620
Si       9.59897455       5.54197054      17.48627093  F        3       0.00000000       0.00000000       0.14263620
Si       0.00000000       0.00000000      18.27002392  F        2      -0.00000000      -0.00000000       0.37518449
Si       3.83958982       0.00000000      18.27002392  F        2      -0.00000000      -0.00000000       0.37518449
Si       7.67917964       0.00000000      18.27002392  F        2       0.00000000      -0.00000000       0.37518449
Si       1.91979491       3.32518233      18.27002392  F        2       0.00000000      -0.00000000       0.37518449
Si       5.75938473       3.32518233      18.27002392  F        2       0.00000000      -0.00000000       0.37518449
Si       9.59897455       3.32518233      18.27002392  F        2       0.00000000      -0.00000000       0.37518449
Si       0.00000000       0.00000000      20.62128289  F        1       0.00000000      -0.00000000      -0.17150952
Si       3.83958982       0.00000000      20.62128289  F        1       0.00000000      -0.00000000      -0.17150952
Si       7.67917964       0.00000000      20.62128289  F        1      -0.00000000      -0.00000000      -0.17150952
Si       1.91979491       3.32518233      20.62128289  F        1      -0.00000000       0.00000000      -0.17150952
Si       5.75938473       3.32518233      20.62128289  F        1       0.00000000       0.00000000      -0.17150952
Si       9.59897455       3.32518233      20.62128289  F        1      -0.00000000       0.00000000      -0.17150952
Cl       5.75938473       3.32518233      25.62128289  F        0       0.00000000       0.00000000      -0.00729343
H        5.75938473       3.32518233      26.92307215  F        0       0.00000000       0.00000000       0.00729343
38
Lattice="11.518769465528859 0.0 0.0 3.839589821842953 6.650364651656328 0.0 0.0 0.0 32.62128289467409" Properties=species:S:1:pos:R:3:move_mask:L:1:tags:I:1:forces:R:3 surface=Si111 species=HCl height_A=4.0 substrate_atoms=36 calculation_kind="Rigid approach energy evaluation; not NEB or TS" energy=-173.30235541011038 pbc="T T F"
Si       1.91979491       1.10839411      12.00000000  F        6      -0.00003349       0.00002289       0.17190934
Si       5.75938473       1.10839411      12.00000000  F        6       0.00000359      -0.00004959       0.17141384
Si       9.59897455       1.10839411      12.00000000  F        6       0.00002990      -0.00003108       0.17170997
Si       3.83958982       4.43357643      12.00000000  F        6      -0.00003706       0.00001785       0.17138528
Si       7.67917964       4.43357643      12.00000000  F        6       0.00004474       0.00002169       0.17141384
Si      11.51876947       4.43357643      12.00000000  F        6      -0.00000768       0.00001825       0.17151321
Si       1.91979491       1.10839411      14.35125897  F        5       0.00046839      -0.00026640      -0.37530003
Si       5.75938473       1.10839411      14.35125897  F        5       0.00030452       0.00279104      -0.37220547
Si       9.59897455       1.10839411      14.35125897  F        5      -0.00077274       0.00043096      -0.37463093
Si       3.83958982       4.43357643      14.35125897  F        5       0.00218988      -0.00126835      -0.37171095
Si       7.67917964       4.43357643      14.35125897  F        5      -0.00225306      -0.00166604      -0.37220530
Si      11.51876947       4.43357643      14.35125897  F        5       0.00006327      -0.00002135      -0.37426257
Si      -0.00000000       2.21678822      15.13501196  F        4      -0.00016686       0.00053742      -0.14651013
Si       3.83958982       2.21678822      15.13501196  F        4      -0.00171389      -0.00067346      -0.13999222
Si       7.67917964       2.21678822      15.13501196  F        4       0.00188056      -0.00109287      -0.13789556
Si       1.91979491       5.54197054      15.13501196  F        4      -0.00126574       0.00028969      -0.14642777
Si       5.75938473       5.54197054      15.13501196  F        4      -0.00027436       0.00182137      -0.13990989
Si       9.59897455       5.54197054      15.13501196  F        4       0.00154043      -0.00088224      -0.14859113
Si      -0.00000000       2.21678822      17.48627093  F        3      -0.00137918       0.00109642       0.14650020
Si       3.83958982       2.21678822      17.48627093  F        3       0.03305578       0.01640343       0.17450732
Si       7.67917964       2.21678822      17.48627093  F        3      -0.03169754       0.01755769       0.17217203
Si       1.91979491       5.54197054      17.48627093  F        3       0.00206780      -0.00149400       0.14725874
Si       5.75938473       5.54197054      17.48627093  F        3       0.00176057      -0.03650466       0.17464868
Si       9.59897455       5.54197054      17.48627093  F        3      -0.00386813       0.00297615       0.14979151
Si       0.00000000       0.00000000      18.27002392  F        2       0.00414876      -0.00147018       0.35345639
Si       3.83958982       0.00000000      18.27002392  F        2      -0.00677689       0.00371608       0.32940259
Si       7.67917964       0.00000000      18.27002392  F        2       0.00265677       0.00508267       0.35263319
Si       1.91979491       3.32518233      18.27002392  F        2      -0.00019426      -0.00081295       0.35719408
Si       5.75938473       3.32518233      18.27002392  F        2       0.00095218      -0.00035318       0.56606963
Si       9.59897455       3.32518233      18.27002392  F        2      -0.00075781      -0.00617904       0.35686350
Si       0.00000000       0.00000000      20.62128289  F        1      -0.03139951       0.05804264      -0.16910464
Si       3.83958982       0.00000000      20.62128289  F        1       0.00048823      -0.00053066      -0.16771575
Si       7.67917964       0.00000000      20.62128289  F        1       0.03094539      -0.05998419      -0.16915260
Si       1.91979491       3.32518233      20.62128289  F        1      -0.06605998      -0.00177438      -0.16700641
Si       5.75938473       3.32518233      20.62128289  F        1      -0.00111989       0.00089535      -0.38256340
Si       9.59897455       3.32518233      20.62128289  F        1       0.06717730       0.00333303      -0.16701186
Cl       5.75938473       3.32518233      24.62128289  F        0       0.00000000       0.00000000      -0.25078103
H        5.75938473       3.32518233      25.92307215  F        0       0.00000000       0.00000000       0.26313431
38
Lattice="11.518769465528859 0.0 0.0 3.839589821842953 6.650364651656328 0.0 0.0 0.0 32.62128289467409" Properties=species:S:1:pos:R:3:move_mask:L:1:tags:I:1:forces:R:3 surface=Si111 species=HCl height_A=3.25 substrate_atoms=36 calculation_kind="Rigid approach energy evaluation; not NEB or TS" energy=-173.44370744516564 pbc="T T F"
Si       1.91979491       1.10839411      12.00000000  F        6      -0.00002724       0.00003682       0.17285963
Si       5.75938473       1.10839411      12.00000000  F        6       0.00000628      -0.00006410       0.17066458
Si       9.59897455       1.10839411      12.00000000  F        6       0.00002097      -0.00005803       0.17213553
Si       3.83958982       4.43357643      12.00000000  F        6      -0.00001871      -0.00001030       0.17052082
Si       7.67917964       4.43357643      12.00000000  F        6       0.00005865       0.00002662       0.17066458
Si      11.51876947       4.43357643      12.00000000  F        6      -0.00003995       0.00006898       0.17140147
Si       1.91979491       1.10839411      14.35125897  F        5       0.00036798      -0.00042632      -0.37492640
Si       5.75938473       1.10839411      14.35125897  F        5      -0.00050975       0.00168235      -0.36998358
Si       9.59897455       1.10839411      14.35125897  F        5       0.00014195       0.00010492      -0.37431869
Si       3.83958982       4.43357643      14.35125897  F        5       0.00164852      -0.00073791      -0.37079559
Si       7.67917964       4.43357643      14.35125897  F        5      -0.00189922      -0.00029153      -0.37023830
Si      11.51876947       4.43357643      14.35125897  F        5       0.00025084      -0.00033170      -0.37333644
Si      -0.00000000       2.21678822      15.13501196  F        4      -0.00014814       0.00027192      -0.14453350
Si       3.83958982       2.21678822      15.13501196  F        4      -0.00220187      -0.00178873      -0.12517214
Si       7.67917964       2.21678822      15.13501196  F        4       0.00234975      -0.00165666      -0.12390324
Si       1.91979491       5.54197054      15.13501196  F        4      -0.00324718       0.00168836      -0.14680720
Si       5.75938473       5.54197054      15.13501196  F        4       0.00028313       0.00289652      -0.12492507
Si       9.59897455       5.54197054      15.13501196  F        4       0.00296409      -0.00141129      -0.15026176
Si      -0.00000000       2.21678822      17.48627093  F        3      -0.00097303       0.00159985       0.14051487
Si       3.83958982       2.21678822      17.48627093  F        3       0.08342728       0.05265131       0.18124660
Si       7.67917964       2.21678822      17.48627093  F        3      -0.08246708       0.04760857       0.18122839
Si       1.91979491       5.54197054      17.48627093  F        3       0.00640062      -0.00473347       0.14005321
Si       5.75938473       5.54197054      17.48627093  F        3      -0.00371041      -0.09867587       0.18129607
Si       9.59897455       5.54197054      17.48627093  F        3      -0.00266691       0.00154356       0.13924124
Si       0.00000000       0.00000000      18.27002392  F        2       0.01036632      -0.00007824       0.34877704
Si       3.83958982       0.00000000      18.27002392  F        2      -0.01581447       0.00892384       0.30268450
Si       7.67917964       0.00000000      18.27002392  F        2       0.00545739       0.00993325       0.34875279
Si       1.91979491       3.32518233      18.27002392  F        2      -0.00261797      -0.00439527       0.37510344
Si       5.75938473       3.32518233      18.27002392  F        2      -0.00006920       0.00024660       0.53513781
Si       9.59897455       3.32518233      18.27002392  F        2       0.00268704      -0.01463544       0.37514661
Si       0.00000000       0.00000000      20.62128289  F        1      -0.08820015       0.15114077      -0.16336030
Si       3.83958982       0.00000000      20.62128289  F        1       0.00065068      -0.00082337      -0.13572691
Si       7.67917964       0.00000000      20.62128289  F        1       0.08754383      -0.15327086      -0.16312584
Si       1.91979491       3.32518233      20.62128289  F        1      -0.17525668       0.00096610      -0.17716221
Si       5.75938473       3.32518233      20.62128289  F        1      -0.00084667       0.00093652      -0.10617826
Si       9.59897455       3.32518233      20.62128289  F        1       0.17608928       0.00106221      -0.17703926
Cl       5.75938473       3.32518233      23.87128289  F        0       0.00000000       0.00000000      -0.36121888
H        5.75938473       3.32518233      25.17307215  F        0       0.00000000       0.00000000       0.05558439
38
Lattice="11.518769465528859 0.0 0.0 3.839589821842953 6.650364651656328 0.0 0.0 0.0 32.62128289467409" Properties=species:S:1:pos:R:3:move_mask:L:1:tags:I:1:forces:R:3 surface=Si111 species=HCl height_A=2.75 substrate_atoms=36 calculation_kind="Rigid approach energy evaluation; not NEB or TS" energy=-173.41314620902625 pbc="T T F"
Si       1.91979491       1.10839411      12.00000000  F        6      -0.00005830       0.00011007       0.17333956
Si       5.75938473       1.10839411      12.00000000  F        6       0.00006402      -0.00005660       0.16909516
Si       9.59897455       1.10839411      12.00000000  F        6      -0.00000572      -0.00006629       0.17222785
Si       3.83958982       4.43357643      12.00000000  F        6      -0.00000437      -0.00007389       0.16874090
Si       7.67917964       4.43357643      12.00000000  F        6       0.00008103      -0.00002714       0.16909516
Si      11.51876947       4.43357643      12.00000000  F        6      -0.00007665       0.00011385       0.17102375
Si       1.91979491       1.10839411      14.35125897  F        5      -0.00038423       0.00001391      -0.37475131
Si       5.75938473       1.10839411      14.35125897  F        5      -0.00118291      -0.01664694      -0.38921337
Si       9.59897455       1.10839411      14.35125897  F        5       0.00156753      -0.00048363      -0.37311975
Si       3.83958982       4.43357643      14.35125897  F        5      -0.01411431       0.00835682      -0.39104460
Si       7.67917964       4.43357643      14.35125897  F        5       0.01359452       0.00948110      -0.38946981
Si      11.51876947       4.43357643      14.35125897  F        5       0.00052120      -0.00072230      -0.36961378
Si      -0.00000000       2.21678822      15.13501196  F        4       0.00038193      -0.00071022      -0.13531087
Si       3.83958982       2.21678822      15.13501196  F        4      -0.01761613      -0.01219073      -0.13178179
Si       7.67917964       2.21678822      15.13501196  F        4       0.01723539      -0.01033928      -0.13409915
Si       1.91979491       5.54197054      15.13501196  F        4      -0.00631523       0.00413582      -0.14155141
Si       5.75938473       5.54197054      15.13501196  F        4       0.00167831       0.02139243      -0.13135020
Si       9.59897455       5.54197054      15.13501196  F        4       0.00463435      -0.00228722      -0.14515604
Si      -0.00000000       2.21678822      17.48627093  F        3      -0.00111470       0.00307337       0.13417007
Si       3.83958982       2.21678822      17.48627093  F        3       0.13859180       0.08661892       0.18470650
Si       7.67917964       2.21678822      17.48627093  F        3      -0.13749644       0.07939226       0.18789006
Si       1.91979491       5.54197054      17.48627093  F        3       0.00221488      -0.00401159       0.13312178
Si       5.75938473       5.54197054      17.48627093  F        3      -0.00495810      -0.16380491       0.18404640
Si       9.59897455       5.54197054      17.48627093  F        3       0.00298453      -0.00171060       0.13070860
Si       0.00000000       0.00000000      18.27002392  F        2      -0.00903359       0.03303310       0.36965538
Si       3.83958982       0.00000000      18.27002392  F        2      -0.01263775       0.00683658       0.35586746
Si       7.67917964       0.00000000      18.27002392  F        2       0.02166646      -0.02304874       0.36999338
Si       1.91979491       3.32518233      18.27002392  F        2      -0.04584462      -0.00116820       0.40988791
Si       5.75938473       3.32518233      18.27002392  F        2      -0.00242019       0.00185607       0.59462794
Si       9.59897455       3.32518233      18.27002392  F        2       0.04821370      -0.01752567       0.41019555
Si       0.00000000       0.00000000      20.62128289  F        1      -0.05385255       0.08356125      -0.12903201
Si       3.83958982       0.00000000      20.62128289  F        1      -0.00380825       0.00119835      -0.07295125
Si       7.67917964       0.00000000      20.62128289  F        1       0.05759151      -0.08249033      -0.12802638
Si       1.91979491       3.32518233      20.62128289  F        1      -0.09034655      -0.00030707      -0.15354948
Si       5.75938473       3.32518233      20.62128289  F        1       0.00075038       0.00056072      -1.22910596
Si       9.59897455       3.32518233      20.62128289  F        1       0.08945442      -0.00191562      -0.15307145
Cl       5.75938473       3.32518233      23.37128289  F        0       0.00004466      -0.00014765       0.32824240
H        5.75938473       3.32518233      24.67307215  F        0      -0.00000001       0.00000001       0.15556277
38
Lattice="11.518769465528859 0.0 0.0 3.839589821842953 6.650364651656328 0.0 0.0 0.0 32.62128289467409" Properties=species:S:1:pos:R:3:move_mask:L:1:tags:I:1:forces:R:3 surface=Si111 species=HCl height_A=2.25 substrate_atoms=36 calculation_kind="Rigid approach energy evaluation; not NEB or TS" energy=-173.16458353023643 pbc="T T F"
Si       1.91979491       1.10839411      12.00000000  F        6       0.00007392       0.00008927       0.17470581
Si       5.75938473       1.10839411      12.00000000  F        6       0.00008188       0.00000672       0.16928918
Si       9.59897455       1.10839411      12.00000000  F        6      -0.00015580       0.00005929       0.17300196
Si       3.83958982       4.43357643      12.00000000  F        6       0.00006432      -0.00016908       0.16884934
Si       7.67917964       4.43357643      12.00000000  F        6       0.00003512      -0.00007427       0.16928918
Si      11.51876947       4.43357643      12.00000000  F        6      -0.00009944       0.00008807       0.17122991
Si       1.91979491       1.10839411      14.35125897  F        5       0.00187885      -0.00182317      -0.35907938
Si       5.75938473       1.10839411      14.35125897  F        5      -0.00325873      -0.01067557      -0.36544454
Si       9.59897455       1.10839411      14.35125897  F        5       0.00139376      -0.00025442      -0.36340928
Si       3.83958982       4.43357643      14.35125897  F        5      -0.00796720       0.00533828      -0.37136150
Si       7.67917964       4.43357643      14.35125897  F        5       0.00690408       0.00857093      -0.36640666
Si      11.51876947       4.43357643      14.35125897  F        5       0.00106595      -0.00116569      -0.36372682
Si      -0.00000000       2.21678822      15.13501196  F        4       0.00217633      -0.00439584      -0.11922603
Si       3.83958982       2.21678822      15.13501196  F        4      -0.01849966      -0.01836735      -0.11428936
Si       7.67917964       2.21678822      15.13501196  F        4       0.01632503      -0.01060667      -0.12050232
Si       1.91979491       5.54197054      15.13501196  F        4      -0.00633499       0.00679685      -0.13158405
Si       5.75938473       5.54197054      15.13501196  F        4       0.00617323       0.02548402      -0.11330073
Si       9.59897455       5.54197054      15.13501196  F        4       0.00014840       0.00109573      -0.13634284
Si      -0.00000000       2.21678822      17.48627093  F        3       0.00281022      -0.00153623       0.12558278
Si       3.83958982       2.21678822      17.48627093  F        3       0.01989228       0.02693010       0.09790129
Si       7.67917964       2.21678822      17.48627093  F        3      -0.02230767       0.01239865       0.10480601
Si       1.91979491       5.54197054      17.48627093  F        3       0.01222038      -0.00832891       0.12642122
Si       5.75938473       5.54197054      17.48627093  F        3      -0.01262824      -0.03122842       0.09901485
Si       9.59897455       5.54197054      17.48627093  F        3       0.00196311      -0.00047640       0.12168448
Si       0.00000000       0.00000000      18.27002392  F        2      -0.03648978       0.09858922       0.31798592
Si       3.83958982       0.00000000      18.27002392  F        2      -0.01968905       0.01067914       0.33031868
Si       7.67917964       0.00000000      18.27002392  F        2       0.05601160      -0.07805992       0.31985171
Si       1.91979491       3.32518233      18.27002392  F        2      -0.13567140       0.00177315       0.40721813
Si       5.75938473       3.32518233      18.27002392  F        2      -0.00255105       0.00214221       1.50402022
Si       9.59897455       3.32518233      18.27002392  F        2       0.13789487      -0.03513481       0.40828133
Si       0.00000000       0.00000000      20.62128289  F        1      -0.05760825       0.07160924      -0.06960276
Si       3.83958982       0.00000000      20.62128289  F        1      -0.00429753       0.00123386      -0.02354712
Si       7.67917964       0.00000000      20.62128289  F        1       0.06088345      -0.06966241      -0.06769775
Si       1.91979491       3.32518233      20.62128289  F        1      -0.10214480       0.02068086      -0.11792884
Si       5.75938473       3.32518233      20.62128289  F        1       0.00389525      -0.00105653      -2.46864393
Si       9.59897455       3.32518233      20.62128289  F        1       0.09763582      -0.01969753      -0.11697880
Cl       5.75938473       3.32518233      22.87128289  F        0       0.00017537      -0.00085213      -0.61228451
H        5.75938473       3.32518233      24.17307215  F        0       0.00000038      -0.00000022       1.41190522
38
Lattice="11.518769465528859 0.0 0.0 3.839589821842953 6.650364651656328 0.0 0.0 0.0 32.62128289467409" Properties=species:S:1:pos:R:3:move_mask:L:1:tags:I:1:forces:R:3 surface=Si111 species=HCl height_A=1.9 substrate_atoms=36 calculation_kind="Rigid approach energy evaluation; not NEB or TS" energy=-172.66382476899622 pbc="T T F"
Si       1.91979491       1.10839411      12.00000000  F        6       0.00004876       0.00012912       0.17471553
Si       5.75938473       1.10839411      12.00000000  F        6       0.00017484      -0.00038497       0.16836238
Si       9.59897455       1.10839411      12.00000000  F        6      -0.00022360       0.00001129       0.17298972
Si       3.83958982       4.43357643      12.00000000  F        6      -0.00025900      -0.00000774       0.16797082
Si       7.67917964       4.43357643      12.00000000  F        6       0.00042082       0.00004107       0.16836238
Si      11.51876947       4.43357643      12.00000000  F        6      -0.00016182       0.00021123       0.17114949
Si       1.91979491       1.10839411      14.35125897  F        5       0.00555016      -0.00428237      -0.34805594
Si       5.75938473       1.10839411      14.35125897  F        5      -0.00466641       0.00626186      -0.33661937
Si       9.59897455       1.10839411      14.35125897  F        5      -0.00086361       0.00107089      -0.35721655
Si       3.83958982       4.43357643      14.35125897  F        5       0.00759150      -0.00330497      -0.34539013
Si       7.67917964       4.43357643      14.35125897  F        5      -0.00876506       0.00149281      -0.33808616
Si      11.51876947       4.43357643      14.35125897  F        5       0.00117523      -0.00125080      -0.36082445
Si      -0.00000000       2.21678822      15.13501196  F        4       0.00244506      -0.00564184      -0.10870161
Si       3.83958982       2.21678822      15.13501196  F        4      -0.00054182      -0.01021929      -0.11146635
Si       7.67917964       2.21678822      15.13501196  F        4      -0.00184994      -0.00070539      -0.12136127
Si       1.91979491       5.54197054      15.13501196  F        4      -0.00563616       0.00748423      -0.12539658
Si       5.75938473       5.54197054      15.13501196  F        4       0.00773315       0.00606737      -0.11011860
Si       9.59897455       5.54197054      15.13501196  F        4      -0.00211119       0.00299235      -0.12993257
Si      -0.00000000       2.21678822      17.48627093  F        3       0.00324449       0.00078700       0.13077810
Si       3.83958982       2.21678822      17.48627093  F        3      -0.05862098      -0.01218326       0.04776642
Si       7.67917964       2.21678822      17.48627093  F        3       0.05590111      -0.03090132       0.05207287
Si       1.91979491       5.54197054      17.48627093  F        3       0.01556866      -0.01286029       0.11465743
Si       5.75938473       5.54197054      17.48627093  F        3      -0.01638930       0.05553024       0.04885586
Si       9.59897455       5.54197054      17.48627093  F        3       0.00325486      -0.00281198       0.09445171
Si       0.00000000       0.00000000      18.27002392  F        2      -0.05153545       0.10925956       0.33661617
Si       3.83958982       0.00000000      18.27002392  F        2       0.00129500      -0.00174442       0.35571095
Si       7.67917964       0.00000000      18.27002392  F        2       0.05006977      -0.09976086       0.33925108
Si       1.91979491       3.32518233      18.27002392  F        2      -0.16714952       0.01808173       0.45917139
Si       5.75938473       3.32518233      18.27002392  F        2      -0.00518527       0.00395307       0.36113800
Si       9.59897455       3.32518233      18.27002392  F        2       0.17164894      -0.02964434       0.46040843
Si       0.00000000       0.00000000      20.62128289  F        1      -0.06969063       0.05781300      -0.09102230
Si       3.83958982       0.00000000      20.62128289  F        1       0.00350106      -0.00401730      -0.05531019
Si       7.67917964       0.00000000      20.62128289  F        1       0.06514023      -0.06197464      -0.08891261
Si       1.91979491       3.32518233      20.62128289  F        1      -0.12524173       0.05548555      -0.15166565
Si       5.75938473       3.32518233      20.62128289  F        1       0.00471575      -0.00082674      -3.11518432
Si       9.59897455       3.32518233      20.62128289  F        1       0.11977436      -0.04347333      -0.15066343
Cl       5.75938473       3.32518233      22.52128289  F        0      -0.00036382      -0.00067561       0.38640148
H        5.75938473       3.32518233      23.82307215  F        0       0.00000156      -0.00000090       2.23509787
38
Lattice="11.518769465528859 0.0 0.0 3.839589821842953 6.650364651656328 0.0 0.0 0.0 32.62128289467409" Properties=species:S:1:pos:R:3:move_mask:L:1:tags:I:1:forces:R:3 surface=Si111 species=HCl height_A=1.6 substrate_atoms=36 calculation_kind="Rigid approach energy evaluation; not NEB or TS" energy=-170.44102162310878 pbc="T T F"
Si       1.91979491       1.10839411      12.00000000  F        6       0.00004893       0.00014798       0.17348664
Si       5.75938473       1.10839411      12.00000000  F        6       0.00023784      -0.00042991       0.16800942
Si       9.59897455       1.10839411      12.00000000  F        6      -0.00028677      -0.00005480       0.17223378
Si       3.83958982       4.43357643      12.00000000  F        6      -0.00024786      -0.00003313       0.16749590
Si       7.67917964       4.43357643      12.00000000  F        6       0.00049124       0.00000898       0.16800942
Si      11.51876947       4.43357643      12.00000000  F        6      -0.00024337       0.00036088       0.17076701
Si       1.91979491       1.10839411      14.35125897  F        5       0.00812930      -0.00573408      -0.34631476
Si       5.75938473       1.10839411      14.35125897  F        5      -0.00474767       0.00892384      -0.33379585
Si       9.59897455       1.10839411      14.35125897  F        5      -0.00336596       0.00187683      -0.35501563
Si       3.83958982       4.43357643      14.35125897  F        5       0.01046626      -0.00500208      -0.34318284
Si       7.67917964       4.43357643      14.35125897  F        5      -0.01109191       0.00022114      -0.33525017
Si      11.51876947       4.43357643      14.35125897  F        5       0.00063002      -0.00029723      -0.35723232
Si      -0.00000000       2.21678822      15.13501196  F        4       0.00184464      -0.00482015      -0.10382810
Si       3.83958982       2.21678822      15.13501196  F        4       0.00480463      -0.00704616      -0.10523594
Si       7.67917964       2.21678822      15.13501196  F        4      -0.00654814       0.00196329      -0.11709914
Si       1.91979491       5.54197054      15.13501196  F        4      -0.00694791       0.00776652      -0.12255331
Si       5.75938473       5.54197054      15.13501196  F        4       0.00762715      -0.00013133      -0.10380029
Si       9.59897455       5.54197054      15.13501196  F        4      -0.00069365       0.00221775      -0.12671836
Si      -0.00000000       2.21678822      17.48627093  F        3      -0.00138525       0.00798535       0.14573305
Si       3.83958982       2.21678822      17.48627093  F        3      -0.21456394      -0.10547011      -0.11721421
Si       7.67917964       2.21678822      17.48627093  F        3       0.21630758      -0.12434670      -0.11900818
Si       1.91979491       5.54197054      17.48627093  F        3      -0.00634009      -0.00457963       0.10141778
Si       5.75938473       5.54197054      17.48627093  F        3      -0.01401636       0.23762904      -0.11627098
Si       9.59897455       5.54197054      17.48627093  F        3       0.02240508      -0.01271218       0.05897809
Si       0.00000000       0.00000000      18.27002392  F        2      -0.07289608       0.16031194       0.35966323
Si       3.83958982       0.00000000      18.27002392  F        2      -0.00856100       0.00367514       0.38852133
Si       7.67917964       0.00000000      18.27002392  F        2       0.08147723      -0.14747688       0.36058513
Si       1.91979491       3.32518233      18.27002392  F        2      -0.23644140       0.01899072       0.50083370
Si       5.75938473       3.32518233      18.27002392  F        2      -0.00734051       0.00546390       0.73323326
Si       9.59897455       3.32518233      18.27002392  F        2       0.24300827      -0.04093690       0.50103477
Si       0.00000000       0.00000000      20.62128289  F        1      -0.12811862       0.14161923      -0.12137188
Si       3.83958982       0.00000000      20.62128289  F        1      -0.00491689       0.00014299      -0.08523933
Si       7.67917964       0.00000000      20.62128289  F        1       0.13239269      -0.14172809      -0.11979247
Si       1.91979491       3.32518233      20.62128289  F        1      -0.24661159       0.07481201      -0.18804393
Si       5.75938473       3.32518233      20.62128289  F        1       0.00511899      -0.00041197     -14.69197018
Si       9.59897455       3.32518233      20.62128289  F        1       0.24079929      -0.07230841      -0.18743519
Cl       5.75938473       3.32518233      22.22128289  F        0      -0.00041774      -0.00061560      11.81247404
H        5.75938473       3.32518233      23.52307215  F        0      -0.00000645       0.00001780       2.51389652
38
Lattice="11.518769465528859 0.0 0.0 3.839589821842953 6.650364651656328 0.0 0.0 0.0 32.62128289467409" Properties=species:S:1:pos:R:3:move_mask:L:1:tags:I:1:forces:R:3 surface=Si111 species=HCl height_A=1.3 substrate_atoms=36 calculation_kind="Rigid approach energy evaluation; not NEB or TS" energy=-156.6487678639432 pbc="T T F"
Si       1.91979491       1.10839411      12.00000000  F        6      -0.00013209       0.00022014       0.17304922
Si       5.75938473       1.10839411      12.00000000  F        6       0.00021059      -0.00028910       0.16996060
Si       9.59897455       1.10839411      12.00000000  F        6      -0.00007850      -0.00014315       0.17197261
Si       3.83958982       4.43357643      12.00000000  F        6      -0.00013340      -0.00006686       0.16929286
Si       7.67917964       4.43357643      12.00000000  F        6       0.00035566      -0.00003782       0.16996059
Si      11.51876947       4.43357643      12.00000000  F        6      -0.00022226       0.00031680       0.17059737
Si       1.91979491       1.10839411      14.35125897  F        5       0.01018188      -0.00679168      -0.35976390
Si       5.75938473       1.10839411      14.35125897  F        5      -0.00338002       0.03153054      -0.32734601
Si       9.59897455       1.10839411      14.35125897  F        5      -0.00679120       0.00336356      -0.36253052
Si       3.83958982       4.43357643      14.35125897  F        5       0.02976469      -0.01627149      -0.33512708
Si       7.67917964       4.43357643      14.35125897  F        5      -0.02988000      -0.01232786      -0.32864697
Si      11.51876947       4.43357643      14.35125897  F        5       0.00012736       0.00048381      -0.35999109
Si      -0.00000000       2.21678822      15.13501196  F        4       0.00026830      -0.00197326      -0.10961387
Si       3.83958982       2.21678822      15.13501196  F        4       0.02344736       0.00568300      -0.08191164
Si       7.67917964       2.21678822      15.13501196  F        4      -0.02363290       0.01209507      -0.09120767
Si       1.91979491       5.54197054      15.13501196  F        4      -0.00899780       0.00701325      -0.12704713
Si       5.75938473       5.54197054      15.13501196  F        4       0.00599303      -0.02268041      -0.08064117
Si       9.59897455       5.54197054      15.13501196  F        4       0.00297165      -0.00016629      -0.13282168
Si      -0.00000000       2.21678822      17.48627093  F        3      -0.01011787       0.02131227       0.14891005
Si       3.83958982       2.21678822      17.48627093  F        3      -0.11725930      -0.03005488      -0.42610281
Si       7.67917964       2.21678822      17.48627093  F        3       0.12625454      -0.07260954      -0.42973756
Si       1.91979491       5.54197054      17.48627093  F        3      -0.03339791       0.00286579       0.08572154
Si       5.75938473       5.54197054      17.48627093  F        3      -0.03094987       0.11581250      -0.42520680
Si       9.59897455       5.54197054      17.48627093  F        3       0.06188136      -0.03511315       0.03139495
Si       0.00000000       0.00000000      18.27002392  F        2      -0.22568461       0.43860135       0.21130170
Si       3.83958982       0.00000000      18.27002392  F        2      -0.03227659       0.01748534       0.07974516
Si       7.67917964       0.00000000      18.27002392  F        2       0.25746061      -0.41665883       0.20989200
Si       1.91979491       3.32518233      18.27002392  F        2      -0.58093441       0.02664460       0.36447214
Si       5.75938473       3.32518233      18.27002392  F        2      -0.00673321       0.00499634       3.09993262
Si       9.59897455       3.32518233      18.27002392  F        2       0.58697070      -0.07064330       0.36365660
Si       0.00000000       0.00000000      20.62128289  F        1      -0.22981261       0.31802997       0.06522828
Si       3.83958982       0.00000000      20.62128289  F        1      -0.00259415      -0.00109409       0.31008570
Si       7.67917964       0.00000000      20.62128289  F        1       0.23859710      -0.31628955       0.06590224
Si       1.91979491       3.32518233      20.62128289  F        1      -0.48551026       0.09293381      -0.00404634
Si       5.75938473       3.32518233      20.62128289  F        1       0.00557964      -0.00081573     -98.63758901
Si       9.59897455       3.32518233      20.62128289  F        1       0.47987532      -0.09581582      -0.00409502
Cl       5.75938473       3.32518233      21.92128289  F        0      -0.00126152       0.00029977      94.27173321
H        5.75938473       3.32518233      23.22307215  F        0      -0.00015931       0.00015493       2.29061680
