38
Lattice="11.518769465528859 0.0 0.0 0.0 7.679179643685906 0.0 0.0 0.0 30.7875" Properties=species:S:1:pos:R:3:move_mask:L:1:tags:I:1:forces:R:3 surface=Si100 species=HF height_A=6.5 substrate_atoms=36 calculation_kind="Rigid approach energy evaluation; not NEB or TS" energy=-187.83852526514207 pbc="T T F"
Si       0.00000000       0.00000000      12.00000000  F        6       0.00000000       0.00000000       0.24903483
Si       3.83958982       0.00000000      12.00000000  F        6       0.00000000      -0.00000000       0.24903483
Si       7.67917964       0.00000000      12.00000000  F        6      -0.00000000       0.00000000       0.24903483
Si       0.00000000       3.83958982      12.00000000  F        6      -0.00000000      -0.00000000       0.24903483
Si       3.83958982       3.83958982      12.00000000  F        6       0.00000000       0.00000000       0.24903483
Si       7.67917964       3.83958982      12.00000000  F        6      -0.00000000      -0.00000000       0.24903483
Si       1.91979491       0.00000000      13.35750000  F        5       0.00000000       0.00000000      -0.52822354
Si       5.75938473       0.00000000      13.35750000  F        5      -0.00000000      -0.00000000      -0.52822354
Si       9.59897455       0.00000000      13.35750000  F        5      -0.00000000      -0.00000000      -0.52822354
Si       1.91979491       3.83958982      13.35750000  F        5       0.00000000       0.00000000      -0.52822354
Si       5.75938473       3.83958982      13.35750000  F        5       0.00000000       0.00000000      -0.52822354
Si       9.59897455       3.83958982      13.35750000  F        5       0.00000000       0.00000000      -0.52822354
Si       1.91979491       1.91979491      14.71500000  F        4      -0.00000000       0.00000000       0.14537709
Si       5.75938473       1.91979491      14.71500000  F        4      -0.00000000      -0.00000000       0.14537709
Si       9.59897455       1.91979491      14.71500000  F        4      -0.00000000       0.00000000       0.14537709
Si       1.91979491       5.75938473      14.71500000  F        4       0.00000000      -0.00000000       0.14537709
Si       5.75938473       5.75938473      14.71500000  F        4      -0.00000000      -0.00000000       0.14537709
Si       9.59897455       5.75938473      14.71500000  F        4      -0.00000000       0.00000000       0.14537709
Si       0.00000000       1.91979491      16.07250000  F        3      -0.00000000      -0.00000000      -0.14537709
Si       3.83958982       1.91979491      16.07250000  F        3      -0.00000000       0.00000000      -0.14537709
Si       7.67917964       1.91979491      16.07250000  F        3       0.00000000       0.00000000      -0.14537709
Si       0.00000000       5.75938473      16.07250000  F        3       0.00000000       0.00000000      -0.14537709
Si       3.83958982       5.75938473      16.07250000  F        3       0.00000000      -0.00000000      -0.14537709
Si       7.67917964       5.75938473      16.07250000  F        3      -0.00000000      -0.00000000      -0.14537709
Si       0.00000000       0.00000000      17.43000000  F        2      -0.00000000       0.00000000       0.52822354
Si       3.83958982       0.00000000      17.43000000  F        2       0.00000000      -0.00000000       0.52822354
Si       7.67917964       0.00000000      17.43000000  F        2       0.00000000      -0.00000000       0.52822354
Si       0.00000000       3.83958982      17.43000000  F        2       0.00000000       0.00000000       0.52822354
Si       3.83958982       3.83958982      17.43000000  F        2       0.00000000      -0.00000000       0.52822354
Si       7.67917964       3.83958982      17.43000000  F        2      -0.00000000      -0.00000000       0.52822354
Si       1.91979491       0.00000000      18.78750000  F        1       0.00000000      -0.00000000      -0.24903483
Si       5.75938473       0.00000000      18.78750000  F        1      -0.00000000       0.00000000      -0.24903483
Si       9.59897455       0.00000000      18.78750000  F        1       0.00000000      -0.00000000      -0.24903483
Si       1.91979491       3.83958982      18.78750000  F        1       0.00000000       0.00000000      -0.24903483
Si       5.75938473       3.83958982      18.78750000  F        1       0.00000000       0.00000000      -0.24903483
Si       9.59897455       3.83958982      18.78750000  F        1      -0.00000000       0.00000000      -0.24903483
F        5.75938473       3.83958982      25.28750000  F        0       0.00000000       0.00000000       0.00058280
H        5.75938473       3.83958982      26.24873254  F        0       0.00000000       0.00000000      -0.00058280
38
Lattice="11.518769465528859 0.0 0.0 0.0 7.679179643685906 0.0 0.0 0.0 30.7875" Properties=species:S:1:pos:R:3:move_mask:L:1:tags:I:1:forces:R:3 surface=Si100 species=HF height_A=5.0 substrate_atoms=36 calculation_kind="Rigid approach energy evaluation; not NEB or TS" energy=-187.83852526514207 pbc="T T F"
Si       0.00000000       0.00000000      12.00000000  F        6       0.00000000       0.00000000       0.24903483
Si       3.83958982       0.00000000      12.00000000  F        6       0.00000000      -0.00000000       0.24903483
Si       7.67917964       0.00000000      12.00000000  F        6      -0.00000000       0.00000000       0.24903483
Si       0.00000000       3.83958982      12.00000000  F        6      -0.00000000      -0.00000000       0.24903483
Si       3.83958982       3.83958982      12.00000000  F        6       0.00000000       0.00000000       0.24903483
Si       7.67917964       3.83958982      12.00000000  F        6      -0.00000000      -0.00000000       0.24903483
Si       1.91979491       0.00000000      13.35750000  F        5       0.00000000       0.00000000      -0.52822354
Si       5.75938473       0.00000000      13.35750000  F        5      -0.00000000      -0.00000000      -0.52822354
Si       9.59897455       0.00000000      13.35750000  F        5      -0.00000000      -0.00000000      -0.52822354
Si       1.91979491       3.83958982      13.35750000  F        5       0.00000000       0.00000000      -0.52822354
Si       5.75938473       3.83958982      13.35750000  F        5       0.00000000       0.00000000      -0.52822354
Si       9.59897455       3.83958982      13.35750000  F        5       0.00000000       0.00000000      -0.52822354
Si       1.91979491       1.91979491      14.71500000  F        4      -0.00000000       0.00000000       0.14537709
Si       5.75938473       1.91979491      14.71500000  F        4      -0.00000000      -0.00000000       0.14537709
Si       9.59897455       1.91979491      14.71500000  F        4      -0.00000000       0.00000000       0.14537709
Si       1.91979491       5.75938473      14.71500000  F        4       0.00000000      -0.00000000       0.14537709
Si       5.75938473       5.75938473      14.71500000  F        4      -0.00000000      -0.00000000       0.14537709
Si       9.59897455       5.75938473      14.71500000  F        4      -0.00000000       0.00000000       0.14537709
Si       0.00000000       1.91979491      16.07250000  F        3      -0.00000000      -0.00000000      -0.14537709
Si       3.83958982       1.91979491      16.07250000  F        3      -0.00000000       0.00000000      -0.14537709
Si       7.67917964       1.91979491      16.07250000  F        3       0.00000000       0.00000000      -0.14537709
Si       0.00000000       5.75938473      16.07250000  F        3       0.00000000       0.00000000      -0.14537709
Si       3.83958982       5.75938473      16.07250000  F        3       0.00000000      -0.00000000      -0.14537709
Si       7.67917964       5.75938473      16.07250000  F        3      -0.00000000      -0.00000000      -0.14537709
Si       0.00000000       0.00000000      17.43000000  F        2      -0.00000000       0.00000000       0.52822354
Si       3.83958982       0.00000000      17.43000000  F        2       0.00000000      -0.00000000       0.52822354
Si       7.67917964       0.00000000      17.43000000  F        2       0.00000000      -0.00000000       0.52822354
Si       0.00000000       3.83958982      17.43000000  F        2       0.00000000       0.00000000       0.52822354
Si       3.83958982       3.83958982      17.43000000  F        2       0.00000000      -0.00000000       0.52822354
Si       7.67917964       3.83958982      17.43000000  F        2      -0.00000000      -0.00000000       0.52822354
Si       1.91979491       0.00000000      18.78750000  F        1       0.00000000      -0.00000000      -0.24903483
Si       5.75938473       0.00000000      18.78750000  F        1      -0.00000000       0.00000000      -0.24903483
Si       9.59897455       0.00000000      18.78750000  F        1       0.00000000      -0.00000000      -0.24903483
Si       1.91979491       3.83958982      18.78750000  F        1       0.00000000       0.00000000      -0.24903483
Si       5.75938473       3.83958982      18.78750000  F        1       0.00000000       0.00000000      -0.24903483
Si       9.59897455       3.83958982      18.78750000  F        1      -0.00000000       0.00000000      -0.24903483
F        5.75938473       3.83958982      23.78750000  F        0       0.00000000       0.00000000       0.00058280
H        5.75938473       3.83958982      24.74873254  F        0       0.00000000       0.00000000      -0.00058280
38
Lattice="11.518769465528859 0.0 0.0 0.0 7.679179643685906 0.0 0.0 0.0 30.7875" Properties=species:S:1:pos:R:3:move_mask:L:1:tags:I:1:forces:R:3 surface=Si100 species=HF height_A=4.0 substrate_atoms=36 calculation_kind="Rigid approach energy evaluation; not NEB or TS" energy=-187.99430303759706 pbc="T T F"
Si       0.00000000       0.00000000      12.00000000  F        6      -0.00000000       0.00000000       0.24901855
Si       3.83958982       0.00000000      12.00000000  F        6      -0.00019691      -0.00000000       0.24940813
Si       7.67917964       0.00000000      12.00000000  F        6       0.00019691       0.00000000       0.24940813
Si       0.00000000       3.83958982      12.00000000  F        6      -0.00000000      -0.00000000       0.24880921
Si       3.83958982       3.83958982      12.00000000  F        6      -0.00035434       0.00000000       0.24867640
Si       7.67917964       3.83958982      12.00000000  F        6       0.00035434       0.00000000       0.24867640
Si       1.91979491       0.00000000      13.35750000  F        5       0.00072274      -0.00000000      -0.52723673
Si       5.75938473       0.00000000      13.35750000  F        5       0.00000000       0.00000000      -0.52792248
Si       9.59897455       0.00000000      13.35750000  F        5      -0.00072274       0.00000000      -0.52723673
Si       1.91979491       3.83958982      13.35750000  F        5       0.00075345       0.00000000      -0.52620666
Si       5.75938473       3.83958982      13.35750000  F        5       0.00000000      -0.00000000      -0.52492871
Si       9.59897455       3.83958982      13.35750000  F        5      -0.00075345      -0.00000000      -0.52620666
Si       1.91979491       1.91979491      14.71500000  F        4       0.00271456      -0.00078078       0.14763422
Si       5.75938473       1.91979491      14.71500000  F        4       0.00000000      -0.00030750       0.14875802
Si       9.59897455       1.91979491      14.71500000  F        4      -0.00271456      -0.00078078       0.14763422
Si       1.91979491       5.75938473      14.71500000  F        4       0.00271456       0.00078078       0.14763422
Si       5.75938473       5.75938473      14.71500000  F        4      -0.00000000       0.00030750       0.14875802
Si       9.59897455       5.75938473      14.71500000  F        4      -0.00271456       0.00078078       0.14763422
Si       0.00000000       1.91979491      16.07250000  F        3      -0.00000000       0.00111292      -0.14467215
Si       3.83958982       1.91979491      16.07250000  F        3       0.00074942       0.00877172      -0.14282441
Si       7.67917964       1.91979491      16.07250000  F        3      -0.00074942       0.00877172      -0.14282441
Si       0.00000000       5.75938473      16.07250000  F        3      -0.00000000      -0.00111292      -0.14467215
Si       3.83958982       5.75938473      16.07250000  F        3       0.00074942      -0.00877172      -0.14282441
Si       7.67917964       5.75938473      16.07250000  F        3      -0.00074942      -0.00877172      -0.14282441
Si       0.00000000       0.00000000      17.43000000  F        2      -0.00000000      -0.00000000       0.52455773
Si       3.83958982       0.00000000      17.43000000  F        2      -0.00132566      -0.00000000       0.52181312
Si       7.67917964       0.00000000      17.43000000  F        2       0.00132566      -0.00000000       0.52181312
Si       0.00000000       3.83958982      17.43000000  F        2       0.00000000      -0.00000000       0.52956566
Si       3.83958982       3.83958982      17.43000000  F        2       0.01661755       0.00000000       0.53290291
Si       7.67917964       3.83958982      17.43000000  F        2      -0.01661755       0.00000000       0.53290291
Si       1.91979491       0.00000000      18.78750000  F        1       0.00084121      -0.00000000      -0.24805937
Si       5.75938473       0.00000000      18.78750000  F        1      -0.00000000      -0.00000000      -0.24674717
Si       9.59897455       0.00000000      18.78750000  F        1      -0.00084121       0.00000000      -0.24805937
Si       1.91979491       3.83958982      18.78750000  F        1       0.00372980      -0.00000000      -0.24716479
Si       5.75938473       3.83958982      18.78750000  F        1       0.00000000      -0.00000000      -0.11270234
Si       9.59897455       3.83958982      18.78750000  F        1      -0.00372980      -0.00000000      -0.24716479
F        5.75938473       3.83958982      22.78750000  F        0       0.00000000       0.00000000       0.05100161
H        5.75938473       3.83958982      23.74873254  F        0       0.00000000       0.00000000      -0.22632907
38
Lattice="11.518769465528859 0.0 0.0 0.0 7.679179643685906 0.0 0.0 0.0 30.7875" Properties=species:S:1:pos:R:3:move_mask:L:1:tags:I:1:forces:R:3 surface=Si100 species=HF height_A=3.25 substrate_atoms=36 calculation_kind="Rigid approach energy evaluation; not NEB or TS" energy=-188.06936442014444 pbc="T T F"
Si       0.00000000       0.00000000      12.00000000  F        6       0.00000000      -0.00000000       0.24922071
Si       3.83958982       0.00000000      12.00000000  F        6      -0.00075884       0.00000000       0.24940119
Si       7.67917964       0.00000000      12.00000000  F        6       0.00075884       0.00000000       0.24940119
Si       0.00000000       3.83958982      12.00000000  F        6      -0.00000000       0.00000000       0.24891993
Si       3.83958982       3.83958982      12.00000000  F        6      -0.00060451      -0.00000000       0.24895029
Si       7.67917964       3.83958982      12.00000000  F        6       0.00060451      -0.00000000       0.24895029
Si       1.91979491       0.00000000      13.35750000  F        5       0.00094622      -0.00000000      -0.52761021
Si       5.75938473       0.00000000      13.35750000  F        5       0.00000000       0.00000000      -0.52884749
Si       9.59897455       0.00000000      13.35750000  F        5      -0.00094622       0.00000000      -0.52761021
Si       1.91979491       3.83958982      13.35750000  F        5       0.00140735       0.00000000      -0.52416901
Si       5.75938473       3.83958982      13.35750000  F        5       0.00000000      -0.00000000      -0.52531106
Si       9.59897455       3.83958982      13.35750000  F        5      -0.00140735       0.00000000      -0.52416901
Si       1.91979491       1.91979491      14.71500000  F        4       0.00219469      -0.00222218       0.14503617
Si       5.75938473       1.91979491      14.71500000  F        4       0.00000000       0.00296443       0.15916766
Si       9.59897455       1.91979491      14.71500000  F        4      -0.00219469      -0.00222218       0.14503617
Si       1.91979491       5.75938473      14.71500000  F        4       0.00219469       0.00222218       0.14503617
Si       5.75938473       5.75938473      14.71500000  F        4      -0.00000000      -0.00296443       0.15916766
Si       9.59897455       5.75938473      14.71500000  F        4      -0.00219469       0.00222218       0.14503617
Si       0.00000000       1.91979491      16.07250000  F        3       0.00000000       0.00356183      -0.14372929
Si       3.83958982       1.91979491      16.07250000  F        3      -0.00043625       0.01798483      -0.13864589
Si       7.67917964       1.91979491      16.07250000  F        3       0.00043625       0.01798483      -0.13864589
Si       0.00000000       5.75938473      16.07250000  F        3      -0.00000000      -0.00356183      -0.14372929
Si       3.83958982       5.75938473      16.07250000  F        3      -0.00043625      -0.01798483      -0.13864589
Si       7.67917964       5.75938473      16.07250000  F        3       0.00043625      -0.01798483      -0.13864589
Si       0.00000000       0.00000000      17.43000000  F        2      -0.00000000       0.00000000       0.52408849
Si       3.83958982       0.00000000      17.43000000  F        2       0.00225647       0.00000000       0.52253207
Si       7.67917964       0.00000000      17.43000000  F        2      -0.00225647       0.00000000       0.52253207
Si       0.00000000       3.83958982      17.43000000  F        2       0.00000000      -0.00000000       0.52596495
Si       3.83958982       3.83958982      17.43000000  F        2       0.05549122       0.00000000       0.51820218
Si       7.67917964       3.83958982      17.43000000  F        2      -0.05549122      -0.00000000       0.51820218
Si       1.91979491       0.00000000      18.78750000  F        1       0.00250977       0.00000000      -0.24791168
Si       5.75938473       0.00000000      18.78750000  F        1       0.00000000       0.00000000      -0.23599419
Si       9.59897455       0.00000000      18.78750000  F        1      -0.00250977       0.00000000      -0.24791168
Si       1.91979491       3.83958982      18.78750000  F        1       0.00727515      -0.00000000      -0.25538174
Si       5.75938473       3.83958982      18.78750000  F        1      -0.00000000      -0.00000000      -0.24907059
Si       9.59897455       3.83958982      18.78750000  F        1      -0.00727515       0.00000000      -0.25538174
F        5.75938473       3.83958982      22.03750000  F        0      -0.00000000       0.00000000       0.36732985
H        5.75938473       3.83958982      22.99873254  F        0       0.00000000      -0.00000000      -0.40076462
38
Lattice="11.518769465528859 0.0 0.0 0.0 7.679179643685906 0.0 0.0 0.0 30.7875" Properties=species:S:1:pos:R:3:move_mask:L:1:tags:I:1:forces:R:3 surface=Si100 species=HF height_A=2.75 substrate_atoms=36 calculation_kind="Rigid approach energy evaluation; not NEB or TS" energy=-188.05434572916565 pbc="T T F"
Si       0.00000000       0.00000000      12.00000000  F        6      -0.00000000      -0.00000000       0.25072894
Si       3.83958982       0.00000000      12.00000000  F        6      -0.00139353       0.00000000       0.25058403
Si       7.67917964       0.00000000      12.00000000  F        6       0.00139353       0.00000000       0.25058403
Si       0.00000000       3.83958982      12.00000000  F        6       0.00000000       0.00000000       0.24868929
Si       3.83958982       3.83958982      12.00000000  F        6      -0.00130757      -0.00000000       0.24819462
Si       7.67917964       3.83958982      12.00000000  F        6       0.00130757      -0.00000000       0.24819462
Si       1.91979491       0.00000000      13.35750000  F        5       0.00130605      -0.00000000      -0.52786817
Si       5.75938473       0.00000000      13.35750000  F        5      -0.00000000      -0.00000000      -0.53147966
Si       9.59897455       0.00000000      13.35750000  F        5      -0.00130605       0.00000000      -0.52786817
Si       1.91979491       3.83958982      13.35750000  F        5       0.00004736       0.00000000      -0.52709098
Si       5.75938473       3.83958982      13.35750000  F        5      -0.00000000       0.00000000      -0.52363823
Si       9.59897455       3.83958982      13.35750000  F        5      -0.00004736      -0.00000000      -0.52709098
Si       1.91979491       1.91979491      14.71500000  F        4       0.00338425      -0.00451990       0.14655793
Si       5.75938473       1.91979491      14.71500000  F        4       0.00000000      -0.01985079       0.12743952
Si       9.59897455       1.91979491      14.71500000  F        4      -0.00338425      -0.00451990       0.14655793
Si       1.91979491       5.75938473      14.71500000  F        4       0.00338425       0.00451990       0.14655793
Si       5.75938473       5.75938473      14.71500000  F        4       0.00000000       0.01985079       0.12743952
Si       9.59897455       5.75938473      14.71500000  F        4      -0.00338425       0.00451990       0.14655793
Si       0.00000000       1.91979491      16.07250000  F        3      -0.00000000       0.00297984      -0.14372927
Si       3.83958982       1.91979491      16.07250000  F        3      -0.00155050       0.03719974      -0.10921572
Si       7.67917964       1.91979491      16.07250000  F        3       0.00155050       0.03719974      -0.10921572
Si       0.00000000       5.75938473      16.07250000  F        3       0.00000000      -0.00297984      -0.14372927
Si       3.83958982       5.75938473      16.07250000  F        3      -0.00155050      -0.03719974      -0.10921572
Si       7.67917964       5.75938473      16.07250000  F        3       0.00155050      -0.03719974      -0.10921572
Si       0.00000000       0.00000000      17.43000000  F        2      -0.00000000      -0.00000000       0.52013949
Si       3.83958982       0.00000000      17.43000000  F        2       0.02323635      -0.00000000       0.53618467
Si       7.67917964       0.00000000      17.43000000  F        2      -0.02323635      -0.00000000       0.53618467
Si       0.00000000       3.83958982      17.43000000  F        2      -0.00000000       0.00000000       0.53117443
Si       3.83958982       3.83958982      17.43000000  F        2       0.12523566      -0.00000000       0.52349499
Si       7.67917964       3.83958982      17.43000000  F        2      -0.12523566       0.00000000       0.52349499
Si       1.91979491       0.00000000      18.78750000  F        1       0.00228547       0.00000000      -0.24745547
Si       5.75938473       0.00000000      18.78750000  F        1       0.00000000      -0.00000000      -0.20382592
Si       9.59897455       0.00000000      18.78750000  F        1      -0.00228547      -0.00000000      -0.24745547
Si       1.91979491       3.83958982      18.78750000  F        1       0.04382425      -0.00000000      -0.24693360
Si       5.75938473       3.83958982      18.78750000  F        1       0.00000000       0.00000000      -0.61089773
Si       9.59897455       3.83958982      18.78750000  F        1      -0.04382425       0.00000000      -0.24693360
F        5.75938473       3.83958982      21.53750000  F        0      -0.00000000       0.00000000       0.87673326
H        5.75938473       3.83958982      22.49873254  F        0       0.00000000      -0.00000000      -0.69263341
38
Lattice="11.518769465528859 0.0 0.0 0.0 7.679179643685906 0.0 0.0 0.0 30.7875" Properties=species:S:1:pos:R:3:move_mask:L:1:tags:I:1:forces:R:3 surface=Si100 species=HF height_A=2.25 substrate_atoms=36 calculation_kind="Rigid approach energy evaluation; not NEB or TS" energy=-187.9491024433771 pbc="T T F"
Si       0.00000000       0.00000000      12.00000000  F        6       0.00000000       0.00000000       0.25270608
Si       3.83958982       0.00000000      12.00000000  F        6      -0.00101197       0.00000000       0.25131836
Si       7.67917964       0.00000000      12.00000000  F        6       0.00101197      -0.00000000       0.25131836
Si       0.00000000       3.83958982      12.00000000  F        6      -0.00000000      -0.00000000       0.24734048
Si       3.83958982       3.83958982      12.00000000  F        6      -0.00127302      -0.00000000       0.24554116
Si       7.67917964       3.83958982      12.00000000  F        6       0.00127302       0.00000000       0.24554116
Si       1.91979491       0.00000000      13.35750000  F        5       0.00037030       0.00000000      -0.52639774
Si       5.75938473       0.00000000      13.35750000  F        5      -0.00000000       0.00000000      -0.52989297
Si       9.59897455       0.00000000      13.35750000  F        5      -0.00037030       0.00000000      -0.52639774
Si       1.91979491       3.83958982      13.35750000  F        5       0.00101378      -0.00000000      -0.52778668
Si       5.75938473       3.83958982      13.35750000  F        5      -0.00000000      -0.00000000      -0.51008193
Si       9.59897455       3.83958982      13.35750000  F        5      -0.00101378      -0.00000000      -0.52778668
Si       1.91979491       1.91979491      14.71500000  F        4       0.01371625      -0.00507429       0.15796335
Si       5.75938473       1.91979491      14.71500000  F        4       0.00000000      -0.03286346       0.12753102
Si       9.59897455       1.91979491      14.71500000  F        4      -0.01371625      -0.00507429       0.15796335
Si       1.91979491       5.75938473      14.71500000  F        4       0.01371625       0.00507429       0.15796335
Si       5.75938473       5.75938473      14.71500000  F        4       0.00000000       0.03286346       0.12753102
Si       9.59897455       5.75938473      14.71500000  F        4      -0.01371625       0.00507429       0.15796335
Si       0.00000000       1.91979491      16.07250000  F        3       0.00000000       0.00912794      -0.14144127
Si       3.83958982       1.91979491      16.07250000  F        3       0.01239299       0.03224263      -0.12812974
Si       7.67917964       1.91979491      16.07250000  F        3      -0.01239299       0.03224263      -0.12812974
Si       0.00000000       5.75938473      16.07250000  F        3      -0.00000000      -0.00912794      -0.14144127
Si       3.83958982       5.75938473      16.07250000  F        3       0.01239299      -0.03224263      -0.12812974
Si       7.67917964       5.75938473      16.07250000  F        3      -0.01239299      -0.03224263      -0.12812974
Si       0.00000000       0.00000000      17.43000000  F        2      -0.00000000       0.00000000       0.51254132
Si       3.83958982       0.00000000      17.43000000  F        2       0.00874164       0.00000000       0.49162197
Si       7.67917964       0.00000000      17.43000000  F        2      -0.00874164      -0.00000000       0.49162197
Si       0.00000000       3.83958982      17.43000000  F        2       0.00000000      -0.00000000       0.53290955
Si       3.83958982       3.83958982      17.43000000  F        2       0.10585875       0.00000000       0.49920588
Si       7.67917964       3.83958982      17.43000000  F        2      -0.10585875      -0.00000000       0.49920588
Si       1.91979491       0.00000000      18.78750000  F        1       0.00235163      -0.00000000      -0.24575109
Si       5.75938473       0.00000000      18.78750000  F        1      -0.00000000      -0.00000000      -0.15914006
Si       9.59897455       0.00000000      18.78750000  F        1      -0.00235163      -0.00000000      -0.24575109
Si       1.91979491       3.83958982      18.78750000  F        1       0.09061182       0.00000000      -0.18933637
Si       5.75938473       3.83958982      18.78750000  F        1       0.00000000      -0.00000000      -0.71566729
Si       9.59897455       3.83958982      18.78750000  F        1      -0.09061182      -0.00000000      -0.18933637
F        5.75938473       3.83958982      21.03750000  F        0       0.00000000       0.00000000       0.90315846
H        5.75938473       3.83958982      21.99873254  F        0       0.00000000      -0.00000000      -0.62221857
38
Lattice="11.518769465528859 0.0 0.0 0.0 7.679179643685906 0.0 0.0 0.0 30.7875" Properties=species:S:1:pos:R:3:move_mask:L:1:tags:I:1:forces:R:3 surface=Si100 species=HF height_A=1.9 substrate_atoms=36 calculation_kind="Rigid approach energy evaluation; not NEB or TS" energy=-187.63006097318868 pbc="T T F"
Si       0.00000000       0.00000000      12.00000000  F        6       0.00000000      -0.00000000       0.25265126
Si       3.83958982       0.00000000      12.00000000  F        6      -0.00239561       0.00000000       0.25212352
Si       7.67917964       0.00000000      12.00000000  F        6       0.00239561      -0.00000000       0.25212352
Si       0.00000000       3.83958982      12.00000000  F        6      -0.00000000       0.00000000       0.24589817
Si       3.83958982       3.83958982      12.00000000  F        6      -0.00277495       0.00000000       0.24404412
Si       7.67917964       3.83958982      12.00000000  F        6       0.00277495       0.00000000       0.24404412
Si       1.91979491       0.00000000      13.35750000  F        5       0.00375116       0.00000000      -0.52303110
Si       5.75938473       0.00000000      13.35750000  F        5       0.00000000       0.00000000      -0.52722364
Si       9.59897455       0.00000000      13.35750000  F        5      -0.00375116      -0.00000000      -0.52303110
Si       1.91979491       3.83958982      13.35750000  F        5       0.00536242      -0.00000000      -0.52316961
Si       5.75938473       3.83958982      13.35750000  F        5       0.00000000      -0.00000000      -0.51290510
Si       9.59897455       3.83958982      13.35750000  F        5      -0.00536242       0.00000000      -0.52316961
Si       1.91979491       1.91979491      14.71500000  F        4       0.01447675      -0.00818110       0.15961976
Si       5.75938473       1.91979491      14.71500000  F        4       0.00000000      -0.00700038       0.19848607
Si       9.59897455       1.91979491      14.71500000  F        4      -0.01447675      -0.00818110       0.15961976
Si       1.91979491       5.75938473      14.71500000  F        4       0.01447675       0.00818110       0.15961976
Si       5.75938473       5.75938473      14.71500000  F        4      -0.00000000       0.00700038       0.19848607
Si       9.59897455       5.75938473      14.71500000  F        4      -0.01447675       0.00818110       0.15961976
Si       0.00000000       1.91979491      16.07250000  F        3       0.00000000       0.01992945      -0.13383749
Si       3.83958982       1.91979491      16.07250000  F        3       0.02893087       0.04534504      -0.14680998
Si       7.67917964       1.91979491      16.07250000  F        3      -0.02893087       0.04534504      -0.14680998
Si       0.00000000       5.75938473      16.07250000  F        3       0.00000000      -0.01992945      -0.13383749
Si       3.83958982       5.75938473      16.07250000  F        3       0.02893087      -0.04534504      -0.14680998
Si       7.67917964       5.75938473      16.07250000  F        3      -0.02893087      -0.04534504      -0.14680998
Si       0.00000000       0.00000000      17.43000000  F        2      -0.00000000      -0.00000000       0.48858426
Si       3.83958982       0.00000000      17.43000000  F        2      -0.03377268      -0.00000000       0.44454595
Si       7.67917964       0.00000000      17.43000000  F        2       0.03377268      -0.00000000       0.44454595
Si       0.00000000       3.83958982      17.43000000  F        2      -0.00000000      -0.00000000       0.52289924
Si       3.83958982       3.83958982      17.43000000  F        2      -0.27527395       0.00000000       0.20870696
Si       7.67917964       3.83958982      17.43000000  F        2       0.27527395      -0.00000000       0.20870696
Si       1.91979491       0.00000000      18.78750000  F        1      -0.00633411      -0.00000000      -0.22948876
Si       5.75938473       0.00000000      18.78750000  F        1      -0.00000000      -0.00000000      -0.09365620
Si       9.59897455       0.00000000      18.78750000  F        1       0.00633411       0.00000000      -0.22948876
Si       1.91979491       3.83958982      18.78750000  F        1       0.06803425       0.00000000      -0.14728603
Si       5.75938473       3.83958982      18.78750000  F        1       0.00000000       0.00000000      -1.82318860
Si       9.59897455       3.83958982      18.78750000  F        1      -0.06803425      -0.00000000      -0.14728603
F        5.75938473       3.83958982      20.68750000  F        0      -0.00000000       0.00000000       2.79415898
H        5.75938473       3.83958982      21.64873254  F        0      -0.00000000      -0.00000000      -0.98064477
38
Lattice="11.518769465528859 0.0 0.0 0.0 7.679179643685906 0.0 0.0 0.0 30.7875" Properties=species:S:1:pos:R:3:move_mask:L:1:tags:I:1:forces:R:3 surface=Si100 species=HF height_A=1.6 substrate_atoms=36 calculation_kind="Rigid approach energy evaluation; not NEB or TS" energy=-186.6637169768868 pbc="T T F"
Si       0.00000000       0.00000000      12.00000000  F        6       0.00000000      -0.00000000       0.25302849
Si       3.83958982       0.00000000      12.00000000  F        6      -0.00258329       0.00000000       0.25354209
Si       7.67917964       0.00000000      12.00000000  F        6       0.00258329      -0.00000000       0.25354209
Si       0.00000000       3.83958982      12.00000000  F        6       0.00000000       0.00000000       0.24569498
Si       3.83958982       3.83958982      12.00000000  F        6      -0.00245840      -0.00000000       0.24546273
Si       7.67917964       3.83958982      12.00000000  F        6       0.00245840       0.00000000       0.24546273
Si       1.91979491       0.00000000      13.35750000  F        5       0.00562644      -0.00000000      -0.52087334
Si       5.75938473       0.00000000      13.35750000  F        5      -0.00000000       0.00000000      -0.53085947
Si       9.59897455       0.00000000      13.35750000  F        5      -0.00562644      -0.00000000      -0.52087334
Si       1.91979491       3.83958982      13.35750000  F        5       0.01102213      -0.00000000      -0.51305288
Si       5.75938473       3.83958982      13.35750000  F        5      -0.00000000      -0.00000000      -0.52819238
Si       9.59897455       3.83958982      13.35750000  F        5      -0.01102213      -0.00000000      -0.51305288
Si       1.91979491       1.91979491      14.71500000  F        4      -0.00077326      -0.01212807       0.14750612
Si       5.75938473       1.91979491      14.71500000  F        4       0.00000000      -0.00583398       0.19790558
Si       9.59897455       1.91979491      14.71500000  F        4       0.00077326      -0.01212807       0.14750612
Si       1.91979491       5.75938473      14.71500000  F        4      -0.00077326       0.01212807       0.14750612
Si       5.75938473       5.75938473      14.71500000  F        4      -0.00000000       0.00583398       0.19790558
Si       9.59897455       5.75938473      14.71500000  F        4       0.00077326       0.01212807       0.14750612
Si       0.00000000       1.91979491      16.07250000  F        3      -0.00000000       0.02804220      -0.12748440
Si       3.83958982       1.91979491      16.07250000  F        3       0.01713529       0.02852316      -0.14370540
Si       7.67917964       1.91979491      16.07250000  F        3      -0.01713529       0.02852316      -0.14370540
Si       0.00000000       5.75938473      16.07250000  F        3       0.00000000      -0.02804220      -0.12748440
Si       3.83958982       5.75938473      16.07250000  F        3       0.01713529      -0.02852316      -0.14370540
Si       7.67917964       5.75938473      16.07250000  F        3      -0.01713529      -0.02852316      -0.14370540
Si       0.00000000       0.00000000      17.43000000  F        2       0.00000000      -0.00000000       0.46811849
Si       3.83958982       0.00000000      17.43000000  F        2      -0.08179130      -0.00000000       0.43989208
Si       7.67917964       0.00000000      17.43000000  F        2       0.08179130      -0.00000000       0.43989208
Si       0.00000000       3.83958982      17.43000000  F        2      -0.00000000      -0.00000000       0.52943871
Si       3.83958982       3.83958982      17.43000000  F        2      -0.45862686      -0.00000000       0.08311667
Si       7.67917964       3.83958982      17.43000000  F        2       0.45862686       0.00000000       0.08311667
Si       1.91979491       0.00000000      18.78750000  F        1      -0.00299604       0.00000000      -0.21831271
Si       5.75938473       0.00000000      18.78750000  F        1       0.00000000       0.00000000      -0.07235189
Si       9.59897455       0.00000000      18.78750000  F        1       0.00299604      -0.00000000      -0.21831271
Si       1.91979491       3.83958982      18.78750000  F        1      -0.03340524       0.00000000      -0.14804234
Si       5.75938473       3.83958982      18.78750000  F        1      -0.00000000       0.00000000      -5.08882071
Si       9.59897455       3.83958982      18.78750000  F        1       0.03340524       0.00000000      -0.14804234
F        5.75938473       3.83958982      20.38750000  F        0      -0.00000000       0.00000000       6.53665796
H        5.75938473       3.83958982      21.34873254  F        0      -0.00000000       0.00000000      -1.21222401
38
Lattice="11.518769465528859 0.0 0.0 0.0 7.679179643685906 0.0 0.0 0.0 30.7875" Properties=species:S:1:pos:R:3:move_mask:L:1:tags:I:1:forces:R:3 surface=Si100 species=HF height_A=1.3 substrate_atoms=36 calculation_kind="Rigid approach energy evaluation; not NEB or TS" energy=-182.14020744284073 pbc="T T F"
Si       0.00000000       0.00000000      12.00000000  F        6      -0.00000000       0.00000000       0.25420504
Si       3.83958982       0.00000000      12.00000000  F        6      -0.00140951      -0.00000000       0.25611620
Si       7.67917964       0.00000000      12.00000000  F        6       0.00140951       0.00000000       0.25611620
Si       0.00000000       3.83958982      12.00000000  F        6      -0.00000000       0.00000000       0.24610340
Si       3.83958982       3.83958982      12.00000000  F        6      -0.00151247       0.00000000       0.24633989
Si       7.67917964       3.83958982      12.00000000  F        6       0.00151247      -0.00000000       0.24633989
Si       1.91979491       0.00000000      13.35750000  F        5       0.00452280      -0.00000000      -0.51801012
Si       5.75938473       0.00000000      13.35750000  F        5       0.00000000       0.00000000      -0.53647224
Si       9.59897455       0.00000000      13.35750000  F        5      -0.00452280       0.00000000      -0.51801012
Si       1.91979491       3.83958982      13.35750000  F        5       0.00959007      -0.00000000      -0.51511789
Si       5.75938473       3.83958982      13.35750000  F        5      -0.00000000      -0.00000000      -0.52839813
Si       9.59897455       3.83958982      13.35750000  F        5      -0.00959007      -0.00000000      -0.51511789
Si       1.91979491       1.91979491      14.71500000  F        4      -0.00306285      -0.01271173       0.14926144
Si       5.75938473       1.91979491      14.71500000  F        4       0.00000000      -0.03933925       0.16363833
Si       9.59897455       1.91979491      14.71500000  F        4       0.00306285      -0.01271173       0.14926144
Si       1.91979491       5.75938473      14.71500000  F        4      -0.00306285       0.01271173       0.14926144
Si       5.75938473       5.75938473      14.71500000  F        4       0.00000000       0.03933925       0.16363833
Si       9.59897455       5.75938473      14.71500000  F        4       0.00306285       0.01271173       0.14926144
Si       0.00000000       1.91979491      16.07250000  F        3      -0.00000000       0.02271712      -0.13069195
Si       3.83958982       1.91979491      16.07250000  F        3      -0.04018856      -0.12579450      -0.20708158
Si       7.67917964       1.91979491      16.07250000  F        3       0.04018856      -0.12579450      -0.20708158
Si       0.00000000       5.75938473      16.07250000  F        3      -0.00000000      -0.02271712      -0.13069195
Si       3.83958982       5.75938473      16.07250000  F        3      -0.04018856       0.12579450      -0.20708158
Si       7.67917964       5.75938473      16.07250000  F        3       0.04018856       0.12579450      -0.20708158
Si       0.00000000       0.00000000      17.43000000  F        2       0.00000000       0.00000000       0.45302524
Si       3.83958982       0.00000000      17.43000000  F        2      -0.10516580       0.00000000       0.44644851
Si       7.67917964       0.00000000      17.43000000  F        2       0.10516580       0.00000000       0.44644851
Si       0.00000000       3.83958982      17.43000000  F        2       0.00000000       0.00000000       0.52883593
Si       3.83958982       3.83958982      17.43000000  F        2       0.00922776      -0.00000000       0.27488327
Si       7.67917964       3.83958982      17.43000000  F        2      -0.00922776      -0.00000000       0.27488327
Si       1.91979491       0.00000000      18.78750000  F        1      -0.00197717      -0.00000000      -0.20237793
Si       5.75938473       0.00000000      18.78750000  F        1      -0.00000000      -0.00000000      -0.03998151
Si       9.59897455       0.00000000      18.78750000  F        1       0.00197717       0.00000000      -0.20237793
Si       1.91979491       3.83958982      18.78750000  F        1      -0.26642434      -0.00000000      -0.10013082
Si       5.75938473       3.83958982      18.78750000  F        1       0.00000000       0.00000000     -29.95398334
Si       9.59897455       3.83958982      18.78750000  F        1       0.26642434      -0.00000000      -0.10013082
F        5.75938473       3.83958982      20.08750000  F        0       0.00000000       0.00000000      28.17603785
H        5.75938473       3.83958982      21.04873254  F        0       0.00000000      -0.00000000       1.78971332
