33
Lattice="7.6044 0.0 0.0 -3.802199999999998 6.585603580538386 0.0 0.0 -0.0 28.35945" Properties=species:S:1:pos:R:3:move_mask:L:1:spacegroup_kinds:I:1:tags:I:1 spacegroup="P 63/m" unit_cell=conventional occupancy="_JSON {\"0\": {\"Si\": 1.0}, \"1\": {\"N\": 1.0}, \"2\": {\"N\": 1.0}}" surface=beta_Si3N4_001 species=CH3F site=atop_N orientation=flipped height_A=6.5 substrate_atoms=28 calculation_kind="Rigid evaluated approach scan; not NEB" energy=-234.38053170786142 pbc="T T F"
Si       5.18010587       1.14956320      12.00000000  F        0        2
Si      -1.37790587       5.43604038      13.45315000  F        0        2
Si       4.01879613       3.91132168      12.00000000  F        0        2
Si      -0.21659613       2.67428190      13.45315000  F        0        2
Si       2.20769800       1.52471870      12.00000000  F        0        2
Si       1.59450200       5.06088488      13.45315000  F        0        2
N       -1.02370433       2.17482973      12.00000000  F        1        2
N        4.82590433       4.41077385      13.45315000  F        1        2
N        2.43059437       4.61163476      12.00000000  F        1        2
N        1.37160563       1.97396882      13.45315000  F        1        2
N       -1.40689004       6.38474267      12.00000000  F        1        2
N        5.20909004       0.20086091      13.45315000  F        1        2
N        3.80216198       2.19517924      12.00000000  F        2        2
N        0.00003802       4.39042434      13.45315000  F        2        2
Si       5.18010587       1.14956320      14.90630000  F        0        1
Si      -1.37790587       5.43604038      16.35945000  F        0        1
Si       4.01879613       3.91132168      14.90630000  F        0        1
Si      -0.21659613       2.67428190      16.35945000  F        0        1
Si       2.20769800       1.52471870      14.90630000  F        0        1
Si       1.59450200       5.06088488      16.35945000  F        0        1
N       -1.02370433       2.17482973      14.90630000  F        1        1
N        4.82590433       4.41077385      16.35945000  F        1        1
N        2.43059437       4.61163476      14.90630000  F        1        1
N        1.37160563       1.97396882      16.35945000  F        1        1
N       -1.40689004       6.38474267      14.90630000  F        1        1
N        5.20909004       0.20086091      16.35945000  F        1        1
N        3.80216198       2.19517924      14.90630000  F        2        1
N        0.00003802       4.39042434      16.35945000  F        2        1
F        0.00003802       4.39042434      24.59882412  T        0        0
C        0.00003802       4.39042434      23.17917199  T        0        0
H       -1.04672840       4.39042434      22.85945000  T        0        0
H        0.52342123       5.29695066      22.85945000  T        0        0
H        0.52342123       3.48389802      22.85945000  T        0        0
33
Lattice="7.6044 0.0 0.0 -3.802199999999998 6.585603580538386 0.0 0.0 -0.0 28.35945" Properties=species:S:1:pos:R:3:move_mask:L:1:spacegroup_kinds:I:1:tags:I:1 spacegroup="P 63/m" unit_cell=conventional occupancy="_JSON {\"0\": {\"Si\": 1.0}, \"1\": {\"N\": 1.0}, \"2\": {\"N\": 1.0}}" surface=beta_Si3N4_001 species=CH3F site=atop_N orientation=flipped height_A=5.0 substrate_atoms=28 calculation_kind="Rigid evaluated approach scan; not NEB" energy=-234.38053170786142 pbc="T T F"
Si       5.18010587       1.14956320      12.00000000  F        0        2
Si      -1.37790587       5.43604038      13.45315000  F        0        2
Si       4.01879613       3.91132168      12.00000000  F        0        2
Si      -0.21659613       2.67428190      13.45315000  F        0        2
Si       2.20769800       1.52471870      12.00000000  F        0        2
Si       1.59450200       5.06088488      13.45315000  F        0        2
N       -1.02370433       2.17482973      12.00000000  F        1        2
N        4.82590433       4.41077385      13.45315000  F        1        2
N        2.43059437       4.61163476      12.00000000  F        1        2
N        1.37160563       1.97396882      13.45315000  F        1        2
N       -1.40689004       6.38474267      12.00000000  F        1        2
N        5.20909004       0.20086091      13.45315000  F        1        2
N        3.80216198       2.19517924      12.00000000  F        2        2
N        0.00003802       4.39042434      13.45315000  F        2        2
Si       5.18010587       1.14956320      14.90630000  F        0        1
Si      -1.37790587       5.43604038      16.35945000  F        0        1
Si       4.01879613       3.91132168      14.90630000  F        0        1
Si      -0.21659613       2.67428190      16.35945000  F        0        1
Si       2.20769800       1.52471870      14.90630000  F        0        1
Si       1.59450200       5.06088488      16.35945000  F        0        1
N       -1.02370433       2.17482973      14.90630000  F        1        1
N        4.82590433       4.41077385      16.35945000  F        1        1
N        2.43059437       4.61163476      14.90630000  F        1        1
N        1.37160563       1.97396882      16.35945000  F        1        1
N       -1.40689004       6.38474267      14.90630000  F        1        1
N        5.20909004       0.20086091      16.35945000  F        1        1
N        3.80216198       2.19517924      14.90630000  F        2        1
N        0.00003802       4.39042434      16.35945000  F        2        1
F        0.00003802       4.39042434      23.09882412  T        0        0
C        0.00003802       4.39042434      21.67917199  T        0        0
H       -1.04672840       4.39042434      21.35945000  T        0        0
H        0.52342123       5.29695066      21.35945000  T        0        0
H        0.52342123       3.48389802      21.35945000  T        0        0
33
Lattice="7.6044 0.0 0.0 -3.802199999999998 6.585603580538386 0.0 0.0 -0.0 28.35945" Properties=species:S:1:pos:R:3:move_mask:L:1:spacegroup_kinds:I:1:tags:I:1 spacegroup="P 63/m" unit_cell=conventional occupancy="_JSON {\"0\": {\"Si\": 1.0}, \"1\": {\"N\": 1.0}, \"2\": {\"N\": 1.0}}" surface=beta_Si3N4_001 species=CH3F site=atop_N orientation=flipped height_A=4.0 substrate_atoms=28 calculation_kind="Rigid evaluated approach scan; not NEB" energy=-234.43226882589605 pbc="T T F"
Si       5.18010587       1.14956320      12.00000000  F        0        2
Si      -1.37790587       5.43604038      13.45315000  F        0        2
Si       4.01879613       3.91132168      12.00000000  F        0        2
Si      -0.21659613       2.67428190      13.45315000  F        0        2
Si       2.20769800       1.52471870      12.00000000  F        0        2
Si       1.59450200       5.06088488      13.45315000  F        0        2
N       -1.02370433       2.17482973      12.00000000  F        1        2
N        4.82590433       4.41077385      13.45315000  F        1        2
N        2.43059437       4.61163476      12.00000000  F        1        2
N        1.37160563       1.97396882      13.45315000  F        1        2
N       -1.40689004       6.38474267      12.00000000  F        1        2
N        5.20909004       0.20086091      13.45315000  F        1        2
N        3.80216198       2.19517924      12.00000000  F        2        2
N        0.00003802       4.39042434      13.45315000  F        2        2
Si       5.18010587       1.14956320      14.90630000  F        0        1
Si      -1.37790587       5.43604038      16.35945000  F        0        1
Si       4.01879613       3.91132168      14.90630000  F        0        1
Si      -0.21659613       2.67428190      16.35945000  F        0        1
Si       2.20769800       1.52471870      14.90630000  F        0        1
Si       1.59450200       5.06088488      16.35945000  F        0        1
N       -1.02370433       2.17482973      14.90630000  F        1        1
N        4.82590433       4.41077385      16.35945000  F        1        1
N        2.43059437       4.61163476      14.90630000  F        1        1
N        1.37160563       1.97396882      16.35945000  F        1        1
N       -1.40689004       6.38474267      14.90630000  F        1        1
N        5.20909004       0.20086091      16.35945000  F        1        1
N        3.80216198       2.19517924      14.90630000  F        2        1
N        0.00003802       4.39042434      16.35945000  F        2        1
F        0.00003802       4.39042434      22.09882412  T        0        0
C        0.00003802       4.39042434      20.67917199  T        0        0
H       -1.04672840       4.39042434      20.35945000  T        0        0
H        0.52342123       5.29695066      20.35945000  T        0        0
H        0.52342123       3.48389802      20.35945000  T        0        0
33
Lattice="7.6044 0.0 0.0 -3.802199999999998 6.585603580538386 0.0 0.0 -0.0 28.35945" Properties=species:S:1:pos:R:3:move_mask:L:1:spacegroup_kinds:I:1:tags:I:1 spacegroup="P 63/m" unit_cell=conventional occupancy="_JSON {\"0\": {\"Si\": 1.0}, \"1\": {\"N\": 1.0}, \"2\": {\"N\": 1.0}}" surface=beta_Si3N4_001 species=CH3F site=atop_N orientation=flipped height_A=3.25 substrate_atoms=28 calculation_kind="Rigid evaluated approach scan; not NEB" energy=-234.56835695631935 pbc="T T F"
Si       5.18010587       1.14956320      12.00000000  F        0        2
Si      -1.37790587       5.43604038      13.45315000  F        0        2
Si       4.01879613       3.91132168      12.00000000  F        0        2
Si      -0.21659613       2.67428190      13.45315000  F        0        2
Si       2.20769800       1.52471870      12.00000000  F        0        2
Si       1.59450200       5.06088488      13.45315000  F        0        2
N       -1.02370433       2.17482973      12.00000000  F        1        2
N        4.82590433       4.41077385      13.45315000  F        1        2
N        2.43059437       4.61163476      12.00000000  F        1        2
N        1.37160563       1.97396882      13.45315000  F        1        2
N       -1.40689004       6.38474267      12.00000000  F        1        2
N        5.20909004       0.20086091      13.45315000  F        1        2
N        3.80216198       2.19517924      12.00000000  F        2        2
N        0.00003802       4.39042434      13.45315000  F        2        2
Si       5.18010587       1.14956320      14.90630000  F        0        1
Si      -1.37790587       5.43604038      16.35945000  F        0        1
Si       4.01879613       3.91132168      14.90630000  F        0        1
Si      -0.21659613       2.67428190      16.35945000  F        0        1
Si       2.20769800       1.52471870      14.90630000  F        0        1
Si       1.59450200       5.06088488      16.35945000  F        0        1
N       -1.02370433       2.17482973      14.90630000  F        1        1
N        4.82590433       4.41077385      16.35945000  F        1        1
N        2.43059437       4.61163476      14.90630000  F        1        1
N        1.37160563       1.97396882      16.35945000  F        1        1
N       -1.40689004       6.38474267      14.90630000  F        1        1
N        5.20909004       0.20086091      16.35945000  F        1        1
N        3.80216198       2.19517924      14.90630000  F        2        1
N        0.00003802       4.39042434      16.35945000  F        2        1
F        0.00003802       4.39042434      21.34882412  T        0        0
C        0.00003802       4.39042434      19.92917199  T        0        0
H       -1.04672840       4.39042434      19.60945000  T        0        0
H        0.52342123       5.29695066      19.60945000  T        0        0
H        0.52342123       3.48389802      19.60945000  T        0        0
33
Lattice="7.6044 0.0 0.0 -3.802199999999998 6.585603580538386 0.0 0.0 -0.0 28.35945" Properties=species:S:1:pos:R:3:move_mask:L:1:spacegroup_kinds:I:1:tags:I:1 spacegroup="P 63/m" unit_cell=conventional occupancy="_JSON {\"0\": {\"Si\": 1.0}, \"1\": {\"N\": 1.0}, \"2\": {\"N\": 1.0}}" surface=beta_Si3N4_001 species=CH3F site=atop_N orientation=flipped height_A=2.75 substrate_atoms=28 calculation_kind="Rigid evaluated approach scan; not NEB" energy=-234.5854044831968 pbc="T T F"
Si       5.18010587       1.14956320      12.00000000  F        0        2
Si      -1.37790587       5.43604038      13.45315000  F        0        2
Si       4.01879613       3.91132168      12.00000000  F        0        2
Si      -0.21659613       2.67428190      13.45315000  F        0        2
Si       2.20769800       1.52471870      12.00000000  F        0        2
Si       1.59450200       5.06088488      13.45315000  F        0        2
N       -1.02370433       2.17482973      12.00000000  F        1        2
N        4.82590433       4.41077385      13.45315000  F        1        2
N        2.43059437       4.61163476      12.00000000  F        1        2
N        1.37160563       1.97396882      13.45315000  F        1        2
N       -1.40689004       6.38474267      12.00000000  F        1        2
N        5.20909004       0.20086091      13.45315000  F        1        2
N        3.80216198       2.19517924      12.00000000  F        2        2
N        0.00003802       4.39042434      13.45315000  F        2        2
Si       5.18010587       1.14956320      14.90630000  F        0        1
Si      -1.37790587       5.43604038      16.35945000  F        0        1
Si       4.01879613       3.91132168      14.90630000  F        0        1
Si      -0.21659613       2.67428190      16.35945000  F        0        1
Si       2.20769800       1.52471870      14.90630000  F        0        1
Si       1.59450200       5.06088488      16.35945000  F        0        1
N       -1.02370433       2.17482973      14.90630000  F        1        1
N        4.82590433       4.41077385      16.35945000  F        1        1
N        2.43059437       4.61163476      14.90630000  F        1        1
N        1.37160563       1.97396882      16.35945000  F        1        1
N       -1.40689004       6.38474267      14.90630000  F        1        1
N        5.20909004       0.20086091      16.35945000  F        1        1
N        3.80216198       2.19517924      14.90630000  F        2        1
N        0.00003802       4.39042434      16.35945000  F        2        1
F        0.00003802       4.39042434      20.84882412  T        0        0
C        0.00003802       4.39042434      19.42917199  T        0        0
H       -1.04672840       4.39042434      19.10945000  T        0        0
H        0.52342123       5.29695066      19.10945000  T        0        0
H        0.52342123       3.48389802      19.10945000  T        0        0
33
Lattice="7.6044 0.0 0.0 -3.802199999999998 6.585603580538386 0.0 0.0 -0.0 28.35945" Properties=species:S:1:pos:R:3:move_mask:L:1:spacegroup_kinds:I:1:tags:I:1 spacegroup="P 63/m" unit_cell=conventional occupancy="_JSON {\"0\": {\"Si\": 1.0}, \"1\": {\"N\": 1.0}, \"2\": {\"N\": 1.0}}" surface=beta_Si3N4_001 species=CH3F site=atop_N orientation=flipped height_A=2.25 substrate_atoms=28 calculation_kind="Rigid evaluated approach scan; not NEB" energy=-234.13491868990616 pbc="T T F"
Si       5.18010587       1.14956320      12.00000000  F        0        2
Si      -1.37790587       5.43604038      13.45315000  F        0        2
Si       4.01879613       3.91132168      12.00000000  F        0        2
Si      -0.21659613       2.67428190      13.45315000  F        0        2
Si       2.20769800       1.52471870      12.00000000  F        0        2
Si       1.59450200       5.06088488      13.45315000  F        0        2
N       -1.02370433       2.17482973      12.00000000  F        1        2
N        4.82590433       4.41077385      13.45315000  F        1        2
N        2.43059437       4.61163476      12.00000000  F        1        2
N        1.37160563       1.97396882      13.45315000  F        1        2
N       -1.40689004       6.38474267      12.00000000  F        1        2
N        5.20909004       0.20086091      13.45315000  F        1        2
N        3.80216198       2.19517924      12.00000000  F        2        2
N        0.00003802       4.39042434      13.45315000  F        2        2
Si       5.18010587       1.14956320      14.90630000  F        0        1
Si      -1.37790587       5.43604038      16.35945000  F        0        1
Si       4.01879613       3.91132168      14.90630000  F        0        1
Si      -0.21659613       2.67428190      16.35945000  F        0        1
Si       2.20769800       1.52471870      14.90630000  F        0        1
Si       1.59450200       5.06088488      16.35945000  F        0        1
N       -1.02370433       2.17482973      14.90630000  F        1        1
N        4.82590433       4.41077385      16.35945000  F        1        1
N        2.43059437       4.61163476      14.90630000  F        1        1
N        1.37160563       1.97396882      16.35945000  F        1        1
N       -1.40689004       6.38474267      14.90630000  F        1        1
N        5.20909004       0.20086091      16.35945000  F        1        1
N        3.80216198       2.19517924      14.90630000  F        2        1
N        0.00003802       4.39042434      16.35945000  F        2        1
F        0.00003802       4.39042434      20.34882412  T        0        0
C        0.00003802       4.39042434      18.92917199  T        0        0
H       -1.04672840       4.39042434      18.60945000  T        0        0
H        0.52342123       5.29695066      18.60945000  T        0        0
H        0.52342123       3.48389802      18.60945000  T        0        0
33
Lattice="7.6044 0.0 0.0 -3.802199999999998 6.585603580538386 0.0 0.0 -0.0 28.35945" Properties=species:S:1:pos:R:3:move_mask:L:1:spacegroup_kinds:I:1:tags:I:1 spacegroup="P 63/m" unit_cell=conventional occupancy="_JSON {\"0\": {\"Si\": 1.0}, \"1\": {\"N\": 1.0}, \"2\": {\"N\": 1.0}}" surface=beta_Si3N4_001 species=CH3F site=atop_N orientation=flipped height_A=1.9 substrate_atoms=28 calculation_kind="Rigid evaluated approach scan; not NEB" energy=-233.128111292182 pbc="T T F"
Si       5.18010587       1.14956320      12.00000000  F        0        2
Si      -1.37790587       5.43604038      13.45315000  F        0        2
Si       4.01879613       3.91132168      12.00000000  F        0        2
Si      -0.21659613       2.67428190      13.45315000  F        0        2
Si       2.20769800       1.52471870      12.00000000  F        0        2
Si       1.59450200       5.06088488      13.45315000  F        0        2
N       -1.02370433       2.17482973      12.00000000  F        1        2
N        4.82590433       4.41077385      13.45315000  F        1        2
N        2.43059437       4.61163476      12.00000000  F        1        2
N        1.37160563       1.97396882      13.45315000  F        1        2
N       -1.40689004       6.38474267      12.00000000  F        1        2
N        5.20909004       0.20086091      13.45315000  F        1        2
N        3.80216198       2.19517924      12.00000000  F        2        2
N        0.00003802       4.39042434      13.45315000  F        2        2
Si       5.18010587       1.14956320      14.90630000  F        0        1
Si      -1.37790587       5.43604038      16.35945000  F        0        1
Si       4.01879613       3.91132168      14.90630000  F        0        1
Si      -0.21659613       2.67428190      16.35945000  F        0        1
Si       2.20769800       1.52471870      14.90630000  F        0        1
Si       1.59450200       5.06088488      16.35945000  F        0        1
N       -1.02370433       2.17482973      14.90630000  F        1        1
N        4.82590433       4.41077385      16.35945000  F        1        1
N        2.43059437       4.61163476      14.90630000  F        1        1
N        1.37160563       1.97396882      16.35945000  F        1        1
N       -1.40689004       6.38474267      14.90630000  F        1        1
N        5.20909004       0.20086091      16.35945000  F        1        1
N        3.80216198       2.19517924      14.90630000  F        2        1
N        0.00003802       4.39042434      16.35945000  F        2        1
F        0.00003802       4.39042434      19.99882412  T        0        0
C        0.00003802       4.39042434      18.57917199  T        0        0
H       -1.04672840       4.39042434      18.25945000  T        0        0
H        0.52342123       5.29695066      18.25945000  T        0        0
H        0.52342123       3.48389802      18.25945000  T        0        0
33
Lattice="7.6044 0.0 0.0 -3.802199999999998 6.585603580538386 0.0 0.0 -0.0 28.35945" Properties=species:S:1:pos:R:3:move_mask:L:1:spacegroup_kinds:I:1:tags:I:1 spacegroup="P 63/m" unit_cell=conventional occupancy="_JSON {\"0\": {\"Si\": 1.0}, \"1\": {\"N\": 1.0}, \"2\": {\"N\": 1.0}}" surface=beta_Si3N4_001 species=CH3F site=atop_N orientation=flipped height_A=1.6 substrate_atoms=28 calculation_kind="Rigid evaluated approach scan; not NEB" energy=-231.5535158355037 pbc="T T F"
Si       5.18010587       1.14956320      12.00000000  F        0        2
Si      -1.37790587       5.43604038      13.45315000  F        0        2
Si       4.01879613       3.91132168      12.00000000  F        0        2
Si      -0.21659613       2.67428190      13.45315000  F        0        2
Si       2.20769800       1.52471870      12.00000000  F        0        2
Si       1.59450200       5.06088488      13.45315000  F        0        2
N       -1.02370433       2.17482973      12.00000000  F        1        2
N        4.82590433       4.41077385      13.45315000  F        1        2
N        2.43059437       4.61163476      12.00000000  F        1        2
N        1.37160563       1.97396882      13.45315000  F        1        2
N       -1.40689004       6.38474267      12.00000000  F        1        2
N        5.20909004       0.20086091      13.45315000  F        1        2
N        3.80216198       2.19517924      12.00000000  F        2        2
N        0.00003802       4.39042434      13.45315000  F        2        2
Si       5.18010587       1.14956320      14.90630000  F        0        1
Si      -1.37790587       5.43604038      16.35945000  F        0        1
Si       4.01879613       3.91132168      14.90630000  F        0        1
Si      -0.21659613       2.67428190      16.35945000  F        0        1
Si       2.20769800       1.52471870      14.90630000  F        0        1
Si       1.59450200       5.06088488      16.35945000  F        0        1
N       -1.02370433       2.17482973      14.90630000  F        1        1
N        4.82590433       4.41077385      16.35945000  F        1        1
N        2.43059437       4.61163476      14.90630000  F        1        1
N        1.37160563       1.97396882      16.35945000  F        1        1
N       -1.40689004       6.38474267      14.90630000  F        1        1
N        5.20909004       0.20086091      16.35945000  F        1        1
N        3.80216198       2.19517924      14.90630000  F        2        1
N        0.00003802       4.39042434      16.35945000  F        2        1
F        0.00003802       4.39042434      19.69882412  T        0        0
C        0.00003802       4.39042434      18.27917199  T        0        0
H       -1.04672840       4.39042434      17.95945000  T        0        0
H        0.52342123       5.29695066      17.95945000  T        0        0
H        0.52342123       3.48389802      17.95945000  T        0        0
33
Lattice="7.6044 0.0 0.0 -3.802199999999998 6.585603580538386 0.0 0.0 -0.0 28.35945" Properties=species:S:1:pos:R:3:move_mask:L:1:spacegroup_kinds:I:1:tags:I:1 spacegroup="P 63/m" unit_cell=conventional occupancy="_JSON {\"0\": {\"Si\": 1.0}, \"1\": {\"N\": 1.0}, \"2\": {\"N\": 1.0}}" surface=beta_Si3N4_001 species=CH3F site=atop_N orientation=flipped height_A=1.3 substrate_atoms=28 calculation_kind="Rigid evaluated approach scan; not NEB" energy=-228.22484031022975 pbc="T T F"
Si       5.18010587       1.14956320      12.00000000  F        0        2
Si      -1.37790587       5.43604038      13.45315000  F        0        2
Si       4.01879613       3.91132168      12.00000000  F        0        2
Si      -0.21659613       2.67428190      13.45315000  F        0        2
Si       2.20769800       1.52471870      12.00000000  F        0        2
Si       1.59450200       5.06088488      13.45315000  F        0        2
N       -1.02370433       2.17482973      12.00000000  F        1        2
N        4.82590433       4.41077385      13.45315000  F        1        2
N        2.43059437       4.61163476      12.00000000  F        1        2
N        1.37160563       1.97396882      13.45315000  F        1        2
N       -1.40689004       6.38474267      12.00000000  F        1        2
N        5.20909004       0.20086091      13.45315000  F        1        2
N        3.80216198       2.19517924      12.00000000  F        2        2
N        0.00003802       4.39042434      13.45315000  F        2        2
Si       5.18010587       1.14956320      14.90630000  F        0        1
Si      -1.37790587       5.43604038      16.35945000  F        0        1
Si       4.01879613       3.91132168      14.90630000  F        0        1
Si      -0.21659613       2.67428190      16.35945000  F        0        1
Si       2.20769800       1.52471870      14.90630000  F        0        1
Si       1.59450200       5.06088488      16.35945000  F        0        1
N       -1.02370433       2.17482973      14.90630000  F        1        1
N        4.82590433       4.41077385      16.35945000  F        1        1
N        2.43059437       4.61163476      14.90630000  F        1        1
N        1.37160563       1.97396882      16.35945000  F        1        1
N       -1.40689004       6.38474267      14.90630000  F        1        1
N        5.20909004       0.20086091      16.35945000  F        1        1
N        3.80216198       2.19517924      14.90630000  F        2        1
N        0.00003802       4.39042434      16.35945000  F        2        1
F        0.00003802       4.39042434      19.39882412  T        0        0
C        0.00003802       4.39042434      17.97917199  T        0        0
H       -1.04672840       4.39042434      17.65945000  T        0        0
H        0.52342123       5.29695066      17.65945000  T        0        0
H        0.52342123       3.48389802      17.65945000  T        0        0
