38
Lattice="9.8418 0.0 0.0 -2.460449999999999 4.261624409482844 0.0 0.0 -0.0 34.16586254" Properties=species:S:1:pos:R:3:move_mask:L:1:spacegroup_kinds:I:1:tags:I:1:forces:R:3 spacegroup="P 32 2 1" unit_cell=conventional surface=alpha_quartz_001 species=HF height_A=6.5 substrate_atoms=36 calculation_kind="Rigid approach energy evaluation; not NEB or TS" energy=-272.93909322997285 pbc="T T F"
Si       2.31725181       0.00000000      12.00000000  F        0        2      -0.13649157      -0.37989802      -1.75845993
Si      -1.15862590       2.00679893      15.60606667  F        0        2      -0.14269403       0.05752763       1.16918857
Si       1.30182410       2.25482548      13.80303333  F        0        2       0.03365952      -0.16390327       0.98673449
O        1.38326499       1.13103512      12.65233746  F        1        2      -0.52978608       0.24144030      -0.19587315
O        0.28787265       1.76346018      14.95372921  F        1        2       0.43595743      -0.25102752      -0.36263200
O        3.24976236       0.63242506      16.25840413  F        1        2       0.32131471      -0.09409926      -0.78723906
O        0.78931236       3.62919935      13.15069587  F        1        2       0.45451070       0.27117013       0.57270972
O        2.74832265       2.49816423      14.45537079  F        1        2       0.00844212       0.38365658      -0.73059487
O       -1.07718501       3.13058929      16.75676254  F        1        2      -0.43600604      -0.29499103      -0.45509614
Si       2.31725181       0.00000000      17.40910000  F        0        1       0.03135151       0.03049999       1.06444548
Si      -1.15862590       2.00679893      21.01516667  F        0        1       0.20544838       0.24346044      -0.24892525
Si       1.30182410       2.25482548      19.21213333  F        0        1      -0.04671737       0.03282568       0.51671959
O        1.38326499       1.13103512      18.06143746  F        1        1      -0.25708786      -0.13270469      -0.58762912
O        0.28787265       1.76346018      20.36282921  F        1        1       0.49053214      -0.17439019      -0.26449994
O        3.24976236       0.63242506      21.66750413  F        1        1      -0.36047522      -0.95065507       0.88300299
O        0.78931236       3.62919935      18.55979587  F        1        1       0.02140854       0.42052298      -0.24199233
O        2.74832265       2.49816423      19.86447079  F        1        1      -0.05603693       0.34620394      -0.75998076
O       -1.07718501       3.13058929      22.16586254  F        1        1      -0.03732994       0.41436138       1.20012171
Si       7.23815181       0.00000000      12.00000000  F        0        2      -0.13649157      -0.37989802      -1.75845993
Si       3.76227409       2.00679893      15.60606667  F        0        2      -0.14269403       0.05752763       1.16918857
Si       6.22272410       2.25482548      13.80303333  F        0        2       0.03365952      -0.16390327       0.98673449
O        6.30416499       1.13103512      12.65233746  F        1        2      -0.52978608       0.24144030      -0.19587315
O        5.20877265       1.76346018      14.95372921  F        1        2       0.43595743      -0.25102752      -0.36263200
O        8.17066236       0.63242506      16.25840413  F        1        2       0.32131471      -0.09409926      -0.78723906
O        5.71021236       3.62919935      13.15069587  F        1        2       0.45451070       0.27117013       0.57270972
O        7.66922265       2.49816423      14.45537079  F        1        2       0.00844212       0.38365658      -0.73059487
O        3.84371499       3.13058929      16.75676254  F        1        2      -0.43600604      -0.29499103      -0.45509614
Si       7.23815181       0.00000000      17.40910000  F        0        1       0.03135151       0.03049999       1.06444548
Si       3.76227409       2.00679893      21.01516667  F        0        1       0.20544838       0.24346044      -0.24892525
Si       6.22272410       2.25482548      19.21213333  F        0        1      -0.04671737       0.03282568       0.51671959
O        6.30416499       1.13103512      18.06143746  F        1        1      -0.25708786      -0.13270469      -0.58762912
O        5.20877265       1.76346018      20.36282921  F        1        1       0.49053214      -0.17439019      -0.26449994
O        8.17066236       0.63242506      21.66750413  F        1        1      -0.36047522      -0.95065507       0.88300299
O        5.71021236       3.62919935      18.55979587  F        1        1       0.02140854       0.42052298      -0.24199233
O        7.66922265       2.49816423      19.86447079  F        1        1      -0.05603693       0.34620394      -0.75998076
O        3.84371499       3.13058929      22.16586254  F        1        1      -0.03732994       0.41436138       1.20012171
F        3.76227409       2.00679893      28.66586254  F        0        0       0.00000000       0.00000000       0.00132205
H        3.76227409       2.00679893      29.62709508  F        0        0      -0.00000000       0.00000000      -0.00132205
38
Lattice="9.8418 0.0 0.0 -2.460449999999999 4.261624409482844 0.0 0.0 -0.0 34.16586254" Properties=species:S:1:pos:R:3:move_mask:L:1:spacegroup_kinds:I:1:tags:I:1:forces:R:3 spacegroup="P 32 2 1" unit_cell=conventional surface=alpha_quartz_001 species=HF height_A=5.0 substrate_atoms=36 calculation_kind="Rigid approach energy evaluation; not NEB or TS" energy=-272.93909322997285 pbc="T T F"
Si       2.31725181       0.00000000      12.00000000  F        0        2      -0.13649157      -0.37989802      -1.75845993
Si      -1.15862590       2.00679893      15.60606667  F        0        2      -0.14269403       0.05752763       1.16918857
Si       1.30182410       2.25482548      13.80303333  F        0        2       0.03365952      -0.16390327       0.98673449
O        1.38326499       1.13103512      12.65233746  F        1        2      -0.52978608       0.24144030      -0.19587315
O        0.28787265       1.76346018      14.95372921  F        1        2       0.43595743      -0.25102752      -0.36263200
O        3.24976236       0.63242506      16.25840413  F        1        2       0.32131471      -0.09409926      -0.78723906
O        0.78931236       3.62919935      13.15069587  F        1        2       0.45451070       0.27117013       0.57270972
O        2.74832265       2.49816423      14.45537079  F        1        2       0.00844212       0.38365658      -0.73059487
O       -1.07718501       3.13058929      16.75676254  F        1        2      -0.43600604      -0.29499103      -0.45509614
Si       2.31725181       0.00000000      17.40910000  F        0        1       0.03135151       0.03049999       1.06444548
Si      -1.15862590       2.00679893      21.01516667  F        0        1       0.20544838       0.24346044      -0.24892525
Si       1.30182410       2.25482548      19.21213333  F        0        1      -0.04671737       0.03282568       0.51671959
O        1.38326499       1.13103512      18.06143746  F        1        1      -0.25708786      -0.13270469      -0.58762912
O        0.28787265       1.76346018      20.36282921  F        1        1       0.49053214      -0.17439019      -0.26449994
O        3.24976236       0.63242506      21.66750413  F        1        1      -0.36047522      -0.95065507       0.88300299
O        0.78931236       3.62919935      18.55979587  F        1        1       0.02140854       0.42052298      -0.24199233
O        2.74832265       2.49816423      19.86447079  F        1        1      -0.05603693       0.34620394      -0.75998076
O       -1.07718501       3.13058929      22.16586254  F        1        1      -0.03732994       0.41436138       1.20012171
Si       7.23815181       0.00000000      12.00000000  F        0        2      -0.13649157      -0.37989802      -1.75845993
Si       3.76227409       2.00679893      15.60606667  F        0        2      -0.14269403       0.05752763       1.16918857
Si       6.22272410       2.25482548      13.80303333  F        0        2       0.03365952      -0.16390327       0.98673449
O        6.30416499       1.13103512      12.65233746  F        1        2      -0.52978608       0.24144030      -0.19587315
O        5.20877265       1.76346018      14.95372921  F        1        2       0.43595743      -0.25102752      -0.36263200
O        8.17066236       0.63242506      16.25840413  F        1        2       0.32131471      -0.09409926      -0.78723906
O        5.71021236       3.62919935      13.15069587  F        1        2       0.45451070       0.27117013       0.57270972
O        7.66922265       2.49816423      14.45537079  F        1        2       0.00844212       0.38365658      -0.73059487
O        3.84371499       3.13058929      16.75676254  F        1        2      -0.43600604      -0.29499103      -0.45509614
Si       7.23815181       0.00000000      17.40910000  F        0        1       0.03135151       0.03049999       1.06444548
Si       3.76227409       2.00679893      21.01516667  F        0        1       0.20544838       0.24346044      -0.24892525
Si       6.22272410       2.25482548      19.21213333  F        0        1      -0.04671737       0.03282568       0.51671959
O        6.30416499       1.13103512      18.06143746  F        1        1      -0.25708786      -0.13270469      -0.58762912
O        5.20877265       1.76346018      20.36282921  F        1        1       0.49053214      -0.17439019      -0.26449994
O        8.17066236       0.63242506      21.66750413  F        1        1      -0.36047522      -0.95065507       0.88300299
O        5.71021236       3.62919935      18.55979587  F        1        1       0.02140854       0.42052298      -0.24199233
O        7.66922265       2.49816423      19.86447079  F        1        1      -0.05603693       0.34620394      -0.75998076
O        3.84371499       3.13058929      22.16586254  F        1        1      -0.03732994       0.41436138       1.20012171
F        3.76227409       2.00679893      27.16586254  F        0        0       0.00000000       0.00000000       0.00132205
H        3.76227409       2.00679893      28.12709508  F        0        0      -0.00000000       0.00000000      -0.00132205
38
Lattice="9.8418 0.0 0.0 -2.460449999999999 4.261624409482844 0.0 0.0 -0.0 34.16586254" Properties=species:S:1:pos:R:3:move_mask:L:1:spacegroup_kinds:I:1:tags:I:1:forces:R:3 spacegroup="P 32 2 1" unit_cell=conventional surface=alpha_quartz_001 species=HF height_A=4.0 substrate_atoms=36 calculation_kind="Rigid approach energy evaluation; not NEB or TS" energy=-272.8990655076349 pbc="T T F"
Si       2.31725181       0.00000000      12.00000000  F        0        2      -0.13649108      -0.37989895      -1.75845247
Si      -1.15862590       2.00679893      15.60606667  F        0        2      -0.14263257       0.05748816       1.16861870
Si       1.30182410       2.25482548      13.80303333  F        0        2       0.03364115      -0.16391055       0.98673794
O        1.38326499       1.13103512      12.65233746  F        1        2      -0.52978335       0.24143837      -0.19588248
O        0.28787265       1.76346018      14.95372921  F        1        2       0.43597839      -0.25099461      -0.36254879
O        3.24976236       0.63242506      16.25840413  F        1        2       0.32117947      -0.09431875      -0.78640035
O        0.78931236       3.62919935      13.15069587  F        1        2       0.45451153       0.27117388       0.57270040
O        2.74832265       2.49816423      14.45537079  F        1        2       0.00845853       0.38365263      -0.73051300
O       -1.07718501       3.13058929      16.75676254  F        1        2      -0.43574424      -0.29475522      -0.45416908
Si       2.31725181       0.00000000      17.40910000  F        0        1       0.03109761       0.03045252       1.06234271
Si      -1.15862590       2.00679893      21.01516667  F        0        1       0.20263472       0.23976421      -0.24577683
Si       1.30182410       2.25482548      19.21213333  F        0        1      -0.04678052       0.03313629       0.51572293
O        1.38326499       1.13103512      18.06143746  F        1        1      -0.25691039      -0.13183409      -0.58631083
O        0.28787265       1.76346018      20.36282921  F        1        1       0.48950403      -0.17491228      -0.26456472
O        3.24976236       0.63242506      21.66750413  F        1        1      -0.36267451      -0.95238020       0.85435443
O        0.78931236       3.62919935      18.55979587  F        1        1       0.02231772       0.42055167      -0.24019187
O        2.74832265       2.49816423      19.86447079  F        1        1      -0.05495738       0.34826293      -0.76130291
O       -1.07718501       3.13058929      22.16586254  F        1        1      -0.03657569       0.41356501       1.19908143
Si       7.23815181       0.00000000      12.00000000  F        0        2      -0.13649128      -0.37989773      -1.75845086
Si       3.76227409       2.00679893      15.60606667  F        0        2      -0.14270661       0.05742040       1.16849694
Si       6.22272410       2.25482548      13.80303333  F        0        2       0.03368425      -0.16389137       0.98671743
O        6.30416499       1.13103512      12.65233746  F        1        2      -0.52978709       0.24143870      -0.19588495
O        5.20877265       1.76346018      14.95372921  F        1        2       0.43593847      -0.25099680      -0.36244633
O        8.17066236       0.63242506      16.25840413  F        1        2       0.32104730      -0.09434882      -0.78632221
O        5.71021236       3.62919935      13.15069587  F        1        2       0.45450670       0.27116976       0.57269964
O        7.66922265       2.49816423      14.45537079  F        1        2       0.00843405       0.38365174      -0.73055652
O        3.84371499       3.13058929      16.75676254  F        1        2      -0.43580322      -0.29484921      -0.45388674
Si       7.23815181       0.00000000      17.40910000  F        0        1       0.03138630       0.03019439       1.06149121
Si       3.76227409       2.00679893      21.01516667  F        0        1       0.20639348       0.23254518      -0.25163435
Si       6.22272410       2.25482548      19.21213333  F        0        1      -0.04693446       0.03362186       0.51603720
O        6.30416499       1.13103512      18.06143746  F        1        1      -0.25762685      -0.13240476      -0.58545565
O        5.20877265       1.76346018      20.36282921  F        1        1       0.49328313      -0.17507137      -0.26359909
O        8.17066236       0.63242506      21.66750413  F        1        1      -0.36524061      -0.95300975       0.88544091
O        5.71021236       3.62919935      18.55979587  F        1        1       0.02210988       0.42010641      -0.24129711
O        7.66922265       2.49816423      19.86447079  F        1        1      -0.05742896       0.34601955      -0.75999315
O        3.84371499       3.13058929      22.16586254  F        1        1      -0.03482565       0.43277728       1.15640240
F        3.76227409       2.00679893      26.16586254  F        0        0       0.00320145      -0.00591325      -0.00372910
H        3.76227409       2.00679893      27.12709508  F        0        0       0.00008630       0.00495678       0.07252511
38
Lattice="9.8418 0.0 0.0 -2.460449999999999 4.261624409482844 0.0 0.0 -0.0 34.16586254" Properties=species:S:1:pos:R:3:move_mask:L:1:spacegroup_kinds:I:1:tags:I:1:forces:R:3 spacegroup="P 32 2 1" unit_cell=conventional surface=alpha_quartz_001 species=HF height_A=3.25 substrate_atoms=36 calculation_kind="Rigid approach energy evaluation; not NEB or TS" energy=-272.91921208202854 pbc="T T F"
Si       2.31725181       0.00000000      12.00000000  F        0        2      -0.13649321      -0.37990068      -1.75846251
Si      -1.15862590       2.00679893      15.60606667  F        0        2      -0.14264448       0.05735310       1.16752128
Si       1.30182410       2.25482548      13.80303333  F        0        2       0.03355824      -0.16393527       0.98658480
O        1.38326499       1.13103512      12.65233746  F        1        2      -0.52977647       0.24143730      -0.19586414
O        0.28787265       1.76346018      14.95372921  F        1        2       0.43611450      -0.25090988      -0.36221526
O        3.24976236       0.63242506      16.25840413  F        1        2       0.32101413      -0.09475501      -0.78488248
O        0.78931236       3.62919935      13.15069587  F        1        2       0.45451819       0.27118303       0.57271930
O        2.74832265       2.49816423      14.45537079  F        1        2       0.00859274       0.38367963      -0.73006413
O       -1.07718501       3.13058929      16.75676254  F        1        2      -0.43501797      -0.29416698      -0.45232975
Si       2.31725181       0.00000000      17.40910000  F        0        1       0.03110845       0.03183418       1.06168691
Si      -1.15862590       2.00679893      21.01516667  F        0        1       0.20657623       0.24405188      -0.24624900
Si       1.30182410       2.25482548      19.21213333  F        0        1      -0.03030540       0.03118590       0.52497588
O        1.38326499       1.13103512      18.06143746  F        1        1      -0.26017088      -0.13158984      -0.58592759
O        0.28787265       1.76346018      20.36282921  F        1        1       0.48913341      -0.17139814      -0.26504469
O        3.24976236       0.63242506      21.66750413  F        1        1      -0.37461405      -0.93897566       0.86017640
O        0.78931236       3.62919935      18.55979587  F        1        1       0.02370217       0.41838798      -0.23565519
O        2.74832265       2.49816423      19.86447079  F        1        1      -0.06393410       0.34888672      -0.75286957
O       -1.07718501       3.13058929      22.16586254  F        1        1      -0.03299308       0.41412733       1.19635740
Si       7.23815181       0.00000000      12.00000000  F        0        2      -0.13649937      -0.37989237      -1.75848396
Si       3.76227409       2.00679893      15.60606667  F        0        2      -0.14272988       0.05692632       1.16693474
Si       6.22272410       2.25482548      13.80303333  F        0        2       0.03379207      -0.16385591       0.98653756
O        6.30416499       1.13103512      12.65233746  F        1        2      -0.52979026       0.24145281      -0.19588435
O        5.20877265       1.76346018      14.95372921  F        1        2       0.43580161      -0.25089827      -0.36186957
O        8.17066236       0.63242506      16.25840413  F        1        2       0.32035365      -0.09477964      -0.78503222
O        5.71021236       3.62919935      13.15069587  F        1        2       0.45449948       0.27114980       0.57273840
O        7.66922265       2.49816423      14.45537079  F        1        2       0.00837501       0.38362927      -0.73047308
O        3.84371499       3.13058929      16.75676254  F        1        2      -0.43575815      -0.29386601      -0.45386589
Si       7.23815181       0.00000000      17.40910000  F        0        1       0.03082466       0.02888974       1.05962593
Si       3.76227409       2.00679893      21.01516667  F        0        1       0.22421674       0.19507102      -0.17682451
Si       6.22272410       2.25482548      19.21213333  F        0        1      -0.06531022       0.02315541       0.52934556
O        6.30416499       1.13103512      18.06143746  F        1        1      -0.25521147      -0.13422389      -0.58328303
O        5.20877265       1.76346018      20.36282921  F        1        1       0.48871009      -0.17094414      -0.26005018
O        8.17066236       0.63242506      21.66750413  F        1        1      -0.36433560      -0.95224698       0.88714973
O        5.71021236       3.62919935      18.55979587  F        1        1       0.02487651       0.42219561      -0.24036026
O        7.66922265       2.49816423      19.86447079  F        1        1      -0.05812437       0.34711895      -0.75875157
O        3.84371499       3.13058929      22.16586254  F        1        1      -0.03425475       0.47396236       1.17655139
F        3.76227409       2.00679893      25.41586254  F        0        0       0.00310742      -0.04817854       0.00759834
H        3.76227409       2.00679893      26.37709508  F        0        0      -0.00091161       0.02883887      -0.08206068
38
Lattice="9.8418 0.0 0.0 -2.460449999999999 4.261624409482844 0.0 0.0 -0.0 34.16586254" Properties=species:S:1:pos:R:3:move_mask:L:1:spacegroup_kinds:I:1:tags:I:1:forces:R:3 spacegroup="P 32 2 1" unit_cell=conventional surface=alpha_quartz_001 species=HF height_A=2.75 substrate_atoms=36 calculation_kind="Rigid approach energy evaluation; not NEB or TS" energy=-272.95233650082 pbc="T T F"
Si       2.31725181       0.00000000      12.00000000  F        0        2      -0.13651381      -0.37990081      -1.75855737
Si      -1.15862590       2.00679893      15.60606667  F        0        2      -0.14263375       0.05728017       1.16602825
Si       1.30182410       2.25482548      13.80303333  F        0        2       0.03341175      -0.16396092       0.98613663
O        1.38326499       1.13103512      12.65233746  F        1        2      -0.52975667       0.24147781      -0.19574761
O        0.28787265       1.76346018      14.95372921  F        1        2       0.43602810      -0.25084131      -0.36176265
O        3.24976236       0.63242506      16.25840413  F        1        2       0.32088605      -0.09496185      -0.78406827
O        0.78931236       3.62919935      13.15069587  F        1        2       0.45456904       0.27116230       0.57283971
O        2.74832265       2.49816423      14.45537079  F        1        2       0.00882338       0.38370064      -0.72961088
O       -1.07718501       3.13058929      16.75676254  F        1        2      -0.43465187      -0.29370372      -0.45075076
Si       2.31725181       0.00000000      17.40910000  F        0        1       0.03275339       0.03245889       1.06053285
Si      -1.15862590       2.00679893      21.01516667  F        0        1       0.19818352       0.22872768      -0.24798904
Si       1.30182410       2.25482548      19.21213333  F        0        1      -0.02754955       0.02910393       0.51306739
O        1.38326499       1.13103512      18.06143746  F        1        1      -0.26240755      -0.13192319      -0.58522334
O        0.28787265       1.76346018      20.36282921  F        1        1       0.49310730      -0.16704858      -0.25968125
O        3.24976236       0.63242506      21.66750413  F        1        1      -0.38197993      -0.91624029       0.90166688
O        0.78931236       3.62919935      18.55979587  F        1        1       0.02133582       0.41724762      -0.23354658
O        2.74832265       2.49816423      19.86447079  F        1        1      -0.05419084       0.35049782      -0.72177641
O       -1.07718501       3.13058929      22.16586254  F        1        1      -0.02651593       0.41806976       1.18310572
Si       7.23815181       0.00000000      12.00000000  F        0        2      -0.13652593      -0.37987586      -1.75863400
Si       3.76227409       2.00679893      15.60606667  F        0        2      -0.14272153       0.05689169       1.16546328
Si       6.22272410       2.25482548      13.80303333  F        0        2       0.03399200      -0.16378621       0.98603175
O        6.30416499       1.13103512      12.65233746  F        1        2      -0.52982424       0.24151881      -0.19575317
O        5.20877265       1.76346018      14.95372921  F        1        2       0.43558884      -0.25087688      -0.36142490
O        8.17066236       0.63242506      16.25840413  F        1        2       0.32005963      -0.09500015      -0.78471383
O        5.71021236       3.62919935      13.15069587  F        1        2       0.45452599       0.27106385       0.57289638
O        7.66922265       2.49816423      14.45537079  F        1        2       0.00842735       0.38355639      -0.73014015
O        3.84371499       3.13058929      16.75676254  F        1        2      -0.43628390      -0.29419557      -0.45348734
Si       7.23815181       0.00000000      17.40910000  F        0        1       0.03129614       0.02583471       1.05999843
Si       3.76227409       2.00679893      21.01516667  F        0        1       0.24456325       0.17211248      -0.25955202
Si       6.22272410       2.25482548      19.21213333  F        0        1      -0.07054970       0.01804455       0.53223266
O        6.30416499       1.13103512      18.06143746  F        1        1      -0.25456382      -0.13513066      -0.58321996
O        5.20877265       1.76346018      20.36282921  F        1        1       0.46212463      -0.16500022      -0.23404386
O        8.17066236       0.63242506      21.66750413  F        1        1      -0.35776932      -0.93539332       0.88414853
O        5.71021236       3.62919935      18.55979587  F        1        1       0.02517274       0.42378666      -0.23959168
O        7.66922265       2.49816423      19.86447079  F        1        1      -0.05491302       0.34945001      -0.75438137
O        3.84371499       3.13058929      22.16586254  F        1        1      -0.03859848       0.45886475       1.15267739
F        3.76227409       2.00679893      24.91586254  F        0        0       0.00953895      -0.01370266       0.36827232
H        3.76227409       2.00679893      25.87709508  F        0        0      -0.00643798       0.00069170      -0.42144174
38
Lattice="9.8418 0.0 0.0 -2.460449999999999 4.261624409482844 0.0 0.0 -0.0 34.16586254" Properties=species:S:1:pos:R:3:move_mask:L:1:spacegroup_kinds:I:1:tags:I:1:forces:R:3 spacegroup="P 32 2 1" unit_cell=conventional surface=alpha_quartz_001 species=HF height_A=2.25 substrate_atoms=36 calculation_kind="Rigid approach energy evaluation; not NEB or TS" energy=-272.9119032122057 pbc="T T F"
Si       2.31725181       0.00000000      12.00000000  F        0        2      -0.13651047      -0.37989636      -1.75857554
Si      -1.15862590       2.00679893      15.60606667  F        0        2      -0.14307074       0.05644034       1.16383657
Si       1.30182410       2.25482548      13.80303333  F        0        2       0.03364273      -0.16389617       0.98585271
O        1.38326499       1.13103512      12.65233746  F        1        2      -0.52976145       0.24145471      -0.19571399
O        0.28787265       1.76346018      14.95372921  F        1        2       0.43611556      -0.25063714      -0.36132220
O        3.24976236       0.63242506      16.25840413  F        1        2       0.32041058      -0.09590745      -0.78356398
O        0.78931236       3.62919935      13.15069587  F        1        2       0.45449149       0.27116076       0.57289497
O        2.74832265       2.49816423      14.45537079  F        1        2       0.00848821       0.38348795      -0.72986128
O       -1.07718501       3.13058929      16.75676254  F        1        2      -0.43460057      -0.29381811      -0.44855253
Si       2.31725181       0.00000000      17.40910000  F        0        1       0.03093577       0.03537934       1.05952056
Si      -1.15862590       2.00679893      21.01516667  F        0        1       0.18182919       0.18886683      -0.24174852
Si       1.30182410       2.25482548      19.21213333  F        0        1      -0.04812479       0.02383277       0.47700874
O        1.38326499       1.13103512      18.06143746  F        1        1      -0.26055909      -0.12992161      -0.57951902
O        0.28787265       1.76346018      20.36282921  F        1        1       0.50637893      -0.16579195      -0.24937361
O        3.24976236       0.63242506      21.66750413  F        1        1      -0.40369348      -1.01760718       0.85057224
O        0.78931236       3.62919935      18.55979587  F        1        1       0.02501873       0.41699995      -0.22492994
O        2.74832265       2.49816423      19.86447079  F        1        1       0.00091429       0.32467433      -0.65966307
O       -1.07718501       3.13058929      22.16586254  F        1        1      -0.01156856       0.44895673       1.17575245
Si       7.23815181       0.00000000      12.00000000  F        0        2      -0.13652510      -0.37988759      -1.75859354
Si       3.76227409       2.00679893      15.60606667  F        0        2      -0.14220813       0.05841612       1.16560498
Si       6.22272410       2.25482548      13.80303333  F        0        2       0.03388090      -0.16388420       0.98603940
O        6.30416499       1.13103512      12.65233746  F        1        2      -0.52980135       0.24148230      -0.19583710
O        5.20877265       1.76346018      14.95372921  F        1        2       0.43576688      -0.25090714      -0.36157550
O        8.17066236       0.63242506      16.25840413  F        1        2       0.32059792      -0.09470438      -0.78510842
O        5.71021236       3.62919935      13.15069587  F        1        2       0.45450060       0.27112064       0.57283752
O        7.66922265       2.49816423      14.45537079  F        1        2       0.00865442       0.38355336      -0.72982859
O        3.84371499       3.13058929      16.75676254  F        1        2      -0.43655786      -0.29559520      -0.45390556
Si       7.23815181       0.00000000      17.40910000  F        0        1       0.02911609       0.02496007       1.05976781
Si       3.76227409       2.00679893      21.01516667  F        0        1       0.24917183       0.24359624      -0.50175872
Si       6.22272410       2.25482548      19.21213333  F        0        1      -0.05324506       0.01562488       0.50055429
O        6.30416499       1.13103512      18.06143746  F        1        1      -0.25759137      -0.12963281      -0.57903216
O        5.20877265       1.76346018      20.36282921  F        1        1       0.41439672      -0.17666103      -0.20980106
O        8.17066236       0.63242506      21.66750413  F        1        1      -0.33304496      -0.88349736       0.87247827
O        5.71021236       3.62919935      18.55979587  F        1        1       0.02490528       0.42027177      -0.23307036
O        7.66922265       2.49816423      19.86447079  F        1        1      -0.05869117       0.35345667      -0.74461240
O        3.84371499       3.13058929      22.16586254  F        1        1      -0.05267992       0.52671167       0.91449918
F        3.76227409       2.00679893      24.41586254  F        0        0      -0.00481148      -0.03466975       1.46639393
H        3.76227409       2.00679893      25.37709508  F        0        0       0.00382944      -0.02353202      -1.03766651
38
Lattice="9.8418 0.0 0.0 -2.460449999999999 4.261624409482844 0.0 0.0 -0.0 34.16586254" Properties=species:S:1:pos:R:3:move_mask:L:1:spacegroup_kinds:I:1:tags:I:1:forces:R:3 spacegroup="P 32 2 1" unit_cell=conventional surface=alpha_quartz_001 species=HF height_A=1.9 substrate_atoms=36 calculation_kind="Rigid approach energy evaluation; not NEB or TS" energy=-272.619975528749 pbc="T T F"
Si       2.31725181       0.00000000      12.00000000  F        0        2      -0.13649755      -0.37988061      -1.75848048
Si      -1.15862590       2.00679893      15.60606667  F        0        2      -0.14455710       0.05458961       1.15981786
Si       1.30182410       2.25482548      13.80303333  F        0        2       0.03427793      -0.16369767       0.98524048
O        1.38326499       1.13103512      12.65233746  F        1        2      -0.52978372       0.24141064      -0.19577098
O        0.28787265       1.76346018      14.95372921  F        1        2       0.43586105      -0.25044774      -0.36018479
O        3.24976236       0.63242506      16.25840413  F        1        2       0.31966707      -0.09725865      -0.78013215
O        0.78931236       3.62919935      13.15069587  F        1        2       0.45440130       0.27118896       0.57294402
O        2.74832265       2.49816423      14.45537079  F        1        2       0.00830240       0.38311454      -0.72953901
O       -1.07718501       3.13058929      16.75676254  F        1        2      -0.43355457      -0.29260158      -0.44502183
Si       2.31725181       0.00000000      17.40910000  F        0        1       0.02261351       0.03483127       1.04647383
Si      -1.15862590       2.00679893      21.01516667  F        0        1       0.17714850       0.14622701      -0.26812981
Si       1.30182410       2.25482548      19.21213333  F        0        1      -0.11527089       0.01602421       0.41426502
O        1.38326499       1.13103512      18.06143746  F        1        1      -0.25240775      -0.12116034      -0.56426991
O        0.28787265       1.76346018      20.36282921  F        1        1       0.51792458      -0.16377602      -0.23354028
O        3.24976236       0.63242506      21.66750413  F        1        1      -0.40734450      -1.20782006       0.74641969
O        0.78931236       3.62919935      18.55979587  F        1        1       0.03612194       0.42199929      -0.20326199
O        2.74832265       2.49816423      19.86447079  F        1        1       0.07926534       0.30038426      -0.58782958
O       -1.07718501       3.13058929      22.16586254  F        1        1       0.02080383       0.51134790       1.19740341
Si       7.23815181       0.00000000      12.00000000  F        0        2      -0.13648610      -0.37991955      -1.75832656
Si       3.76227409       2.00679893      15.60606667  F        0        2      -0.14082500       0.05974271       1.16319547
Si       6.22272410       2.25482548      13.80303333  F        0        2       0.03380428      -0.16393314       0.98602015
O        6.30416499       1.13103512      12.65233746  F        1        2      -0.52978603       0.24134557      -0.19598692
O        5.20877265       1.76346018      14.95372921  F        1        2       0.43545494      -0.25090921      -0.36127549
O        8.17066236       0.63242506      16.25840413  F        1        2       0.32197388      -0.09479540      -0.78510798
O        5.71021236       3.62919935      13.15069587  F        1        2       0.45437431       0.27125141       0.57274206
O        7.66922265       2.49816423      14.45537079  F        1        2       0.00920636       0.38350967      -0.72903332
O        3.84371499       3.13058929      16.75676254  F        1        2      -0.43662680      -0.29838629      -0.44880503
Si       7.23815181       0.00000000      17.40910000  F        0        1       0.02535927       0.03623993       1.04849201
Si       3.76227409       2.00679893      21.01516667  F        0        1       0.16109862       0.16218664      -0.82456962
Si       6.22272410       2.25482548      19.21213333  F        0        1       0.01987173       0.02370983       0.41241813
O        6.30416499       1.13103512      18.06143746  F        1        1      -0.26283010      -0.12148124      -0.56449357
O        5.20877265       1.76346018      20.36282921  F        1        1       0.34985235      -0.20756626      -0.14288354
O        8.17066236       0.63242506      21.66750413  F        1        1      -0.23782021      -0.77049917       0.84602174
O        5.71021236       3.62919935      18.55979587  F        1        1       0.01921930       0.40589830      -0.21326073
O        7.66922265       2.49816423      19.86447079  F        1        1      -0.06318779       0.35593980      -0.72647944
O        3.84371499       3.13058929      22.16586254  F        1        1      -0.10698231       1.00054059       0.55631894
F        3.76227409       2.00679893      24.06586254  F        0        0       0.01078667      -0.28990828       2.56483134
H        3.76227409       2.00679893      25.02709508  F        0        0      -0.01342874      -0.06744092      -1.39622115
38
Lattice="9.8418 0.0 0.0 -2.460449999999999 4.261624409482844 0.0 0.0 -0.0 34.16586254" Properties=species:S:1:pos:R:3:move_mask:L:1:spacegroup_kinds:I:1:tags:I:1:forces:R:3 spacegroup="P 32 2 1" unit_cell=conventional surface=alpha_quartz_001 species=HF height_A=1.6 substrate_atoms=36 calculation_kind="Rigid approach energy evaluation; not NEB or TS" energy=-272.15696839870066 pbc="T T F"
Si       2.31725181       0.00000000      12.00000000  F        0        2      -0.13650119      -0.37984126      -1.75855063
Si      -1.15862590       2.00679893      15.60606667  F        0        2      -0.14616762       0.05249639       1.15191247
Si       1.30182410       2.25482548      13.80303333  F        0        2       0.03528429      -0.16324364       0.98330404
O        1.38326499       1.13103512      12.65233746  F        1        2      -0.52983495       0.24143922      -0.19554009
O        0.28787265       1.76346018      14.95372921  F        1        2       0.43466204      -0.25049754      -0.35756889
O        3.24976236       0.63242506      16.25840413  F        1        2       0.31831018      -0.09992059      -0.77283476
O        0.78931236       3.62919935      13.15069587  F        1        2       0.45435951       0.27112727       0.57334597
O        2.74832265       2.49816423      14.45537079  F        1        2       0.00845973       0.38265496      -0.72831617
O       -1.07718501       3.13058929      16.75676254  F        1        2      -0.43222325      -0.29074946      -0.43878397
Si       2.31725181       0.00000000      17.40910000  F        0        1       0.01131262       0.03564211       1.02022534
Si      -1.15862590       2.00679893      21.01516667  F        0        1       0.18118757       0.11719083      -0.29598675
Si       1.30182410       2.25482548      19.21213333  F        0        1      -0.23878397      -0.00533894       0.30268128
O        1.38326499       1.13103512      18.06143746  F        1        1      -0.23852508      -0.10287522      -0.53249060
O        0.28787265       1.76346018      20.36282921  F        1        1       0.53372968      -0.15607739      -0.21569833
O        3.24976236       0.63242506      21.66750413  F        1        1      -0.40457532      -1.46077362       0.65952165
O        0.78931236       3.62919935      18.55979587  F        1        1       0.05975170       0.42805910      -0.16387542
O        2.74832265       2.49816423      19.86447079  F        1        1       0.17454550       0.31287172      -0.45087290
O       -1.07718501       3.13058929      22.16586254  F        1        1       0.04354156       0.56927425       1.23666680
Si       7.23815181       0.00000000      12.00000000  F        0        2      -0.13648011      -0.37995064      -1.75822639
Si       3.76227409       2.00679893      15.60606667  F        0        2      -0.13881021       0.06175283       1.15740313
Si       6.22272410       2.25482548      13.80303333  F        0        2       0.03373224      -0.16384752       0.98478483
O        6.30416499       1.13103512      12.65233746  F        1        2      -0.52980670       0.24127753      -0.19582028
O        5.20877265       1.76346018      14.95372921  F        1        2       0.43466690      -0.25096214      -0.36017787
O        8.17066236       0.63242506      16.25840413  F        1        2       0.32389117      -0.09572218      -0.78369028
O        5.71021236       3.62919935      13.15069587  F        1        2       0.45429943       0.27130834       0.57302144
O        7.66922265       2.49816423      14.45537079  F        1        2       0.01044751       0.38333536      -0.72692011
O        3.84371499       3.13058929      16.75676254  F        1        2      -0.43683779      -0.30148851      -0.43846219
Si       7.23815181       0.00000000      17.40910000  F        0        1       0.02143866       0.04951959       1.02552405
Si       3.76227409       2.00679893      21.01516667  F        0        1       0.11022321       0.04756201      -1.11156836
Si       6.22272410       2.25482548      19.21213333  F        0        1       0.14110265       0.05298651       0.25939540
O        6.30416499       1.13103512      18.06143746  F        1        1      -0.27477681      -0.10971936      -0.53066276
O        5.20877265       1.76346018      20.36282921  F        1        1       0.25553901      -0.22750424      -0.01199186
O        8.17066236       0.63242506      21.66750413  F        1        1      -0.17967472      -0.71216090       0.84774166
O        5.71021236       3.62919935      18.55979587  F        1        1       0.00928634       0.38156770      -0.18038373
O        7.66922265       2.49816423      19.86447079  F        1        1      -0.07048310       0.35566085      -0.70359798
O        3.84371499       3.13058929      22.16586254  F        1        1      -0.13474951       1.97193127      -0.23619910
F        3.76227409       2.00679893      23.76586254  F        0        0      -0.03188318      -0.87676483       3.16272547
H        3.76227409       2.00679893      24.72709508  F        0        0       0.01034204      -0.20021986      -0.99003408
38
Lattice="9.8418 0.0 0.0 -2.460449999999999 4.261624409482844 0.0 0.0 -0.0 34.16586254" Properties=species:S:1:pos:R:3:move_mask:L:1:spacegroup_kinds:I:1:tags:I:1:forces:R:3 spacegroup="P 32 2 1" unit_cell=conventional surface=alpha_quartz_001 species=HF height_A=1.3 substrate_atoms=36 calculation_kind="Rigid approach energy evaluation; not NEB or TS" energy=-271.21316013295336 pbc="T T F"
Si       2.31725181       0.00000000      12.00000000  F        0        2      -0.13660840      -0.37977788      -1.75952482
Si      -1.15862590       2.00679893      15.60606667  F        0        2      -0.14685413       0.05120955       1.13334608
Si       1.30182410       2.25482548      13.80303333  F        0        2       0.03668889      -0.16219424       0.97625696
O        1.38326499       1.13103512      12.65233746  F        1        2      -0.52996759       0.24171423      -0.19411052
O        0.28787265       1.76346018      14.95372921  F        1        2       0.43109803      -0.25117943      -0.35046946
O        3.24976236       0.63242506      16.25840413  F        1        2       0.31632627      -0.10496339      -0.75901536
O        0.78931236       3.62919935      13.15069587  F        1        2       0.45439570       0.27075672       0.57513273
O        2.74832265       2.49816423      14.45537079  F        1        2       0.01039468       0.38197271      -0.72305108
O       -1.07718501       3.13058929      16.75676254  F        1        2      -0.43095192      -0.28850907      -0.42608962
Si       2.31725181       0.00000000      17.40910000  F        0        1      -0.00447801       0.04080497       0.97405912
Si      -1.15862590       2.00679893      21.01516667  F        0        1       0.19871366       0.10694861      -0.32979727
Si       1.30182410       2.25482548      19.21213333  F        0        1      -0.38947084      -0.03551534       0.16379075
O        1.38326499       1.13103512      18.06143746  F        1        1      -0.21523335      -0.07098666      -0.47793921
O        0.28787265       1.76346018      20.36282921  F        1        1       0.56011222      -0.15364499      -0.18750783
O        3.24976236       0.63242506      21.66750413  F        1        1      -0.36006676      -1.68595050       0.48106473
O        0.78931236       3.62919935      18.55979587  F        1        1       0.10934089       0.43743801      -0.10932661
O        2.74832265       2.49816423      19.86447079  F        1        1       0.31084286       0.38963318      -0.18725707
O       -1.07718501       3.13058929      22.16586254  F        1        1       0.01477617       0.56687288       1.24841133
Si       7.23815181       0.00000000      12.00000000  F        0        2      -0.13663877      -0.37994800      -1.75923444
Si       3.76227409       2.00679893      15.60606667  F        0        2      -0.13662405       0.06411521       1.14154112
Si       6.22272410       2.25482548      13.80303333  F        0        2       0.03393036      -0.16317129       0.97821684
O        6.30416499       1.13103512      12.65233746  F        1        2      -0.52993825       0.24158163      -0.19440348
O        5.20877265       1.76346018      14.95372921  F        1        2       0.43235240      -0.25104740      -0.35481690
O        8.17066236       0.63242506      16.25840413  F        1        2       0.32532592      -0.09846979      -0.77749414
O        5.71021236       3.62919935      13.15069587  F        1        2       0.45442467       0.27102343       0.57493156
O        7.66922265       2.49816423      14.45537079  F        1        2       0.01336868       0.38257608      -0.72056536
O        3.84371499       3.13058929      16.75676254  F        1        2      -0.43756267      -0.30047055      -0.42375848
Si       7.23815181       0.00000000      17.40910000  F        0        1       0.01922733       0.05998764       0.98413216
Si       3.76227409       2.00679893      21.01516667  F        0        1       0.16475898      -0.17566790      -1.97754449
Si       6.22272410       2.25482548      19.21213333  F        0        1       0.26125941       0.09720931       0.09314311
O        6.30416499       1.13103512      18.06143746  F        1        1      -0.29693758      -0.09899038      -0.47147694
O        5.20877265       1.76346018      20.36282921  F        1        1       0.03565002      -0.19243308       0.25543511
O        8.17066236       0.63242506      21.66750413  F        1        1      -0.20788814      -0.70430184       0.80081817
O        5.71021236       3.62919935      18.55979587  F        1        1      -0.00632781       0.35261126      -0.13837081
O        7.66922265       2.49816423      19.86447079  F        1        1      -0.07722317       0.34304401      -0.66695912
O        3.84371499       3.13058929      22.16586254  F        1        1       0.01862028       3.64467883      -1.40905405
F        3.76227409       2.00679893      23.46586254  F        0        0      -0.22712168      -2.43869420       4.10645576
H        3.76227409       2.00679893      24.42709508  F        0        0       0.06828570      -0.00826233      -0.08896849
