32
Lattice="7.6044 0.0 0.0 -3.802199999999998 6.585603580538386 0.0 0.0 -0.0 28.35945" Properties=species:S:1:pos:R:3:move_mask:L:1:spacegroup_kinds:I:1:tags:I:1:forces:R:3 spacegroup="P 63/m" unit_cell=conventional occupancy="_JSON {\"0\": {\"Si\": 1.0}, \"1\": {\"N\": 1.0}, \"2\": {\"N\": 1.0}}" surface=beta_Si3N4_001 species=HF site=bridge_Si_N orientation=parallel height_A=3.25 substrate_atoms=28 calculation_kind="Rigid evaluated approach scan; not NEB" energy=-231.16111956549474 pbc="T T F"
Si       5.18010587       1.14956320      12.00000000  F        0        2       1.64628911       1.25344921       1.26307068
Si      -1.37790587       5.43604038      13.45315000  F        0        2      -0.05810300       0.62635610      -1.91659734
Si       4.01879613       3.91132168      12.00000000  F        0        2      -1.83116498       0.86897655       1.54183535
Si      -0.21659613       2.67428190      13.45315000  F        0        2      -0.44902809      -0.33814583      -1.92774039
Si       2.20769800       1.52471870      12.00000000  F        0        2       0.18604890      -2.04109106       1.45609045
Si       1.59450200       5.06088488      13.45315000  F        0        2       0.47104812      -0.29188011      -1.23291032
N       -1.02370433       2.17482973      12.00000000  F        1        2      -0.67546805      -0.66913618       0.23801457
N        4.82590433       4.41077385      13.45315000  F        1        2       0.19289195      -0.02777188       0.26591970
N        2.43059437       4.61163476      12.00000000  F        1        2       0.81800533      -0.18865434       0.29929102
N        1.37160563       1.97396882      13.45315000  F        1        2      -0.08205745       0.15252448       0.47449878
N       -1.40689004       6.38474267      12.00000000  F        1        2      -0.23142467       0.88771173       0.19189803
N        5.20909004       0.20086091      13.45315000  F        1        2      -0.09215993      -0.10563862       0.50501885
N        3.80216198       2.19517924      12.00000000  F        2        2       0.04031888      -0.02607878      -1.74558460
N        0.00003802       4.39042434      13.45315000  F        2        2       0.00918613      -0.13006707       0.58276534
Si       5.17633702       1.17594779      14.92709669  T        0        1       0.00044259       0.00033945      -0.00000067
Si      -1.43355402       5.19782282      16.18352123  T        0        1       0.00058943       0.00100427      -0.00019277
Si       3.96923428       3.93920352      14.98279328  T        0        1       0.00024914       0.00057367      -0.00005168
Si       0.01775706       2.70165016      16.22009062  T        0        1       0.00147083       0.00121954      -0.00100265
Si       2.21582900       1.49113258      14.97937696  T        0        1       0.00063948       0.00050539      -0.00006293
Si       1.60931558       5.14818757      16.47583331  T        0        1       0.00069989       0.00049746       0.00015561
N       -1.03370223       2.23310040      14.95858809  T        1        1       0.00047433       0.00035570       0.00024010
N        4.76838503       4.42717840      16.36152418  T        1        1       0.00009245       0.00170774      -0.00034193
N        2.35823092       4.63363021      14.99106216  T        1        1      -0.00002372       0.00000814       0.00004144
N        1.39905854       1.85857908      16.40636836  T        1        1       0.00098543       0.00084643       0.00011369
N       -1.29920355       6.35508894      14.94638057  T        1        1       0.00079854       0.00061752      -0.00035781
N        5.21234419       0.25591716      16.37941443  T        1        1       0.00086645       0.00073956       0.00051305
N        3.79320567       2.20506340      14.84704349  T        2        1       0.00062157       0.00049559       0.00027403
N       -0.00306098       4.37672377      16.63747930  T        2        1       0.00050159       0.00076949      -0.00026660
F        2.33814969       4.76045328      17.85506087  T        0        0       0.00044483       0.00021354       0.00027240
H        1.14228717       7.35948857      17.21676062  T        0        0       0.00508510       0.00120040       0.00085363
F        1.03731670       8.78035545      18.54593550  T        0        0       0.02337785       0.00667950      -0.00390773
H        0.34463469       8.69612806      19.18707473  T        0        0       0.01830196       0.01167238       0.00815067
