3
Lattice="11.518769465528859 0.0 0.0 3.839589821842953 6.650364651656328 0.0 0.0 0.0 32.62128289467409" Properties=species:S:1:pos:R:3:forces:R:3 energy=-14.170980795243851 pbc="T T F"
O        0.00000000      -0.00000000       0.00000000       0.00000000      -0.00000000      -0.00791186
H        0.75809147       0.00000000       0.60619698       0.00428542       0.00000000       0.00395593
H       -0.75809147       0.00000000       0.60619698      -0.00428542       0.00000000       0.00395593
