40
Lattice="9.8418 0.0 0.0 -2.460449999999999 4.261624409482844 0.0 0.0 -0.0 34.16586254" Properties=species:S:1:pos:R:3:move_mask:L:1:spacegroup_kinds:I:1:tags:I:1:forces:R:3 surface=alpha_quartz_001 coadsorbate=HF start=1 calculation_kind="Local coadsorbate relaxation; not a reaction path" host_atoms=36 energy=-282.9416919540773 pbc="T T F"
Si       2.31725181       0.00000000      12.00000000  F        0        2      -0.13432782      -0.36625876      -1.70664806
Si      -1.15862590       2.00679893      15.60606667  F        0        2      -0.13294631       0.03975639       1.25024175
Si       1.30182410       2.25482548      13.80303333  F        0        2       0.03382573      -0.15834823       1.00953963
O        1.38326499       1.13103512      12.65233746  F        1        2      -0.50543049       0.21700702      -0.21529081
O        0.28787265       1.76346018      14.95372921  F        1        2       0.44662106      -0.24428935      -0.38316067
O        3.24976236       0.63242506      16.25840413  F        1        2      -0.21776209      -0.52414008       0.05445097
O        0.78931236       3.62919935      13.15069587  F        1        2       0.42635282       0.28422381       0.53988654
O        2.74832265       2.49816423      14.45537079  F        1        2       0.01029684       0.38577571      -0.72902528
O       -1.07718501       3.13058929      16.75676254  F        1        2       0.04538029       0.39679089       0.19936621
Si       2.31153795       0.01444068      17.46234745  T        0        1       0.00074744       0.00123754       0.00776567
Si      -1.18077629       1.79776872      21.13530152  T        0        1       0.00830951       0.00190053      -0.01577308
Si       1.30332381       2.26984945      19.30363049  T        0        1       0.00250135       0.00151599      -0.00555398
O        1.36644859       1.17137596      18.08161692  T        1        1       0.00291967      -0.00406631      -0.00267572
O        0.29162311       1.76207906      20.45441858  T        1        1      -0.01804172      -0.00326930       0.01261252
O        3.12684083       0.73568303      21.94610339  T        1        1      -0.00149865      -0.00476649       0.00316094
O        0.78490405       3.65782209      18.62348300  T        1        1      -0.00295425       0.00309024      -0.00452771
O        2.77339230       2.52615047      19.93073220  T        1        1       0.00810541      -0.00066892       0.00802214
O       -1.22218043       2.39095461      22.65707269  T        1        1      -0.00306818      -0.00238065       0.00436437
Si       7.23815181       0.00000000      12.00000000  F        0        2      -0.13344451      -0.36623381      -1.70201410
Si       3.76227409       2.00679893      15.60606667  F        0        2      -0.10737995       0.07896190       1.23187627
Si       6.22272410       2.25482548      13.80303333  F        0        2       0.02844016      -0.16401159       1.02261015
O        6.30416499       1.13103512      12.65233746  F        1        2      -0.50533299       0.21458613      -0.22064717
O        5.20877265       1.76346018      14.95372921  F        1        2       0.43319466      -0.24743453      -0.38031813
O        8.17066236       0.63242506      16.25840413  F        1        2      -0.15974706      -0.53406065       0.04126424
O        5.71021236       3.62919935      13.15069587  F        1        2       0.42630477       0.28653352       0.53359783
O        7.66922265       2.49816423      14.45537079  F        1        2       0.02007195       0.38781688      -0.72840253
O        3.84371499       3.13058929      16.75676254  F        1        2       0.09414234       0.33759152       0.17704595
Si       7.25144443      -0.00455867      17.46594275  T        0        1       0.00004152       0.00146376       0.00659946
Si       3.74658893       1.99048601      21.13674234  T        0        1       0.00421194       0.00298764      -0.01363146
Si       6.22100362       2.23741823      19.31392322  T        0        1      -0.00027830       0.00032574      -0.00243588
O        6.31185389       1.14928907      18.09188269  T        1        1       0.00179965      -0.00430663      -0.00403758
O        5.18030363       1.70465823      20.42801195  T        1        1      -0.00996077      -0.00034408       0.00674018
O        8.17630294       0.33023996      21.70521738  T        1        1      -0.00145889      -0.00643033      -0.00122822
O        5.74138421       3.63220197      18.61589134  T        1        1      -0.00350255       0.00383927      -0.00419563
O        7.67239549       2.45638425      20.00879064  T        1        1       0.00632696      -0.00257650       0.00449947
O        3.83641818       2.95825918      22.45842850  T        1        1       0.00132965       0.00214071       0.00437145
F        2.92615833       0.27125763      24.26386926  T        0        0      -0.01427742      -0.00061026      -0.00317826
H        3.04924885       0.51425638      23.21487588  T        0        0      -0.00731051       0.00026651      -0.00305392
F        4.31868482       1.37085113      25.90218034  T        0        0      -0.02229647      -0.00817832       0.00607014
H        3.73313869       0.91304060      25.19598611  T        0        0      -0.01990479      -0.00543693       0.00171230
40
Lattice="9.8418 0.0 0.0 -2.460449999999999 4.261624409482844 0.0 0.0 -0.0 34.16586254" Properties=species:S:1:pos:R:3:move_mask:L:1:spacegroup_kinds:I:1:tags:I:1:forces:R:3 surface=alpha_quartz_001 coadsorbate=HF start=1 calculation_kind="Local coadsorbate relaxation; not a reaction path" host_atoms=36 energy=-282.9417206157231 pbc="T T F"
Si       2.31725181       0.00000000      12.00000000  F        0        2      -0.13433703      -0.36622358      -1.70659603
Si      -1.15862590       2.00679893      15.60606667  F        0        2      -0.13306815       0.03961445       1.25008817
Si       1.30182410       2.25482548      13.80303333  F        0        2       0.03383901      -0.15833819       1.00943698
O        1.38326499       1.13103512      12.65233746  F        1        2      -0.50538324       0.21698192      -0.21529186
O        0.28787265       1.76346018      14.95372921  F        1        2       0.44666084      -0.24429807      -0.38309090
O        3.24976236       0.63242506      16.25840413  F        1        2      -0.21856874      -0.52474040       0.05595282
O        0.78931236       3.62919935      13.15069587  F        1        2       0.42630791       0.28422817       0.53986573
O        2.74832265       2.49816423      14.45537079  F        1        2       0.01031857       0.38579337      -0.72899118
O       -1.07718501       3.13058929      16.75676254  F        1        2       0.04622032       0.39800807       0.20070407
Si       2.31154863       0.01445836      17.46245839  T        0        1       0.00008584      -0.00060890      -0.00195424
Si      -1.18065758       1.79779587      21.13507619  T        0        1      -0.00319137      -0.00296820       0.00312348
Si       1.30335954       2.26987111      19.30355115  T        0        1      -0.00063065      -0.00061106       0.00245201
O        1.36649030       1.17131787      18.08157870  T        1        1       0.00005582       0.00081142       0.00174982
O        0.29136537       1.76203236      20.45459876  T        1        1       0.00438806       0.00053416      -0.00307415
O        3.12681942       0.73561494      21.94614855  T        1        1       0.00097963       0.00038665      -0.00159907
O        0.78486185       3.65786624      18.62341832  T        1        1       0.00128115      -0.00151392       0.00124002
O        2.77350809       2.52614091      19.93084680  T        1        1      -0.00264240       0.00118043      -0.00034145
O       -1.22222426       2.39092060      22.65713504  T        1        1      -0.00310762      -0.00461654      -0.00128246
Si       7.23815181       0.00000000      12.00000000  F        0        2      -0.13344716      -0.36619555      -1.70194932
Si       3.76227409       2.00679893      15.60606667  F        0        2      -0.10731205       0.07904344       1.23174944
Si       6.22272410       2.25482548      13.80303333  F        0        2       0.02845601      -0.16399285       1.02253873
O        6.30416499       1.13103512      12.65233746  F        1        2      -0.50528130       0.21455064      -0.22065900
O        5.20877265       1.76346018      14.95372921  F        1        2       0.43318087      -0.24746275      -0.38026613
O        8.17066236       0.63242506      16.25840413  F        1        2      -0.16030954      -0.53446537       0.04237447
O        5.71021236       3.62919935      13.15069587  F        1        2       0.42625072       0.28654352       0.53355701
O        7.66922265       2.49816423      14.45537079  F        1        2       0.02012027       0.38786148      -0.72836448
O        3.84371499       3.13058929      16.75676254  F        1        2       0.09468380       0.33835171       0.17800801
Si       7.25144502      -0.00453776      17.46603703  T        0        1      -0.00024577      -0.00022350      -0.00170849
Si       3.74664910       1.99052869      21.13654760  T        0        1      -0.00108764      -0.00056454       0.00500540
Si       6.22099964       2.23742288      19.31388842  T        0        1      -0.00068377      -0.00042632       0.00068260
O        6.31187960       1.14922755      18.09182501  T        1        1      -0.00117457       0.00093595       0.00048034
O        5.18016133       1.70465331      20.42810824  T        1        1       0.00227874       0.00010160      -0.00196526
O        8.17628210       0.33014810      21.70519983  T        1        1      -0.00017054      -0.00199528      -0.00324697
O        5.74133417       3.63225682      18.61583140  T        1        1       0.00044915      -0.00079688       0.00096862
O        7.67248588       2.45634744      20.00885492  T        1        1      -0.00208884      -0.00032777      -0.00215183
O        3.83643718       2.95828976      22.45849095  T        1        1       0.00091200      -0.00063700       0.00041752
F        2.92595437       0.27124891      24.26382386  T        0        0      -0.01432784      -0.00073317      -0.00262168
H        3.04914441       0.51426019      23.21483225  T        0        0      -0.00724009       0.00042043      -0.00300286
F        4.31836630       1.37073430      25.90226706  T        0        0      -0.02226699      -0.00815412       0.00614081
H        3.73285434       0.91296293      25.19601057  T        0        0      -0.01990341      -0.00545347       0.00162132
40
Lattice="9.8418 0.0 0.0 -2.460449999999999 4.261624409482844 0.0 0.0 -0.0 34.16586254" Properties=species:S:1:pos:R:3:move_mask:L:1:spacegroup_kinds:I:1:tags:I:1:forces:R:3 surface=alpha_quartz_001 coadsorbate=HF start=1 calculation_kind="Local coadsorbate relaxation; not a reaction path" host_atoms=36 energy=-282.94175772570156 pbc="T T F"
Si       2.31725181       0.00000000      12.00000000  F        0        2      -0.13434000      -0.36620860      -1.70656728
Si      -1.15862590       2.00679893      15.60606667  F        0        2      -0.13313527       0.03952941       1.25004242
Si       1.30182410       2.25482548      13.80303333  F        0        2       0.03385106      -0.15833359       1.00940908
O        1.38326499       1.13103512      12.65233746  F        1        2      -0.50536337       0.21696840      -0.21529844
O        0.28787265       1.76346018      14.95372921  F        1        2       0.44668470      -0.24429808      -0.38306776
O        3.24976236       0.63242506      16.25840413  F        1        2      -0.21891126      -0.52501255       0.05658223
O        0.78931236       3.62919935      13.15069587  F        1        2       0.42628637       0.28423197       0.53985047
O        2.74832265       2.49816423      14.45537079  F        1        2       0.01031685       0.38579601      -0.72899161
O       -1.07718501       3.13058929      16.75676254  F        1        2       0.04657520       0.39852256       0.20125993
Si       2.31155862       0.01445992      17.46250544  T        0        1      -0.00011713      -0.00135268      -0.00571924
Si      -1.18062918       1.79775771      21.13496374  T        0        1      -0.00795468      -0.00488978       0.01064069
Si       1.30337468       2.26987571      19.30353853  T        0        1      -0.00173471      -0.00146595       0.00557962
O        1.36652376       1.17128900      18.08158396  T        1        1      -0.00107412       0.00272349       0.00351044
O        0.29125301       1.76200679      20.45467717  T        1        1       0.01336109       0.00201559      -0.00929984
O        3.12682236       0.73556984      21.94615167  T        1        1       0.00191779       0.00232447      -0.00343196
O        0.78485467       3.65787027      18.62339289  T        1        1       0.00285088      -0.00322572       0.00342253
O        2.77354518       2.52615705      19.93092888  T        1        1      -0.00690827       0.00187046      -0.00360842
O       -1.22232026       2.39080212      22.65715781  T        1        1      -0.00312413      -0.00551420      -0.00353237
Si       7.23815181       0.00000000      12.00000000  F        0        2      -0.13344726      -0.36617913      -1.70191277
Si       3.76227409       2.00679893      15.60606667  F        0        2      -0.10727394       0.07910592       1.23174514
Si       6.22272410       2.25482548      13.80303333  F        0        2       0.02845882      -0.16398755       1.02253242
O        6.30416499       1.13103512      12.65233746  F        1        2      -0.50525700       0.21453133      -0.22067154
O        5.20877265       1.76346018      14.95372921  F        1        2       0.43318185      -0.24747448      -0.38026473
O        8.17066236       0.63242506      16.25840413  F        1        2      -0.16054557      -0.53460922       0.04282786
O        5.71021236       3.62919935      13.15069587  F        1        2       0.42622449       0.28655180       0.53353008
O        7.66922265       2.49816423      14.45537079  F        1        2       0.02013853       0.38788447      -0.72836035
O        3.84371499       3.13058929      16.75676254  F        1        2       0.09487865       0.33860659       0.17834340
Si       7.25144058      -0.00452600      17.46607606  T        0        1      -0.00037735      -0.00096347      -0.00527391
Si       3.74667407       1.99055053      21.13649643  T        0        1      -0.00317191      -0.00187003       0.01222434
Si       6.22098292       2.23741799      19.31387505  T        0        1      -0.00080699      -0.00056562       0.00144498
O        6.31187611       1.14919850      18.09178986  T        1        1      -0.00250403       0.00331317       0.00250711
O        5.18009643       1.70465153      20.42814371  T        1        1       0.00692926       0.00020863      -0.00523333
O        8.17626253       0.33003704      21.70512144  T        1        1       0.00035258      -0.00020193      -0.00405804
O        5.74130433       3.63228346      18.61580424  T        1        1       0.00222751      -0.00295973       0.00330317
O        7.67251430       2.45631236      20.00886184  T        1        1      -0.00530277       0.00053354      -0.00468642
O        3.83647010       2.95830077      22.45854772  T        1        1       0.00075766      -0.00172092      -0.00113414
F        2.92551031       0.27122752      24.26373633  T        0        0      -0.01434542      -0.00078315      -0.00238615
H        3.04891896       0.51427153      23.21473850  T        0        0      -0.00720454       0.00049035      -0.00298945
F        4.31767499       1.37048099      25.90245683  T        0        0      -0.02220728      -0.00813268       0.00616135
H        3.73223668       0.91279388      25.19606189  T        0        0      -0.01988630      -0.00545909       0.00157049
40
Lattice="9.8418 0.0 0.0 -2.460449999999999 4.261624409482844 0.0 0.0 -0.0 34.16586254" Properties=species:S:1:pos:R:3:move_mask:L:1:spacegroup_kinds:I:1:tags:I:1:forces:R:3 surface=alpha_quartz_001 coadsorbate=HF start=1 calculation_kind="Local coadsorbate relaxation; not a reaction path" host_atoms=36 energy=-282.9421409626417 pbc="T T F"
Si       2.31725181       0.00000000      12.00000000  F        0        2      -0.13435709      -0.36610681      -1.70635944
Si      -1.15862590       2.00679893      15.60606667  F        0        2      -0.13355467       0.03909900       1.24971779
Si       1.30182410       2.25482548      13.80303333  F        0        2       0.03395689      -0.15829721       1.00924162
O        1.38326499       1.13103512      12.65233746  F        1        2      -0.50523172       0.21687443      -0.21535304
O        0.28787265       1.76346018      14.95372921  F        1        2       0.44684643      -0.24431794      -0.38289076
O        3.24976236       0.63242506      16.25840413  F        1        2      -0.22134082      -0.52700694       0.06108553
O        0.78931236       3.62919935      13.15069587  F        1        2       0.42613841       0.28425480       0.53973715
O        2.74832265       2.49816423      14.45537079  F        1        2       0.01029120       0.38581022      -0.72900685
O       -1.07718501       3.13058929      16.75676254  F        1        2       0.04913511       0.40221349       0.20520241
Si       2.31167739       0.01442655      17.46285534  T        0        1      -0.00154624      -0.00626915      -0.03107470
Si      -1.18060705       1.79711994      21.13403069  T        0        1      -0.04036553      -0.01779809       0.06117580
Si       1.30349919       2.26987424      19.30359588  T        0        1      -0.00895915      -0.00701502       0.02630339
O        1.36688144       1.17104710      18.08177960  T        1        1      -0.00863116       0.01551880       0.01531312
O        0.29042788       1.76177702      20.45525763  T        1        1       0.07386568       0.01188328      -0.05104808
O        3.12692649       0.73511373      21.94606311  T        1        1       0.00814552       0.01520743      -0.01569194
O        0.78486904       3.65780475      18.62321221  T        1        1       0.01338994      -0.01473590       0.01816658
O        2.77372481       2.52641641      19.93177192  T        1        1      -0.03575013       0.00650599      -0.02563540
O       -1.22357963       2.38918435      22.65729427  T        1        1      -0.00325184      -0.01152473      -0.01855152
Si       7.23815181       0.00000000      12.00000000  F        0        2      -0.13344835      -0.36607033      -1.70166036
Si       3.76227409       2.00679893      15.60606667  F        0        2      -0.10706569       0.07942910       1.23176697
Si       6.22272410       2.25482548      13.80303333  F        0        2       0.02846215      -0.16395891       1.02251611
O        6.30416499       1.13103512      12.65233746  F        1        2      -0.50509054       0.21439566      -0.22076498
O        5.20877265       1.76346018      14.95372921  F        1        2       0.43320588      -0.24753485      -0.38029039
O        8.17066236       0.63242506      16.25840413  F        1        2      -0.16225180      -0.53556243       0.04605568
O        5.71021236       3.62919935      13.15069587  F        1        2       0.42604552       0.28661753       0.53334052
O        7.66922265       2.49816423      14.45537079  F        1        2       0.02026100       0.38803365      -0.72834269
O        3.84371499       3.13058929      16.75676254  F        1        2       0.09592999       0.33999226       0.18033338
Si       7.25137220      -0.00442782      17.46632093  T        0        1      -0.00119530      -0.00581784      -0.02893498
Si       3.74685233       1.99074711      21.13633733  T        0        1      -0.01753562      -0.01048719       0.06085631
Si       6.22075635       2.23735010      19.31373579  T        0        1      -0.00134269      -0.00152960       0.00701445
O        6.31172891       1.14900035      18.09148397  T        1        1      -0.01126125       0.01884055       0.01580575
O        5.17957171       1.70463306      20.42838123  T        1        1       0.03868330       0.00083594      -0.02748520
O        8.17604413       0.32871165      21.70403539  T        1        1       0.00385332       0.01178304      -0.00950154
O        5.74104920       3.63246447      18.61562722  T        1        1       0.01381194      -0.01703200       0.01863489
O        7.67266099       2.45591314      20.00877464  T        1        1      -0.02715187       0.00623905      -0.02177851
O        3.83689103       2.95836794      22.45918093  T        1        1      -0.00028916      -0.00900149      -0.01158851
F        2.91968930       0.27094355      24.26260677  T        0        0      -0.01439789      -0.00107709      -0.00072103
H        3.04596703       0.51442554      23.21351051  T        0        0      -0.00691287       0.00101719      -0.00290956
F        4.30862086       1.36716319      25.90494523  T        0        0      -0.02152504      -0.00797206       0.00613942
H        3.72414360       0.91057798      25.19673027  T        0        0      -0.01956586      -0.00543583       0.00118265
40
Lattice="9.8418 0.0 0.0 -2.460449999999999 4.261624409482844 0.0 0.0 -0.0 34.16586254" Properties=species:S:1:pos:R:3:move_mask:L:1:spacegroup_kinds:I:1:tags:I:1:forces:R:3 surface=alpha_quartz_001 coadsorbate=HF start=1 calculation_kind="Local coadsorbate relaxation; not a reaction path" host_atoms=36 energy=-282.9428291767788 pbc="T T F"
Si       2.31725181       0.00000000      12.00000000  F        0        2      -0.13436864      -0.36599360      -1.70609141
Si      -1.15862590       2.00679893      15.60606667  F        0        2      -0.13398661       0.03883535       1.24938063
Si       1.30182410       2.25482548      13.80303333  F        0        2       0.03413200      -0.15824676       1.00913056
O        1.38326499       1.13103512      12.65233746  F        1        2      -0.50509174       0.21675965      -0.21544537
O        0.28787265       1.76346018      14.95372921  F        1        2       0.44704133      -0.24436759      -0.38267544
O        3.24976236       0.63242506      16.25840413  F        1        2      -0.22421587      -0.52951231       0.06645898
O        0.78931236       3.62919935      13.15069587  F        1        2       0.42596520       0.28427939       0.53957948
O        2.74832265       2.49816423      14.45537079  F        1        2       0.01021128       0.38580819      -0.72908282
O       -1.07718501       3.13058929      16.75676254  F        1        2       0.05225112       0.40667250       0.20986155
Si       2.31191113       0.01430068      17.46329802  T        0        1      -0.00307435      -0.01147241      -0.05820020
Si      -1.18095209       1.79563394      21.13266127  T        0        1      -0.07515674      -0.03164146       0.11505457
Si       1.30368606       2.26981004      19.30394861  T        0        1      -0.01667152      -0.01278829       0.04808092
O        1.36754464       1.17068622      18.08232612  T        1        1      -0.01666268       0.02913053       0.02784615
O        0.28940596       1.76140684      20.45599245  T        1        1       0.13844251       0.02236513      -0.09533951
O        3.12721357       0.73429967      21.94573888  T        1        1       0.01468632       0.02870113      -0.02835454
O        0.78501633       3.65753885      18.62300116  T        1        1       0.02447907      -0.02682617       0.03385263
O        2.77376396       2.52701193      19.93328492  T        1        1      -0.06656228       0.01144656      -0.04914976
O       -1.22622153       2.38572330      22.65740781  T        1        1      -0.00348367      -0.01794417      -0.03459595
Si       7.23815181       0.00000000      12.00000000  F        0        2      -0.13344825      -0.36595363      -1.70135261
Si       3.76227409       2.00679893      15.60606667  F        0        2      -0.10689900       0.07967841       1.23200125
Si       6.22272410       2.25482548      13.80303333  F        0        2       0.02842757      -0.16394698       1.02259886
O        6.30416499       1.13103512      12.65233746  F        1        2      -0.50489746       0.21422738      -0.22090044
O        5.20877265       1.76346018      14.95372921  F        1        2       0.43328194      -0.24756737      -0.38043137
O        8.17066236       0.63242506      16.25840413  F        1        2      -0.16429095      -0.53650038       0.04982062
O        5.71021236       3.62919935      13.15069587  F        1        2       0.42583824       0.28671636       0.53309693
O        7.66922265       2.49816423      14.45537079  F        1        2       0.02038847       0.38819481      -0.72836952
O        3.84371499       3.13058929      16.75676254  F        1        2       0.09654979       0.34077488       0.18186999
Si       7.25121985      -0.00427904      17.46655424  T        0        1      -0.00206249      -0.01099840      -0.05438210
Si       3.74705380       1.99106671      21.13656187  T        0        1      -0.03296123      -0.01961661       0.11255881
Si       6.22028220       2.23720289      19.31349637  T        0        1      -0.00179460      -0.00236687       0.01253667
O        6.31131581       1.14876918      18.09100081  T        1        1      -0.02066240       0.03548005       0.03005551
O        5.17884010       1.70459691      20.42862394  T        1        1       0.07247538       0.00130691      -0.05113471
O        8.17562707       0.32607222      21.70169530  T        1        1       0.00753638       0.02446576      -0.01527101
O        5.74065074       3.63267570      18.61543929  T        1        1       0.02616194      -0.03210247       0.03513365
O        7.67271607       2.45513949      20.00839721  T        1        1      -0.05048075       0.01228625      -0.03994824
O        3.83776162       2.95842524      22.46038748  T        1        1      -0.00143466      -0.01668305      -0.02270996
F        2.90748716       0.27034557      24.26026024  T        0        0      -0.01416153      -0.00114915       0.00088512
H        3.03978344       0.51475594      23.21093666  T        0        0      -0.00649264       0.00163773      -0.00271357
F        4.28965545       1.36021060      25.91015823  T        0        0      -0.02043738      -0.00796220       0.00550298
H        3.70718595       0.90593412      25.19812543  T        0        0      -0.01857110      -0.00512710       0.00084268
40
Lattice="9.8418 0.0 0.0 -2.460449999999999 4.261624409482844 0.0 0.0 -0.0 34.16586254" Properties=species:S:1:pos:R:3:move_mask:L:1:spacegroup_kinds:I:1:tags:I:1:forces:R:3 surface=alpha_quartz_001 coadsorbate=HF start=1 calculation_kind="Local coadsorbate relaxation; not a reaction path" host_atoms=36 energy=-282.94461739215564 pbc="T T F"
Si       2.31725181       0.00000000      12.00000000  F        0        2      -0.13436883      -0.36581252      -1.70557717
Si      -1.15862590       2.00679893      15.60606667  F        0        2      -0.13456187       0.03904348       1.24884926
Si       1.30182410       2.25482548      13.80303333  F        0        2       0.03456605      -0.15813662       1.00912000
O        1.38326499       1.13103512      12.65233746  F        1        2      -0.50488725       0.21655529      -0.21566597
O        0.28787265       1.76346018      14.95372921  F        1        2       0.44737825      -0.24453127      -0.38225838
O        3.24976236       0.63242506      16.25840413  F        1        2      -0.22929855      -0.53431127       0.07609473
O        0.78931236       3.62919935      13.15069587  F        1        2       0.42567018       0.28431021       0.53925623
O        2.74832265       2.49816423      14.45537079  F        1        2       0.00995751       0.38575912      -0.72934021
O       -1.07718501       3.13058929      16.75676254  F        1        2       0.05800725       0.41482785       0.21812456
Si       2.31256204       0.01386064      17.46415603  T        0        1      -0.00546376      -0.01919272      -0.09932277
Si      -1.18250888       1.79114289      21.12955178  T        0        1      -0.12764485      -0.05304213       0.19654864
Si       1.30411814       2.26954413      19.30528126  T        0        1      -0.02866996      -0.02119520       0.08053154
O        1.36933152       1.16985380      18.08409039  T        1        1      -0.02875820       0.04963624       0.04657040
O        0.28747102       1.76049812      20.45743225  T        1        1       0.23560093       0.03841615      -0.16159403
O        3.12813355       0.73214906      21.94462504  T        1        1       0.02434706       0.04839716      -0.04411891
O        0.78560078       3.65659826      18.62263032  T        1        1       0.04087975      -0.04467504       0.05744553
O        2.77339590       2.52879922      19.93727749  T        1        1      -0.11331027       0.01884867      -0.08476722
O       -1.23383111       2.37566330      22.65748873  T        1        1      -0.00442759      -0.02786284      -0.05984140
Si       7.23815181       0.00000000      12.00000000  F        0        2      -0.13344692      -0.36577870      -1.70080412
Si       3.76227409       2.00679893      15.60606667  F        0        2      -0.10681713       0.07975603       1.23287962
Si       6.22272410       2.25482548      13.80303333  F        0        2       0.02826616      -0.16397966       1.02296021
O        6.30416499       1.13103512      12.65233746  F        1        2      -0.50456954       0.21391868      -0.22118838
O        5.20877265       1.76346018      14.95372921  F        1        2       0.43352768      -0.24752816      -0.38093248
O        8.17066236       0.63242506      16.25840413  F        1        2      -0.16794455      -0.53768922       0.05635591
O        5.71021236       3.62919935      13.15069587  F        1        2       0.42549087       0.28693802       0.53263646
O        7.66922265       2.49816423      14.45537079  F        1        2       0.02057943       0.38843537      -0.72851125
O        3.84371499       3.13058929      16.75676254  F        1        2       0.09607267       0.34001215       0.18254631
Si       7.25076883      -0.00393190      17.46682032  T        0        1      -0.00336842      -0.01873637      -0.09289187
Si       3.74738519       1.99185745      21.13799383  T        0        1      -0.05660554      -0.03359583       0.19040026
Si       6.21892331       2.23677952      19.31286608  T        0        1      -0.00244074      -0.00347291       0.02067737
O        6.30997632       1.14836821      18.08983703  T        1        1      -0.03479767       0.06042099       0.05139065
O        5.17725449       1.70448898      20.42896338  T        1        1       0.12337309       0.00163423      -0.08695874
O        8.17448270       0.31866946      21.69487211  T        1        1       0.01298059       0.04363265      -0.02388776
O        5.73969721       3.63304270      18.61516386  T        1        1       0.04447956      -0.05455957       0.05996113
O        7.67251531       2.45300128      20.00703698  T        1        1      -0.08581601       0.02133542      -0.06729211
O        3.84024924       2.95847489      22.46368945  T        1        1      -0.00345966      -0.02803456      -0.03930704
F        2.87238222       0.26863017      24.25353085  T        0        0      -0.01188144       0.00037943       0.00059361
H        3.02199818       0.51571976      23.20353415  T        0        0      -0.00551247       0.00237972      -0.00130401
F        4.23510908       1.34019883      25.92513228  T        0        0      -0.01926786      -0.00959894       0.00110720
H        3.65841940       0.89258232      25.20213505  T        0        0      -0.01385796      -0.00290334       0.00151420
40
Lattice="9.8418 0.0 0.0 -2.460449999999999 4.261624409482844 0.0 0.0 -0.0 34.16586254" Properties=species:S:1:pos:R:3:move_mask:L:1:spacegroup_kinds:I:1:tags:I:1:forces:R:3 surface=alpha_quartz_001 coadsorbate=HF start=1 calculation_kind="Local coadsorbate relaxation; not a reaction path" host_atoms=36 energy=-282.94647087177094 pbc="T T F"
Si       2.31725181       0.00000000      12.00000000  F        0        2      -0.13434717      -0.36573003      -1.70524135
Si      -1.15862590       2.00679893      15.60606667  F        0        2      -0.13468792       0.03990517       1.24862656
Si       1.30182410       2.25482548      13.80303333  F        0        2       0.03495323      -0.15804999       1.00931446
O        1.38326499       1.13103512      12.65233746  F        1        2      -0.50481869       0.21643858      -0.21585325
O        0.28787265       1.76346018      14.95372921  F        1        2       0.44756111      -0.24470952      -0.38198170
O        3.24976236       0.63242506      16.25840413  F        1        2      -0.23219659      -0.53745935       0.08172045
O        0.78931236       3.62919935      13.15069587  F        1        2       0.42551532       0.28431228       0.53902470
O        2.74832265       2.49816423      14.45537079  F        1        2       0.00968578       0.38567934      -0.72962693
O       -1.07718501       3.13058929      16.75676254  F        1        2       0.06157843       0.41980301       0.22285227
Si       2.31319693       0.01336971      17.46472855  T        0        1      -0.00651043      -0.02199352      -0.11528145
Si      -1.18444833       1.78649593      21.12700935  T        0        1      -0.14714012      -0.06181529       0.22782161
Si       1.30447221       2.26922782      19.30682391  T        0        1      -0.03410329      -0.02422211       0.09286094
O        1.37103666       1.16916068      18.08598232  T        1        1      -0.03342506       0.05756615       0.05358063
O        0.28621382       1.75969955      20.45842339  T        1        1       0.27212968       0.04510302      -0.18666520
O        3.12911432       0.73011764      21.94344346  T        1        1       0.02798851       0.05572350      -0.04500390
O        0.78628934       3.65554436      18.62241896  T        1        1       0.04679235      -0.05111291       0.06643159
O        2.77269698       2.53063628      19.94102354  T        1        1      -0.13157762       0.02142581      -0.09843862
O       -1.24145775       2.36552813      22.65738528  T        1        1      -0.00582989      -0.03200795      -0.07116909
Si       7.23815181       0.00000000      12.00000000  F        0        2      -0.13344516      -0.36571271      -1.70048707
Si       3.76227409       2.00679893      15.60606667  F        0        2      -0.10699920       0.07942162       1.23391811
Si       6.22272410       2.25482548      13.80303333  F        0        2       0.02806033      -0.16405813       1.02340080
O        6.30416499       1.13103512      12.65233746  F        1        2      -0.50439620       0.21373066      -0.22140485
O        5.20877265       1.76346018      14.95372921  F        1        2       0.43379148      -0.24740227      -0.38150120
O        8.17066236       0.63242506      16.25840413  F        1        2      -0.17006762      -0.53783095       0.05991506
O        5.71021236       3.62919935      13.15069587  F        1        2       0.42531391       0.28711559       0.53234178
O        7.66922265       2.49816423      14.45537079  F        1        2       0.02065237       0.38852516      -0.72869547
O        3.84371499       3.13058929      16.75676254  F        1        2       0.09405903       0.33718033       0.18063915
Si       7.25030914      -0.00363830      17.46680980  T        0        1      -0.00391123      -0.02163167      -0.10785506
Si       3.74754203       1.99255709      21.13995765  T        0        1      -0.06641557      -0.03969543       0.22048328
Si       6.21756798       2.23635832      19.31227335  T        0        1      -0.00268311      -0.00372360       0.02360418
O        6.30853507       1.14814349      18.08882374  T        1        1      -0.04022909       0.06998253       0.05950217
O        5.17602013       1.70437235      20.42905642  T        1        1       0.14234769       0.00134442      -0.10073476
O        8.17337403       0.31139585      21.68798761  T        1        1       0.01496398       0.05118966      -0.02714952
O        5.73886908       3.63325130      18.61506701  T        1        1       0.05121924      -0.06303623       0.06950603
O        7.67206813       2.45092112      20.00549108  T        1        1      -0.09944813       0.02454773      -0.07760450
O        3.84272069       2.95845012      22.46687996  T        1        1      -0.00480794      -0.03236188      -0.04557957
F        2.83730394       0.26694501      24.24676959  T        0        0      -0.00764046       0.00363906      -0.00430652
H        3.00421903       0.51668936      23.19615070  T        0        0      -0.00461093       0.00210397       0.00132649
F        4.18055698       1.32015008      25.94003585  T        0        0      -0.01979749      -0.01254999      -0.00527625
H        3.60971198       0.87926331      25.20616226  T        0        0      -0.00752354       0.00036595       0.00298600
40
Lattice="9.8418 0.0 0.0 -2.460449999999999 4.261624409482844 0.0 0.0 -0.0 34.16586254" Properties=species:S:1:pos:R:3:move_mask:L:1:spacegroup_kinds:I:1:tags:I:1:forces:R:3 surface=alpha_quartz_001 coadsorbate=HF start=1 calculation_kind="Local coadsorbate relaxation; not a reaction path" host_atoms=36 energy=-282.94844980743704 pbc="T T F"
Si       2.31725181       0.00000000      12.00000000  F        0        2      -0.13431114      -0.36571595      -1.70503378
Si      -1.15862590       2.00679893      15.60606667  F        0        2      -0.13450776       0.04121986       1.24860692
Si       1.30182410       2.25482548      13.80303333  F        0        2       0.03530933      -0.15797856       1.00963971
O        1.38326499       1.13103512      12.65233746  F        1        2      -0.50484530       0.21638511      -0.21601325
O        0.28787265       1.76346018      14.95372921  F        1        2       0.44763377      -0.24489945      -0.38179632
O        3.24976236       0.63242506      16.25840413  F        1        2      -0.23358822      -0.53946085       0.08455953
O        0.78931236       3.62919935      13.15069587  F        1        2       0.42545949       0.28429236       0.53886142
O        2.74832265       2.49816423      14.45537079  F        1        2       0.00940191       0.38557788      -0.72993115
O       -1.07718501       3.13058929      16.75676254  F        1        2       0.06363889       0.42259026       0.22512006
Si       2.31381868       0.01284607      17.46510185  T        0        1      -0.00664656      -0.02140015      -0.11386394
Si      -1.18663945       1.78173431      21.12485742  T        0        1      -0.14405365      -0.06160916       0.22442481
Si       1.30475932       2.26887911      19.30851067  T        0        1      -0.03495669      -0.02361536       0.09140937
O        1.37268471       1.16856483      18.08795953  T        1        1      -0.03303106       0.05690752       0.05259839
O        0.28541147       1.75898528      20.45910947  T        1        1       0.26710698       0.04528199      -0.18392229
O        3.13013650       0.72816696      21.94229198  T        1        1       0.02762580       0.05522067      -0.03646395
O        0.78704446       3.65441795      18.62231675  T        1        1       0.04552914      -0.04978841       0.06542852
O        2.77176565       2.53250321      19.94459945  T        1        1      -0.13035972       0.02049061      -0.09684653
O       -1.24911056       2.35533769      22.65713021  T        1        1      -0.00757125      -0.03206693      -0.07255217
Si       7.23815181       0.00000000      12.00000000  F        0        2      -0.13344349      -0.36572191      -1.70033380
Si       3.76227409       2.00679893      15.60606667  F        0        2      -0.10735719       0.07881618       1.23506688
Si       6.22272410       2.25482548      13.80303333  F        0        2       0.02782181      -0.16416785       1.02388581
O        6.30416499       1.13103512      12.65233746  F        1        2      -0.50433006       0.21362783      -0.22156856
O        5.20877265       1.76346018      14.95372921  F        1        2       0.43406400      -0.24721979      -0.38211302
O        8.17066236       0.63242506      16.25840413  F        1        2      -0.17111482      -0.53723776       0.06138814
O        5.71021236       3.62919935      13.15069587  F        1        2       0.42525614       0.28726106       0.53216579
O        7.66922265       2.49816423      14.45537079  F        1        2       0.02064822       0.38851052      -0.72890193
O        3.84371499       3.13058929      16.75676254  F        1        2       0.09097466       0.33290389       0.17692561
Si       7.24984284      -0.00338049      17.46660670  T        0        1      -0.00396044      -0.02119474      -0.10654819
Si       3.74756771       1.99318187      21.14229189  T        0        1      -0.06688067      -0.04059670       0.21791536
Si       6.21621488       2.23594056      19.31170514  T        0        1      -0.00270150      -0.00347265       0.02314933
O        6.30702403       1.14803994      18.08791297  T        1        1      -0.03968665       0.06901737       0.05854502
O        5.17501917       1.70424429      20.42897923  T        1        1       0.13918931       0.00072981      -0.09925380
O        8.17228870       0.30421571      21.68106243  T        1        1       0.01462778       0.05076584      -0.02684738
O        5.73812320       3.63335293      18.61509301  T        1        1       0.05002913      -0.06195593       0.06854419
O        7.67145033       2.44887733      20.00382009  T        1        1      -0.09811302       0.02357847      -0.07616787
O        3.84517196       2.95837387      22.46999433  T        1        1      -0.00573292      -0.03218956      -0.04496351
F        2.80229982       0.26532078      24.23991501  T        0        0      -0.00193495       0.00793784      -0.01191959
H        2.98645442       0.51765386      23.18881318  T        0        0      -0.00365014       0.00105824       0.00492966
F        4.12599330       1.30004467      25.95482023  T        0        0      -0.02090158      -0.01570815      -0.01187778
H        3.56111864       0.86600417      25.21021825  T        0        0      -0.00063760       0.00382654       0.00375428
40
Lattice="9.8418 0.0 0.0 -2.460449999999999 4.261624409482844 0.0 0.0 -0.0 34.16586254" Properties=species:S:1:pos:R:3:move_mask:L:1:spacegroup_kinds:I:1:tags:I:1:forces:R:3 surface=alpha_quartz_001 coadsorbate=HF start=1 calculation_kind="Local coadsorbate relaxation; not a reaction path" host_atoms=36 energy=-282.9504124752028 pbc="T T F"
Si       2.31725181       0.00000000      12.00000000  F        0        2      -0.13426331      -0.36576097      -1.70494046
Si      -1.15862590       2.00679893      15.60606667  F        0        2      -0.13407163       0.04291940       1.24874071
Si       1.30182410       2.25482548      13.80303333  F        0        2       0.03564059      -0.15791894       1.01006633
O        1.38326499       1.13103512      12.65233746  F        1        2      -0.50495470       0.21638803      -0.21614632
O        0.28787265       1.76346018      14.95372921  F        1        2       0.44760921      -0.24510022      -0.38168020
O        3.24976236       0.63242506      16.25840413  F        1        2      -0.23369529      -0.54047303       0.08500451
O        0.78931236       3.62919935      13.15069587  F        1        2       0.42549027       0.28425203       0.53876115
O        2.74832265       2.49816423      14.45537079  F        1        2       0.00910767       0.38545666      -0.73024618
O       -1.07718501       3.13058929      16.75676254  F        1        2       0.06439886       0.42351379       0.22527573
Si       2.31442622       0.01229754      17.46530197  T        0        1      -0.00601553      -0.01789258      -0.09754576
Si      -1.18903366       1.77686954      21.12303818  T        0        1      -0.12217078      -0.05346083       0.19141138
Si       1.30497287       2.26850427      19.31032188  T        0        1      -0.03152312      -0.01985038       0.07790783
O        1.37428197       1.16805532      18.09000805  T        1        1      -0.02835040       0.04892080       0.04478650
O        0.28498702       1.75835312      20.45952901  T        1        1       0.22688668       0.03962536      -0.15768179
O        3.13119635       0.72629645      21.94125152  T        1        1       0.02391715       0.04840931      -0.02152371
O        0.78785082       3.65323466      18.62230848  T        1        1       0.03816110      -0.04186578       0.05592913
O        2.77062661       2.53438665      19.94803247  T        1        1      -0.11257104       0.01643381      -0.08208414
O       -1.25680635       2.34509587      22.65671959  T        1        1      -0.00945732      -0.02844647      -0.06474756
Si       7.23815181       0.00000000      12.00000000  F        0        2      -0.13344198      -0.36579573      -1.70032373
Si       3.76227409       2.00679893      15.60606667  F        0        2      -0.10785591       0.07799377       1.23629893
Si       6.22272410       2.25482548      13.80303333  F        0        2       0.02755390      -0.16430383       1.02440033
O        6.30416499       1.13103512      12.65233746  F        1        2      -0.50435626       0.21359913      -0.22168478
O        5.20877265       1.76346018      14.95372921  F        1        2       0.43433914      -0.24699174      -0.38275664
O        8.17066236       0.63242506      16.25840413  F        1        2      -0.17122398      -0.53600317       0.06105438
O        5.71021236       3.62919935      13.15069587  F        1        2       0.42530135       0.28737813       0.53209458
O        7.66922265       2.49816423      14.45537079  F        1        2       0.02058278       0.38840612      -0.72912012
O        3.84371499       3.13058929      16.75676254  F        1        2       0.08695143       0.32736933       0.17164627
Si       7.24936937      -0.00315197      17.46623680  T        0        1      -0.00360595      -0.01791566      -0.09128598
Si       3.74746311       1.99372238      21.14495383  T        0        1      -0.05929898      -0.03694313       0.18724952
Si       6.21486219       2.23552662      19.31116002  T        0        1      -0.00265096      -0.00287491       0.01993369
O        6.30545293       1.14804121      18.08708922  T        1        1      -0.03406868       0.05910794       0.04986738
O        5.17420410       1.70410116      20.42875685  T        1        1       0.11711675      -0.00008807      -0.08468695
O        8.17122279       0.29712079      21.67410104  T        1        1       0.01236681       0.04341247      -0.02361422
O        5.73744313       3.63336434      18.61522445  T        1        1       0.04212490      -0.05277193       0.05865174
O        7.67068548       2.44685657      20.00204567  T        1        1      -0.08404098       0.01897707      -0.06475666
O        3.84759356       2.95824680      22.47304055  T        1        1      -0.00621345      -0.02840352      -0.03859810
F        2.76742958       0.26379835      24.23289429  T        0        0       0.00449155       0.01251600      -0.02026181
H        2.96871537       0.51860092      23.18155954  T        0        0      -0.00247719      -0.00050221       0.00911882
F        4.07141286       1.27985985      25.96943351  T        0        0      -0.02165305      -0.01813928      -0.01706664
H        3.51270162       0.85283342      25.21429766  T        0        0       0.00592035       0.00682322       0.00255285
40
Lattice="9.8418 0.0 0.0 -2.460449999999999 4.261624409482844 0.0 0.0 -0.0 34.16586254" Properties=species:S:1:pos:R:3:move_mask:L:1:spacegroup_kinds:I:1:tags:I:1:forces:R:3 surface=alpha_quartz_001 coadsorbate=HF start=1 calculation_kind="Local coadsorbate relaxation; not a reaction path" host_atoms=36 energy=-282.95211382630134 pbc="T T F"
Si       2.31725181       0.00000000      12.00000000  F        0        2      -0.13420429      -0.36586653      -1.70496888
Si      -1.15862590       2.00679893      15.60606667  F        0        2      -0.13338661       0.04500198       1.24899436
Si       1.30182410       2.25482548      13.80303333  F        0        2       0.03594793      -0.15786996       1.01057968
O        1.38326499       1.13103512      12.65233746  F        1        2      -0.50514940       0.21645085      -0.21624733
O        0.28787265       1.76346018      14.95372921  F        1        2       0.44748398      -0.24531291      -0.38161943
O        3.24976236       0.63242506      16.25840413  F        1        2      -0.23251557      -0.54047740       0.08303770
O        0.78931236       3.62919935      13.15069587  F        1        2       0.42561097       0.28418915       0.53873119
O        2.74832265       2.49816423      14.45537079  F        1        2       0.00880449       0.38531393      -0.73056347
O       -1.07718501       3.13058929      16.75676254  F        1        2       0.06384033       0.42257785       0.22331528
Si       2.31501459       0.01172901      17.46532419  T        0        1      -0.00461870      -0.01146323      -0.06622394
Si      -1.19162510       1.77189727      21.12155219  T        0        1      -0.08194681      -0.03709788       0.12859883
Si       1.30509458       2.26810681      19.31225469  T        0        1      -0.02330848      -0.01284701       0.05194160
O        1.37582446       1.16763801      18.09212631  T        1        1      -0.01939173       0.03353411       0.03000453
O        0.28493259       1.75781348      20.45966513  T        1        1       0.15156759       0.02771745      -0.10783942
O        3.13229967       0.72453225      21.94042271  T        1        1       0.01697831       0.03534739      -0.00268999
O        0.78870048       3.65200131      18.62239671  T        1        1       0.02468164      -0.02727090       0.03788419
O        2.76926174       2.53627010      19.95132920  T        1        1      -0.07814595       0.00923159      -0.05404597
O       -1.26457711       2.33479730      22.65612590  T        1        1      -0.01124768      -0.02088379      -0.04677215
Si       7.23815181       0.00000000      12.00000000  F        0        2      -0.13344068      -0.36593535      -1.70046236
Si       3.76227409       2.00679893      15.60606667  F        0        2      -0.10848074       0.07697025       1.23758390
Si       6.22272410       2.25482548      13.80303333  F        0        2       0.02725609      -0.16446492       1.02493276
O        6.30416499       1.13103512      12.65233746  F        1        2      -0.50447674       0.21364675      -0.22174999
O        5.20877265       1.76346018      14.95372921  F        1        2       0.43460848      -0.24672087      -0.38342220
O        8.17066236       0.63242506      16.25840413  F        1        2      -0.17037487      -0.53411184       0.05889224
O        5.71021236       3.62919935      13.15069587  F        1        2       0.42545166       0.28746543       0.53213332
O        7.66922265       2.49816423      14.45537079  F        1        2       0.02046153       0.38821081      -0.72934039
O        3.84371499       3.13058929      16.75676254  F        1        2       0.08194282       0.32053999       0.16477460
Si       7.24888574      -0.00295092      17.46569635  T        0        1      -0.00283444      -0.01178032      -0.06189987
Si       3.74719952       1.99414831      21.14795972  T        0        1      -0.04331151      -0.02827090       0.12784995
Si       6.21350454       2.23511610      19.31064409  T        0        1      -0.00271675      -0.00201469       0.01400172
O        6.30381963       1.14815114      18.08635260  T        1        1      -0.02338392       0.04023110       0.03344662
O        5.17355434       1.70393588      20.42838972  T        1        1       0.07620497      -0.00105536      -0.05699238
O        8.17017657       0.29011609      21.66709664  T        1        1       0.00821515       0.02884415      -0.01754010
O        5.73682333       3.63328541      18.61546396  T        1        1       0.02752103      -0.03548080       0.03982992
O        7.66976913       2.44484435      20.00017080  T        1        1      -0.05731552       0.01078820      -0.04347792
O        3.84996785       2.95805258      22.47601097  T        1        1      -0.00608876      -0.02109426      -0.02646204
F        2.73278682       0.26244424      24.22560148  T        0        0       0.01038653       0.01626017      -0.02663324
H        2.95102237       0.51951290      23.17445460  T        0        0      -0.00085770      -0.00219630       0.01326984
F        4.01681000       1.25956046      25.98380231  T        0        0      -0.02088543      -0.01876174      -0.01882055
H        3.46455919       0.83979433      25.21836967  T        0        0       0.01111880       0.00865582      -0.00203061
40
Lattice="9.8418 0.0 0.0 -2.460449999999999 4.261624409482844 0.0 0.0 -0.0 34.16586254" Properties=species:S:1:pos:R:3:move_mask:L:1:spacegroup_kinds:I:1:tags:I:1:forces:R:3 surface=alpha_quartz_001 coadsorbate=HF start=1 calculation_kind="Local coadsorbate relaxation; not a reaction path" host_atoms=36 energy=-282.95314192146765 pbc="T T F"
Si       2.31725181       0.00000000      12.00000000  F        0        2      -0.13413300      -0.36604801      -1.70515906
Si      -1.15862590       2.00679893      15.60606667  F        0        2      -0.13241539       0.04754323       1.24933202
Si       1.30182410       2.25482548      13.80303333  F        0        2       0.03622674      -0.15783203       1.01117018
O        1.38326499       1.13103512      12.65233746  F        1        2      -0.50545189       0.21659263      -0.21629993
O        0.28787265       1.76346018      14.95372921  F        1        2       0.44723208      -0.24554185      -0.38160031
O        3.24976236       0.63242506      16.25840413  F        1        2      -0.22976717      -0.53922370       0.07811420
O        0.78931236       3.62919935      13.15069587  F        1        2       0.42584648       0.28409517       0.53880027
O        2.74832265       2.49816423      14.45537079  F        1        2       0.00849397       0.38514199      -0.73086700
O       -1.07718501       3.13058929      16.75676254  F        1        2       0.06164929       0.41939562       0.21879777
Si       2.31556871       0.01114712      17.46512203  T        0        1      -0.00228152      -0.00153354      -0.01666837
Si      -1.19445737       1.76678965      21.12046732  T        0        1      -0.02011255      -0.01062634       0.02939466
Si       1.30507748       2.26769194      19.31431789  T        0        1      -0.00870299      -0.00187607       0.01043004
O        1.37729183       1.16734374      18.09432266  T        1        1      -0.00530374       0.00910273       0.00648284
O        0.28531341       1.75739777      20.45942232  T        1        1       0.03383147       0.00771494      -0.02897047
O        3.13347255       0.72295596      21.94000639  T        1        1       0.00642279       0.01426218       0.01642504
O        0.78958508       3.65072419      18.62260663  T        1        1       0.00383774      -0.00446977       0.00940914
O        2.76758274       2.53811694      19.95447899  T        1        1      -0.02341522      -0.00161742      -0.00997884
O       -1.27250738       2.32442061      22.65527497  T        1        1      -0.01259566      -0.00815905      -0.01513662
Si       7.23815181       0.00000000      12.00000000  F        0        2      -0.13343964      -0.36615665      -1.70079099
Si       3.76227409       2.00679893      15.60606667  F        0        2      -0.10922806       0.07573430       1.23886868
Si       6.22272410       2.25482548      13.80303333  F        0        2       0.02692206      -0.16465377       1.02546605
O        6.30416499       1.13103512      12.65233746  F        1        2      -0.50471487       0.21379069      -0.22174687
O        5.20877265       1.76346018      14.95372921  F        1        2       0.43485439      -0.24640314      -0.38409445
O        8.17066236       0.63242506      16.25840413  F        1        2      -0.16835099      -0.53140923       0.05451521
O        5.71021236       3.62919935      13.15069587  F        1        2       0.42573305       0.28751403       0.53231430
O        7.66922265       2.49816423      14.45537079  F        1        2       0.02028221       0.38790436      -0.72954703
O        3.84371499       3.13058929      16.75676254  F        1        2       0.07566151       0.31209699       0.15594849
Si       7.24838329      -0.00277870      17.46494436  T        0        1      -0.00150853      -0.00216256      -0.01514597
Si       3.74668845       1.99438060      21.15140340  T        0        1      -0.01621607      -0.01235481       0.03245553
Si       6.21212297       2.23470644      19.31017804  T        0        1      -0.00324042      -0.00094707       0.00470996
O        6.30210488       1.14840135      18.08572121  T        1        1      -0.00659089       0.01041454       0.00759774
O        5.17306172       1.70372894      20.42784827  T        1        1       0.01280238      -0.00214907      -0.01351088
O        8.16915534       0.28322110      21.66001932  T        1        1       0.00181047       0.00505636      -0.00811695
O        5.73626451       3.63309642      18.61584104  T        1        1       0.00480557      -0.00836173       0.01021385
O        7.66865544       2.44281068      19.99817640  T        1        1      -0.01548073      -0.00148537      -0.01049252
O        3.85225058       2.95773781      22.47887421  T        1        1      -0.00509697      -0.00936763      -0.00695657
F        2.69858026       0.26141214      24.21781353  T        0        0       0.01297982       0.01668653      -0.02544759
H        2.93343064       0.52035415      23.16765516  T        0        0       0.00176328      -0.00315723       0.01583240
F        3.96217691       1.23906397      25.99777084  T        0        0      -0.01606425      -0.01553604      -0.01327393
H        3.41692294       0.82698810      25.22232650  T        0        0       0.01295525       0.00802578      -0.01247403
40
Lattice="9.8418 0.0 0.0 -2.460449999999999 4.261624409482844 0.0 0.0 -0.0 34.16586254" Properties=species:S:1:pos:R:3:move_mask:L:1:spacegroup_kinds:I:1:tags:I:1:forces:R:3 surface=alpha_quartz_001 coadsorbate=HF start=1 calculation_kind="Local coadsorbate relaxation; not a reaction path" host_atoms=36 energy=-282.95324701158137 pbc="T T F"
Si       2.31725181       0.00000000      12.00000000  F        0        2      -0.13411992      -0.36611335      -1.70528660
Si      -1.15862590       2.00679893      15.60606667  F        0        2      -0.13216788       0.04807735       1.24939475
Si       1.30182410       2.25482548      13.80303333  F        0        2       0.03624048      -0.15783314       1.01125681
O        1.38326499       1.13103512      12.65233746  F        1        2      -0.50555069       0.21665971      -0.21626882
O        0.28787265       1.76346018      14.95372921  F        1        2       0.44713225      -0.24557770      -0.38160874
O        3.24976236       0.63242506      16.25840413  F        1        2      -0.22854657      -0.53831898       0.07580808
O        0.78931236       3.62919935      13.15069587  F        1        2       0.42594363       0.28406317       0.53887744
O        2.74832265       2.49816423      14.45537079  F        1        2       0.00845558       0.38510352      -0.73088613
O       -1.07718501       3.13058929      16.75676254  F        1        2       0.06043052       0.41775681       0.21682018
Si       2.31559461       0.01109073      17.46496155  T        0        1      -0.00144853       0.00146397      -0.00081575
Si      -1.19491511       1.76614662      21.12056523  T        0        1      -0.00106154      -0.00232951      -0.00279699
Si       1.30496633       2.26765170      19.31458667  T        0        1      -0.00336576       0.00138105      -0.00272628
O        1.37739724       1.16739564      18.09459342  T        1        1      -0.00096061       0.00126887      -0.00135467
O        0.28558178       1.75743131      20.45913977  T        1        1      -0.00334096       0.00098035      -0.00326462
O        3.13366950       0.72296440      21.94035047  T        1        1       0.00352824       0.00676528       0.01340113
O        0.78967701       3.65058603      18.62270360  T        1        1      -0.00256854       0.00276166       0.00029398
O        2.76716592       2.53824947      19.95476694  T        1        1      -0.00569488      -0.00465208       0.00383446
O       -1.27356232       2.32322952      22.65500515  T        1        1      -0.01228121      -0.00345796      -0.00310092
Si       7.23815181       0.00000000      12.00000000  F        0        2      -0.13343963      -0.36622870      -1.70094344
Si       3.76227409       2.00679893      15.60606667  F        0        2      -0.10934547       0.07552736       1.23897759
Si       6.22272410       2.25482548      13.80303333  F        0        2       0.02686398      -0.16468804       1.02551301
O        6.30416499       1.13103512      12.65233746  F        1        2      -0.50481074       0.21386496      -0.22170196
O        5.20877265       1.76346018      14.95372921  F        1        2       0.43485381      -0.24634828      -0.38416126
O        8.17066236       0.63242506      16.25840413  F        1        2      -0.16747774      -0.53064754       0.05280654
O        5.71021236       3.62919935      13.15069587  F        1        2       0.42584238       0.28749435       0.53242176
O        7.66922265       2.49816423      14.45537079  F        1        2       0.02023584       0.38780947      -0.72955622
O        3.84371499       3.13058929      16.75676254  F        1        2       0.07419166       0.31024196       0.15384253
Si       7.24830900      -0.00276921      17.46473973  T        0        1      -0.00096093       0.00087181       0.00011373
Si       3.74642929       1.99423737      21.15203874  T        0        1      -0.00559118      -0.00504749       0.00026884
Si       6.21192705       2.23465571      19.31017404  T        0        1      -0.00385680      -0.00081895       0.00164012
O        6.30186158       1.14851865      18.08570971  T        1        1      -0.00131468       0.00082341      -0.00061822
O        5.17303932       1.70366189      20.42769003  T        1        1      -0.00660803      -0.00220637      -0.00011917
O        8.16905929       0.28251875      21.65917003  T        1        1      -0.00016298      -0.00319502      -0.00515282
O        5.73621986       3.63301328      18.61596970  T        1        1      -0.00232629       0.00015348       0.00087660
O        7.66839873       2.44253406      19.99788941  T        1        1      -0.00262312      -0.00472342      -0.00052686
O        3.85240202       2.95758245      22.47911327  T        1        1      -0.00480437      -0.00513908       0.00019753
F        2.69525937       0.26161411      24.21652161  T        0        0       0.00824694       0.01157840      -0.01417700
H        2.93162908       0.52038057      23.16723641  T        0        0       0.00327017      -0.00152014       0.01243567
F        3.95619111       1.23664244      25.99897494  T        0        0      -0.00965030      -0.01078367      -0.00491163
H        3.41220291       0.82580401      25.22251866  T        0        0       0.00884390       0.00498248      -0.01880266
40
Lattice="9.8418 0.0 0.0 -2.460449999999999 4.261624409482844 0.0 0.0 -0.0 34.16586254" Properties=species:S:1:pos:R:3:move_mask:L:1:spacegroup_kinds:I:1:tags:I:1:forces:R:3 surface=alpha_quartz_001 coadsorbate=HF start=1 calculation_kind="Local coadsorbate relaxation; not a reaction path" host_atoms=36 energy=-282.9532886053335 pbc="T T F"
Si       2.31725181       0.00000000      12.00000000  F        0        2      -0.13411961      -0.36614049      -1.70536622
Si      -1.15862590       2.00679893      15.60606667  F        0        2      -0.13212866       0.04818849       1.24935415
Si       1.30182410       2.25482548      13.80303333  F        0        2       0.03623169      -0.15783238       1.01122413
O        1.38326499       1.13103512      12.65233746  F        1        2      -0.50559162       0.21669693      -0.21623288
O        0.28787265       1.76346018      14.95372921  F        1        2       0.44708714      -0.24558387      -0.38159052
O        3.24976236       0.63242506      16.25840413  F        1        2      -0.22801553      -0.53781560       0.07471558
O        0.78931236       3.62919935      13.15069587  F        1        2       0.42598979       0.28404563       0.53893608
O        2.74832265       2.49816423      14.45537079  F        1        2       0.00845541       0.38508872      -0.73086302
O       -1.07718501       3.13058929      16.75676254  F        1        2       0.05980533       0.41703090       0.21596129
Si       2.31554551       0.01112294      17.46486679  T        0        1      -0.00108943       0.00237955       0.00475875
Si      -1.19499291       1.76612015      21.12066680  T        0        1       0.00516282       0.00040767      -0.01357081
Si       1.30485335       2.26767897      19.31454838  T        0        1      -0.00126998       0.00239563      -0.00722174
O        1.37733063       1.16746971      18.09456410  T        1        1       0.00034035      -0.00142864      -0.00449452
O        0.28566981       1.75749706      20.45893869  T        1        1      -0.01647829      -0.00151613       0.00634075
O        3.13375349       0.72319187      21.94074064  T        1        1       0.00181613       0.00167453       0.00830912
O        0.78962679       3.65064289      18.62275104  T        1        1      -0.00454742       0.00515960      -0.00285407
O        2.76695860       2.53811767      19.95475068  T        1        1       0.00061562      -0.00507984       0.00800036
O       -1.27376250       2.32327037      22.65487233  T        1        1      -0.01157085      -0.00169777       0.00144967
Si       7.23815181       0.00000000      12.00000000  F        0        2      -0.13343993      -0.36625525      -1.70101729
Si       3.76227409       2.00679893      15.60606667  F        0        2      -0.10930366       0.07557906       1.23889427
Si       6.22272410       2.25482548      13.80303333  F        0        2       0.02684995      -0.16469192       1.02547972
O        6.30416499       1.13103512      12.65233746  F        1        2      -0.50485087       0.21390166      -0.22166832
O        5.20877265       1.76346018      14.95372921  F        1        2       0.43481431      -0.24635003      -0.38413259
O        8.17066236       0.63242506      16.25840413  F        1        2      -0.16717687      -0.53042443       0.05225591
O        5.71021236       3.62919935      13.15069587  F        1        2       0.42588958       0.28747606       0.53247971
O        7.66922265       2.49816423      14.45537079  F        1        2       0.02023670       0.38777984      -0.72953062
O        3.84371499       3.13058929      16.75676254  F        1        2       0.07374249       0.30979382       0.15326388
Si       7.24828939      -0.00276420      17.46467708  T        0        1      -0.00069766       0.00191917       0.00566715
Si       3.74623809       1.99406814      21.15215128  T        0        1      -0.00000014       0.00048404      -0.01240238
Si       6.21185543       2.23464324      19.31023283  T        0        1      -0.00432635      -0.00089302       0.00015593
O        6.30182748       1.14858299      18.08574364  T        1        1       0.00042175      -0.00268124      -0.00349432
O        5.17297072       1.70360595      20.42763096  T        1        1      -0.01246105      -0.00209258       0.00392736
O        8.16907913       0.28258085      21.65913030  T        1        1      -0.00073947      -0.00630343      -0.00416611
O        5.73620271       3.63297848      18.61603280  T        1        1      -0.00483063       0.00304193      -0.00229379
O        7.66828681       2.44245813      19.99785943  T        1        1       0.00152935      -0.00525920       0.00260608
O        3.85224286       2.95743732      22.47904157  T        1        1      -0.00481409      -0.00337961       0.00321562
F        2.69601449       0.26196226      24.21619562  T        0        0       0.00342253       0.00638244      -0.00275555
H        2.93196598       0.52031869      23.16767857  T        0        0       0.00453283       0.00058749       0.00751042
F        3.95671740       1.23663652      25.99857685  T        0        0      -0.00548518      -0.00777340      -0.00035689
H        3.41317359       0.82614647      25.22202383  T        0        0       0.00599350       0.00318568      -0.02049429
40
Lattice="9.8418 0.0 0.0 -2.460449999999999 4.261624409482844 0.0 0.0 -0.0 34.16586254" Properties=species:S:1:pos:R:3:move_mask:L:1:spacegroup_kinds:I:1:tags:I:1:forces:R:3 surface=alpha_quartz_001 coadsorbate=HF start=1 calculation_kind="Local coadsorbate relaxation; not a reaction path" host_atoms=36 energy=-282.95333409395533 pbc="T T F"
Si       2.31725181       0.00000000      12.00000000  F        0        2      -0.13412387      -0.36615676      -1.70544058
Si      -1.15862590       2.00679893      15.60606667  F        0        2      -0.13218773       0.04819963       1.24920757
Si       1.30182410       2.25482548      13.80303333  F        0        2       0.03623826      -0.15782151       1.01111858
O        1.38326499       1.13103512      12.65233746  F        1        2      -0.50562056       0.21673052      -0.21618717
O        0.28787265       1.76346018      14.95372921  F        1        2       0.44705345      -0.24559116      -0.38152502
O        3.24976236       0.63242506      16.25840413  F        1        2      -0.22775514      -0.53747068       0.07403508
O        0.78931236       3.62919935      13.15069587  F        1        2       0.42602305       0.28402587       0.53900171
O        2.74832265       2.49816423      14.45537079  F        1        2       0.00845319       0.38507029      -0.73082704
O       -1.07718501       3.13058929      16.75676254  F        1        2       0.05937860       0.41672872       0.21553178
Si       2.31547205       0.01118620      17.46479137  T        0        1      -0.00082239       0.00252798       0.00702122
Si      -1.19508815       1.76601587      21.12062778  T        0        1       0.00677303       0.00149346      -0.01722357
Si       1.30468757       2.26773681      19.31443674  T        0        1      -0.00071102       0.00242697      -0.00863549
O        1.37725755       1.16755274      18.09449069  T        1        1       0.00044919      -0.00232598      -0.00635809
O        0.28559422       1.75755791      20.45873970  T        1        1      -0.02175827      -0.00258498       0.01084143
O        3.13390587       0.72347626      21.94125323  T        1        1       0.00010572      -0.00367332       0.00190497
O        0.78951968       3.65076436      18.62278659  T        1        1      -0.00493471       0.00591076      -0.00406328
O        2.76665504       2.53790664      19.95486282  T        1        1       0.00340713      -0.00398425       0.00823421
O       -1.27428583       2.32316592      22.65471603  T        1        1      -0.01033658      -0.00092872       0.00353463
Si       7.23815181       0.00000000      12.00000000  F        0        2      -0.13344071      -0.36626730      -1.70106668
Si       3.76227409       2.00679893      15.60606667  F        0        2      -0.10915697       0.07579999       1.23874583
Si       6.22272410       2.25482548      13.80303333  F        0        2       0.02683179      -0.16468935       1.02541853
O        6.30416499       1.13103512      12.65233746  F        1        2      -0.50487016       0.21392490      -0.22163789
O        5.20877265       1.76346018      14.95372921  F        1        2       0.43475128      -0.24637458      -0.38408185
O        8.17066236       0.63242506      16.25840413  F        1        2      -0.16722743      -0.53040322       0.05238960
O        5.71021236       3.62919935      13.15069587  F        1        2       0.42591768       0.28746194       0.53252190
O        7.66922265       2.49816423      14.45537079  F        1        2       0.02027242       0.38777549      -0.72948219
O        3.84371499       3.13058929      16.75676254  F        1        2       0.07344026       0.30964052       0.15303209
Si       7.24824741      -0.00273106      17.46465721  T        0        1      -0.00051311       0.00228272       0.00797020
Si       3.74600372       1.99389552      21.15217311  T        0        1       0.00408817       0.00605320      -0.01797834
Si       6.21167145       2.23460266      19.31030967  T        0        1      -0.00422165      -0.00090559      -0.00150260
O        6.30175886       1.14864031      18.08573814  T        1        1       0.00085226      -0.00439202      -0.00473923
O        5.17273020       1.70350485      20.42757728  T        1        1      -0.01332040      -0.00208136       0.00458272
O        8.16908607       0.28248287      21.65891907  T        1        1      -0.00087998      -0.00790797      -0.00376458
O        5.73611138       3.63296320      18.61609890  T        1        1      -0.00594979       0.00411751      -0.00343902
O        7.66812473       2.44226964      19.99781143  T        1        1       0.00283399      -0.00466630       0.00359135
O        3.85199156       2.95719044      22.47903284  T        1        1      -0.00493139      -0.00231102       0.00497779
F        2.69654232       0.26242797      24.21578149  T        0        0      -0.00204884       0.00013764       0.01052296
H        2.93225962       0.52028552      23.16821463  T        0        0       0.00601729       0.00347309       0.00038269
F        3.95666860       1.23629003      25.99829648  T        0        0      -0.00166693      -0.00508485       0.00223486
H        3.41386984       0.82644864      25.22110573  T        0        0       0.00359087       0.00183971      -0.01884909
40
Lattice="9.8418 0.0 0.0 -2.460449999999999 4.261624409482844 0.0 0.0 -0.0 34.16586254" Properties=species:S:1:pos:R:3:move_mask:L:1:spacegroup_kinds:I:1:tags:I:1:forces:R:3 surface=alpha_quartz_001 coadsorbate=HF start=1 calculation_kind="Local coadsorbate relaxation; not a reaction path" host_atoms=36 energy=-282.9533881773011 pbc="T T F"
Si       2.31725181       0.00000000      12.00000000  F        0        2      -0.13413055      -0.36615996      -1.70549753
Si      -1.15862590       2.00679893      15.60606667  F        0        2      -0.13233705       0.04815912       1.24891616
Si       1.30182410       2.25482548      13.80303333  F        0        2       0.03628743      -0.15779187       1.01094578
O        1.38326499       1.13103512      12.65233746  F        1        2      -0.50563785       0.21675576      -0.21613855
O        0.28787265       1.76346018      14.95372921  F        1        2       0.44702452      -0.24560773      -0.38139596
O        3.24976236       0.63242506      16.25840413  F        1        2      -0.22785675      -0.53738815       0.07390986
O        0.78931236       3.62919935      13.15069587  F        1        2       0.42603676       0.28400356       0.53906610
O        2.74832265       2.49816423      14.45537079  F        1        2       0.00842956       0.38504214      -0.73079971
O       -1.07718501       3.13058929      16.75676254  F        1        2       0.05921560       0.41698477       0.21565960
Si       2.31539190       0.01126589      17.46474942  T        0        1      -0.00065982       0.00197161       0.00574402
Si      -1.19534208       1.76557214      21.12032105  T        0        1       0.00344203       0.00086875      -0.01349493
Si       1.30443748       2.26781380      19.31431127  T        0        1      -0.00182091       0.00140633      -0.00666185
O        1.37723651       1.16763349      18.09443349  T        1        1      -0.00076452      -0.00126663      -0.00675631
O        0.28526394       1.75758624      20.45856736  T        1        1      -0.01861538      -0.00210710       0.00973229
O        3.13418532       0.72369271      21.94184730  T        1        1      -0.00120004      -0.00804086      -0.00440365
O        0.78937366       3.65092284      18.62280774  T        1        1      -0.00373305       0.00488402      -0.00321764
O        2.76615546       2.53769200      19.95528470  T        1        1       0.00269594      -0.00134371       0.00440957
O       -1.27562461       2.32237633      22.65449845  T        1        1      -0.00855895      -0.00127635       0.00302008
Si       7.23815181       0.00000000      12.00000000  F        0        2      -0.13344254      -0.36626316      -1.70108015
Si       3.76227409       2.00679893      15.60606667  F        0        2      -0.10890637       0.07621111       1.23859811
Si       6.22272410       2.25482548      13.80303333  F        0        2       0.02678760      -0.16468882       1.02535038
O        6.30416499       1.13103512      12.65233746  F        1        2      -0.50486135       0.21392791      -0.22161966
O        5.20877265       1.76346018      14.95372921  F        1        2       0.43468110      -0.24641716      -0.38404251
O        8.17066236       0.63242506      16.25840413  F        1        2      -0.16777378      -0.53060952       0.05348263
O        5.71021236       3.62919935      13.15069587  F        1        2       0.42592258       0.28746037       0.53253792
O        7.66922265       2.49816423      14.45537079  F        1        2       0.02035307       0.38779936      -0.72941138
O        3.84371499       3.13058929      16.75676254  F        1        2       0.07317424       0.30963045       0.15300241
Si       7.24815155      -0.00264761      17.46467897  T        0        1      -0.00049458       0.00180878       0.00644440
Si       3.74572617       1.99380216      21.15219266  T        0        1       0.00540218       0.00954480      -0.01514515
Si       6.21126994       2.23450371      19.31036280  T        0        1      -0.00323214      -0.00078529      -0.00331876
O        6.30155927       1.14868293      18.08563600  T        1        1      -0.00014121      -0.00420663      -0.00442914
O        5.17223170       1.70332595      20.42749696  T        1        1      -0.00927103      -0.00221628       0.00189257
O        8.16902714       0.28181972      21.65813516  T        1        1      -0.00067136      -0.00785800      -0.00387691
O        5.73587626       3.63297407      18.61618085  T        1        1      -0.00558251       0.00338383      -0.00249601
O        7.66784300       2.44183722      19.99765029  T        1        1       0.00130228      -0.00291275       0.00240473
O        3.85170854       2.95679089      22.47926356  T        1        1      -0.00497693      -0.00169762       0.00551180
F        2.69509728       0.26293215      24.21505828  T        0        0      -0.00681860      -0.00589154       0.02167373
H        2.93170387       0.52037632      23.16846408  T        0        0       0.00728374       0.00658324      -0.00768105
F        3.95331131       1.23453320      25.99883506  T        0        0       0.00201768      -0.00251964       0.00252082
H        3.41195635       0.82609382      25.21981153  T        0        0       0.00143096       0.00062285      -0.01335611
40
Lattice="9.8418 0.0 0.0 -2.460449999999999 4.261624409482844 0.0 0.0 -0.0 34.16586254" Properties=species:S:1:pos:R:3:move_mask:L:1:spacegroup_kinds:I:1:tags:I:1:forces:R:3 surface=alpha_quartz_001 coadsorbate=HF start=1 calculation_kind="Local coadsorbate relaxation; not a reaction path" host_atoms=36 energy=-282.9534406416499 pbc="T T F"
Si       2.31725181       0.00000000      12.00000000  F        0        2      -0.13413565      -0.36614913      -1.70551597
Si      -1.15862590       2.00679893      15.60606667  F        0        2      -0.13250347       0.04812780       1.24852812
Si       1.30182410       2.25482548      13.80303333  F        0        2       0.03638309      -0.15774529       1.01076036
O        1.38326499       1.13103512      12.65233746  F        1        2      -0.50564067       0.21676296      -0.21610419
O        0.28787265       1.76346018      14.95372921  F        1        2       0.44699387      -0.24563410      -0.38123397
O        3.24976236       0.63242506      16.25840413  F        1        2      -0.22830298      -0.53760350       0.07437049
O        0.78931236       3.62919935      13.15069587  F        1        2       0.42602385       0.28398531       0.53910727
O        2.74832265       2.49816423      14.45537079  F        1        2       0.00837968       0.38500922      -0.73080428
O       -1.07718501       3.13058929      16.75676254  F        1        2       0.05933413       0.41773877       0.21632519
Si       2.31532862       0.01133971      17.46475288  T        0        1      -0.00069164       0.00103722       0.00148695
Si      -1.19580427       1.76474789      21.11975782  T        0        1      -0.00358414      -0.00124307      -0.00397692
Si       1.30411467       2.26788084      19.31423328  T        0        1      -0.00388731      -0.00023725      -0.00192731
O        1.37728109       1.16770236      18.09441203  T        1        1      -0.00293585       0.00135545      -0.00548241
O        0.28469480       1.75756643      20.45847147  T        1        1      -0.00832950      -0.00033017       0.00352963
O        3.13455186       0.72368843      21.94234149  T        1        1      -0.00144483      -0.00914533      -0.00759131
O        0.78922858       3.65107465      18.62281193  T        1        1      -0.00152312       0.00240326      -0.00065865
O        2.76550874       2.53757733      19.95598440  T        1        1      -0.00080867       0.00177263      -0.00180173
O       -1.27775225       2.32079329      22.65424045  T        1        1      -0.00669876      -0.00266463       0.00033409
Si       7.23815181       0.00000000      12.00000000  F        0        2      -0.13344568      -0.36624481      -1.70105237
Si       3.76227409       2.00679893      15.60606667  F        0        2      -0.10863239       0.07670905       1.23852955
Si       6.22272410       2.25482548      13.80303333  F        0        2       0.02671202      -0.16469772       1.02530217
O        6.30416499       1.13103512      12.65233746  F        1        2      -0.50482509       0.21390850      -0.22162185
O        5.20877265       1.76346018      14.95372921  F        1        2       0.43463414      -0.24646158      -0.38404603
O        8.17066236       0.63242506      16.25840413  F        1        2      -0.16873502      -0.53099473       0.05538149
O        5.71021236       3.62919935      13.15069587  F        1        2       0.42590417       0.28747589       0.53252201
O        7.66922265       2.49816423      14.45537079  F        1        2       0.02046238       0.38784354      -0.72933428
O        3.84371499       3.13058929      16.75676254  F        1        2       0.07288335       0.30956756       0.15297603
Si       7.24800322      -0.00252235      17.46472827  T        0        1      -0.00067995       0.00057213       0.00143265
Si       3.74546630       1.99387596      21.15226341  T        0        1       0.00287097       0.00823258      -0.00483383
Si       6.21068892       2.23435272      19.31033193  T        0        1      -0.00176940      -0.00060099      -0.00452634
O        6.30120895       1.14869148      18.08542110  T        1        1      -0.00221911      -0.00222955      -0.00296413
O        5.17155137       1.70307940      20.42736595  T        1        1      -0.00228164      -0.00231924      -0.00285936
O        8.16888823       0.28051411      21.65673345  T        1        1      -0.00035415      -0.00618000      -0.00428249
O        5.73550077       3.63301284      18.61627382  T        1        1      -0.00384214       0.00128333       0.00002169
O        7.66745066       2.44119499      19.99735687  T        1        1      -0.00228744      -0.00048181      -0.00050296
O        3.85146498       2.95629717      22.47979051  T        1        1      -0.00465506      -0.00134365       0.00473307
F        2.69110465       0.26328281      24.21417388  T        0        0      -0.00828365      -0.00877386       0.02354239
H        2.93005889       0.52066024      23.16811345  T        0        0       0.00737357       0.00838519      -0.01301360
F        3.94606748       1.23122701      26.00040502  T        0        0       0.00510055      -0.00030886       0.00054944
H        3.40670508       0.82485355      25.21845520  T        0        0      -0.00055846      -0.00078110      -0.00529861
40
Lattice="9.8418 0.0 0.0 -2.460449999999999 4.261624409482844 0.0 0.0 -0.0 34.16586254" Properties=species:S:1:pos:R:3:move_mask:L:1:spacegroup_kinds:I:1:tags:I:1:forces:R:3 surface=alpha_quartz_001 coadsorbate=HF start=1 calculation_kind="Local coadsorbate relaxation; not a reaction path" host_atoms=36 energy=-282.9534778711125 pbc="T T F"
Si       2.31725181       0.00000000      12.00000000  F        0        2      -0.13413554      -0.36613462      -1.70549990
Si      -1.15862590       2.00679893      15.60606667  F        0        2      -0.13255779       0.04817439       1.24821691
Si       1.30182410       2.25482548      13.80303333  F        0        2       0.03647690      -0.15770295       1.01065114
O        1.38326499       1.13103512      12.65233746  F        1        2      -0.50563499       0.21675348      -0.21609525
O        0.28787265       1.76346018      14.95372921  F        1        2       0.44695531      -0.24565989      -0.38112332
O        3.24976236       0.63242506      16.25840413  F        1        2      -0.22875248      -0.53786817       0.07493238
O        0.78931236       3.62919935      13.15069587  F        1        2       0.42599754       0.28397891       0.53911440
O        2.74832265       2.49816423      14.45537079  F        1        2       0.00833069       0.38498745      -0.73083695
O       -1.07718501       3.13058929      16.75676254  F        1        2       0.05950120       0.41844986       0.21701301
Si       2.31528941       0.01139291      17.46477570  T        0        1      -0.00092913       0.00044177      -0.00252640
Si      -1.19632731       1.76391533      21.11921976  T        0        1      -0.00936334      -0.00331419       0.00438119
Si       1.30379842       2.26790908      19.31422136  T        0        1      -0.00509434      -0.00133475       0.00238528
O        1.37731339       1.16776950      18.09437769  T        1        1      -0.00466601       0.00367967      -0.00350352
O        0.28412896       1.75752933      20.45845367  T        1        1       0.00154173       0.00134354      -0.00293228
O        3.13484654       0.72346478      21.94256254  T        1        1      -0.00071510      -0.00664165      -0.00620532
O        0.78912558       3.65118240      18.62281127  T        1        1       0.00004983       0.00011261       0.00177356
O        2.76495052       2.53759736      19.95659273  T        1        1      -0.00400007       0.00332042      -0.00596545
O       -1.27976856       2.31916230      22.65402374  T        1        1      -0.00552924      -0.00415690      -0.00217171
Si       7.23815181       0.00000000      12.00000000  F        0        2      -0.13344922      -0.36622713      -1.70101448
Si       3.76227409       2.00679893      15.60606667  F        0        2      -0.10847724       0.07705489       1.23854780
Si       6.22272410       2.25482548      13.80303333  F        0        2       0.02663577      -0.16471433       1.02528316
O        6.30416499       1.13103512      12.65233746  F        1        2      -0.50478797       0.21388468      -0.22163514
O        5.20877265       1.76346018      14.95372921  F        1        2       0.43462573      -0.24648386      -0.38408540
O        8.17066236       0.63242506      16.25840413  F        1        2      -0.16957842      -0.53133064       0.05706246
O        5.71021236       3.62919935      13.15069587  F        1        2       0.42588243       0.28749715       0.53249717
O        7.66922265       2.49816423      14.45537079  F        1        2       0.02054650       0.38787773      -0.72928032
O        3.84371499       3.13058929      16.75676254  F        1        2       0.07250468       0.30920110       0.15266513
Si       7.24785949      -0.00241292      17.46475937  T        0        1      -0.00091423      -0.00058788      -0.00354107
Si       3.74529451       1.99407202      21.15237074  T        0        1      -0.00151361       0.00296236       0.00536721
Si       6.21017197       2.23421285      19.31020582  T        0        1      -0.00099139      -0.00052318      -0.00442503
O        6.30083884       1.14866459      18.08517733  T        1        1      -0.00399376       0.00005944      -0.00171613
O        5.17097857       1.70284421      20.42719531  T        1        1       0.00255602      -0.00210626      -0.00620496
O        8.16873715       0.27915833      21.65533609  T        1        1      -0.00036447      -0.00420857      -0.00444562
O        5.73512656       3.63306056      18.61635653  T        1        1      -0.00194894      -0.00055757       0.00213646
O        7.66707417       2.44062958      19.99705255  T        1        1      -0.00526317       0.00132002      -0.00313931
O        3.85128620       2.95589396      22.48038284  T        1        1      -0.00386122      -0.00101876       0.00320511
F        2.68666874       0.26335029      24.21361726  T        0        0      -0.00562589      -0.00709465       0.01472877
H        2.92828972       0.52105734      23.16735490  T        0        0       0.00590874       0.00779918      -0.01296910
F        3.93866457       1.22797321      26.00212194  T        0        0       0.00697856       0.00119577      -0.00201121
H        3.40093906       0.82341443      25.21750562  T        0        0      -0.00234405      -0.00242841       0.00136671
