41
Lattice="11.518769465528859 0.0 0.0 0.0 7.679179643685906 0.0 0.0 0.0 30.7875" Properties=species:S:1:pos:R:3:move_mask:L:1:tags:I:1 surface=Si100 species=SiCl4 site=hollow orientation=flipped height_A=6.5 substrate_atoms=36 calculation_kind="Rigid evaluated approach scan; not NEB" energy=-199.31249491099615 pbc="T T F"
Si       0.00000000       0.00000000      12.00000000  F        6
Si       3.83958982       0.00000000      12.00000000  F        6
Si       7.67917964       0.00000000      12.00000000  F        6
Si       0.00000000       3.83958982      12.00000000  F        6
Si       3.83958982       3.83958982      12.00000000  F        6
Si       7.67917964       3.83958982      12.00000000  F        6
Si       1.91979491       0.00000000      13.35750000  F        5
Si       5.75938473       0.00000000      13.35750000  F        5
Si       9.59897455       0.00000000      13.35750000  F        5
Si       1.91979491       3.83958982      13.35750000  F        5
Si       5.75938473       3.83958982      13.35750000  F        5
Si       9.59897455       3.83958982      13.35750000  F        5
Si       1.91979491       1.91979491      14.71500000  F        4
Si       5.75938473       1.91979491      14.71500000  F        4
Si       9.59897455       1.91979491      14.71500000  F        4
Si       1.91979491       5.75938473      14.71500000  F        4
Si       5.75938473       5.75938473      14.71500000  F        4
Si       9.59897455       5.75938473      14.71500000  F        4
Si       0.00000000       1.91979491      16.07250000  F        3
Si       3.83958982       1.91979491      16.07250000  F        3
Si       7.67917964       1.91979491      16.07250000  F        3
Si       0.00000000       5.75938473      16.07250000  F        3
Si       3.83958982       5.75938473      16.07250000  F        3
Si       7.67917964       5.75938473      16.07250000  F        3
Si       0.00000000       0.00000000      17.43000000  F        2
Si       3.83958982       0.00000000      17.43000000  F        2
Si       7.67917964       0.00000000      17.43000000  F        2
Si       0.00000000       3.83958982      17.43000000  F        2
Si       3.83958982       3.83958982      17.43000000  F        2
Si       7.67917964       3.83958982      17.43000000  F        2
Si       1.91979491       0.00000000      18.78750000  F        1
Si       5.75938473       0.00000000      18.78750000  F        1
Si       9.59897455       0.00000000      18.78750000  F        1
Si       1.91979491       3.83958982      18.78750000  F        1
Si       5.75938473       3.83958982      18.78750000  F        1
Si       9.59897455       3.83958982      18.78750000  F        1
Si       7.67917964       1.91979491      25.96563768  T        0
Cl       7.67917964       1.91979491      28.00005072  T        0
Cl       5.76111663       1.91979491      25.28750000  T        0
Cl       8.63821114       3.58088620      25.28750000  T        0
Cl       8.63821114       0.25870362      25.28750000  T        0
41
Lattice="11.518769465528859 0.0 0.0 0.0 7.679179643685906 0.0 0.0 0.0 30.7875" Properties=species:S:1:pos:R:3:move_mask:L:1:tags:I:1 surface=Si100 species=SiCl4 site=hollow orientation=flipped height_A=5.0 substrate_atoms=36 calculation_kind="Rigid evaluated approach scan; not NEB" energy=-199.31249491099615 pbc="T T F"
Si       0.00000000       0.00000000      12.00000000  F        6
Si       3.83958982       0.00000000      12.00000000  F        6
Si       7.67917964       0.00000000      12.00000000  F        6
Si       0.00000000       3.83958982      12.00000000  F        6
Si       3.83958982       3.83958982      12.00000000  F        6
Si       7.67917964       3.83958982      12.00000000  F        6
Si       1.91979491       0.00000000      13.35750000  F        5
Si       5.75938473       0.00000000      13.35750000  F        5
Si       9.59897455       0.00000000      13.35750000  F        5
Si       1.91979491       3.83958982      13.35750000  F        5
Si       5.75938473       3.83958982      13.35750000  F        5
Si       9.59897455       3.83958982      13.35750000  F        5
Si       1.91979491       1.91979491      14.71500000  F        4
Si       5.75938473       1.91979491      14.71500000  F        4
Si       9.59897455       1.91979491      14.71500000  F        4
Si       1.91979491       5.75938473      14.71500000  F        4
Si       5.75938473       5.75938473      14.71500000  F        4
Si       9.59897455       5.75938473      14.71500000  F        4
Si       0.00000000       1.91979491      16.07250000  F        3
Si       3.83958982       1.91979491      16.07250000  F        3
Si       7.67917964       1.91979491      16.07250000  F        3
Si       0.00000000       5.75938473      16.07250000  F        3
Si       3.83958982       5.75938473      16.07250000  F        3
Si       7.67917964       5.75938473      16.07250000  F        3
Si       0.00000000       0.00000000      17.43000000  F        2
Si       3.83958982       0.00000000      17.43000000  F        2
Si       7.67917964       0.00000000      17.43000000  F        2
Si       0.00000000       3.83958982      17.43000000  F        2
Si       3.83958982       3.83958982      17.43000000  F        2
Si       7.67917964       3.83958982      17.43000000  F        2
Si       1.91979491       0.00000000      18.78750000  F        1
Si       5.75938473       0.00000000      18.78750000  F        1
Si       9.59897455       0.00000000      18.78750000  F        1
Si       1.91979491       3.83958982      18.78750000  F        1
Si       5.75938473       3.83958982      18.78750000  F        1
Si       9.59897455       3.83958982      18.78750000  F        1
Si       7.67917964       1.91979491      24.46563768  T        0
Cl       7.67917964       1.91979491      26.50005072  T        0
Cl       5.76111663       1.91979491      23.78750000  T        0
Cl       8.63821114       3.58088620      23.78750000  T        0
Cl       8.63821114       0.25870362      23.78750000  T        0
41
Lattice="11.518769465528859 0.0 0.0 0.0 7.679179643685906 0.0 0.0 0.0 30.7875" Properties=species:S:1:pos:R:3:move_mask:L:1:tags:I:1 surface=Si100 species=SiCl4 site=hollow orientation=flipped height_A=4.0 substrate_atoms=36 calculation_kind="Rigid evaluated approach scan; not NEB" energy=-199.4747023441637 pbc="T T F"
Si       0.00000000       0.00000000      12.00000000  F        6
Si       3.83958982       0.00000000      12.00000000  F        6
Si       7.67917964       0.00000000      12.00000000  F        6
Si       0.00000000       3.83958982      12.00000000  F        6
Si       3.83958982       3.83958982      12.00000000  F        6
Si       7.67917964       3.83958982      12.00000000  F        6
Si       1.91979491       0.00000000      13.35750000  F        5
Si       5.75938473       0.00000000      13.35750000  F        5
Si       9.59897455       0.00000000      13.35750000  F        5
Si       1.91979491       3.83958982      13.35750000  F        5
Si       5.75938473       3.83958982      13.35750000  F        5
Si       9.59897455       3.83958982      13.35750000  F        5
Si       1.91979491       1.91979491      14.71500000  F        4
Si       5.75938473       1.91979491      14.71500000  F        4
Si       9.59897455       1.91979491      14.71500000  F        4
Si       1.91979491       5.75938473      14.71500000  F        4
Si       5.75938473       5.75938473      14.71500000  F        4
Si       9.59897455       5.75938473      14.71500000  F        4
Si       0.00000000       1.91979491      16.07250000  F        3
Si       3.83958982       1.91979491      16.07250000  F        3
Si       7.67917964       1.91979491      16.07250000  F        3
Si       0.00000000       5.75938473      16.07250000  F        3
Si       3.83958982       5.75938473      16.07250000  F        3
Si       7.67917964       5.75938473      16.07250000  F        3
Si       0.00000000       0.00000000      17.43000000  F        2
Si       3.83958982       0.00000000      17.43000000  F        2
Si       7.67917964       0.00000000      17.43000000  F        2
Si       0.00000000       3.83958982      17.43000000  F        2
Si       3.83958982       3.83958982      17.43000000  F        2
Si       7.67917964       3.83958982      17.43000000  F        2
Si       1.91979491       0.00000000      18.78750000  F        1
Si       5.75938473       0.00000000      18.78750000  F        1
Si       9.59897455       0.00000000      18.78750000  F        1
Si       1.91979491       3.83958982      18.78750000  F        1
Si       5.75938473       3.83958982      18.78750000  F        1
Si       9.59897455       3.83958982      18.78750000  F        1
Si       7.67917964       1.91979491      23.46563768  T        0
Cl       7.67917964       1.91979491      25.50005072  T        0
Cl       5.76111663       1.91979491      22.78750000  T        0
Cl       8.63821114       3.58088620      22.78750000  T        0
Cl       8.63821114       0.25870362      22.78750000  T        0
41
Lattice="11.518769465528859 0.0 0.0 0.0 7.679179643685906 0.0 0.0 0.0 30.7875" Properties=species:S:1:pos:R:3:move_mask:L:1:tags:I:1 surface=Si100 species=SiCl4 site=hollow orientation=flipped height_A=3.25 substrate_atoms=36 calculation_kind="Rigid evaluated approach scan; not NEB" energy=-199.50194653026543 pbc="T T F"
Si       0.00000000       0.00000000      12.00000000  F        6
Si       3.83958982       0.00000000      12.00000000  F        6
Si       7.67917964       0.00000000      12.00000000  F        6
Si       0.00000000       3.83958982      12.00000000  F        6
Si       3.83958982       3.83958982      12.00000000  F        6
Si       7.67917964       3.83958982      12.00000000  F        6
Si       1.91979491       0.00000000      13.35750000  F        5
Si       5.75938473       0.00000000      13.35750000  F        5
Si       9.59897455       0.00000000      13.35750000  F        5
Si       1.91979491       3.83958982      13.35750000  F        5
Si       5.75938473       3.83958982      13.35750000  F        5
Si       9.59897455       3.83958982      13.35750000  F        5
Si       1.91979491       1.91979491      14.71500000  F        4
Si       5.75938473       1.91979491      14.71500000  F        4
Si       9.59897455       1.91979491      14.71500000  F        4
Si       1.91979491       5.75938473      14.71500000  F        4
Si       5.75938473       5.75938473      14.71500000  F        4
Si       9.59897455       5.75938473      14.71500000  F        4
Si       0.00000000       1.91979491      16.07250000  F        3
Si       3.83958982       1.91979491      16.07250000  F        3
Si       7.67917964       1.91979491      16.07250000  F        3
Si       0.00000000       5.75938473      16.07250000  F        3
Si       3.83958982       5.75938473      16.07250000  F        3
Si       7.67917964       5.75938473      16.07250000  F        3
Si       0.00000000       0.00000000      17.43000000  F        2
Si       3.83958982       0.00000000      17.43000000  F        2
Si       7.67917964       0.00000000      17.43000000  F        2
Si       0.00000000       3.83958982      17.43000000  F        2
Si       3.83958982       3.83958982      17.43000000  F        2
Si       7.67917964       3.83958982      17.43000000  F        2
Si       1.91979491       0.00000000      18.78750000  F        1
Si       5.75938473       0.00000000      18.78750000  F        1
Si       9.59897455       0.00000000      18.78750000  F        1
Si       1.91979491       3.83958982      18.78750000  F        1
Si       5.75938473       3.83958982      18.78750000  F        1
Si       9.59897455       3.83958982      18.78750000  F        1
Si       7.67917964       1.91979491      22.71563768  T        0
Cl       7.67917964       1.91979491      24.75005072  T        0
Cl       5.76111663       1.91979491      22.03750000  T        0
Cl       8.63821114       3.58088620      22.03750000  T        0
Cl       8.63821114       0.25870362      22.03750000  T        0
41
Lattice="11.518769465528859 0.0 0.0 0.0 7.679179643685906 0.0 0.0 0.0 30.7875" Properties=species:S:1:pos:R:3:move_mask:L:1:tags:I:1 surface=Si100 species=SiCl4 site=hollow orientation=flipped height_A=2.75 substrate_atoms=36 calculation_kind="Rigid evaluated approach scan; not NEB" energy=-199.18846000258256 pbc="T T F"
Si       0.00000000       0.00000000      12.00000000  F        6
Si       3.83958982       0.00000000      12.00000000  F        6
Si       7.67917964       0.00000000      12.00000000  F        6
Si       0.00000000       3.83958982      12.00000000  F        6
Si       3.83958982       3.83958982      12.00000000  F        6
Si       7.67917964       3.83958982      12.00000000  F        6
Si       1.91979491       0.00000000      13.35750000  F        5
Si       5.75938473       0.00000000      13.35750000  F        5
Si       9.59897455       0.00000000      13.35750000  F        5
Si       1.91979491       3.83958982      13.35750000  F        5
Si       5.75938473       3.83958982      13.35750000  F        5
Si       9.59897455       3.83958982      13.35750000  F        5
Si       1.91979491       1.91979491      14.71500000  F        4
Si       5.75938473       1.91979491      14.71500000  F        4
Si       9.59897455       1.91979491      14.71500000  F        4
Si       1.91979491       5.75938473      14.71500000  F        4
Si       5.75938473       5.75938473      14.71500000  F        4
Si       9.59897455       5.75938473      14.71500000  F        4
Si       0.00000000       1.91979491      16.07250000  F        3
Si       3.83958982       1.91979491      16.07250000  F        3
Si       7.67917964       1.91979491      16.07250000  F        3
Si       0.00000000       5.75938473      16.07250000  F        3
Si       3.83958982       5.75938473      16.07250000  F        3
Si       7.67917964       5.75938473      16.07250000  F        3
Si       0.00000000       0.00000000      17.43000000  F        2
Si       3.83958982       0.00000000      17.43000000  F        2
Si       7.67917964       0.00000000      17.43000000  F        2
Si       0.00000000       3.83958982      17.43000000  F        2
Si       3.83958982       3.83958982      17.43000000  F        2
Si       7.67917964       3.83958982      17.43000000  F        2
Si       1.91979491       0.00000000      18.78750000  F        1
Si       5.75938473       0.00000000      18.78750000  F        1
Si       9.59897455       0.00000000      18.78750000  F        1
Si       1.91979491       3.83958982      18.78750000  F        1
Si       5.75938473       3.83958982      18.78750000  F        1
Si       9.59897455       3.83958982      18.78750000  F        1
Si       7.67917964       1.91979491      22.21563768  T        0
Cl       7.67917964       1.91979491      24.25005072  T        0
Cl       5.76111663       1.91979491      21.53750000  T        0
Cl       8.63821114       3.58088620      21.53750000  T        0
Cl       8.63821114       0.25870362      21.53750000  T        0
41
Lattice="11.518769465528859 0.0 0.0 0.0 7.679179643685906 0.0 0.0 0.0 30.7875" Properties=species:S:1:pos:R:3:move_mask:L:1:tags:I:1 surface=Si100 species=SiCl4 site=hollow orientation=flipped height_A=2.25 substrate_atoms=36 calculation_kind="Rigid evaluated approach scan; not NEB" energy=-197.8894786112212 pbc="T T F"
Si       0.00000000       0.00000000      12.00000000  F        6
Si       3.83958982       0.00000000      12.00000000  F        6
Si       7.67917964       0.00000000      12.00000000  F        6
Si       0.00000000       3.83958982      12.00000000  F        6
Si       3.83958982       3.83958982      12.00000000  F        6
Si       7.67917964       3.83958982      12.00000000  F        6
Si       1.91979491       0.00000000      13.35750000  F        5
Si       5.75938473       0.00000000      13.35750000  F        5
Si       9.59897455       0.00000000      13.35750000  F        5
Si       1.91979491       3.83958982      13.35750000  F        5
Si       5.75938473       3.83958982      13.35750000  F        5
Si       9.59897455       3.83958982      13.35750000  F        5
Si       1.91979491       1.91979491      14.71500000  F        4
Si       5.75938473       1.91979491      14.71500000  F        4
Si       9.59897455       1.91979491      14.71500000  F        4
Si       1.91979491       5.75938473      14.71500000  F        4
Si       5.75938473       5.75938473      14.71500000  F        4
Si       9.59897455       5.75938473      14.71500000  F        4
Si       0.00000000       1.91979491      16.07250000  F        3
Si       3.83958982       1.91979491      16.07250000  F        3
Si       7.67917964       1.91979491      16.07250000  F        3
Si       0.00000000       5.75938473      16.07250000  F        3
Si       3.83958982       5.75938473      16.07250000  F        3
Si       7.67917964       5.75938473      16.07250000  F        3
Si       0.00000000       0.00000000      17.43000000  F        2
Si       3.83958982       0.00000000      17.43000000  F        2
Si       7.67917964       0.00000000      17.43000000  F        2
Si       0.00000000       3.83958982      17.43000000  F        2
Si       3.83958982       3.83958982      17.43000000  F        2
Si       7.67917964       3.83958982      17.43000000  F        2
Si       1.91979491       0.00000000      18.78750000  F        1
Si       5.75938473       0.00000000      18.78750000  F        1
Si       9.59897455       0.00000000      18.78750000  F        1
Si       1.91979491       3.83958982      18.78750000  F        1
Si       5.75938473       3.83958982      18.78750000  F        1
Si       9.59897455       3.83958982      18.78750000  F        1
Si       7.67917964       1.91979491      21.71563768  T        0
Cl       7.67917964       1.91979491      23.75005072  T        0
Cl       5.76111663       1.91979491      21.03750000  T        0
Cl       8.63821114       3.58088620      21.03750000  T        0
Cl       8.63821114       0.25870362      21.03750000  T        0
41
Lattice="11.518769465528859 0.0 0.0 0.0 7.679179643685906 0.0 0.0 0.0 30.7875" Properties=species:S:1:pos:R:3:move_mask:L:1:tags:I:1 surface=Si100 species=SiCl4 site=hollow orientation=flipped height_A=1.9 substrate_atoms=36 calculation_kind="Rigid evaluated approach scan; not NEB" energy=-196.61514642356676 pbc="T T F"
Si       0.00000000       0.00000000      12.00000000  F        6
Si       3.83958982       0.00000000      12.00000000  F        6
Si       7.67917964       0.00000000      12.00000000  F        6
Si       0.00000000       3.83958982      12.00000000  F        6
Si       3.83958982       3.83958982      12.00000000  F        6
Si       7.67917964       3.83958982      12.00000000  F        6
Si       1.91979491       0.00000000      13.35750000  F        5
Si       5.75938473       0.00000000      13.35750000  F        5
Si       9.59897455       0.00000000      13.35750000  F        5
Si       1.91979491       3.83958982      13.35750000  F        5
Si       5.75938473       3.83958982      13.35750000  F        5
Si       9.59897455       3.83958982      13.35750000  F        5
Si       1.91979491       1.91979491      14.71500000  F        4
Si       5.75938473       1.91979491      14.71500000  F        4
Si       9.59897455       1.91979491      14.71500000  F        4
Si       1.91979491       5.75938473      14.71500000  F        4
Si       5.75938473       5.75938473      14.71500000  F        4
Si       9.59897455       5.75938473      14.71500000  F        4
Si       0.00000000       1.91979491      16.07250000  F        3
Si       3.83958982       1.91979491      16.07250000  F        3
Si       7.67917964       1.91979491      16.07250000  F        3
Si       0.00000000       5.75938473      16.07250000  F        3
Si       3.83958982       5.75938473      16.07250000  F        3
Si       7.67917964       5.75938473      16.07250000  F        3
Si       0.00000000       0.00000000      17.43000000  F        2
Si       3.83958982       0.00000000      17.43000000  F        2
Si       7.67917964       0.00000000      17.43000000  F        2
Si       0.00000000       3.83958982      17.43000000  F        2
Si       3.83958982       3.83958982      17.43000000  F        2
Si       7.67917964       3.83958982      17.43000000  F        2
Si       1.91979491       0.00000000      18.78750000  F        1
Si       5.75938473       0.00000000      18.78750000  F        1
Si       9.59897455       0.00000000      18.78750000  F        1
Si       1.91979491       3.83958982      18.78750000  F        1
Si       5.75938473       3.83958982      18.78750000  F        1
Si       9.59897455       3.83958982      18.78750000  F        1
Si       7.67917964       1.91979491      21.36563768  T        0
Cl       7.67917964       1.91979491      23.40005072  T        0
Cl       5.76111663       1.91979491      20.68750000  T        0
Cl       8.63821114       3.58088620      20.68750000  T        0
Cl       8.63821114       0.25870362      20.68750000  T        0
41
Lattice="11.518769465528859 0.0 0.0 0.0 7.679179643685906 0.0 0.0 0.0 30.7875" Properties=species:S:1:pos:R:3:move_mask:L:1:tags:I:1 surface=Si100 species=SiCl4 site=hollow orientation=flipped height_A=1.6 substrate_atoms=36 calculation_kind="Rigid evaluated approach scan; not NEB" energy=-194.35302571268753 pbc="T T F"
Si       0.00000000       0.00000000      12.00000000  F        6
Si       3.83958982       0.00000000      12.00000000  F        6
Si       7.67917964       0.00000000      12.00000000  F        6
Si       0.00000000       3.83958982      12.00000000  F        6
Si       3.83958982       3.83958982      12.00000000  F        6
Si       7.67917964       3.83958982      12.00000000  F        6
Si       1.91979491       0.00000000      13.35750000  F        5
Si       5.75938473       0.00000000      13.35750000  F        5
Si       9.59897455       0.00000000      13.35750000  F        5
Si       1.91979491       3.83958982      13.35750000  F        5
Si       5.75938473       3.83958982      13.35750000  F        5
Si       9.59897455       3.83958982      13.35750000  F        5
Si       1.91979491       1.91979491      14.71500000  F        4
Si       5.75938473       1.91979491      14.71500000  F        4
Si       9.59897455       1.91979491      14.71500000  F        4
Si       1.91979491       5.75938473      14.71500000  F        4
Si       5.75938473       5.75938473      14.71500000  F        4
Si       9.59897455       5.75938473      14.71500000  F        4
Si       0.00000000       1.91979491      16.07250000  F        3
Si       3.83958982       1.91979491      16.07250000  F        3
Si       7.67917964       1.91979491      16.07250000  F        3
Si       0.00000000       5.75938473      16.07250000  F        3
Si       3.83958982       5.75938473      16.07250000  F        3
Si       7.67917964       5.75938473      16.07250000  F        3
Si       0.00000000       0.00000000      17.43000000  F        2
Si       3.83958982       0.00000000      17.43000000  F        2
Si       7.67917964       0.00000000      17.43000000  F        2
Si       0.00000000       3.83958982      17.43000000  F        2
Si       3.83958982       3.83958982      17.43000000  F        2
Si       7.67917964       3.83958982      17.43000000  F        2
Si       1.91979491       0.00000000      18.78750000  F        1
Si       5.75938473       0.00000000      18.78750000  F        1
Si       9.59897455       0.00000000      18.78750000  F        1
Si       1.91979491       3.83958982      18.78750000  F        1
Si       5.75938473       3.83958982      18.78750000  F        1
Si       9.59897455       3.83958982      18.78750000  F        1
Si       7.67917964       1.91979491      21.06563768  T        0
Cl       7.67917964       1.91979491      23.10005072  T        0
Cl       5.76111663       1.91979491      20.38750000  T        0
Cl       8.63821114       3.58088620      20.38750000  T        0
Cl       8.63821114       0.25870362      20.38750000  T        0
41
Lattice="11.518769465528859 0.0 0.0 0.0 7.679179643685906 0.0 0.0 0.0 30.7875" Properties=species:S:1:pos:R:3:move_mask:L:1:tags:I:1 surface=Si100 species=SiCl4 site=hollow orientation=flipped height_A=1.3 substrate_atoms=36 calculation_kind="Rigid evaluated approach scan; not NEB" energy=-188.09376014191713 pbc="T T F"
Si       0.00000000       0.00000000      12.00000000  F        6
Si       3.83958982       0.00000000      12.00000000  F        6
Si       7.67917964       0.00000000      12.00000000  F        6
Si       0.00000000       3.83958982      12.00000000  F        6
Si       3.83958982       3.83958982      12.00000000  F        6
Si       7.67917964       3.83958982      12.00000000  F        6
Si       1.91979491       0.00000000      13.35750000  F        5
Si       5.75938473       0.00000000      13.35750000  F        5
Si       9.59897455       0.00000000      13.35750000  F        5
Si       1.91979491       3.83958982      13.35750000  F        5
Si       5.75938473       3.83958982      13.35750000  F        5
Si       9.59897455       3.83958982      13.35750000  F        5
Si       1.91979491       1.91979491      14.71500000  F        4
Si       5.75938473       1.91979491      14.71500000  F        4
Si       9.59897455       1.91979491      14.71500000  F        4
Si       1.91979491       5.75938473      14.71500000  F        4
Si       5.75938473       5.75938473      14.71500000  F        4
Si       9.59897455       5.75938473      14.71500000  F        4
Si       0.00000000       1.91979491      16.07250000  F        3
Si       3.83958982       1.91979491      16.07250000  F        3
Si       7.67917964       1.91979491      16.07250000  F        3
Si       0.00000000       5.75938473      16.07250000  F        3
Si       3.83958982       5.75938473      16.07250000  F        3
Si       7.67917964       5.75938473      16.07250000  F        3
Si       0.00000000       0.00000000      17.43000000  F        2
Si       3.83958982       0.00000000      17.43000000  F        2
Si       7.67917964       0.00000000      17.43000000  F        2
Si       0.00000000       3.83958982      17.43000000  F        2
Si       3.83958982       3.83958982      17.43000000  F        2
Si       7.67917964       3.83958982      17.43000000  F        2
Si       1.91979491       0.00000000      18.78750000  F        1
Si       5.75938473       0.00000000      18.78750000  F        1
Si       9.59897455       0.00000000      18.78750000  F        1
Si       1.91979491       3.83958982      18.78750000  F        1
Si       5.75938473       3.83958982      18.78750000  F        1
Si       9.59897455       3.83958982      18.78750000  F        1
Si       7.67917964       1.91979491      20.76563768  T        0
Cl       7.67917964       1.91979491      22.80005072  T        0
Cl       5.76111663       1.91979491      20.08750000  T        0
Cl       8.63821114       3.58088620      20.08750000  T        0
Cl       8.63821114       0.25870362      20.08750000  T        0
