39
Lattice="9.8418 0.0 0.0 -2.460449999999999 4.261624409482844 0.0 0.0 -0.0 34.16586254" Properties=species:S:1:pos:R:3:move_mask:L:1:spacegroup_kinds:I:1:tags:I:1:forces:R:3 spacegroup="P 32 2 1" unit_cell=conventional surface=alpha_quartz_001 species=H2O height_A=6.5 substrate_atoms=36 calculation_kind="Rigid approach energy evaluation; not NEB or TS" energy=-279.4787301539987 pbc="T T F"
Si       2.31725181       0.00000000      12.00000000  F        0        2      -0.13649157      -0.37989802      -1.75845993
Si      -1.15862590       2.00679893      15.60606667  F        0        2      -0.14269403       0.05752763       1.16918857
Si       1.30182410       2.25482548      13.80303333  F        0        2       0.03365952      -0.16390327       0.98673449
O        1.38326499       1.13103512      12.65233746  F        1        2      -0.52978608       0.24144030      -0.19587315
O        0.28787265       1.76346018      14.95372921  F        1        2       0.43595743      -0.25102752      -0.36263200
O        3.24976236       0.63242506      16.25840413  F        1        2       0.32131471      -0.09409926      -0.78723906
O        0.78931236       3.62919935      13.15069587  F        1        2       0.45451070       0.27117013       0.57270972
O        2.74832265       2.49816423      14.45537079  F        1        2       0.00844212       0.38365658      -0.73059487
O       -1.07718501       3.13058929      16.75676254  F        1        2      -0.43600604      -0.29499103      -0.45509614
Si       2.31725181       0.00000000      17.40910000  F        0        1       0.03135151       0.03049999       1.06444548
Si      -1.15862590       2.00679893      21.01516667  F        0        1       0.20544838       0.24346044      -0.24892525
Si       1.30182410       2.25482548      19.21213333  F        0        1      -0.04671737       0.03282568       0.51671959
O        1.38326499       1.13103512      18.06143746  F        1        1      -0.25708786      -0.13270469      -0.58762912
O        0.28787265       1.76346018      20.36282921  F        1        1       0.49053214      -0.17439019      -0.26449994
O        3.24976236       0.63242506      21.66750413  F        1        1      -0.36047522      -0.95065507       0.88300299
O        0.78931236       3.62919935      18.55979587  F        1        1       0.02140854       0.42052298      -0.24199233
O        2.74832265       2.49816423      19.86447079  F        1        1      -0.05603693       0.34620394      -0.75998076
O       -1.07718501       3.13058929      22.16586254  F        1        1      -0.03732994       0.41436138       1.20012171
Si       7.23815181       0.00000000      12.00000000  F        0        2      -0.13649157      -0.37989802      -1.75845993
Si       3.76227409       2.00679893      15.60606667  F        0        2      -0.14269403       0.05752763       1.16918857
Si       6.22272410       2.25482548      13.80303333  F        0        2       0.03365952      -0.16390327       0.98673449
O        6.30416499       1.13103512      12.65233746  F        1        2      -0.52978608       0.24144030      -0.19587315
O        5.20877265       1.76346018      14.95372921  F        1        2       0.43595743      -0.25102752      -0.36263200
O        8.17066236       0.63242506      16.25840413  F        1        2       0.32131471      -0.09409926      -0.78723906
O        5.71021236       3.62919935      13.15069587  F        1        2       0.45451070       0.27117013       0.57270972
O        7.66922265       2.49816423      14.45537079  F        1        2       0.00844212       0.38365658      -0.73059487
O        3.84371499       3.13058929      16.75676254  F        1        2      -0.43600604      -0.29499103      -0.45509614
Si       7.23815181       0.00000000      17.40910000  F        0        1       0.03135151       0.03049999       1.06444548
Si       3.76227409       2.00679893      21.01516667  F        0        1       0.20544838       0.24346044      -0.24892525
Si       6.22272410       2.25482548      19.21213333  F        0        1      -0.04671737       0.03282568       0.51671959
O        6.30416499       1.13103512      18.06143746  F        1        1      -0.25708786      -0.13270469      -0.58762912
O        5.20877265       1.76346018      20.36282921  F        1        1       0.49053214      -0.17439019      -0.26449994
O        8.17066236       0.63242506      21.66750413  F        1        1      -0.36047522      -0.95065507       0.88300299
O        5.71021236       3.62919935      18.55979587  F        1        1       0.02140854       0.42052298      -0.24199233
O        7.66922265       2.49816423      19.86447079  F        1        1      -0.05603693       0.34620394      -0.75998076
O        3.84371499       3.13058929      22.16586254  F        1        1      -0.03732994       0.41436138       1.20012171
O        3.76227409       2.00679893      28.66586254  F        0        0       0.00000000       0.00000000      -0.00612270
H        4.52036556       2.00679893      29.27205952  F        0        0       0.01008594      -0.00703890       0.00306135
H        3.00418263       2.00679893      29.27205952  F        0        0      -0.01008594       0.00703890       0.00306135
39
Lattice="9.8418 0.0 0.0 -2.460449999999999 4.261624409482844 0.0 0.0 -0.0 34.16586254" Properties=species:S:1:pos:R:3:move_mask:L:1:spacegroup_kinds:I:1:tags:I:1:forces:R:3 spacegroup="P 32 2 1" unit_cell=conventional surface=alpha_quartz_001 species=H2O height_A=5.0 substrate_atoms=36 calculation_kind="Rigid approach energy evaluation; not NEB or TS" energy=-279.4787301539987 pbc="T T F"
Si       2.31725181       0.00000000      12.00000000  F        0        2      -0.13649157      -0.37989802      -1.75845993
Si      -1.15862590       2.00679893      15.60606667  F        0        2      -0.14269403       0.05752763       1.16918857
Si       1.30182410       2.25482548      13.80303333  F        0        2       0.03365952      -0.16390327       0.98673449
O        1.38326499       1.13103512      12.65233746  F        1        2      -0.52978608       0.24144030      -0.19587315
O        0.28787265       1.76346018      14.95372921  F        1        2       0.43595743      -0.25102752      -0.36263200
O        3.24976236       0.63242506      16.25840413  F        1        2       0.32131471      -0.09409926      -0.78723906
O        0.78931236       3.62919935      13.15069587  F        1        2       0.45451070       0.27117013       0.57270972
O        2.74832265       2.49816423      14.45537079  F        1        2       0.00844212       0.38365658      -0.73059487
O       -1.07718501       3.13058929      16.75676254  F        1        2      -0.43600604      -0.29499103      -0.45509614
Si       2.31725181       0.00000000      17.40910000  F        0        1       0.03135151       0.03049999       1.06444548
Si      -1.15862590       2.00679893      21.01516667  F        0        1       0.20544838       0.24346044      -0.24892525
Si       1.30182410       2.25482548      19.21213333  F        0        1      -0.04671737       0.03282568       0.51671959
O        1.38326499       1.13103512      18.06143746  F        1        1      -0.25708786      -0.13270469      -0.58762912
O        0.28787265       1.76346018      20.36282921  F        1        1       0.49053214      -0.17439019      -0.26449994
O        3.24976236       0.63242506      21.66750413  F        1        1      -0.36047522      -0.95065507       0.88300299
O        0.78931236       3.62919935      18.55979587  F        1        1       0.02140854       0.42052298      -0.24199233
O        2.74832265       2.49816423      19.86447079  F        1        1      -0.05603693       0.34620394      -0.75998076
O       -1.07718501       3.13058929      22.16586254  F        1        1      -0.03732994       0.41436138       1.20012171
Si       7.23815181       0.00000000      12.00000000  F        0        2      -0.13649157      -0.37989802      -1.75845993
Si       3.76227409       2.00679893      15.60606667  F        0        2      -0.14269403       0.05752763       1.16918857
Si       6.22272410       2.25482548      13.80303333  F        0        2       0.03365952      -0.16390327       0.98673449
O        6.30416499       1.13103512      12.65233746  F        1        2      -0.52978608       0.24144030      -0.19587315
O        5.20877265       1.76346018      14.95372921  F        1        2       0.43595743      -0.25102752      -0.36263200
O        8.17066236       0.63242506      16.25840413  F        1        2       0.32131471      -0.09409926      -0.78723906
O        5.71021236       3.62919935      13.15069587  F        1        2       0.45451070       0.27117013       0.57270972
O        7.66922265       2.49816423      14.45537079  F        1        2       0.00844212       0.38365658      -0.73059487
O        3.84371499       3.13058929      16.75676254  F        1        2      -0.43600604      -0.29499103      -0.45509614
Si       7.23815181       0.00000000      17.40910000  F        0        1       0.03135151       0.03049999       1.06444548
Si       3.76227409       2.00679893      21.01516667  F        0        1       0.20544838       0.24346044      -0.24892525
Si       6.22272410       2.25482548      19.21213333  F        0        1      -0.04671737       0.03282568       0.51671959
O        6.30416499       1.13103512      18.06143746  F        1        1      -0.25708786      -0.13270469      -0.58762912
O        5.20877265       1.76346018      20.36282921  F        1        1       0.49053214      -0.17439019      -0.26449994
O        8.17066236       0.63242506      21.66750413  F        1        1      -0.36047522      -0.95065507       0.88300299
O        5.71021236       3.62919935      18.55979587  F        1        1       0.02140854       0.42052298      -0.24199233
O        7.66922265       2.49816423      19.86447079  F        1        1      -0.05603693       0.34620394      -0.75998076
O        3.84371499       3.13058929      22.16586254  F        1        1      -0.03732994       0.41436138       1.20012171
O        3.76227409       2.00679893      27.16586254  F        0        0       0.00000000       0.00000000      -0.00612270
H        4.52036556       2.00679893      27.77205952  F        0        0       0.01008594      -0.00703890       0.00306135
H        3.00418263       2.00679893      27.77205952  F        0        0      -0.01008594       0.00703890       0.00306135
39
Lattice="9.8418 0.0 0.0 -2.460449999999999 4.261624409482844 0.0 0.0 -0.0 34.16586254" Properties=species:S:1:pos:R:3:move_mask:L:1:spacegroup_kinds:I:1:tags:I:1:forces:R:3 spacegroup="P 32 2 1" unit_cell=conventional surface=alpha_quartz_001 species=H2O height_A=4.0 substrate_atoms=36 calculation_kind="Rigid approach energy evaluation; not NEB or TS" energy=-279.440329164419 pbc="T T F"
Si       2.31725181       0.00000000      12.00000000  F        0        2      -0.13649208      -0.37989889      -1.75846007
Si      -1.15862590       2.00679893      15.60606667  F        0        2      -0.14270088       0.05751429       1.16895042
Si       1.30182410       2.25482548      13.80303333  F        0        2       0.03363870      -0.16390861       0.98671221
O        1.38326499       1.13103512      12.65233746  F        1        2      -0.52978239       0.24144159      -0.19587190
O        0.28787265       1.76346018      14.95372921  F        1        2       0.43597916      -0.25102231      -0.36259456
O        3.24976236       0.63242506      16.25840413  F        1        2       0.32128640      -0.09419146      -0.78707375
O        0.78931236       3.62919935      13.15069587  F        1        2       0.45451433       0.27117385       0.57271176
O        2.74832265       2.49816423      14.45537079  F        1        2       0.00849103       0.38364952      -0.73049536
O       -1.07718501       3.13058929      16.75676254  F        1        2      -0.43596770      -0.29490017      -0.45465657
Si       2.31725181       0.00000000      17.40910000  F        0        1       0.03134506       0.03069666       1.06368871
Si      -1.15862590       2.00679893      21.01516667  F        0        1       0.20464877       0.24032737      -0.24976524
Si       1.30182410       2.25482548      19.21213333  F        0        1      -0.04642116       0.03258154       0.51609525
O        1.38326499       1.13103512      18.06143746  F        1        1      -0.25732401      -0.13238981      -0.58703668
O        0.28787265       1.76346018      20.36282921  F        1        1       0.49010858      -0.17455815      -0.26389837
O        3.24976236       0.63242506      21.66750413  F        1        1      -0.36315287      -0.95784228       0.85886935
O        0.78931236       3.62919935      18.55979587  F        1        1       0.02110597       0.42059165      -0.24106367
O        2.74832265       2.49816423      19.86447079  F        1        1      -0.05496610       0.34822814      -0.75945027
O       -1.07718501       3.13058929      22.16586254  F        1        1      -0.03845600       0.41398349       1.20116581
Si       7.23815181       0.00000000      12.00000000  F        0        2      -0.13649114      -0.37989736      -1.75845450
Si       3.76227409       2.00679893      15.60606667  F        0        2      -0.14271087       0.05742962       1.16887695
Si       6.22272410       2.25482548      13.80303333  F        0        2       0.03369589      -0.16389488       0.98670084
O        6.30416499       1.13103512      12.65233746  F        1        2      -0.52978834       0.24143752      -0.19587915
O        5.20877265       1.76346018      14.95372921  F        1        2       0.43588314      -0.25100925      -0.36253080
O        8.17066236       0.63242506      16.25840413  F        1        2       0.32112455      -0.09423515      -0.78706698
O        5.71021236       3.62919935      13.15069587  F        1        2       0.45450454       0.27117023       0.57270859
O        7.66922265       2.49816423      14.45537079  F        1        2       0.00844182       0.38364362      -0.73055957
O        3.84371499       3.13058929      16.75676254  F        1        2      -0.43601854      -0.29482910      -0.45512889
Si       7.23815181       0.00000000      17.40910000  F        0        1       0.03087068       0.03081577       1.06364853
Si       3.76227409       2.00679893      21.01516667  F        0        1       0.20786355       0.23459443      -0.24105371
Si       6.22272410       2.25482548      19.21213333  F        0        1      -0.04854143       0.03263521       0.51634677
O        6.30416499       1.13103512      18.06143746  F        1        1      -0.25674546      -0.13267007      -0.58750429
O        5.20877265       1.76346018      20.36282921  F        1        1       0.49128327      -0.17560389      -0.26429326
O        8.17066236       0.63242506      21.66750413  F        1        1      -0.36020110      -0.94978006       0.88359042
O        5.71021236       3.62919935      18.55979587  F        1        1       0.02183996       0.42087221      -0.24116049
O        7.66922265       2.49816423      19.86447079  F        1        1      -0.05503763       0.34682537      -0.75927419
O        3.84371499       3.13058929      22.16586254  F        1        1      -0.03724824       0.43419240       1.16622546
O        3.76227409       2.00679893      26.16586254  F        0        0       0.00073280      -0.01073752       0.05164610
H        4.52036556       2.00679893      26.77205952  F        0        0       0.02128974      -0.00467322      -0.00421422
H        3.00418263       2.00679893      26.77205952  F        0        0      -0.02060200       0.01223771      -0.00045069
39
Lattice="9.8418 0.0 0.0 -2.460449999999999 4.261624409482844 0.0 0.0 -0.0 34.16586254" Properties=species:S:1:pos:R:3:move_mask:L:1:spacegroup_kinds:I:1:tags:I:1:forces:R:3 spacegroup="P 32 2 1" unit_cell=conventional surface=alpha_quartz_001 species=H2O height_A=3.25 substrate_atoms=36 calculation_kind="Rigid approach energy evaluation; not NEB or TS" energy=-279.40988800393177 pbc="T T F"
Si       2.31725181       0.00000000      12.00000000  F        0        2      -0.13649570      -0.37989299      -1.75845662
Si      -1.15862590       2.00679893      15.60606667  F        0        2      -0.14259289       0.05769272       1.16969154
Si       1.30182410       2.25482548      13.80303333  F        0        2       0.03357818      -0.16394391       0.98699261
O        1.38326499       1.13103512      12.65233746  F        1        2      -0.52977185       0.24145246      -0.19585939
O        0.28787265       1.76346018      14.95372921  F        1        2       0.43593513      -0.25099389      -0.36294123
O        3.24976236       0.63242506      16.25840413  F        1        2       0.32150737      -0.09385849      -0.78837015
O        0.78931236       3.62919935      13.15069587  F        1        2       0.45454323       0.27116039       0.57266453
O        2.74832265       2.49816423      14.45537079  F        1        2       0.00837312       0.38370793      -0.73090714
O       -1.07718501       3.13058929      16.75676254  F        1        2      -0.43653958      -0.29563211      -0.45536310
Si       2.31725181       0.00000000      17.40910000  F        0        1       0.03244152       0.02834650       1.06385383
Si      -1.15862590       2.00679893      21.01516667  F        0        1       0.20551278       0.23221547      -0.24714151
Si       1.30182410       2.25482548      19.21213333  F        0        1      -0.03197444       0.03181746       0.52717155
O        1.38326499       1.13103512      18.06143746  F        1        1      -0.25858258      -0.13309447      -0.58937716
O        0.28787265       1.76346018      20.36282921  F        1        1       0.49023877      -0.17379114      -0.26365664
O        3.24976236       0.63242506      21.66750413  F        1        1      -0.37089430      -0.94678250       0.87086549
O        0.78931236       3.62919935      18.55979587  F        1        1       0.01649216       0.42120402      -0.24246748
O        2.74832265       2.49816423      19.86447079  F        1        1      -0.05967355       0.34942139      -0.76519897
O       -1.07718501       3.13058929      22.16586254  F        1        1      -0.03845707       0.41519435       1.20339881
Si       7.23815181       0.00000000      12.00000000  F        0        2      -0.13651296      -0.37988546      -1.75851066
Si       3.76227409       2.00679893      15.60606667  F        0        2      -0.14302126       0.05788570       1.17124858
Si       6.22272410       2.25482548      13.80303333  F        0        2       0.03372021      -0.16393491       0.98694378
O        6.30416499       1.13103512      12.65233746  F        1        2      -0.52979539       0.24147695      -0.19587143
O        5.20877265       1.76346018      14.95372921  F        1        2       0.43609415      -0.25101471      -0.36296402
O        8.17066236       0.63242506      16.25840413  F        1        2       0.32126918      -0.09393833      -0.78801957
O        5.71021236       3.62919935      13.15069587  F        1        2       0.45454442       0.27112453       0.57268142
O        7.66922265       2.49816423      14.45537079  F        1        2       0.00832999       0.38362628      -0.73070880
O        3.84371499       3.13058929      16.75676254  F        1        2      -0.43587964      -0.29620754      -0.45426738
Si       7.23815181       0.00000000      17.40910000  F        0        1       0.03001248       0.03220877       1.06311461
Si       3.76227409       2.00679893      21.01516667  F        0        1       0.20486814       0.22951100      -0.18370600
Si       6.22272410       2.25482548      19.21213333  F        0        1      -0.06612388       0.02248212       0.53144512
O        6.30416499       1.13103512      18.06143746  F        1        1      -0.25433462      -0.13150086      -0.59158204
O        5.20877265       1.76346018      20.36282921  F        1        1       0.50676693      -0.17134667      -0.27545592
O        8.17066236       0.63242506      21.66750413  F        1        1      -0.33956791      -0.92712362       0.88078923
O        5.71021236       3.62919935      18.55979587  F        1        1       0.02319639       0.42081885      -0.24284736
O        7.66922265       2.49816423      19.86447079  F        1        1      -0.05449561       0.35034381      -0.75870226
O        3.84371499       3.13058929      22.16586254  F        1        1      -0.05145957       0.44071764       1.10545049
O        3.76227409       2.00679893      25.41586254  F        0        0       0.00633620      -0.01319769      -0.05437392
H        4.52036556       2.00679893      26.02205952  F        0        0       0.09770257      -0.01543520       0.04392943
H        3.00418263       2.00679893      26.02205952  F        0        0      -0.10529010      -0.00083384       0.04650772
39
Lattice="9.8418 0.0 0.0 -2.460449999999999 4.261624409482844 0.0 0.0 -0.0 34.16586254" Properties=species:S:1:pos:R:3:move_mask:L:1:spacegroup_kinds:I:1:tags:I:1:forces:R:3 spacegroup="P 32 2 1" unit_cell=conventional surface=alpha_quartz_001 species=H2O height_A=2.75 substrate_atoms=36 calculation_kind="Rigid approach energy evaluation; not NEB or TS" energy=-279.4075750373955 pbc="T T F"
Si       2.31725181       0.00000000      12.00000000  F        0        2      -0.13646284      -0.37989389      -1.75822575
Si      -1.15862590       2.00679893      15.60606667  F        0        2      -0.14314446       0.05712045       1.17062821
Si       1.30182410       2.25482548      13.80303333  F        0        2       0.03375403      -0.16401612       0.98798693
O        1.38326499       1.13103512      12.65233746  F        1        2      -0.52977200       0.24133634      -0.19615581
O        0.28787265       1.76346018      14.95372921  F        1        2       0.43643624      -0.25076380      -0.36347967
O        3.24976236       0.63242506      16.25840413  F        1        2       0.32106549      -0.09399585      -0.78884246
O        0.78931236       3.62919935      13.15069587  F        1        2       0.45442452       0.27125192       0.57233025
O        2.74832265       2.49816423      14.45537079  F        1        2       0.00766683       0.38369867      -0.73188974
O       -1.07718501       3.13058929      16.75676254  F        1        2      -0.43643340      -0.29562015      -0.45601917
Si       2.31725181       0.00000000      17.40910000  F        0        1       0.03471460       0.02984478       1.06548860
Si      -1.15862590       2.00679893      21.01516667  F        0        1       0.19331174       0.21841613      -0.24223788
Si       1.30182410       2.25482548      19.21213333  F        0        1      -0.02368908       0.03188482       0.52316303
O        1.38326499       1.13103512      18.06143746  F        1        1      -0.25972202      -0.13185970      -0.58826421
O        0.28787265       1.76346018      20.36282921  F        1        1       0.49717653      -0.17020023      -0.26261186
O        3.24976236       0.63242506      21.66750413  F        1        1      -0.39995347      -0.98311076       0.79372966
O        0.78931236       3.62919935      18.55979587  F        1        1       0.01483505       0.41821420      -0.24305787
O        2.74832265       2.49816423      19.86447079  F        1        1      -0.06032324       0.35190219      -0.75836461
O       -1.07718501       3.13058929      22.16586254  F        1        1      -0.05948094       0.38666785       1.18926172
Si       7.23815181       0.00000000      12.00000000  F        0        2      -0.13648563      -0.37990041      -1.75827246
Si       3.76227409       2.00679893      15.60606667  F        0        2      -0.14286477       0.05849058       1.17371547
Si       6.22272410       2.25482548      13.80303333  F        0        2       0.03352220      -0.16415429       0.98812057
O        6.30416499       1.13103512      12.65233746  F        1        2      -0.52973002       0.24138089      -0.19621172
O        5.20877265       1.76346018      14.95372921  F        1        2       0.43679085      -0.25091350      -0.36403193
O        8.17066236       0.63242506      16.25840413  F        1        2       0.32207773      -0.09308176      -0.78959487
O        5.71021236       3.62919935      13.15069587  F        1        2       0.45448414       0.27124747       0.57232777
O        7.66922265       2.49816423      14.45537079  F        1        2       0.00804681       0.38372508      -0.73151908
O        3.84371499       3.13058929      16.75676254  F        1        2      -0.43631252      -0.29673910      -0.45704819
Si       7.23815181       0.00000000      17.40910000  F        0        1       0.02862305       0.03003438       1.06749119
Si       3.76227409       2.00679893      21.01516667  F        0        1       0.21355615       0.20660631      -0.02868974
Si       6.22272410       2.25482548      19.21213333  F        0        1      -0.08390689       0.01513084       0.54514178
O        6.30416499       1.13103512      18.06143746  F        1        1      -0.25321040      -0.13008189      -0.59383197
O        5.20877265       1.76346018      20.36282921  F        1        1       0.51253365      -0.16714567      -0.28302567
O        8.17066236       0.63242506      21.66750413  F        1        1      -0.30135548      -0.87618102       0.85155343
O        5.71021236       3.62919935      18.55979587  F        1        1       0.02454676       0.42210988      -0.24621683
O        7.66922265       2.49816423      19.86447079  F        1        1      -0.05023208       0.35415543      -0.75880285
O        3.84371499       3.13058929      22.16586254  F        1        1      -0.04913601       0.47000311       1.05362009
O        3.76227409       2.00679893      24.91586254  F        0        0       0.00232546       0.00127491       0.03561548
H        4.52036556       2.00679893      25.52205952  F        0        0       0.21393649      -0.00620406       0.01582124
H        3.00418263       2.00679893      25.52205952  F        0        0      -0.21161304      -0.01063402      -0.00960106
39
Lattice="9.8418 0.0 0.0 -2.460449999999999 4.261624409482844 0.0 0.0 -0.0 34.16586254" Properties=species:S:1:pos:R:3:move_mask:L:1:spacegroup_kinds:I:1:tags:I:1:forces:R:3 spacegroup="P 32 2 1" unit_cell=conventional surface=alpha_quartz_001 species=H2O height_A=2.25 substrate_atoms=36 calculation_kind="Rigid approach energy evaluation; not NEB or TS" energy=-279.2670774230567 pbc="T T F"
Si       2.31725181       0.00000000      12.00000000  F        0        2      -0.13645496      -0.37989211      -1.75828171
Si      -1.15862590       2.00679893      15.60606667  F        0        2      -0.14374302       0.05629263       1.16719772
Si       1.30182410       2.25482548      13.80303333  F        0        2       0.03407541      -0.16387980       0.98706509
O        1.38326499       1.13103512      12.65233746  F        1        2      -0.52980476       0.24130692      -0.19604070
O        0.28787265       1.76346018      14.95372921  F        1        2       0.43620003      -0.25055943      -0.36242350
O        3.24976236       0.63242506      16.25840413  F        1        2       0.32081215      -0.09490138      -0.78646554
O        0.78931236       3.62919935      13.15069587  F        1        2       0.45432916       0.27125620       0.57254745
O        2.74832265       2.49816423      14.45537079  F        1        2       0.00769632       0.38352216      -0.73111403
O       -1.07718501       3.13058929      16.75676254  F        1        2      -0.43661017      -0.29505910      -0.45317826
Si       2.31725181       0.00000000      17.40910000  F        0        1       0.03276035       0.03487494       1.06406090
Si      -1.15862590       2.00679893      21.01516667  F        0        1       0.19597547       0.22642930      -0.26521503
Si       1.30182410       2.25482548      19.21213333  F        0        1      -0.02499744       0.03556951       0.48824866
O        1.38326499       1.13103512      18.06143746  F        1        1      -0.26101372      -0.13087793      -0.58193742
O        0.28787265       1.76346018      20.36282921  F        1        1       0.49564038      -0.17165952      -0.24069124
O        3.24976236       0.63242506      21.66750413  F        1        1      -0.40607160      -1.07146899       0.72761453
O        0.78931236       3.62919935      18.55979587  F        1        1       0.01640080       0.41564120      -0.23540763
O        2.74832265       2.49816423      19.86447079  F        1        1      -0.04561328       0.35236342      -0.68720621
O       -1.07718501       3.13058929      22.16586254  F        1        1      -0.08340777       0.37776278       1.18728557
Si       7.23815181       0.00000000      12.00000000  F        0        2      -0.13649312      -0.37991922      -1.75825930
Si       3.76227409       2.00679893      15.60606667  F        0        2      -0.14263605       0.05810425       1.17008922
Si       6.22272410       2.25482548      13.80303333  F        0        2       0.03351906      -0.16423389       0.98765530
O        6.30416499       1.13103512      12.65233746  F        1        2      -0.52970227       0.24133598      -0.19623909
O        5.20877265       1.76346018      14.95372921  F        1        2       0.43639544      -0.25062034      -0.36320587
O        8.17066236       0.63242506      16.25840413  F        1        2       0.32243150      -0.09359198      -0.78869561
O        5.71021236       3.62919935      13.15069587  F        1        2       0.45443281       0.27131551       0.57242487
O        7.66922265       2.49816423      14.45537079  F        1        2       0.00849718       0.38367704      -0.73070110
O        3.84371499       3.13058929      16.75676254  F        1        2      -0.43602427      -0.29728105      -0.45472061
Si       7.23815181       0.00000000      17.40910000  F        0        1       0.02440727       0.03448436       1.06671605
Si       3.76227409       2.00679893      21.01516667  F        0        1       0.19069888       0.06157812      -0.24012534
Si       6.22272410       2.25482548      19.21213333  F        0        1      -0.07179187       0.00687659       0.51723618
O        6.30416499       1.13103512      18.06143746  F        1        1      -0.25101207      -0.12764181      -0.59031822
O        5.20877265       1.76346018      20.36282921  F        1        1       0.48880227      -0.17655399      -0.23969026
O        8.17066236       0.63242506      21.66750413  F        1        1      -0.30264937      -0.88925251       0.86158350
O        5.71021236       3.62919935      18.55979587  F        1        1       0.02643793       0.42011026      -0.24035420
O        7.66922265       2.49816423      19.86447079  F        1        1      -0.04154555       0.35560457      -0.73901681
O        3.84371499       3.13058929      22.16586254  F        1        1       0.01202462       0.87015018       0.73609774
O        3.76227409       2.00679893      24.41586254  F        0        0      -0.01285016      -0.18124501       0.54863589
H        4.52036556       2.00679893      25.02205952  F        0        0       0.33193328       0.03729295      -0.01166585
H        3.00418263       2.00679893      25.02205952  F        0        0      -0.33104886      -0.01691082      -0.00350512
39
Lattice="9.8418 0.0 0.0 -2.460449999999999 4.261624409482844 0.0 0.0 -0.0 34.16586254" Properties=species:S:1:pos:R:3:move_mask:L:1:spacegroup_kinds:I:1:tags:I:1:forces:R:3 spacegroup="P 32 2 1" unit_cell=conventional surface=alpha_quartz_001 species=H2O height_A=1.9 substrate_atoms=36 calculation_kind="Rigid approach energy evaluation; not NEB or TS" energy=-279.05232336162317 pbc="T T F"
Si       2.31725181       0.00000000      12.00000000  F        0        2      -0.13653932      -0.37986997      -1.75903078
Si      -1.15862590       2.00679893      15.60606667  F        0        2      -0.14338970       0.05586299       1.15533100
Si       1.30182410       2.25482548      13.80303333  F        0        2       0.03467140      -0.16328440       0.98211672
O        1.38326499       1.13103512      12.65233746  F        1        2      -0.52987273       0.24157642      -0.19498267
O        0.28787265       1.76346018      14.95372921  F        1        2       0.43373084      -0.25089065      -0.35793232
O        3.24976236       0.63242506      16.25840413  F        1        2       0.32056694      -0.09670375      -0.78002883
O        0.78931236       3.62919935      13.15069587  F        1        2       0.45445814       0.27099847       0.57394075
O        2.74832265       2.49816423      14.45537079  F        1        2       0.00956965       0.38319424      -0.72695165
O       -1.07718501       3.13058929      16.75676254  F        1        2      -0.43752032      -0.29365269      -0.44543212
Si       2.31725181       0.00000000      17.40910000  F        0        1       0.02767301       0.03768646       1.04966413
Si      -1.15862590       2.00679893      21.01516667  F        0        1       0.22723952       0.25373022      -0.31944934
Si       1.30182410       2.25482548      19.21213333  F        0        1      -0.09188302       0.03021799       0.40940750
O        1.38326499       1.13103512      18.06143746  F        1        1      -0.25642926      -0.12511763      -0.56778999
O        0.28787265       1.76346018      20.36282921  F        1        1       0.49455298      -0.17007379      -0.20737920
O        3.24976236       0.63242506      21.66750413  F        1        1      -0.39381642      -1.16628786       0.68581785
O        0.78931236       3.62919935      18.55979587  F        1        1       0.02940381       0.41554476      -0.21232178
O        2.74832265       2.49816423      19.86447079  F        1        1       0.03517119       0.35701339      -0.56452991
O       -1.07718501       3.13058929      22.16586254  F        1        1      -0.07249850       0.39836730       1.20364255
Si       7.23815181       0.00000000      12.00000000  F        0        2      -0.13659648      -0.37990711      -1.75899922
Si       3.76227409       2.00679893      15.60606667  F        0        2      -0.14218279       0.05784057       1.15828318
Si       6.22272410       2.25482548      13.80303333  F        0        2       0.03386292      -0.16376530       0.98291705
O        6.30416499       1.13103512      12.65233746  F        1        2      -0.52983575       0.24157562      -0.19520922
O        5.20877265       1.76346018      14.95372921  F        1        2       0.43412785      -0.25051983      -0.35880842
O        8.17066236       0.63242506      16.25840413  F        1        2       0.32189250      -0.09584837      -0.78412666
O        5.71021236       3.62919935      13.15069587  F        1        2       0.45449441       0.27105223       0.57382419
O        7.66922265       2.49816423      14.45537079  F        1        2       0.01045343       0.38315571      -0.72618274
O        3.84371499       3.13058929      16.75676254  F        1        2      -0.43556750      -0.29927522      -0.44094165
Si       7.23815181       0.00000000      17.40910000  F        0        1       0.02136704       0.04250918       1.05141732
Si       3.76227409       2.00679893      21.01516667  F        0        1       0.12303074      -0.13517983      -0.44398804
Si       6.22272410       2.25482548      19.21213333  F        0        1      -0.01507673       0.01565434       0.42388177
O        6.30416499       1.13103512      18.06143746  F        1        1      -0.25331342      -0.12329203      -0.57405358
O        5.20877265       1.76346018      20.36282921  F        1        1       0.41727124      -0.16959308      -0.12757644
O        8.17066236       0.63242506      21.66750413  F        1        1      -0.31613511      -0.88870912       0.85774789
O        5.71021236       3.62919935      18.55979587  F        1        1       0.02738861       0.41348790      -0.22539234
O        7.66922265       2.49816423      19.86447079  F        1        1      -0.04295923       0.35154376      -0.70475057
O        3.84371499       3.13058929      22.16586254  F        1        1       0.03723101       1.28468778       0.75212979
O        3.76227409       2.00679893      24.06586254  F        0        0      -0.01926972      -0.48129855       0.74420983
H        4.52036556       2.00679893      24.67205952  F        0        0       0.34208786       0.09828322      -0.04007100
H        3.00418263       2.00679893      24.67205952  F        0        0      -0.33735910       0.02928664      -0.08840305
39
Lattice="9.8418 0.0 0.0 -2.460449999999999 4.261624409482844 0.0 0.0 -0.0 34.16586254" Properties=species:S:1:pos:R:3:move_mask:L:1:spacegroup_kinds:I:1:tags:I:1:forces:R:3 spacegroup="P 32 2 1" unit_cell=conventional surface=alpha_quartz_001 species=H2O height_A=1.6 substrate_atoms=36 calculation_kind="Rigid approach energy evaluation; not NEB or TS" energy=-278.83022938702146 pbc="T T F"
Si       2.31725181       0.00000000      12.00000000  F        0        2      -0.13666173      -0.37982423      -1.75984152
Si      -1.15862590       2.00679893      15.60606667  F        0        2      -0.14322176       0.05489671       1.13672822
Si       1.30182410       2.25482548      13.80303333  F        0        2       0.03568749      -0.16247332       0.97565933
O        1.38326499       1.13103512      12.65233746  F        1        2      -0.52993510       0.24190841      -0.19380583
O        0.28787265       1.76346018      14.95372921  F        1        2       0.43024494      -0.25141492      -0.35140918
O        3.24976236       0.63242506      16.25840413  F        1        2       0.31876685      -0.10090499      -0.76820447
O        0.78931236       3.62919935      13.15069587  F        1        2       0.45465584       0.27067984       0.57552559
O        2.74832265       2.49816423      14.45537079  F        1        2       0.01188018       0.38273490      -0.72156761
O       -1.07718501       3.13058929      16.75676254  F        1        2      -0.43648630      -0.29058111      -0.43122214
Si       2.31725181       0.00000000      17.40910000  F        0        1       0.02142795       0.04335449       1.02197633
Si      -1.15862590       2.00679893      21.01516667  F        0        1       0.25294724       0.26641249      -0.41054612
Si       1.30182410       2.25482548      19.21213333  F        0        1      -0.19491578       0.00990390       0.28881302
O        1.38326499       1.13103512      18.06143746  F        1        1      -0.24275963      -0.10557123      -0.53680551
O        0.28787265       1.76346018      20.36282921  F        1        1       0.48682365      -0.15947818      -0.15578972
O        3.24976236       0.63242506      21.66750413  F        1        1      -0.37060729      -1.28930375       0.56901666
O        0.78931236       3.62919935      18.55979587  F        1        1       0.05790992       0.41799076      -0.17132116
O        2.74832265       2.49816423      19.86447079  F        1        1       0.17962323       0.34522955      -0.38679810
O       -1.07718501       3.13058929      22.16586254  F        1        1      -0.06768288       0.40675040       1.22396744
Si       7.23815181       0.00000000      12.00000000  F        0        2      -0.13668111      -0.37989184      -1.75972223
Si       3.76227409       2.00679893      15.60606667  F        0        2      -0.14042807       0.05888648       1.14207273
Si       6.22272410       2.25482548      13.80303333  F        0        2       0.03446513      -0.16293520       0.97648740
O        6.30416499       1.13103512      12.65233746  F        1        2      -0.53004120       0.24182467      -0.19388796
O        5.20877265       1.76346018      14.95372921  F        1        2       0.43130798      -0.25068169      -0.35322974
O        8.17066236       0.63242506      16.25840413  F        1        2       0.32139502      -0.09971225      -0.77591795
O        5.71021236       3.62919935      13.15069587  F        1        2       0.45452128       0.27072885       0.57556062
O        7.66922265       2.49816423      14.45537079  F        1        2       0.01308736       0.38237830      -0.71996719
O        3.84371499       3.13058929      16.75676254  F        1        2      -0.43557227      -0.30224651      -0.41778992
Si       7.23815181       0.00000000      17.40910000  F        0        1       0.01447966       0.04945865       1.02461654
Si       3.76227409       2.00679893      21.01516667  F        0        1       0.08291183      -0.11832383      -0.90318302
Si       6.22272410       2.25482548      19.21213333  F        0        1       0.06777031       0.02909213       0.28780599
O        6.30416499       1.13103512      18.06143746  F        1        1      -0.26310828      -0.11002566      -0.54254972
O        5.20877265       1.76346018      20.36282921  F        1        1       0.27374058      -0.16301725       0.03823433
O        8.17066236       0.63242506      21.66750413  F        1        1      -0.38503973      -0.91372787       0.88647384
O        5.71021236       3.62919935      18.55979587  F        1        1       0.02729895       0.39802144      -0.20304912
O        7.66922265       2.49816423      19.86447079  F        1        1      -0.03238524       0.34429373      -0.65700511
O        3.84371499       3.13058929      22.16586254  F        1        1       0.07584580       1.49575907       0.66463301
O        3.76227409       2.00679893      23.76586254  F        0        0      -0.03387814      -0.68620705       1.26570455
H        4.52036556       2.00679893      24.37205952  F        0        0       0.50069669       0.14895419      -0.08537246
H        3.00418263       2.00679893      24.37205952  F        0        0      -0.46808334       0.06706196      -0.15428981
39
Lattice="9.8418 0.0 0.0 -2.460449999999999 4.261624409482844 0.0 0.0 -0.0 34.16586254" Properties=species:S:1:pos:R:3:move_mask:L:1:spacegroup_kinds:I:1:tags:I:1:forces:R:3 spacegroup="P 32 2 1" unit_cell=conventional surface=alpha_quartz_001 species=H2O height_A=1.3 substrate_atoms=36 calculation_kind="Rigid approach energy evaluation; not NEB or TS" energy=-278.32981056303635 pbc="T T F"
Si       2.31725181       0.00000000      12.00000000  F        0        2      -0.13684429      -0.37977796      -1.76106583
Si      -1.15862590       2.00679893      15.60606667  F        0        2      -0.14110322       0.05564280       1.11007129
Si       1.30182410       2.25482548      13.80303333  F        0        2       0.03671635      -0.16134125       0.96620688
O        1.38326499       1.13103512      12.65233746  F        1        2      -0.53002287       0.24232259      -0.19208557
O        0.28787265       1.76346018      14.95372921  F        1        2       0.42505267      -0.25284727      -0.34330523
O        3.24976236       0.63242506      16.25840413  F        1        2       0.31938376      -0.10521459      -0.75791448
O        0.78931236       3.62919935      13.15069587  F        1        2       0.45487370       0.27030343       0.57771727
O        2.74832265       2.49816423      14.45537079  F        1        2       0.01604474       0.38206808      -0.71325225
O       -1.07718501       3.13058929      16.75676254  F        1        2      -0.43803912      -0.28838135      -0.41823132
Si       2.31725181       0.00000000      17.40910000  F        0        1       0.02497010       0.04076507       1.02049454
Si      -1.15862590       2.00679893      21.01516667  F        0        1       0.25136440       0.11514462      -0.45409049
Si       1.30182410       2.25482548      19.21213333  F        0        1      -0.21048855       0.01027984       0.28652293
O        1.38326499       1.13103512      18.06143746  F        1        1      -0.23398058      -0.09047249      -0.52530076
O        0.28787265       1.76346018      20.36282921  F        1        1       0.48442721      -0.15798942      -0.13920992
O        3.24976236       0.63242506      21.66750413  F        1        1      -0.35109677      -1.70352908       0.08356244
O        0.78931236       3.62919935      18.55979587  F        1        1       0.08149544       0.42935861      -0.17052383
O        2.74832265       2.49816423      19.86447079  F        1        1       0.23026525       0.45555855      -0.33905022
O       -1.07718501       3.13058929      22.16586254  F        1        1      -0.12645065       0.44788960       1.29719057
Si       7.23815181       0.00000000      12.00000000  F        0        2      -0.13679647      -0.37988186      -1.76085168
Si       3.76227409       2.00679893      15.60606667  F        0        2      -0.13992980       0.05841797       1.11880754
Si       6.22272410       2.25482548      13.80303333  F        0        2       0.03579904      -0.16145778       0.96634572
O        6.30416499       1.13103512      12.65233746  F        1        2      -0.53033715       0.24217739      -0.19190190
O        5.20877265       1.76346018      14.95372921  F        1        2       0.42715806      -0.25111688      -0.34371017
O        8.17066236       0.63242506      16.25840413  F        1        2       0.31800239      -0.10847917      -0.76005366
O        5.71021236       3.62919935      13.15069587  F        1        2       0.45452332       0.27027963       0.57821764
O        7.66922265       2.49816423      14.45537079  F        1        2       0.01648440       0.38097013      -0.71094036
O        3.84371499       3.13058929      16.75676254  F        1        2      -0.43113723      -0.29793670      -0.39081007
Si       7.23815181       0.00000000      17.40910000  F        0        1       0.00448407       0.05903644       0.98460948
Si       3.76227409       2.00679893      21.01516667  F        0        1      -0.09733192      -0.36856836      -1.68895040
Si       6.22272410       2.25482548      19.21213333  F        0        1       0.10203736       0.00582836       0.26060969
O        6.30416499       1.13103512      18.06143746  F        1        1      -0.27768634      -0.10424994      -0.50251665
O        5.20877265       1.76346018      20.36282921  F        1        1       0.26576532      -0.15387184       0.11107147
O        8.17066236       0.63242506      21.66750413  F        1        1      -0.27812313      -0.71006761       0.80855698
O        5.71021236       3.62919935      18.55979587  F        1        1       0.01497602       0.38639037      -0.18159011
O        7.66922265       2.49816423      19.86447079  F        1        1      -0.03040615       0.35481878      -0.65002454
O        3.84371499       3.13058929      22.16586254  F        1        1       0.07484820       2.25282702       0.42716181
O        3.76227409       2.00679893      23.46586254  F        0        0       0.05998097      -1.40995682       2.55603978
H        4.52036556       2.00679893      24.07205952  F        0        0       0.89093112       0.37941315      -0.01463753
H        3.00418263       2.00679893      24.07205952  F        0        0      -0.89980964       0.24564795      -0.14316904
