40
Lattice="9.8418 0.0 0.0 -2.460449999999999 4.261624409482844 0.0 0.0 -0.0 34.16586254" Properties=species:S:1:pos:R:3:move_mask:L:1:spacegroup_kinds:I:1:tags:I:1:forces:R:3 surface=alpha_quartz_001 coadsorbate=HF start=2 calculation_kind="Local coadsorbate relaxation; not a reaction path" host_atoms=36 energy=-282.92913188798275 pbc="T T F"
Si       2.31725181       0.00000000      12.00000000  F        0        2      -0.13325730      -0.36670596      -1.70178817
Si      -1.15862590       2.00679893      15.60606667  F        0        2      -0.12309618       0.04460661       1.24833742
Si       1.30182410       2.25482548      13.80303333  F        0        2       0.02871361      -0.16120200       1.02671085
O        1.38326499       1.13103512      12.65233746  F        1        2      -0.50478579       0.21422790      -0.22043488
O        0.28787265       1.76346018      14.95372921  F        1        2       0.44158431      -0.24274916      -0.39318402
O        3.24976236       0.63242506      16.25840413  F        1        2      -0.15036032      -0.52205589       0.00865539
O        0.78931236       3.62919935      13.15069587  F        1        2       0.42541775       0.28742108       0.53320387
O        2.74832265       2.49816423      14.45537079  F        1        2       0.01287606       0.38720597      -0.73531307
O       -1.07718501       3.13058929      16.75676254  F        1        2       0.03528718       0.34034512       0.17344737
Si       2.31153527       0.01321692      17.45795009  T        0        1       0.00682748      -0.00086705       0.00300240
Si      -1.18133685       1.77873547      21.12200795  T        0        1      -0.00107872      -0.00092701      -0.00032927
Si       1.29319903       2.25736418      19.28868173  T        0        1      -0.01349806      -0.00417310       0.00330019
O        1.36225113       1.17907720      18.05181351  T        1        1       0.00652928      -0.00556573       0.00876398
O        0.28201965       1.71844400      20.42422031  T        1        1      -0.01134365       0.00267702      -0.00434445
O        3.13985918       0.39762448      21.70985289  T        1        1      -0.00484061      -0.00369957       0.00249600
O        0.78393184       3.65828608      18.62632098  T        1        1       0.00855301      -0.00197671      -0.00241370
O        2.76176270       2.47519304      19.94542056  T        1        1      -0.00430854       0.01395533      -0.01120125
O       -1.17737026       2.36065466      22.65391149  T        1        1      -0.00415738       0.00260653      -0.01087639
Si       7.23815181       0.00000000      12.00000000  F        0        2      -0.13347248      -0.36641100      -1.70112976
Si       3.76227409       2.00679893      15.60606667  F        0        2      -0.11858129       0.07372876       1.24034219
Si       6.22272410       2.25482548      13.80303333  F        0        2       0.03254494      -0.16191776       1.02583515
O        6.30416499       1.13103512      12.65233746  F        1        2      -0.50583047       0.21554125      -0.22122623
O        5.20877265       1.76346018      14.95372921  F        1        2       0.44308185      -0.24684264      -0.38339445
O        8.17066236       0.63242506      16.25840413  F        1        2      -0.22705563      -0.56452536       0.12902290
O        5.71021236       3.62919935      13.15069587  F        1        2       0.42662844       0.28540433       0.53329772
O        7.66922265       2.49816423      14.45537079  F        1        2       0.01247146       0.38658844      -0.73407662
O        3.84371499       3.13058929      16.75676254  F        1        2       0.08354581       0.37617288       0.20128665
Si       7.24848344      -0.00261680      17.46880376  T        0        1      -0.00235274      -0.00258792      -0.00590619
Si       3.71282596       1.81943864      21.10703846  T        0        1      -0.00613713       0.01291864       0.00320446
Si       6.22017643       2.24340429      19.33056473  T        0        1       0.01341069       0.00194875      -0.00530986
O        6.31398937       1.14802837      18.11050655  T        1        1      -0.00211033      -0.00127501      -0.00589616
O        5.19112551       1.71611468      20.45998899  T        1        1       0.00013413       0.00568083      -0.00552467
O        8.12662812       0.34050003      21.68323567  T        1        1      -0.00135192       0.00604363      -0.00586618
O        5.73112963       3.62628541      18.61907159  T        1        1      -0.00201518      -0.00124534      -0.00408074
O        7.67469641       2.48187286      20.01558234  T        1        1       0.00158854      -0.00550932       0.00752395
O        3.57775796       2.51048035      22.56558932  T        1        1       0.00441382       0.00261895       0.01064268
F        4.43768819       2.35164318      24.77825488  T        0        0      -0.00523756       0.00167408      -0.01328001
H        4.06543386       2.35483871      23.76108430  T        0        0      -0.01209579       0.00049187       0.00042211
F        1.37546208       4.70803803      26.19424039  T        0        0      -0.01002998      -0.00299481       0.00134199
H        1.60815937       5.48798196      25.58775832  T        0        0      -0.00661132       0.00137338       0.00473884
