30
Lattice="7.6044 0.0 0.0 -3.802199999999998 6.585603580538386 0.0 0.0 -0.0 28.35945" Properties=species:S:1:pos:R:3:move_mask:L:1:spacegroup_kinds:I:1:tags:I:1:forces:R:3 spacegroup="P 63/m" unit_cell=conventional occupancy="_JSON {\"0\": {\"Si\": 1.0}, \"1\": {\"N\": 1.0}, \"2\": {\"N\": 1.0}}" surface=beta_Si3N4_001 species=HF site=bridge_Si_N orientation=parallel height_A=3.25 substrate_atoms=28 calculation_kind="Rigid evaluated approach scan; not NEB" energy=-222.69295961895085 pbc="T T F"
Si       5.18010587       1.14956320      12.00000000  F        0        2       1.65425968       1.23589058       1.30026952
Si      -1.37790587       5.43604038      13.45315000  F        0        2       0.00381648       0.59725224      -1.82208067
Si       4.01879613       3.91132168      12.00000000  F        0        2      -1.85904897       0.87536490       1.51080595
Si      -0.21659613       2.67428190      13.45315000  F        0        2      -0.33452584      -0.26708774      -1.96557150
Si       2.20769800       1.52471870      12.00000000  F        0        2       0.18142576      -2.04286152       1.51264439
Si       1.59450200       5.06088488      13.45315000  F        0        2       0.48706135      -0.43583860      -1.21097145
N       -1.02370433       2.17482973      12.00000000  F        1        2      -0.66389573      -0.65311612       0.27511871
N        4.82590433       4.41077385      13.45315000  F        1        2       0.14240321      -0.08048380       0.38863797
N        2.43059437       4.61163476      12.00000000  F        1        2       0.81796674      -0.18473320       0.27995852
N        1.37160563       1.97396882      13.45315000  F        1        2      -0.01085244       0.04085305       0.53792496
N       -1.40689004       6.38474267      12.00000000  F        1        2      -0.24029595       0.87712415       0.22366372
N        5.20909004       0.20086091      13.45315000  F        1        2      -0.01612396      -0.15418964       0.73477738
N        3.80216198       2.19517924      12.00000000  F        2        2       0.04602603      -0.03034783      -1.73465385
N        0.00003802       4.39042434      13.45315000  F        2        2      -0.04716733      -0.08183978       0.52197184
Si       5.21633040       1.17615810      14.95248758  T        0        1      -0.11765326      -0.41958024      -0.16286487
Si      -1.44935012       5.16387411      16.18581229  T        0        1      -0.03040330       0.01945280      -0.01489693
Si       3.97125879       3.89799149      14.97607502  T        0        1       0.04660664       0.07282796       0.06690167
Si       0.02312424       2.68183715      16.23148660  T        0        1       0.10957743       0.09308996      -0.03959703
Si       2.22325453       1.48407226      14.98702829  T        0        1       0.01751294      -0.02365703       0.02651826
Si       1.60653381       5.06017718      16.45539691  T        0        1      -0.03371301       0.05987989      -0.04053737
N       -1.02133280       2.24311572      14.96053703  T        1        1      -0.04690276      -0.05263909       0.00838418
N        4.75308150       4.37896114      16.37781103  T        1        1       0.04182247      -0.01583713      -0.05745043
N        2.33220970       4.51689638      14.97627011  T        1        1       0.11451539       0.02607552      -0.10468211
N        1.41509083       1.86289597      16.42035698  T        1        1       0.02811214      -0.02646078      -0.06439922
N       -1.28980724       6.33828689      14.97139815  T        1        1      -0.00768850       0.02090859      -0.08261406
N        5.33723073       0.17630062      16.34641798  T        1        1       0.63055257       0.77382525       1.16409051
N        3.81830395       2.15973960      14.87225344  T        2        1      -0.14083654       0.17848669      -0.06612009
N       -0.01119574       4.35336953      16.64676451  T        2        1      -0.01137085      -0.01132280      -0.01174975
F        2.30216805       4.91436744      17.90186492  T        0        0       0.13257836      -0.51079554       0.07177557
H        2.09040047       7.04326274      17.19970787  T        0        0      -0.89375875       0.11975927      -1.24525383
