38
Lattice="11.518769465528859 0.0 0.0 0.0 7.679179643685906 0.0 0.0 0.0 30.7875" Properties=species:S:1:pos:R:3:move_mask:L:1:tags:I:1:forces:R:3 surface=Si100 species=H2 site=hollow orientation=upright height_A=6.5 substrate_atoms=36 calculation_kind="Rigid evaluated approach scan; not NEB" energy=-186.84483600269022 pbc="T T F"
Si       0.00000000       0.00000000      12.00000000  F        6      -0.00000004       0.00000000       0.24903484
Si       3.83958982       0.00000000      12.00000000  F        6      -0.00000000       0.00000000       0.24903482
Si       7.67917964       0.00000000      12.00000000  F        6       0.00000000       0.00000000       0.24903482
Si       0.00000000       3.83958982      12.00000000  F        6      -0.00000004      -0.00000000       0.24903484
Si       3.83958982       3.83958982      12.00000000  F        6      -0.00000000      -0.00000000       0.24903482
Si       7.67917964       3.83958982      12.00000000  F        6       0.00000000      -0.00000000       0.24903482
Si       1.91979491       0.00000000      13.35750000  F        5       0.00000000      -0.00000002      -0.52822352
Si       5.75938473       0.00000000      13.35750000  F        5       0.00000000      -0.00000002      -0.52822353
Si       9.59897455       0.00000000      13.35750000  F        5       0.00000003      -0.00000002      -0.52822354
Si       1.91979491       3.83958982      13.35750000  F        5       0.00000000       0.00000000      -0.52822354
Si       5.75938473       3.83958982      13.35750000  F        5       0.00000000       0.00000000      -0.52822354
Si       9.59897455       3.83958982      13.35750000  F        5       0.00000003       0.00000000      -0.52822356
Si       1.91979491       1.91979491      14.71500000  F        4      -0.00000000       0.00000000       0.14537709
Si       5.75938473       1.91979491      14.71500000  F        4       0.00000000       0.00000000       0.14537709
Si       9.59897455       1.91979491      14.71500000  F        4       0.00000004       0.00000000       0.14537711
Si       1.91979491       5.75938473      14.71500000  F        4      -0.00000000       0.00000002       0.14537707
Si       5.75938473       5.75938473      14.71500000  F        4       0.00000000       0.00000002       0.14537707
Si       9.59897455       5.75938473      14.71500000  F        4       0.00000004       0.00000002       0.14537709
Si       0.00000000       1.91979491      16.07250000  F        3      -0.00000004       0.00000000      -0.14537711
Si       3.83958982       1.91979491      16.07250000  F        3      -0.00000000       0.00000000      -0.14537709
Si       7.67917964       1.91979491      16.07250000  F        3       0.00000000       0.00000000      -0.14537709
Si       0.00000000       5.75938473      16.07250000  F        3      -0.00000004       0.00000002      -0.14537709
Si       3.83958982       5.75938473      16.07250000  F        3      -0.00000000       0.00000002      -0.14537707
Si       7.67917964       5.75938473      16.07250000  F        3       0.00000000       0.00000002      -0.14537707
Si       0.00000000       0.00000000      17.43000000  F        2      -0.00000003      -0.00000002       0.52822354
Si       3.83958982       0.00000000      17.43000000  F        2      -0.00000000      -0.00000002       0.52822353
Si       7.67917964       0.00000000      17.43000000  F        2      -0.00000000      -0.00000002       0.52822352
Si       0.00000000       3.83958982      17.43000000  F        2      -0.00000003       0.00000000       0.52822356
Si       3.83958982       3.83958982      17.43000000  F        2      -0.00000000       0.00000000       0.52822354
Si       7.67917964       3.83958982      17.43000000  F        2      -0.00000000       0.00000000       0.52822354
Si       1.91979491       0.00000000      18.78750000  F        1      -0.00000000       0.00000000      -0.24903482
Si       5.75938473       0.00000000      18.78750000  F        1       0.00000000       0.00000000      -0.24903482
Si       9.59897455       0.00000000      18.78750000  F        1       0.00000004       0.00000000      -0.24903484
Si       1.91979491       3.83958982      18.78750000  F        1      -0.00000000      -0.00000000      -0.24903482
Si       5.75938473       3.83958982      18.78750000  F        1       0.00000000      -0.00000000      -0.24903482
Si       9.59897455       3.83958982      18.78750000  F        1       0.00000004      -0.00000000      -0.24903484
H        7.67917964       1.91979491      25.28750000  T        0       0.00000000       0.00000000      -0.00400540
H        7.67917964       1.91979491      26.03830562  T        0       0.00000000       0.00000000       0.00400540
38
Lattice="11.518769465528859 0.0 0.0 0.0 7.679179643685906 0.0 0.0 0.0 30.7875" Properties=species:S:1:pos:R:3:move_mask:L:1:tags:I:1:forces:R:3 surface=Si100 species=H2 site=hollow orientation=upright height_A=5.0 substrate_atoms=36 calculation_kind="Rigid evaluated approach scan; not NEB" energy=-186.84483600269022 pbc="T T F"
Si       0.00000000       0.00000000      12.00000000  F        6      -0.00000004       0.00000000       0.24903484
Si       3.83958982       0.00000000      12.00000000  F        6      -0.00000000       0.00000000       0.24903482
Si       7.67917964       0.00000000      12.00000000  F        6       0.00000000       0.00000000       0.24903482
Si       0.00000000       3.83958982      12.00000000  F        6      -0.00000004      -0.00000000       0.24903484
Si       3.83958982       3.83958982      12.00000000  F        6      -0.00000000      -0.00000000       0.24903482
Si       7.67917964       3.83958982      12.00000000  F        6       0.00000000      -0.00000000       0.24903482
Si       1.91979491       0.00000000      13.35750000  F        5       0.00000000      -0.00000002      -0.52822352
Si       5.75938473       0.00000000      13.35750000  F        5       0.00000000      -0.00000002      -0.52822353
Si       9.59897455       0.00000000      13.35750000  F        5       0.00000003      -0.00000002      -0.52822354
Si       1.91979491       3.83958982      13.35750000  F        5       0.00000000       0.00000000      -0.52822354
Si       5.75938473       3.83958982      13.35750000  F        5       0.00000000       0.00000000      -0.52822354
Si       9.59897455       3.83958982      13.35750000  F        5       0.00000003       0.00000000      -0.52822356
Si       1.91979491       1.91979491      14.71500000  F        4      -0.00000000       0.00000000       0.14537709
Si       5.75938473       1.91979491      14.71500000  F        4       0.00000000       0.00000000       0.14537709
Si       9.59897455       1.91979491      14.71500000  F        4       0.00000004       0.00000000       0.14537711
Si       1.91979491       5.75938473      14.71500000  F        4      -0.00000000       0.00000002       0.14537707
Si       5.75938473       5.75938473      14.71500000  F        4       0.00000000       0.00000002       0.14537707
Si       9.59897455       5.75938473      14.71500000  F        4       0.00000004       0.00000002       0.14537709
Si       0.00000000       1.91979491      16.07250000  F        3      -0.00000004       0.00000000      -0.14537711
Si       3.83958982       1.91979491      16.07250000  F        3      -0.00000000       0.00000000      -0.14537709
Si       7.67917964       1.91979491      16.07250000  F        3       0.00000000       0.00000000      -0.14537709
Si       0.00000000       5.75938473      16.07250000  F        3      -0.00000004       0.00000002      -0.14537709
Si       3.83958982       5.75938473      16.07250000  F        3      -0.00000000       0.00000002      -0.14537707
Si       7.67917964       5.75938473      16.07250000  F        3       0.00000000       0.00000002      -0.14537707
Si       0.00000000       0.00000000      17.43000000  F        2      -0.00000003      -0.00000002       0.52822354
Si       3.83958982       0.00000000      17.43000000  F        2      -0.00000000      -0.00000002       0.52822353
Si       7.67917964       0.00000000      17.43000000  F        2      -0.00000000      -0.00000002       0.52822352
Si       0.00000000       3.83958982      17.43000000  F        2      -0.00000003       0.00000000       0.52822356
Si       3.83958982       3.83958982      17.43000000  F        2      -0.00000000       0.00000000       0.52822354
Si       7.67917964       3.83958982      17.43000000  F        2      -0.00000000       0.00000000       0.52822354
Si       1.91979491       0.00000000      18.78750000  F        1      -0.00000000       0.00000000      -0.24903482
Si       5.75938473       0.00000000      18.78750000  F        1       0.00000000       0.00000000      -0.24903482
Si       9.59897455       0.00000000      18.78750000  F        1       0.00000004       0.00000000      -0.24903484
Si       1.91979491       3.83958982      18.78750000  F        1      -0.00000000      -0.00000000      -0.24903482
Si       5.75938473       3.83958982      18.78750000  F        1       0.00000000      -0.00000000      -0.24903482
Si       9.59897455       3.83958982      18.78750000  F        1       0.00000004      -0.00000000      -0.24903484
H        7.67917964       1.91979491      23.78750000  T        0       0.00000000       0.00000000      -0.00400540
H        7.67917964       1.91979491      24.53830562  T        0       0.00000000       0.00000000       0.00400540
38
Lattice="11.518769465528859 0.0 0.0 0.0 7.679179643685906 0.0 0.0 0.0 30.7875" Properties=species:S:1:pos:R:3:move_mask:L:1:tags:I:1:forces:R:3 surface=Si100 species=H2 site=hollow orientation=upright height_A=4.0 substrate_atoms=36 calculation_kind="Rigid evaluated approach scan; not NEB" energy=-186.84207776402963 pbc="T T F"
Si       0.00000000       0.00000000      12.00000000  F        6      -0.00001178      -0.00000159       0.24905120
Si       3.83958982       0.00000000      12.00000000  F        6       0.00001175      -0.00000159       0.24905118
Si       7.67917964       0.00000000      12.00000000  F        6       0.00000000      -0.00000398       0.24905558
Si       0.00000000       3.83958982      12.00000000  F        6      -0.00001178       0.00000159       0.24905120
Si       3.83958982       3.83958982      12.00000000  F        6       0.00001175       0.00000159       0.24905118
Si       7.67917964       3.83958982      12.00000000  F        6       0.00000000       0.00000398       0.24905558
Si       1.91979491       0.00000000      13.35750000  F        5       0.00000000       0.00000169      -0.52824081
Si       5.75938473       0.00000000      13.35750000  F        5      -0.00001503      -0.00000190      -0.52825451
Si       9.59897455       0.00000000      13.35750000  F        5       0.00001506      -0.00000190      -0.52825453
Si       1.91979491       3.83958982      13.35750000  F        5       0.00000000      -0.00000171      -0.52824082
Si       5.75938473       3.83958982      13.35750000  F        5      -0.00001503       0.00000188      -0.52825452
Si       9.59897455       3.83958982      13.35750000  F        5       0.00001506       0.00000188      -0.52825454
Si       1.91979491       1.91979491      14.71500000  F        4      -0.00000000       0.00000000       0.14531490
Si       5.75938473       1.91979491      14.71500000  F        4      -0.00011539       0.00000000       0.14505063
Si       9.59897455       1.91979491      14.71500000  F        4       0.00011542       0.00000000       0.14505065
Si       1.91979491       5.75938473      14.71500000  F        4      -0.00000000       0.00000002       0.14531801
Si       5.75938473       5.75938473      14.71500000  F        4      -0.00018679       0.00000002       0.14552204
Si       9.59897455       5.75938473      14.71500000  F        4       0.00018682       0.00000002       0.14552206
Si       0.00000000       1.91979491      16.07250000  F        3       0.00017899       0.00000000      -0.14561863
Si       3.83958982       1.91979491      16.07250000  F        3      -0.00017903       0.00000000      -0.14561860
Si       7.67917964       1.91979491      16.07250000  F        3       0.00000000       0.00000000      -0.14538517
Si       0.00000000       5.75938473      16.07250000  F        3      -0.00034547       0.00000002      -0.14512770
Si       3.83958982       5.75938473      16.07250000  F        3       0.00034544       0.00000002      -0.14512768
Si       7.67917964       5.75938473      16.07250000  F        3       0.00000000       0.00000002      -0.14640170
Si       0.00000000       0.00000000      17.43000000  F        2      -0.00076927      -0.00033136       0.52837270
Si       3.83958982       0.00000000      17.43000000  F        2       0.00076924      -0.00033136       0.52837268
Si       7.67917964       0.00000000      17.43000000  F        2      -0.00000000       0.00055595       0.52775613
Si       0.00000000       3.83958982      17.43000000  F        2      -0.00076927       0.00033134       0.52837271
Si       3.83958982       3.83958982      17.43000000  F        2       0.00076924       0.00033134       0.52837269
Si       7.67917964       3.83958982      17.43000000  F        2      -0.00000000      -0.00055598       0.52775614
Si       1.91979491       0.00000000      18.78750000  F        1      -0.00000000       0.00006194      -0.24900093
Si       5.75938473       0.00000000      18.78750000  F        1      -0.00628321      -0.00328082      -0.25858265
Si       9.59897455       0.00000000      18.78750000  F        1       0.00628324      -0.00328082      -0.25858267
Si       1.91979491       3.83958982      18.78750000  F        1      -0.00000000      -0.00006194      -0.24900093
Si       5.75938473       3.83958982      18.78750000  F        1      -0.00628321       0.00328082      -0.25858265
Si       9.59897455       3.83958982      18.78750000  F        1       0.00628324       0.00328082      -0.25858267
H        7.67917964       1.91979491      22.78750000  T        0      -0.00000000       0.00000000       0.04325763
H        7.67917964       1.91979491      23.53830562  T        0      -0.00000000      -0.00000000      -0.00324318
38
Lattice="11.518769465528859 0.0 0.0 0.0 7.679179643685906 0.0 0.0 0.0 30.7875" Properties=species:S:1:pos:R:3:move_mask:L:1:tags:I:1:forces:R:3 surface=Si100 species=H2 site=hollow orientation=upright height_A=3.25 substrate_atoms=36 calculation_kind="Rigid evaluated approach scan; not NEB" energy=-186.7475419571168 pbc="T T F"
Si       0.00000000       0.00000000      12.00000000  F        6      -0.00040181      -0.00002684       0.24947421
Si       3.83958982       0.00000000      12.00000000  F        6       0.00040177      -0.00002684       0.24947420
Si       7.67917964       0.00000000      12.00000000  F        6       0.00000000      -0.00008023       0.24962876
Si       0.00000000       3.83958982      12.00000000  F        6      -0.00040181       0.00002684       0.24947421
Si       3.83958982       3.83958982      12.00000000  F        6       0.00040177       0.00002684       0.24947420
Si       7.67917964       3.83958982      12.00000000  F        6       0.00000000       0.00008023       0.24962876
Si       1.91979491       0.00000000      13.35750000  F        5       0.00000000       0.00015245      -0.52838351
Si       5.75938473       0.00000000      13.35750000  F        5      -0.00070032       0.00002067      -0.52925995
Si       9.59897455       0.00000000      13.35750000  F        5       0.00070035       0.00002067      -0.52925996
Si       1.91979491       3.83958982      13.35750000  F        5       0.00000000      -0.00015247      -0.52838352
Si       5.75938473       3.83958982      13.35750000  F        5      -0.00070032      -0.00002070      -0.52925996
Si       9.59897455       3.83958982      13.35750000  F        5       0.00070035      -0.00002070      -0.52925998
Si       1.91979491       1.91979491      14.71500000  F        4      -0.00000000      -0.00000000       0.14406181
Si       5.75938473       1.91979491      14.71500000  F        4      -0.00229529      -0.00000000       0.13950179
Si       9.59897455       1.91979491      14.71500000  F        4       0.00229533      -0.00000000       0.13950181
Si       1.91979491       5.75938473      14.71500000  F        4      -0.00000000       0.00000002       0.14421360
Si       5.75938473       5.75938473      14.71500000  F        4      -0.00380845       0.00000002       0.14290419
Si       9.59897455       5.75938473      14.71500000  F        4       0.00380849       0.00000002       0.14290421
Si       0.00000000       1.91979491      16.07250000  F        3       0.00507174       0.00000000      -0.15078515
Si       3.83958982       1.91979491      16.07250000  F        3      -0.00507177       0.00000000      -0.15078513
Si       7.67917964       1.91979491      16.07250000  F        3       0.00000000       0.00000000      -0.14331055
Si       0.00000000       5.75938473      16.07250000  F        3      -0.00481401       0.00000002      -0.13872585
Si       3.83958982       5.75938473      16.07250000  F        3       0.00481397       0.00000002      -0.13872583
Si       7.67917964       5.75938473      16.07250000  F        3       0.00000000       0.00000002      -0.16849719
Si       0.00000000       0.00000000      17.43000000  F        2      -0.02072790      -0.00741063       0.53775285
Si       3.83958982       0.00000000      17.43000000  F        2       0.02072787      -0.00741063       0.53775283
Si       7.67917964       0.00000000      17.43000000  F        2      -0.00000000       0.00783706       0.51416456
Si       0.00000000       3.83958982      17.43000000  F        2      -0.02072790       0.00741061       0.53775287
Si       3.83958982       3.83958982      17.43000000  F        2       0.02072787       0.00741061       0.53775285
Si       7.67917964       3.83958982      17.43000000  F        2      -0.00000000      -0.00783709       0.51416457
Si       1.91979491       0.00000000      18.78750000  F        1      -0.00000000       0.00092168      -0.24861881
Si       5.75938473       0.00000000      18.78750000  F        1      -0.06068649       0.02086811      -0.27622432
Si       9.59897455       0.00000000      18.78750000  F        1       0.06068653       0.02086811      -0.27622434
Si       1.91979491       3.83958982      18.78750000  F        1      -0.00000000      -0.00092168      -0.24861881
Si       5.75938473       3.83958982      18.78750000  F        1      -0.06068649      -0.02086811      -0.27622432
Si       9.59897455       3.83958982      18.78750000  F        1       0.06068653      -0.02086811      -0.27622434
H        7.67917964       1.91979491      22.03750000  T        0       0.00000000      -0.00000000       0.21122609
H        7.67917964       1.91979491      22.78830562  T        0      -0.00000000       0.00000000      -0.07403688
38
Lattice="11.518769465528859 0.0 0.0 0.0 7.679179643685906 0.0 0.0 0.0 30.7875" Properties=species:S:1:pos:R:3:move_mask:L:1:tags:I:1:forces:R:3 surface=Si100 species=H2 site=hollow orientation=upright height_A=2.75 substrate_atoms=36 calculation_kind="Rigid evaluated approach scan; not NEB" energy=-186.61122010551165 pbc="T T F"
Si       0.00000000       0.00000000      12.00000000  F        6      -0.00081268      -0.00009794       0.25026328
Si       3.83958982       0.00000000      12.00000000  F        6       0.00081264      -0.00009794       0.25026327
Si       7.67917964       0.00000000      12.00000000  F        6       0.00000000      -0.00019997       0.25058950
Si       0.00000000       3.83958982      12.00000000  F        6      -0.00081268       0.00009794       0.25026328
Si       3.83958982       3.83958982      12.00000000  F        6       0.00081264       0.00009794       0.25026327
Si       7.67917964       3.83958982      12.00000000  F        6       0.00000000       0.00019997       0.25058950
Si       1.91979491       0.00000000      13.35750000  F        5       0.00000000       0.00015246      -0.52778228
Si       5.75938473       0.00000000      13.35750000  F        5      -0.00134991      -0.00007414      -0.53050294
Si       9.59897455       0.00000000      13.35750000  F        5       0.00134994      -0.00007414      -0.53050295
Si       1.91979491       3.83958982      13.35750000  F        5       0.00000000      -0.00015248      -0.52778229
Si       5.75938473       3.83958982      13.35750000  F        5      -0.00134991       0.00007412      -0.53050295
Si       9.59897455       3.83958982      13.35750000  F        5       0.00134994       0.00007412      -0.53050297
Si       1.91979491       1.91979491      14.71500000  F        4      -0.00000000      -0.00000000       0.14282127
Si       5.75938473       1.91979491      14.71500000  F        4      -0.00500500      -0.00000000       0.13646731
Si       9.59897455       1.91979491      14.71500000  F        4       0.00500504      -0.00000000       0.13646733
Si       1.91979491       5.75938473      14.71500000  F        4      -0.00000000       0.00000002       0.14124597
Si       5.75938473       5.75938473      14.71500000  F        4      -0.00422647       0.00000002       0.12347728
Si       9.59897455       5.75938473      14.71500000  F        4       0.00422650       0.00000002       0.12347730
Si       0.00000000       1.91979491      16.07250000  F        3       0.00992202       0.00000000      -0.15397333
Si       3.83958982       1.91979491      16.07250000  F        3      -0.00992206       0.00000000      -0.15397331
Si       7.67917964       1.91979491      16.07250000  F        3       0.00000000      -0.00000000      -0.13916250
Si       0.00000000       5.75938473      16.07250000  F        3      -0.00048502       0.00000002      -0.13980320
Si       3.83958982       5.75938473      16.07250000  F        3       0.00048498       0.00000002      -0.13980318
Si       7.67917964       5.75938473      16.07250000  F        3       0.00000000       0.00000002      -0.16972060
Si       0.00000000       0.00000000      17.43000000  F        2      -0.03345891      -0.00344726       0.54631449
Si       3.83958982       0.00000000      17.43000000  F        2       0.03345888      -0.00344726       0.54631448
Si       7.67917964       0.00000000      17.43000000  F        2      -0.00000000      -0.02368152       0.44137836
Si       0.00000000       3.83958982      17.43000000  F        2      -0.03345891       0.00344723       0.54631451
Si       3.83958982       3.83958982      17.43000000  F        2       0.03345888       0.00344723       0.54631449
Si       7.67917964       3.83958982      17.43000000  F        2      -0.00000000       0.02368149       0.44137838
Si       1.91979491       0.00000000      18.78750000  F        1      -0.00000000       0.00196971      -0.24218102
Si       5.75938473       0.00000000      18.78750000  F        1      -0.08940194       0.03830267      -0.28895464
Si       9.59897455       0.00000000      18.78750000  F        1       0.08940197       0.03830267      -0.28895466
Si       1.91979491       3.83958982      18.78750000  F        1      -0.00000000      -0.00196971      -0.24218102
Si       5.75938473       3.83958982      18.78750000  F        1      -0.08940194      -0.03830267      -0.28895464
Si       9.59897455       3.83958982      18.78750000  F        1       0.08940197      -0.03830267      -0.28895466
H        7.67917964       1.91979491      21.53750000  T        0       0.00000000      -0.00000000       0.42833574
H        7.67917964       1.91979491      22.28830562  T        0      -0.00000000      -0.00000000      -0.08834587
38
Lattice="11.518769465528859 0.0 0.0 0.0 7.679179643685906 0.0 0.0 0.0 30.7875" Properties=species:S:1:pos:R:3:move_mask:L:1:tags:I:1:forces:R:3 surface=Si100 species=H2 site=hollow orientation=upright height_A=2.25 substrate_atoms=36 calculation_kind="Rigid evaluated approach scan; not NEB" energy=-186.50357379720506 pbc="T T F"
Si       0.00000000       0.00000000      12.00000000  F        6      -0.00093521      -0.00024237       0.25055469
Si       3.83958982       0.00000000      12.00000000  F        6       0.00093518      -0.00024237       0.25055468
Si       7.67917964       0.00000000      12.00000000  F        6       0.00000000      -0.00037145       0.25134246
Si       0.00000000       3.83958982      12.00000000  F        6      -0.00093521       0.00024237       0.25055469
Si       3.83958982       3.83958982      12.00000000  F        6       0.00093518       0.00024237       0.25055468
Si       7.67917964       3.83958982      12.00000000  F        6       0.00000000       0.00037145       0.25134246
Si       1.91979491       0.00000000      13.35750000  F        5       0.00000000      -0.00002861      -0.52575442
Si       5.75938473       0.00000000      13.35750000  F        5      -0.00248544       0.00127597      -0.53240017
Si       9.59897455       0.00000000      13.35750000  F        5       0.00248547       0.00127597      -0.53240019
Si       1.91979491       3.83958982      13.35750000  F        5       0.00000000       0.00002859      -0.52575444
Si       5.75938473       3.83958982      13.35750000  F        5      -0.00248544      -0.00127600      -0.53240018
Si       9.59897455       3.83958982      13.35750000  F        5       0.00248547      -0.00127600      -0.53240020
Si       1.91979491       1.91979491      14.71500000  F        4      -0.00000000      -0.00000000       0.14393984
Si       5.75938473       1.91979491      14.71500000  F        4      -0.00522045       0.00000000       0.14511357
Si       9.59897455       1.91979491      14.71500000  F        4       0.00522049       0.00000000       0.14511359
Si       1.91979491       5.75938473      14.71500000  F        4      -0.00000000       0.00000002       0.13795823
Si       5.75938473       5.75938473      14.71500000  F        4      -0.00284628       0.00000002       0.10743152
Si       9.59897455       5.75938473      14.71500000  F        4       0.00284632       0.00000002       0.10743154
Si       0.00000000       1.91979491      16.07250000  F        3       0.00928113       0.00000000      -0.15831142
Si       3.83958982       1.91979491      16.07250000  F        3      -0.00928116       0.00000000      -0.15831140
Si       7.67917964       1.91979491      16.07250000  F        3       0.00000000      -0.00000000      -0.14182472
Si       0.00000000       5.75938473      16.07250000  F        3       0.00306144       0.00000002      -0.14137045
Si       3.83958982       5.75938473      16.07250000  F        3      -0.00306148       0.00000002      -0.14137043
Si       7.67917964       5.75938473      16.07250000  F        3       0.00000000       0.00000002      -0.15905687
Si       0.00000000       0.00000000      17.43000000  F        2      -0.01743813       0.00992470       0.52575830
Si       3.83958982       0.00000000      17.43000000  F        2       0.01743809       0.00992470       0.52575828
Si       7.67917964       0.00000000      17.43000000  F        2      -0.00000000      -0.03530226       0.42828575
Si       0.00000000       3.83958982      17.43000000  F        2      -0.01743813      -0.00992472       0.52575831
Si       3.83958982       3.83958982      17.43000000  F        2       0.01743809      -0.00992472       0.52575829
Si       7.67917964       3.83958982      17.43000000  F        2      -0.00000000       0.03530224       0.42828577
Si       1.91979491       0.00000000      18.78750000  F        1      -0.00000000       0.00214300      -0.22601810
Si       5.75938473       0.00000000      18.78750000  F        1      -0.04382502       0.07149624      -0.21531653
Si       9.59897455       0.00000000      18.78750000  F        1       0.04382506       0.07149624      -0.21531654
Si       1.91979491       3.83958982      18.78750000  F        1      -0.00000000      -0.00214300      -0.22601810
Si       5.75938473       3.83958982      18.78750000  F        1      -0.04382502      -0.07149624      -0.21531653
Si       9.59897455       3.83958982      18.78750000  F        1       0.04382506      -0.07149624      -0.21531654
H        7.67917964       1.91979491      21.03750000  T        0       0.00000000      -0.00000000       0.34884964
H        7.67917964       1.91979491      21.78830562  T        0      -0.00000000      -0.00000000      -0.20568908
38
Lattice="11.518769465528859 0.0 0.0 0.0 7.679179643685906 0.0 0.0 0.0 30.7875" Properties=species:S:1:pos:R:3:move_mask:L:1:tags:I:1:forces:R:3 surface=Si100 species=H2 site=hollow orientation=upright height_A=1.9 substrate_atoms=36 calculation_kind="Rigid evaluated approach scan; not NEB" energy=-186.4392585245355 pbc="T T F"
Si       0.00000000       0.00000000      12.00000000  F        6      -0.00079723      -0.00033793       0.25037128
Si       3.83958982       0.00000000      12.00000000  F        6       0.00079719      -0.00033793       0.25037126
Si       7.67917964       0.00000000      12.00000000  F        6       0.00000000       0.00007051       0.25215568
Si       0.00000000       3.83958982      12.00000000  F        6      -0.00079723       0.00033793       0.25037128
Si       3.83958982       3.83958982      12.00000000  F        6       0.00079719       0.00033793       0.25037126
Si       7.67917964       3.83958982      12.00000000  F        6       0.00000000      -0.00007051       0.25215568
Si       1.91979491       0.00000000      13.35750000  F        5       0.00000000      -0.00029733      -0.52407219
Si       5.75938473       0.00000000      13.35750000  F        5      -0.00321708       0.00251686      -0.53347248
Si       9.59897455       0.00000000      13.35750000  F        5       0.00321711       0.00251686      -0.53347249
Si       1.91979491       3.83958982      13.35750000  F        5       0.00000000       0.00029731      -0.52407220
Si       5.75938473       3.83958982      13.35750000  F        5      -0.00321708      -0.00251688      -0.53347249
Si       9.59897455       3.83958982      13.35750000  F        5       0.00321711      -0.00251688      -0.53347251
Si       1.91979491       1.91979491      14.71500000  F        4      -0.00000000      -0.00000000       0.14560223
Si       5.75938473       1.91979491      14.71500000  F        4      -0.00568317       0.00000000       0.15530820
Si       9.59897455       1.91979491      14.71500000  F        4       0.00568321       0.00000000       0.15530822
Si       1.91979491       5.75938473      14.71500000  F        4      -0.00000000       0.00000002       0.13598695
Si       5.75938473       5.75938473      14.71500000  F        4      -0.00374142       0.00000002       0.10989431
Si       9.59897455       5.75938473      14.71500000  F        4       0.00374146       0.00000002       0.10989433
Si       0.00000000       1.91979491      16.07250000  F        3       0.00560599       0.00000000      -0.16348486
Si       3.83958982       1.91979491      16.07250000  F        3      -0.00560603       0.00000000      -0.16348484
Si       7.67917964       1.91979491      16.07250000  F        3       0.00000000      -0.00000000      -0.22440394
Si       0.00000000       5.75938473      16.07250000  F        3       0.00115959       0.00000002      -0.14283087
Si       3.83958982       5.75938473      16.07250000  F        3      -0.00115962       0.00000002      -0.14283085
Si       7.67917964       5.75938473      16.07250000  F        3       0.00000000       0.00000002      -0.15403211
Si       0.00000000       0.00000000      17.43000000  F        2       0.00367343       0.01892805       0.49682863
Si       3.83958982       0.00000000      17.43000000  F        2      -0.00367346       0.01892805       0.49682861
Si       7.67917964       0.00000000      17.43000000  F        2      -0.00000000      -0.06374572       0.40581335
Si       0.00000000       3.83958982      17.43000000  F        2       0.00367343      -0.01892807       0.49682864
Si       3.83958982       3.83958982      17.43000000  F        2      -0.00367346      -0.01892807       0.49682862
Si       7.67917964       3.83958982      17.43000000  F        2      -0.00000000       0.06374570       0.40581337
Si       1.91979491       0.00000000      18.78750000  F        1      -0.00000000       0.00129297      -0.21225534
Si       5.75938473       0.00000000      18.78750000  F        1       0.00643173       0.07263287      -0.17929344
Si       9.59897455       0.00000000      18.78750000  F        1      -0.00643169       0.07263287      -0.17929345
Si       1.91979491       3.83958982      18.78750000  F        1      -0.00000000      -0.00129297      -0.21225534
Si       5.75938473       3.83958982      18.78750000  F        1       0.00643173      -0.07263287      -0.17929344
Si       9.59897455       3.83958982      18.78750000  F        1      -0.00643169      -0.07263287      -0.17929345
H        7.67917964       1.91979491      20.68750000  T        0       0.00000000      -0.00000000       0.32437834
H        7.67917964       1.91979491      21.43830562  T        0      -0.00000000      -0.00000000      -0.12632396
38
Lattice="11.518769465528859 0.0 0.0 0.0 7.679179643685906 0.0 0.0 0.0 30.7875" Properties=species:S:1:pos:R:3:move_mask:L:1:tags:I:1:forces:R:3 surface=Si100 species=H2 site=hollow orientation=upright height_A=1.6 substrate_atoms=36 calculation_kind="Rigid evaluated approach scan; not NEB" energy=-186.4053469219554 pbc="T T F"
Si       0.00000000       0.00000000      12.00000000  F        6      -0.00064666      -0.00039600       0.25000142
Si       3.83958982       0.00000000      12.00000000  F        6       0.00064662      -0.00039600       0.25000140
Si       7.67917964       0.00000000      12.00000000  F        6       0.00000000       0.00026766       0.25168020
Si       0.00000000       3.83958982      12.00000000  F        6      -0.00064666       0.00039600       0.25000142
Si       3.83958982       3.83958982      12.00000000  F        6       0.00064662       0.00039600       0.25000140
Si       7.67917964       3.83958982      12.00000000  F        6       0.00000000      -0.00026766       0.25168020
Si       1.91979491       0.00000000      13.35750000  F        5       0.00000000      -0.00061352      -0.52256732
Si       5.75938473       0.00000000      13.35750000  F        5      -0.00436524       0.00326260      -0.53322797
Si       9.59897455       0.00000000      13.35750000  F        5       0.00436527       0.00326260      -0.53322799
Si       1.91979491       3.83958982      13.35750000  F        5       0.00000000       0.00061350      -0.52256733
Si       5.75938473       3.83958982      13.35750000  F        5      -0.00436524      -0.00326263      -0.53322798
Si       9.59897455       3.83958982      13.35750000  F        5       0.00436527      -0.00326263      -0.53322800
Si       1.91979491       1.91979491      14.71500000  F        4      -0.00000000      -0.00000000       0.14802614
Si       5.75938473       1.91979491      14.71500000  F        4      -0.00482613       0.00000000       0.16679968
Si       9.59897455       1.91979491      14.71500000  F        4       0.00482617       0.00000000       0.16679970
Si       1.91979491       5.75938473      14.71500000  F        4      -0.00000000       0.00000002       0.13542798
Si       5.75938473       5.75938473      14.71500000  F        4      -0.00631450       0.00000002       0.12453662
Si       9.59897455       5.75938473      14.71500000  F        4       0.00631454       0.00000002       0.12453664
Si       0.00000000       1.91979491      16.07250000  F        3       0.00062489       0.00000000      -0.16918085
Si       3.83958982       1.91979491      16.07250000  F        3      -0.00062493       0.00000000      -0.16918083
Si       7.67917964       1.91979491      16.07250000  F        3       0.00000000      -0.00000000      -0.20947077
Si       0.00000000       5.75938473      16.07250000  F        3      -0.00365140       0.00000002      -0.14276528
Si       3.83958982       5.75938473      16.07250000  F        3       0.00365136       0.00000002      -0.14276526
Si       7.67917964       5.75938473      16.07250000  F        3       0.00000000       0.00000002      -0.16327143
Si       0.00000000       0.00000000      17.43000000  F        2       0.02345706       0.01999893       0.46551604
Si       3.83958982       0.00000000      17.43000000  F        2      -0.02345710       0.01999893       0.46551602
Si       7.67917964       0.00000000      17.43000000  F        2      -0.00000000      -0.04155974       0.49149690
Si       0.00000000       3.83958982      17.43000000  F        2       0.02345706      -0.01999895       0.46551605
Si       3.83958982       3.83958982      17.43000000  F        2      -0.02345710      -0.01999896       0.46551604
Si       7.67917964       3.83958982      17.43000000  F        2      -0.00000000       0.04155972       0.49149691
Si       1.91979491       0.00000000      18.78750000  F        1      -0.00000000      -0.00076585      -0.20380274
Si       5.75938473       0.00000000      18.78750000  F        1       0.02777241       0.04714844      -0.16439826
Si       9.59897455       0.00000000      18.78750000  F        1      -0.02777237       0.04714844      -0.16439827
Si       1.91979491       3.83958982      18.78750000  F        1      -0.00000000       0.00076585      -0.20380274
Si       5.75938473       3.83958982      18.78750000  F        1       0.02777241      -0.04714844      -0.16439826
Si       9.59897455       3.83958982      18.78750000  F        1      -0.02777237      -0.04714844      -0.16439827
H        7.67917964       1.91979491      20.38750000  T        0       0.00000000      -0.00000000       0.33505418
H        7.67917964       1.91979491      21.13830562  T        0       0.00000000      -0.00000000      -0.30972538
38
Lattice="11.518769465528859 0.0 0.0 0.0 7.679179643685906 0.0 0.0 0.0 30.7875" Properties=species:S:1:pos:R:3:move_mask:L:1:tags:I:1:forces:R:3 surface=Si100 species=H2 site=hollow orientation=upright height_A=1.3 substrate_atoms=36 calculation_kind="Rigid evaluated approach scan; not NEB" energy=-186.39570879995495 pbc="T T F"
Si       0.00000000       0.00000000      12.00000000  F        6      -0.00063214      -0.00046870       0.24918322
Si       3.83958982       0.00000000      12.00000000  F        6       0.00063210      -0.00046870       0.24918320
Si       7.67917964       0.00000000      12.00000000  F        6       0.00000000      -0.00124231       0.24785736
Si       0.00000000       3.83958982      12.00000000  F        6      -0.00063214       0.00046870       0.24918322
Si       3.83958982       3.83958982      12.00000000  F        6       0.00063210       0.00046870       0.24918320
Si       7.67917964       3.83958982      12.00000000  F        6       0.00000000       0.00124231       0.24785736
Si       1.91979491       0.00000000      13.35750000  F        5       0.00000000      -0.00081538      -0.52091774
Si       5.75938473       0.00000000      13.35750000  F        5      -0.00544893       0.00361791      -0.52863004
Si       9.59897455       0.00000000      13.35750000  F        5       0.00544896       0.00361791      -0.52863006
Si       1.91979491       3.83958982      13.35750000  F        5       0.00000000       0.00081536      -0.52091775
Si       5.75938473       3.83958982      13.35750000  F        5      -0.00544893      -0.00361794      -0.52863005
Si       9.59897455       3.83958982      13.35750000  F        5       0.00544896      -0.00361794      -0.52863007
Si       1.91979491       1.91979491      14.71500000  F        4      -0.00000000      -0.00000000       0.15163897
Si       5.75938473       1.91979491      14.71500000  F        4      -0.00375547       0.00000000       0.17803550
Si       9.59897455       1.91979491      14.71500000  F        4       0.00375551       0.00000000       0.17803552
Si       1.91979491       5.75938473      14.71500000  F        4      -0.00000000       0.00000002       0.13636070
Si       5.75938473       5.75938473      14.71500000  F        4      -0.01005608       0.00000002       0.14401177
Si       9.59897455       5.75938473      14.71500000  F        4       0.01005611       0.00000002       0.14401179
Si       0.00000000       1.91979491      16.07250000  F        3      -0.00630238       0.00000000      -0.17434562
Si       3.83958982       1.91979491      16.07250000  F        3       0.00630234       0.00000000      -0.17434560
Si       7.67917964       1.91979491      16.07250000  F        3       0.00000000      -0.00000000      -0.23406862
Si       0.00000000       5.75938473      16.07250000  F        3      -0.00871333       0.00000002      -0.14306477
Si       3.83958982       5.75938473      16.07250000  F        3       0.00871329       0.00000002      -0.14306475
Si       7.67917964       5.75938473      16.07250000  F        3       0.00000000       0.00000002      -0.17721716
Si       0.00000000       0.00000000      17.43000000  F        2       0.04142695       0.01353678       0.43620892
Si       3.83958982       0.00000000      17.43000000  F        2      -0.04142698       0.01353678       0.43620890
Si       7.67917964       0.00000000      17.43000000  F        2      -0.00000000      -0.03165137       0.52663267
Si       0.00000000       3.83958982      17.43000000  F        2       0.04142695      -0.01353680       0.43620893
Si       3.83958982       3.83958982      17.43000000  F        2      -0.04142698      -0.01353680       0.43620891
Si       7.67917964       3.83958982      17.43000000  F        2      -0.00000000       0.03165135       0.52663269
Si       1.91979491       0.00000000      18.78750000  F        1      -0.00000000      -0.00405716      -0.20095603
Si       5.75938473       0.00000000      18.78750000  F        1       0.00664157      -0.01117894      -0.17880471
Si       9.59897455       0.00000000      18.78750000  F        1      -0.00664153      -0.01117894      -0.17880473
Si       1.91979491       3.83958982      18.78750000  F        1      -0.00000000       0.00405716      -0.20095603
Si       5.75938473       3.83958982      18.78750000  F        1       0.00664157       0.01117894      -0.17880471
Si       9.59897455       3.83958982      18.78750000  F        1      -0.00664153       0.01117894      -0.17880473
H        7.67917964       1.91979491      20.08750000  T        0       0.00000000      -0.00000000       0.44930166
H        7.67917964       1.91979491      20.83830562  T        0       0.00000000      -0.00000000      -0.35235132
