33
Lattice="7.6044 0.0 0.0 -3.802199999999998 6.585603580538386 0.0 0.0 -0.0 28.35945" Properties=species:S:1:pos:R:3:move_mask:L:1:spacegroup_kinds:I:1:tags:I:1:forces:R:3 spacegroup="P 63/m" unit_cell=conventional occupancy="_JSON {\"0\": {\"Si\": 1.0}, \"1\": {\"N\": 1.0}, \"2\": {\"N\": 1.0}}" surface=beta_Si3N4_001 species=HF site=atop_N orientation=upright height_A=3.25 substrate_atoms=28 calculation_kind="Rigid evaluated approach scan; not NEB" energy=-234.36986852157906 pbc="T T F"
Si       5.18010587       1.14956320      12.00000000  F        0        2       1.65517946       1.15960096       1.56093786
Si      -1.37790587       5.43604038      13.45315000  F        0        2      -0.09610713       0.57376266      -1.73604392
Si       4.01879613       3.91132168      12.00000000  F        0        2      -1.84058498       0.85702622       1.55806812
Si      -0.21659613       2.67428190      13.45315000  F        0        2      -0.41721178      -0.34812802      -1.72361854
Si       2.20769800       1.52471870      12.00000000  F        0        2       0.17946725      -2.02189466       1.57077004
Si       1.59450200       5.06088488      13.45315000  F        0        2       0.51818949      -0.19057213      -1.76031597
N       -1.02370433       2.17482973      12.00000000  F        1        2      -0.63872234      -0.63427084       0.20303901
N        4.82590433       4.41077385      13.45315000  F        1        2       0.15168372      -0.01815082       0.41003396
N        2.43059437       4.61163476      12.00000000  F        1        2       0.87118333      -0.23769220       0.18588514
N        1.37160563       1.97396882      13.45315000  F        1        2      -0.06070545       0.13772479       0.44577328
N       -1.40689004       6.38474267      12.00000000  F        1        2      -0.22903881       0.86791735       0.18980768
N        5.20909004       0.20086091      13.45315000  F        1        2      -0.08140324      -0.08988519       0.42683325
N        3.80216198       2.19517924      12.00000000  F        2        2       0.00047576      -0.00092769      -1.78381285
N        0.00003802       4.39042434      13.45315000  F        2        2      -0.00933824       0.01907906       0.56379272
Si       5.20317213       1.18285628      14.99515925  T        0        1      -0.00009256       0.00001229      -0.00007219
Si      -1.48072447       5.22143921      16.23000700  T        0        1      -0.00045722      -0.00022172      -0.00046293
Si       3.98456439       3.91508121      14.99280262  T        0        1      -0.00010732      -0.00006772       0.00014249
Si       0.02712586       2.70827059      16.23505148  T        0        1       0.00008671      -0.00000218       0.00049894
Si       2.22271285       1.49824665      14.99813072  T        0        1      -0.00014229       0.00007090       0.00016708
Si       1.46373485       5.26314042      16.22677552  T        0        1       0.00010503      -0.00069151      -0.00035511
N       -1.03822910       2.29346614      14.96424763  T        1        1       0.00001853      -0.00025319       0.00029169
N        4.70022673       4.45135037      16.41527521  T        1        1      -0.00047184      -0.00018403       0.00033953
N        2.34396259       4.54178033      14.95679189  T        1        1       0.00016047       0.00005706      -0.00015416
N        1.41055883       1.86700706      16.42776167  T        1        1       0.00022853      -0.00004606       0.00034402
N       -1.30893100       6.34861039      14.95931186  T        1        1      -0.00087537       0.00010480      -0.00027422
N        5.30798476       0.29451602      16.41824938  T        1        1      -0.00144631      -0.00049836      -0.00040418
N        3.80355279       2.19667064      14.85373198  T        2        1      -0.00005421      -0.00003798      -0.00010548
N        0.00553025       4.40653094      16.64422628  T        2        1      -0.00055803       0.00012205      -0.00151772
F       -0.44268035       3.56434552      19.40420250  T        0        0       0.01127029      -0.03665753      -0.01855914
H        0.23172057       4.06580917      19.89479816  T        0        0       0.00527891      -0.02400488      -0.01440746
O        1.20975549       4.72125148      21.03249183  T        0        0       0.19285574       0.06014314      -0.18878076
H        0.73858898       5.03497578      21.81997600  T        0        0      -0.08316342       0.04168651       0.10737331
H        1.87357356       5.41091451      20.84310434  T        0        0      -0.12570269      -0.11312107       0.00478651
