41
Lattice="9.8418 0.0 0.0 -2.460449999999999 4.261624409482844 0.0 0.0 -0.0 34.16586254" Properties=species:S:1:pos:R:3:move_mask:L:1:spacegroup_kinds:I:1:tags:I:1 spacegroup="P 32 2 1" unit_cell=conventional surface=alpha_quartz_001 species=SiCl4 site=atop_O orientation=upright height_A=6.5 substrate_atoms=36 calculation_kind="Rigid evaluated approach scan; not NEB" energy=-282.9940019311413 pbc="T T F"
Si       2.31725181       0.00000000      12.00000000  F        0        2
Si      -1.15862590       2.00679893      15.60606667  F        0        2
Si       1.30182410       2.25482548      13.80303333  F        0        2
O        1.38326499       1.13103512      12.65233746  F        1        2
O        0.28787265       1.76346018      14.95372921  F        1        2
O        3.24976236       0.63242506      16.25840413  F        1        2
O        0.78931236       3.62919935      13.15069587  F        1        2
O        2.74832265       2.49816423      14.45537079  F        1        2
O       -1.07718501       3.13058929      16.75676254  F        1        2
Si       2.31725181       0.00000000      17.40910000  F        0        1
Si      -1.15862590       2.00679893      21.01516667  F        0        1
Si       1.30182410       2.25482548      19.21213333  F        0        1
O        1.38326499       1.13103512      18.06143746  F        1        1
O        0.28787265       1.76346018      20.36282921  F        1        1
O        3.24976236       0.63242506      21.66750413  F        1        1
O        0.78931236       3.62919935      18.55979587  F        1        1
O        2.74832265       2.49816423      19.86447079  F        1        1
O       -1.07718501       3.13058929      22.16586254  F        1        1
Si       7.23815181       0.00000000      12.00000000  F        0        2
Si       3.76227409       2.00679893      15.60606667  F        0        2
Si       6.22272410       2.25482548      13.80303333  F        0        2
O        6.30416499       1.13103512      12.65233746  F        1        2
O        5.20877265       1.76346018      14.95372921  F        1        2
O        8.17066236       0.63242506      16.25840413  F        1        2
O        5.71021236       3.62919935      13.15069587  F        1        2
O        7.66922265       2.49816423      14.45537079  F        1        2
O        3.84371499       3.13058929      16.75676254  F        1        2
Si       7.23815181       0.00000000      17.40910000  F        0        1
Si       3.76227409       2.00679893      21.01516667  F        0        1
Si       6.22272410       2.25482548      19.21213333  F        0        1
O        6.30416499       1.13103512      18.06143746  F        1        1
O        5.20877265       1.76346018      20.36282921  F        1        1
O        8.17066236       0.63242506      21.66750413  F        1        1
O        5.71021236       3.62919935      18.55979587  F        1        1
O        7.66922265       2.49816423      19.86447079  F        1        1
O        3.84371499       3.13058929      22.16586254  F        1        1
Si       3.24976236       0.63242506      30.70027558  T        0        0
Cl       3.24976236       0.63242506      28.66586254  T        0        0
Cl       5.16782537       0.63242506      31.37841326  T        0        0
Cl       2.29073086       2.29351635      31.37841326  T        0        0
Cl       2.29073086      -1.02866623      31.37841326  T        0        0
41
Lattice="9.8418 0.0 0.0 -2.460449999999999 4.261624409482844 0.0 0.0 -0.0 34.16586254" Properties=species:S:1:pos:R:3:move_mask:L:1:spacegroup_kinds:I:1:tags:I:1 spacegroup="P 32 2 1" unit_cell=conventional surface=alpha_quartz_001 species=SiCl4 site=atop_O orientation=upright height_A=5.0 substrate_atoms=36 calculation_kind="Rigid evaluated approach scan; not NEB" energy=-282.9940019311413 pbc="T T F"
Si       2.31725181       0.00000000      12.00000000  F        0        2
Si      -1.15862590       2.00679893      15.60606667  F        0        2
Si       1.30182410       2.25482548      13.80303333  F        0        2
O        1.38326499       1.13103512      12.65233746  F        1        2
O        0.28787265       1.76346018      14.95372921  F        1        2
O        3.24976236       0.63242506      16.25840413  F        1        2
O        0.78931236       3.62919935      13.15069587  F        1        2
O        2.74832265       2.49816423      14.45537079  F        1        2
O       -1.07718501       3.13058929      16.75676254  F        1        2
Si       2.31725181       0.00000000      17.40910000  F        0        1
Si      -1.15862590       2.00679893      21.01516667  F        0        1
Si       1.30182410       2.25482548      19.21213333  F        0        1
O        1.38326499       1.13103512      18.06143746  F        1        1
O        0.28787265       1.76346018      20.36282921  F        1        1
O        3.24976236       0.63242506      21.66750413  F        1        1
O        0.78931236       3.62919935      18.55979587  F        1        1
O        2.74832265       2.49816423      19.86447079  F        1        1
O       -1.07718501       3.13058929      22.16586254  F        1        1
Si       7.23815181       0.00000000      12.00000000  F        0        2
Si       3.76227409       2.00679893      15.60606667  F        0        2
Si       6.22272410       2.25482548      13.80303333  F        0        2
O        6.30416499       1.13103512      12.65233746  F        1        2
O        5.20877265       1.76346018      14.95372921  F        1        2
O        8.17066236       0.63242506      16.25840413  F        1        2
O        5.71021236       3.62919935      13.15069587  F        1        2
O        7.66922265       2.49816423      14.45537079  F        1        2
O        3.84371499       3.13058929      16.75676254  F        1        2
Si       7.23815181       0.00000000      17.40910000  F        0        1
Si       3.76227409       2.00679893      21.01516667  F        0        1
Si       6.22272410       2.25482548      19.21213333  F        0        1
O        6.30416499       1.13103512      18.06143746  F        1        1
O        5.20877265       1.76346018      20.36282921  F        1        1
O        8.17066236       0.63242506      21.66750413  F        1        1
O        5.71021236       3.62919935      18.55979587  F        1        1
O        7.66922265       2.49816423      19.86447079  F        1        1
O        3.84371499       3.13058929      22.16586254  F        1        1
Si       3.24976236       0.63242506      29.20027558  T        0        0
Cl       3.24976236       0.63242506      27.16586254  T        0        0
Cl       5.16782537       0.63242506      29.87841326  T        0        0
Cl       2.29073086       2.29351635      29.87841326  T        0        0
Cl       2.29073086      -1.02866623      29.87841326  T        0        0
41
Lattice="9.8418 0.0 0.0 -2.460449999999999 4.261624409482844 0.0 0.0 -0.0 34.16586254" Properties=species:S:1:pos:R:3:move_mask:L:1:spacegroup_kinds:I:1:tags:I:1 spacegroup="P 32 2 1" unit_cell=conventional surface=alpha_quartz_001 species=SiCl4 site=atop_O orientation=upright height_A=4.0 substrate_atoms=36 calculation_kind="Rigid evaluated approach scan; not NEB" energy=-283.0142677153951 pbc="T T F"
Si       2.31725181       0.00000000      12.00000000  F        0        2
Si      -1.15862590       2.00679893      15.60606667  F        0        2
Si       1.30182410       2.25482548      13.80303333  F        0        2
O        1.38326499       1.13103512      12.65233746  F        1        2
O        0.28787265       1.76346018      14.95372921  F        1        2
O        3.24976236       0.63242506      16.25840413  F        1        2
O        0.78931236       3.62919935      13.15069587  F        1        2
O        2.74832265       2.49816423      14.45537079  F        1        2
O       -1.07718501       3.13058929      16.75676254  F        1        2
Si       2.31725181       0.00000000      17.40910000  F        0        1
Si      -1.15862590       2.00679893      21.01516667  F        0        1
Si       1.30182410       2.25482548      19.21213333  F        0        1
O        1.38326499       1.13103512      18.06143746  F        1        1
O        0.28787265       1.76346018      20.36282921  F        1        1
O        3.24976236       0.63242506      21.66750413  F        1        1
O        0.78931236       3.62919935      18.55979587  F        1        1
O        2.74832265       2.49816423      19.86447079  F        1        1
O       -1.07718501       3.13058929      22.16586254  F        1        1
Si       7.23815181       0.00000000      12.00000000  F        0        2
Si       3.76227409       2.00679893      15.60606667  F        0        2
Si       6.22272410       2.25482548      13.80303333  F        0        2
O        6.30416499       1.13103512      12.65233746  F        1        2
O        5.20877265       1.76346018      14.95372921  F        1        2
O        8.17066236       0.63242506      16.25840413  F        1        2
O        5.71021236       3.62919935      13.15069587  F        1        2
O        7.66922265       2.49816423      14.45537079  F        1        2
O        3.84371499       3.13058929      16.75676254  F        1        2
Si       7.23815181       0.00000000      17.40910000  F        0        1
Si       3.76227409       2.00679893      21.01516667  F        0        1
Si       6.22272410       2.25482548      19.21213333  F        0        1
O        6.30416499       1.13103512      18.06143746  F        1        1
O        5.20877265       1.76346018      20.36282921  F        1        1
O        8.17066236       0.63242506      21.66750413  F        1        1
O        5.71021236       3.62919935      18.55979587  F        1        1
O        7.66922265       2.49816423      19.86447079  F        1        1
O        3.84371499       3.13058929      22.16586254  F        1        1
Si       3.24976236       0.63242506      28.20027558  T        0        0
Cl       3.24976236       0.63242506      26.16586254  T        0        0
Cl       5.16782537       0.63242506      28.87841326  T        0        0
Cl       2.29073086       2.29351635      28.87841326  T        0        0
Cl       2.29073086      -1.02866623      28.87841326  T        0        0
41
Lattice="9.8418 0.0 0.0 -2.460449999999999 4.261624409482844 0.0 0.0 -0.0 34.16586254" Properties=species:S:1:pos:R:3:move_mask:L:1:spacegroup_kinds:I:1:tags:I:1 spacegroup="P 32 2 1" unit_cell=conventional surface=alpha_quartz_001 species=SiCl4 site=atop_O orientation=upright height_A=3.25 substrate_atoms=36 calculation_kind="Rigid evaluated approach scan; not NEB" energy=-283.1065582306452 pbc="T T F"
Si       2.31725181       0.00000000      12.00000000  F        0        2
Si      -1.15862590       2.00679893      15.60606667  F        0        2
Si       1.30182410       2.25482548      13.80303333  F        0        2
O        1.38326499       1.13103512      12.65233746  F        1        2
O        0.28787265       1.76346018      14.95372921  F        1        2
O        3.24976236       0.63242506      16.25840413  F        1        2
O        0.78931236       3.62919935      13.15069587  F        1        2
O        2.74832265       2.49816423      14.45537079  F        1        2
O       -1.07718501       3.13058929      16.75676254  F        1        2
Si       2.31725181       0.00000000      17.40910000  F        0        1
Si      -1.15862590       2.00679893      21.01516667  F        0        1
Si       1.30182410       2.25482548      19.21213333  F        0        1
O        1.38326499       1.13103512      18.06143746  F        1        1
O        0.28787265       1.76346018      20.36282921  F        1        1
O        3.24976236       0.63242506      21.66750413  F        1        1
O        0.78931236       3.62919935      18.55979587  F        1        1
O        2.74832265       2.49816423      19.86447079  F        1        1
O       -1.07718501       3.13058929      22.16586254  F        1        1
Si       7.23815181       0.00000000      12.00000000  F        0        2
Si       3.76227409       2.00679893      15.60606667  F        0        2
Si       6.22272410       2.25482548      13.80303333  F        0        2
O        6.30416499       1.13103512      12.65233746  F        1        2
O        5.20877265       1.76346018      14.95372921  F        1        2
O        8.17066236       0.63242506      16.25840413  F        1        2
O        5.71021236       3.62919935      13.15069587  F        1        2
O        7.66922265       2.49816423      14.45537079  F        1        2
O        3.84371499       3.13058929      16.75676254  F        1        2
Si       7.23815181       0.00000000      17.40910000  F        0        1
Si       3.76227409       2.00679893      21.01516667  F        0        1
Si       6.22272410       2.25482548      19.21213333  F        0        1
O        6.30416499       1.13103512      18.06143746  F        1        1
O        5.20877265       1.76346018      20.36282921  F        1        1
O        8.17066236       0.63242506      21.66750413  F        1        1
O        5.71021236       3.62919935      18.55979587  F        1        1
O        7.66922265       2.49816423      19.86447079  F        1        1
O        3.84371499       3.13058929      22.16586254  F        1        1
Si       3.24976236       0.63242506      27.45027558  T        0        0
Cl       3.24976236       0.63242506      25.41586254  T        0        0
Cl       5.16782537       0.63242506      28.12841326  T        0        0
Cl       2.29073086       2.29351635      28.12841326  T        0        0
Cl       2.29073086      -1.02866623      28.12841326  T        0        0
41
Lattice="9.8418 0.0 0.0 -2.460449999999999 4.261624409482844 0.0 0.0 -0.0 34.16586254" Properties=species:S:1:pos:R:3:move_mask:L:1:spacegroup_kinds:I:1:tags:I:1 spacegroup="P 32 2 1" unit_cell=conventional surface=alpha_quartz_001 species=SiCl4 site=atop_O orientation=upright height_A=2.75 substrate_atoms=36 calculation_kind="Rigid evaluated approach scan; not NEB" energy=-283.17662181531796 pbc="T T F"
Si       2.31725181       0.00000000      12.00000000  F        0        2
Si      -1.15862590       2.00679893      15.60606667  F        0        2
Si       1.30182410       2.25482548      13.80303333  F        0        2
O        1.38326499       1.13103512      12.65233746  F        1        2
O        0.28787265       1.76346018      14.95372921  F        1        2
O        3.24976236       0.63242506      16.25840413  F        1        2
O        0.78931236       3.62919935      13.15069587  F        1        2
O        2.74832265       2.49816423      14.45537079  F        1        2
O       -1.07718501       3.13058929      16.75676254  F        1        2
Si       2.31725181       0.00000000      17.40910000  F        0        1
Si      -1.15862590       2.00679893      21.01516667  F        0        1
Si       1.30182410       2.25482548      19.21213333  F        0        1
O        1.38326499       1.13103512      18.06143746  F        1        1
O        0.28787265       1.76346018      20.36282921  F        1        1
O        3.24976236       0.63242506      21.66750413  F        1        1
O        0.78931236       3.62919935      18.55979587  F        1        1
O        2.74832265       2.49816423      19.86447079  F        1        1
O       -1.07718501       3.13058929      22.16586254  F        1        1
Si       7.23815181       0.00000000      12.00000000  F        0        2
Si       3.76227409       2.00679893      15.60606667  F        0        2
Si       6.22272410       2.25482548      13.80303333  F        0        2
O        6.30416499       1.13103512      12.65233746  F        1        2
O        5.20877265       1.76346018      14.95372921  F        1        2
O        8.17066236       0.63242506      16.25840413  F        1        2
O        5.71021236       3.62919935      13.15069587  F        1        2
O        7.66922265       2.49816423      14.45537079  F        1        2
O        3.84371499       3.13058929      16.75676254  F        1        2
Si       7.23815181       0.00000000      17.40910000  F        0        1
Si       3.76227409       2.00679893      21.01516667  F        0        1
Si       6.22272410       2.25482548      19.21213333  F        0        1
O        6.30416499       1.13103512      18.06143746  F        1        1
O        5.20877265       1.76346018      20.36282921  F        1        1
O        8.17066236       0.63242506      21.66750413  F        1        1
O        5.71021236       3.62919935      18.55979587  F        1        1
O        7.66922265       2.49816423      19.86447079  F        1        1
O        3.84371499       3.13058929      22.16586254  F        1        1
Si       3.24976236       0.63242506      26.95027558  T        0        0
Cl       3.24976236       0.63242506      24.91586254  T        0        0
Cl       5.16782537       0.63242506      27.62841326  T        0        0
Cl       2.29073086       2.29351635      27.62841326  T        0        0
Cl       2.29073086      -1.02866623      27.62841326  T        0        0
41
Lattice="9.8418 0.0 0.0 -2.460449999999999 4.261624409482844 0.0 0.0 -0.0 34.16586254" Properties=species:S:1:pos:R:3:move_mask:L:1:spacegroup_kinds:I:1:tags:I:1 spacegroup="P 32 2 1" unit_cell=conventional surface=alpha_quartz_001 species=SiCl4 site=atop_O orientation=upright height_A=2.25 substrate_atoms=36 calculation_kind="Rigid evaluated approach scan; not NEB" energy=-283.2197273983095 pbc="T T F"
Si       2.31725181       0.00000000      12.00000000  F        0        2
Si      -1.15862590       2.00679893      15.60606667  F        0        2
Si       1.30182410       2.25482548      13.80303333  F        0        2
O        1.38326499       1.13103512      12.65233746  F        1        2
O        0.28787265       1.76346018      14.95372921  F        1        2
O        3.24976236       0.63242506      16.25840413  F        1        2
O        0.78931236       3.62919935      13.15069587  F        1        2
O        2.74832265       2.49816423      14.45537079  F        1        2
O       -1.07718501       3.13058929      16.75676254  F        1        2
Si       2.31725181       0.00000000      17.40910000  F        0        1
Si      -1.15862590       2.00679893      21.01516667  F        0        1
Si       1.30182410       2.25482548      19.21213333  F        0        1
O        1.38326499       1.13103512      18.06143746  F        1        1
O        0.28787265       1.76346018      20.36282921  F        1        1
O        3.24976236       0.63242506      21.66750413  F        1        1
O        0.78931236       3.62919935      18.55979587  F        1        1
O        2.74832265       2.49816423      19.86447079  F        1        1
O       -1.07718501       3.13058929      22.16586254  F        1        1
Si       7.23815181       0.00000000      12.00000000  F        0        2
Si       3.76227409       2.00679893      15.60606667  F        0        2
Si       6.22272410       2.25482548      13.80303333  F        0        2
O        6.30416499       1.13103512      12.65233746  F        1        2
O        5.20877265       1.76346018      14.95372921  F        1        2
O        8.17066236       0.63242506      16.25840413  F        1        2
O        5.71021236       3.62919935      13.15069587  F        1        2
O        7.66922265       2.49816423      14.45537079  F        1        2
O        3.84371499       3.13058929      16.75676254  F        1        2
Si       7.23815181       0.00000000      17.40910000  F        0        1
Si       3.76227409       2.00679893      21.01516667  F        0        1
Si       6.22272410       2.25482548      19.21213333  F        0        1
O        6.30416499       1.13103512      18.06143746  F        1        1
O        5.20877265       1.76346018      20.36282921  F        1        1
O        8.17066236       0.63242506      21.66750413  F        1        1
O        5.71021236       3.62919935      18.55979587  F        1        1
O        7.66922265       2.49816423      19.86447079  F        1        1
O        3.84371499       3.13058929      22.16586254  F        1        1
Si       3.24976236       0.63242506      26.45027558  T        0        0
Cl       3.24976236       0.63242506      24.41586254  T        0        0
Cl       5.16782537       0.63242506      27.12841326  T        0        0
Cl       2.29073086       2.29351635      27.12841326  T        0        0
Cl       2.29073086      -1.02866623      27.12841326  T        0        0
41
Lattice="9.8418 0.0 0.0 -2.460449999999999 4.261624409482844 0.0 0.0 -0.0 34.16586254" Properties=species:S:1:pos:R:3:move_mask:L:1:spacegroup_kinds:I:1:tags:I:1 spacegroup="P 32 2 1" unit_cell=conventional surface=alpha_quartz_001 species=SiCl4 site=atop_O orientation=upright height_A=1.9 substrate_atoms=36 calculation_kind="Rigid evaluated approach scan; not NEB" energy=-283.1547734637707 pbc="T T F"
Si       2.31725181       0.00000000      12.00000000  F        0        2
Si      -1.15862590       2.00679893      15.60606667  F        0        2
Si       1.30182410       2.25482548      13.80303333  F        0        2
O        1.38326499       1.13103512      12.65233746  F        1        2
O        0.28787265       1.76346018      14.95372921  F        1        2
O        3.24976236       0.63242506      16.25840413  F        1        2
O        0.78931236       3.62919935      13.15069587  F        1        2
O        2.74832265       2.49816423      14.45537079  F        1        2
O       -1.07718501       3.13058929      16.75676254  F        1        2
Si       2.31725181       0.00000000      17.40910000  F        0        1
Si      -1.15862590       2.00679893      21.01516667  F        0        1
Si       1.30182410       2.25482548      19.21213333  F        0        1
O        1.38326499       1.13103512      18.06143746  F        1        1
O        0.28787265       1.76346018      20.36282921  F        1        1
O        3.24976236       0.63242506      21.66750413  F        1        1
O        0.78931236       3.62919935      18.55979587  F        1        1
O        2.74832265       2.49816423      19.86447079  F        1        1
O       -1.07718501       3.13058929      22.16586254  F        1        1
Si       7.23815181       0.00000000      12.00000000  F        0        2
Si       3.76227409       2.00679893      15.60606667  F        0        2
Si       6.22272410       2.25482548      13.80303333  F        0        2
O        6.30416499       1.13103512      12.65233746  F        1        2
O        5.20877265       1.76346018      14.95372921  F        1        2
O        8.17066236       0.63242506      16.25840413  F        1        2
O        5.71021236       3.62919935      13.15069587  F        1        2
O        7.66922265       2.49816423      14.45537079  F        1        2
O        3.84371499       3.13058929      16.75676254  F        1        2
Si       7.23815181       0.00000000      17.40910000  F        0        1
Si       3.76227409       2.00679893      21.01516667  F        0        1
Si       6.22272410       2.25482548      19.21213333  F        0        1
O        6.30416499       1.13103512      18.06143746  F        1        1
O        5.20877265       1.76346018      20.36282921  F        1        1
O        8.17066236       0.63242506      21.66750413  F        1        1
O        5.71021236       3.62919935      18.55979587  F        1        1
O        7.66922265       2.49816423      19.86447079  F        1        1
O        3.84371499       3.13058929      22.16586254  F        1        1
Si       3.24976236       0.63242506      26.10027558  T        0        0
Cl       3.24976236       0.63242506      24.06586254  T        0        0
Cl       5.16782537       0.63242506      26.77841326  T        0        0
Cl       2.29073086       2.29351635      26.77841326  T        0        0
Cl       2.29073086      -1.02866623      26.77841326  T        0        0
41
Lattice="9.8418 0.0 0.0 -2.460449999999999 4.261624409482844 0.0 0.0 -0.0 34.16586254" Properties=species:S:1:pos:R:3:move_mask:L:1:spacegroup_kinds:I:1:tags:I:1 spacegroup="P 32 2 1" unit_cell=conventional surface=alpha_quartz_001 species=SiCl4 site=atop_O orientation=upright height_A=1.6 substrate_atoms=36 calculation_kind="Rigid evaluated approach scan; not NEB" energy=-282.9065465360299 pbc="T T F"
Si       2.31725181       0.00000000      12.00000000  F        0        2
Si      -1.15862590       2.00679893      15.60606667  F        0        2
Si       1.30182410       2.25482548      13.80303333  F        0        2
O        1.38326499       1.13103512      12.65233746  F        1        2
O        0.28787265       1.76346018      14.95372921  F        1        2
O        3.24976236       0.63242506      16.25840413  F        1        2
O        0.78931236       3.62919935      13.15069587  F        1        2
O        2.74832265       2.49816423      14.45537079  F        1        2
O       -1.07718501       3.13058929      16.75676254  F        1        2
Si       2.31725181       0.00000000      17.40910000  F        0        1
Si      -1.15862590       2.00679893      21.01516667  F        0        1
Si       1.30182410       2.25482548      19.21213333  F        0        1
O        1.38326499       1.13103512      18.06143746  F        1        1
O        0.28787265       1.76346018      20.36282921  F        1        1
O        3.24976236       0.63242506      21.66750413  F        1        1
O        0.78931236       3.62919935      18.55979587  F        1        1
O        2.74832265       2.49816423      19.86447079  F        1        1
O       -1.07718501       3.13058929      22.16586254  F        1        1
Si       7.23815181       0.00000000      12.00000000  F        0        2
Si       3.76227409       2.00679893      15.60606667  F        0        2
Si       6.22272410       2.25482548      13.80303333  F        0        2
O        6.30416499       1.13103512      12.65233746  F        1        2
O        5.20877265       1.76346018      14.95372921  F        1        2
O        8.17066236       0.63242506      16.25840413  F        1        2
O        5.71021236       3.62919935      13.15069587  F        1        2
O        7.66922265       2.49816423      14.45537079  F        1        2
O        3.84371499       3.13058929      16.75676254  F        1        2
Si       7.23815181       0.00000000      17.40910000  F        0        1
Si       3.76227409       2.00679893      21.01516667  F        0        1
Si       6.22272410       2.25482548      19.21213333  F        0        1
O        6.30416499       1.13103512      18.06143746  F        1        1
O        5.20877265       1.76346018      20.36282921  F        1        1
O        8.17066236       0.63242506      21.66750413  F        1        1
O        5.71021236       3.62919935      18.55979587  F        1        1
O        7.66922265       2.49816423      19.86447079  F        1        1
O        3.84371499       3.13058929      22.16586254  F        1        1
Si       3.24976236       0.63242506      25.80027558  T        0        0
Cl       3.24976236       0.63242506      23.76586254  T        0        0
Cl       5.16782537       0.63242506      26.47841326  T        0        0
Cl       2.29073086       2.29351635      26.47841326  T        0        0
Cl       2.29073086      -1.02866623      26.47841326  T        0        0
41
Lattice="9.8418 0.0 0.0 -2.460449999999999 4.261624409482844 0.0 0.0 -0.0 34.16586254" Properties=species:S:1:pos:R:3:move_mask:L:1:spacegroup_kinds:I:1:tags:I:1 spacegroup="P 32 2 1" unit_cell=conventional surface=alpha_quartz_001 species=SiCl4 site=atop_O orientation=upright height_A=1.3 substrate_atoms=36 calculation_kind="Rigid evaluated approach scan; not NEB" energy=-282.5907128717893 pbc="T T F"
Si       2.31725181       0.00000000      12.00000000  F        0        2
Si      -1.15862590       2.00679893      15.60606667  F        0        2
Si       1.30182410       2.25482548      13.80303333  F        0        2
O        1.38326499       1.13103512      12.65233746  F        1        2
O        0.28787265       1.76346018      14.95372921  F        1        2
O        3.24976236       0.63242506      16.25840413  F        1        2
O        0.78931236       3.62919935      13.15069587  F        1        2
O        2.74832265       2.49816423      14.45537079  F        1        2
O       -1.07718501       3.13058929      16.75676254  F        1        2
Si       2.31725181       0.00000000      17.40910000  F        0        1
Si      -1.15862590       2.00679893      21.01516667  F        0        1
Si       1.30182410       2.25482548      19.21213333  F        0        1
O        1.38326499       1.13103512      18.06143746  F        1        1
O        0.28787265       1.76346018      20.36282921  F        1        1
O        3.24976236       0.63242506      21.66750413  F        1        1
O        0.78931236       3.62919935      18.55979587  F        1        1
O        2.74832265       2.49816423      19.86447079  F        1        1
O       -1.07718501       3.13058929      22.16586254  F        1        1
Si       7.23815181       0.00000000      12.00000000  F        0        2
Si       3.76227409       2.00679893      15.60606667  F        0        2
Si       6.22272410       2.25482548      13.80303333  F        0        2
O        6.30416499       1.13103512      12.65233746  F        1        2
O        5.20877265       1.76346018      14.95372921  F        1        2
O        8.17066236       0.63242506      16.25840413  F        1        2
O        5.71021236       3.62919935      13.15069587  F        1        2
O        7.66922265       2.49816423      14.45537079  F        1        2
O        3.84371499       3.13058929      16.75676254  F        1        2
Si       7.23815181       0.00000000      17.40910000  F        0        1
Si       3.76227409       2.00679893      21.01516667  F        0        1
Si       6.22272410       2.25482548      19.21213333  F        0        1
O        6.30416499       1.13103512      18.06143746  F        1        1
O        5.20877265       1.76346018      20.36282921  F        1        1
O        8.17066236       0.63242506      21.66750413  F        1        1
O        5.71021236       3.62919935      18.55979587  F        1        1
O        7.66922265       2.49816423      19.86447079  F        1        1
O        3.84371499       3.13058929      22.16586254  F        1        1
Si       3.24976236       0.63242506      25.50027558  T        0        0
Cl       3.24976236       0.63242506      23.46586254  T        0        0
Cl       5.16782537       0.63242506      26.17841326  T        0        0
Cl       2.29073086       2.29351635      26.17841326  T        0        0
Cl       2.29073086      -1.02866623      26.17841326  T        0        0
