32
Lattice="7.6044 0.0 0.0 -3.802199999999998 6.585603580538386 0.0 0.0 -0.0 28.35945" Properties=species:S:1:pos:R:3:move_mask:L:1:spacegroup_kinds:I:1:tags:I:1:forces:R:3 spacegroup="P 63/m" unit_cell=conventional occupancy="_JSON {\"0\": {\"Si\": 1.0}, \"1\": {\"N\": 1.0}, \"2\": {\"N\": 1.0}}" surface=beta_Si3N4_001 species=HF site=atop_N orientation=upright height_A=3.25 substrate_atoms=28 calculation_kind="Rigid evaluated approach scan; not NEB" energy=-227.79788204885375 pbc="T T F"
Si       5.18010587       1.14956320      12.00000000  F        0        2       1.65504441       1.16108440       1.55658139
Si      -1.37790587       5.43604038      13.45315000  F        0        2      -0.09937882       0.56865823      -1.75422180
Si       4.01879613       3.91132168      12.00000000  F        0        2      -1.84205305       0.85550790       1.55358003
Si      -0.21659613       2.67428190      13.45315000  F        0        2      -0.42434523      -0.35044664      -1.74277915
Si       2.20769800       1.52471870      12.00000000  F        0        2       0.18151681      -2.02326103       1.55872513
Si       1.59450200       5.06088488      13.45315000  F        0        2       0.52474754      -0.19163858      -1.76352033
N       -1.02370433       2.17482973      12.00000000  F        1        2      -0.63467072      -0.63337935       0.20645811
N        4.82590433       4.41077385      13.45315000  F        1        2       0.15632424      -0.01761898       0.41965537
N        2.43059437       4.61163476      12.00000000  F        1        2       0.87037004      -0.23621949       0.18745206
N        1.37160563       1.97396882      13.45315000  F        1        2      -0.06501454       0.14189136       0.44056947
N       -1.40689004       6.38474267      12.00000000  F        1        2      -0.22864134       0.86821403       0.19291425
N        5.20909004       0.20086091      13.45315000  F        1        2      -0.08168631      -0.10012485       0.42392611
N        3.80216198       2.19517924      12.00000000  F        2        2      -0.00060664       0.00010881      -1.78228861
N        0.00003802       4.39042434      13.45315000  F        2        2      -0.00593233       0.01605451       0.56886623
Si       5.20316102       1.18215079      14.99439988  T        0        1      -0.00009568      -0.00002346       0.00002073
Si      -1.48214548       5.22140205      16.22875001  T        0        1      -0.00041197       0.00006104      -0.00030502
Si       3.98542392       3.91386963      14.99279591  T        0        1       0.00003517      -0.00007844       0.00006219
Si       0.02753728       2.70626888      16.23210685  T        0        1       0.00017174      -0.00002083      -0.00013237
Si       2.22326826       1.49742893      14.99534418  T        0        1      -0.00004213       0.00014138       0.00011335
Si       1.46473930       5.26383202      16.22574209  T        0        1       0.00018915      -0.00004423      -0.00022705
N       -1.03886495       2.29266881      14.96280370  T        1        1       0.00006425      -0.00024519       0.00011921
N        4.70185180       4.44648860      16.41723897  T        1        1      -0.00011464      -0.00022054       0.00029352
N        2.34545506       4.54159521      14.95673762  T        1        1       0.00021336       0.00011241      -0.00012075
N        1.40963503       1.86229375      16.42431485  T        1        1       0.00027986       0.00030040       0.00051094
N       -1.31063256       6.34809534      14.95848290  T        1        1      -0.00072114       0.00015053      -0.00010869
N        5.30854024       0.29516367      16.41723708  T        1        1      -0.00074156      -0.00018961      -0.00008592
N        3.80366661       2.19582252      14.85251458  T        2        1      -0.00004180      -0.00000295      -0.00000196
N        0.00483245       4.40592732      16.63586278  T        2        1      -0.00026009       0.00019696      -0.00139443
F       -0.37942272       3.54371190      19.38374352  T        0        0       0.01130795      -0.02746236      -0.01121419
H        0.05166898       4.14611028      19.99311924  T        0        0      -0.00027548      -0.01618081      -0.01699487
F        0.75076611       5.01326672      21.29163431  T        0        0      -0.01454661       0.00169663      -0.02430397
H        1.67974094       5.09677608      21.09942335  T        0        0      -0.00068444      -0.01702124      -0.01214898
