32
Lattice="7.6044 0.0 0.0 -3.802199999999998 6.585603580538386 0.0 0.0 -0.0 28.35945" Properties=species:S:1:pos:R:3:move_mask:L:1:spacegroup_kinds:I:1:tags:I:1:forces:R:3 surface=beta_Si3N4_001 coadsorbate=HF start=2 calculation_kind="Local coadsorbate relaxation; not a reaction path" host_atoms=28 energy=-234.3653933490247 pbc="T T F"
Si       5.18010587       1.14956320      12.00000000  F        0        2       1.67589959       1.26942658       1.24047079
Si      -1.37790587       5.43604038      13.45315000  F        0        2      -0.02846793       0.57917676      -2.14342256
Si       4.01879613       3.91132168      12.00000000  F        0        2      -1.86073352       0.88532686       1.45464717
Si      -0.21659613       2.67428190      13.45315000  F        0        2      -0.48894820      -0.22093478      -1.49346214
Si       2.20769800       1.52471870      12.00000000  F        0        2       0.26898626      -2.08961729       1.14185961
Si       1.59450200       5.06088488      13.45315000  F        0        2       0.48410385      -0.37050671      -1.37149258
N       -1.02370433       2.17482973      12.00000000  F        1        2      -0.61564376      -0.65850225       0.34804314
N        4.82590433       4.41077385      13.45315000  F        1        2       0.27895002       0.01560197       0.33890575
N        2.43059437       4.61163476      12.00000000  F        1        2       0.82661413      -0.20444549       0.29125928
N        1.37160563       1.97396882      13.45315000  F        1        2      -0.03317392       0.19202307       0.53219194
N       -1.40689004       6.38474267      12.00000000  F        1        2      -0.24426772       0.93952135       0.24785129
N        5.20909004       0.20086091      13.45315000  F        1        2      -0.16303580      -0.17586308       0.56779879
N        3.80216198       2.19517924      12.00000000  F        2        2      -0.00698142      -0.04469712      -1.69089012
N        0.00003802       4.39042434      13.45315000  F        2        2      -0.09409535      -0.05214579       0.54399129
Si       5.21720217       1.17662226      14.92302140  T        0        1      -0.01091019      -0.01050543      -0.00538277
Si      -1.43350134       5.21015644      16.16910166  T        0        1       0.00229990      -0.00100933       0.00158624
Si       3.98394878       3.94269169      14.97073523  T        0        1       0.00115956       0.01876450      -0.00145587
Si      -0.13604912       2.66057666      16.42428935  T        0        1      -0.00340568      -0.00722321       0.00816600
Si       2.23589361       1.51664433      14.90953849  T        0        1       0.00296576      -0.01518212       0.00841760
Si       1.57831184       5.11704783      16.42122857  T        0        1       0.00791037      -0.00589375      -0.00644840
N       -0.95418115       2.16499757      14.97988736  T        1        1      -0.00116633      -0.00242617      -0.00919869
N        4.79507662       4.38673172      16.36328661  T        1        1       0.00662874      -0.00729753       0.00652561
N        2.38068106       4.63141763      14.96823273  T        1        1      -0.01095795      -0.01257949      -0.00576277
N        1.42888682       1.97297557      16.36349382  T        1        1      -0.00752146      -0.00656599      -0.00634385
N       -1.35281889       6.37957079      14.94381813  T        1        1       0.00059418      -0.00117326       0.00998839
N        5.19592955       0.22394690      16.35930211  T        1        1       0.01750053      -0.00666606       0.00075424
N        3.81646105       2.20077589      14.85634094  T        2        1      -0.00579247       0.00952578      -0.00426946
N       -0.00359348       4.39760191      16.57323378  T        2        1      -0.00062191      -0.00550690      -0.00308798
F        2.32655239       4.69927365      17.79205622  T        0        0       0.00485818      -0.00657254      -0.00734342
H        1.47698721       7.31985567      17.23551313  T        0        0      -0.01126309       0.00470469       0.00039594
F        2.93265873       8.72380554      17.78131529  T        0        0      -0.00109726      -0.01480106       0.00055795
H        5.82737110       8.65850623      17.18180937  T        0        0       0.00961287       0.00604379       0.00514956
