38
Lattice="11.518769465528859 0.0 0.0 0.0 7.679179643685906 0.0 0.0 0.0 30.7875" Properties=species:S:1:pos:R:3:move_mask:L:1:tags:I:1:forces:R:3 surface=Si100 species=HF site=atop_Si orientation=upright height_A=6.5 substrate_atoms=36 calculation_kind="Rigid evaluated approach scan; not NEB" energy=-187.83852526514107 pbc="T T F"
Si       0.00000000       0.00000000      12.00000000  F        6      -0.00000004       0.00000000       0.24903484
Si       3.83958982       0.00000000      12.00000000  F        6      -0.00000000       0.00000000       0.24903482
Si       7.67917964       0.00000000      12.00000000  F        6       0.00000000       0.00000000       0.24903482
Si       0.00000000       3.83958982      12.00000000  F        6      -0.00000004      -0.00000000       0.24903484
Si       3.83958982       3.83958982      12.00000000  F        6      -0.00000000      -0.00000000       0.24903482
Si       7.67917964       3.83958982      12.00000000  F        6       0.00000000      -0.00000000       0.24903482
Si       1.91979491       0.00000000      13.35750000  F        5       0.00000000      -0.00000002      -0.52822352
Si       5.75938473       0.00000000      13.35750000  F        5       0.00000000      -0.00000002      -0.52822353
Si       9.59897455       0.00000000      13.35750000  F        5       0.00000003      -0.00000002      -0.52822354
Si       1.91979491       3.83958982      13.35750000  F        5       0.00000000       0.00000000      -0.52822354
Si       5.75938473       3.83958982      13.35750000  F        5       0.00000000       0.00000000      -0.52822354
Si       9.59897455       3.83958982      13.35750000  F        5       0.00000003       0.00000000      -0.52822356
Si       1.91979491       1.91979491      14.71500000  F        4      -0.00000000       0.00000000       0.14537709
Si       5.75938473       1.91979491      14.71500000  F        4       0.00000000       0.00000000       0.14537709
Si       9.59897455       1.91979491      14.71500000  F        4       0.00000004       0.00000000       0.14537711
Si       1.91979491       5.75938473      14.71500000  F        4      -0.00000000       0.00000002       0.14537707
Si       5.75938473       5.75938473      14.71500000  F        4       0.00000000       0.00000002       0.14537707
Si       9.59897455       5.75938473      14.71500000  F        4       0.00000004       0.00000002       0.14537709
Si       0.00000000       1.91979491      16.07250000  F        3      -0.00000004       0.00000000      -0.14537711
Si       3.83958982       1.91979491      16.07250000  F        3      -0.00000000       0.00000000      -0.14537709
Si       7.67917964       1.91979491      16.07250000  F        3       0.00000000       0.00000000      -0.14537709
Si       0.00000000       5.75938473      16.07250000  F        3      -0.00000004       0.00000002      -0.14537709
Si       3.83958982       5.75938473      16.07250000  F        3      -0.00000000       0.00000002      -0.14537707
Si       7.67917964       5.75938473      16.07250000  F        3       0.00000000       0.00000002      -0.14537707
Si       0.00000000       0.00000000      17.43000000  F        2      -0.00000003      -0.00000002       0.52822354
Si       3.83958982       0.00000000      17.43000000  F        2      -0.00000000      -0.00000002       0.52822353
Si       7.67917964       0.00000000      17.43000000  F        2      -0.00000000      -0.00000002       0.52822352
Si       0.00000000       3.83958982      17.43000000  F        2      -0.00000003       0.00000000       0.52822356
Si       3.83958982       3.83958982      17.43000000  F        2      -0.00000000       0.00000000       0.52822354
Si       7.67917964       3.83958982      17.43000000  F        2      -0.00000000       0.00000000       0.52822354
Si       1.91979491       0.00000000      18.78750000  F        1      -0.00000000       0.00000000      -0.24903482
Si       5.75938473       0.00000000      18.78750000  F        1       0.00000000       0.00000000      -0.24903482
Si       9.59897455       0.00000000      18.78750000  F        1       0.00000004       0.00000000      -0.24903484
Si       1.91979491       3.83958982      18.78750000  F        1      -0.00000000      -0.00000000      -0.24903482
Si       5.75938473       3.83958982      18.78750000  F        1       0.00000000      -0.00000000      -0.24903482
Si       9.59897455       3.83958982      18.78750000  F        1       0.00000004      -0.00000000      -0.24903484
F        5.75938473       3.83958982      25.28750000  T        0       0.00000000       0.00000000       0.00058289
H        5.75938473       3.83958982      26.24873254  T        0       0.00000000       0.00000000      -0.00058289
38
Lattice="11.518769465528859 0.0 0.0 0.0 7.679179643685906 0.0 0.0 0.0 30.7875" Properties=species:S:1:pos:R:3:move_mask:L:1:tags:I:1:forces:R:3 surface=Si100 species=HF site=atop_Si orientation=upright height_A=5.0 substrate_atoms=36 calculation_kind="Rigid evaluated approach scan; not NEB" energy=-187.83852526514107 pbc="T T F"
Si       0.00000000       0.00000000      12.00000000  F        6      -0.00000004       0.00000000       0.24903484
Si       3.83958982       0.00000000      12.00000000  F        6      -0.00000000       0.00000000       0.24903482
Si       7.67917964       0.00000000      12.00000000  F        6       0.00000000       0.00000000       0.24903482
Si       0.00000000       3.83958982      12.00000000  F        6      -0.00000004      -0.00000000       0.24903484
Si       3.83958982       3.83958982      12.00000000  F        6      -0.00000000      -0.00000000       0.24903482
Si       7.67917964       3.83958982      12.00000000  F        6       0.00000000      -0.00000000       0.24903482
Si       1.91979491       0.00000000      13.35750000  F        5       0.00000000      -0.00000002      -0.52822352
Si       5.75938473       0.00000000      13.35750000  F        5       0.00000000      -0.00000002      -0.52822353
Si       9.59897455       0.00000000      13.35750000  F        5       0.00000003      -0.00000002      -0.52822354
Si       1.91979491       3.83958982      13.35750000  F        5       0.00000000       0.00000000      -0.52822354
Si       5.75938473       3.83958982      13.35750000  F        5       0.00000000       0.00000000      -0.52822354
Si       9.59897455       3.83958982      13.35750000  F        5       0.00000003       0.00000000      -0.52822356
Si       1.91979491       1.91979491      14.71500000  F        4      -0.00000000       0.00000000       0.14537709
Si       5.75938473       1.91979491      14.71500000  F        4       0.00000000       0.00000000       0.14537709
Si       9.59897455       1.91979491      14.71500000  F        4       0.00000004       0.00000000       0.14537711
Si       1.91979491       5.75938473      14.71500000  F        4      -0.00000000       0.00000002       0.14537707
Si       5.75938473       5.75938473      14.71500000  F        4       0.00000000       0.00000002       0.14537707
Si       9.59897455       5.75938473      14.71500000  F        4       0.00000004       0.00000002       0.14537709
Si       0.00000000       1.91979491      16.07250000  F        3      -0.00000004       0.00000000      -0.14537711
Si       3.83958982       1.91979491      16.07250000  F        3      -0.00000000       0.00000000      -0.14537709
Si       7.67917964       1.91979491      16.07250000  F        3       0.00000000       0.00000000      -0.14537709
Si       0.00000000       5.75938473      16.07250000  F        3      -0.00000004       0.00000002      -0.14537709
Si       3.83958982       5.75938473      16.07250000  F        3      -0.00000000       0.00000002      -0.14537707
Si       7.67917964       5.75938473      16.07250000  F        3       0.00000000       0.00000002      -0.14537707
Si       0.00000000       0.00000000      17.43000000  F        2      -0.00000003      -0.00000002       0.52822354
Si       3.83958982       0.00000000      17.43000000  F        2      -0.00000000      -0.00000002       0.52822353
Si       7.67917964       0.00000000      17.43000000  F        2      -0.00000000      -0.00000002       0.52822352
Si       0.00000000       3.83958982      17.43000000  F        2      -0.00000003       0.00000000       0.52822356
Si       3.83958982       3.83958982      17.43000000  F        2      -0.00000000       0.00000000       0.52822354
Si       7.67917964       3.83958982      17.43000000  F        2      -0.00000000       0.00000000       0.52822354
Si       1.91979491       0.00000000      18.78750000  F        1      -0.00000000       0.00000000      -0.24903482
Si       5.75938473       0.00000000      18.78750000  F        1       0.00000000       0.00000000      -0.24903482
Si       9.59897455       0.00000000      18.78750000  F        1       0.00000004       0.00000000      -0.24903484
Si       1.91979491       3.83958982      18.78750000  F        1      -0.00000000      -0.00000000      -0.24903482
Si       5.75938473       3.83958982      18.78750000  F        1       0.00000000      -0.00000000      -0.24903482
Si       9.59897455       3.83958982      18.78750000  F        1       0.00000004      -0.00000000      -0.24903484
F        5.75938473       3.83958982      23.78750000  T        0       0.00000000       0.00000000       0.00058289
H        5.75938473       3.83958982      24.74873254  T        0       0.00000000       0.00000000      -0.00058289
38
Lattice="11.518769465528859 0.0 0.0 0.0 7.679179643685906 0.0 0.0 0.0 30.7875" Properties=species:S:1:pos:R:3:move_mask:L:1:tags:I:1:forces:R:3 surface=Si100 species=HF site=atop_Si orientation=upright height_A=4.0 substrate_atoms=36 calculation_kind="Rigid evaluated approach scan; not NEB" energy=-187.99430303731887 pbc="T T F"
Si       0.00000000       0.00000000      12.00000000  F        6      -0.00000004       0.00000000       0.24901856
Si       3.83958982       0.00000000      12.00000000  F        6      -0.00019691       0.00000000       0.24940812
Si       7.67917964       0.00000000      12.00000000  F        6       0.00019691       0.00000000       0.24940812
Si       0.00000000       3.83958982      12.00000000  F        6      -0.00000004      -0.00000000       0.24880922
Si       3.83958982       3.83958982      12.00000000  F        6      -0.00035434      -0.00000000       0.24867639
Si       7.67917964       3.83958982      12.00000000  F        6       0.00035434      -0.00000000       0.24867639
Si       1.91979491       0.00000000      13.35750000  F        5       0.00072274      -0.00000002      -0.52723672
Si       5.75938473       0.00000000      13.35750000  F        5       0.00000000      -0.00000002      -0.52792247
Si       9.59897455       0.00000000      13.35750000  F        5      -0.00072270      -0.00000002      -0.52723674
Si       1.91979491       3.83958982      13.35750000  F        5       0.00075345       0.00000000      -0.52620665
Si       5.75938473       3.83958982      13.35750000  F        5       0.00000000       0.00000000      -0.52492871
Si       9.59897455       3.83958982      13.35750000  F        5      -0.00075341       0.00000000      -0.52620668
Si       1.91979491       1.91979491      14.71500000  F        4       0.00271456      -0.00078078       0.14763422
Si       5.75938473       1.91979491      14.71500000  F        4       0.00000000      -0.00030750       0.14875802
Si       9.59897455       1.91979491      14.71500000  F        4      -0.00271452      -0.00078078       0.14763425
Si       1.91979491       5.75938473      14.71500000  F        4       0.00271456       0.00078081       0.14763421
Si       5.75938473       5.75938473      14.71500000  F        4       0.00000000       0.00030752       0.14875800
Si       9.59897455       5.75938473      14.71500000  F        4      -0.00271452       0.00078081       0.14763423
Si       0.00000000       1.91979491      16.07250000  F        3      -0.00000004       0.00111292      -0.14467217
Si       3.83958982       1.91979491      16.07250000  F        3       0.00074941       0.00877172      -0.14282441
Si       7.67917964       1.91979491      16.07250000  F        3      -0.00074941       0.00877172      -0.14282440
Si       0.00000000       5.75938473      16.07250000  F        3      -0.00000004      -0.00111289      -0.14467216
Si       3.83958982       5.75938473      16.07250000  F        3       0.00074941      -0.00877170      -0.14282439
Si       7.67917964       5.75938473      16.07250000  F        3      -0.00074941      -0.00877170      -0.14282439
Si       0.00000000       0.00000000      17.43000000  F        2      -0.00000003      -0.00000002       0.52455773
Si       3.83958982       0.00000000      17.43000000  F        2      -0.00132566      -0.00000002       0.52181311
Si       7.67917964       0.00000000      17.43000000  F        2       0.00132566      -0.00000002       0.52181310
Si       0.00000000       3.83958982      17.43000000  F        2      -0.00000003       0.00000000       0.52956568
Si       3.83958982       3.83958982      17.43000000  F        2       0.01661755       0.00000000       0.53290291
Si       7.67917964       3.83958982      17.43000000  F        2      -0.01661755       0.00000000       0.53290291
Si       1.91979491       0.00000000      18.78750000  F        1       0.00084121       0.00000000      -0.24805936
Si       5.75938473       0.00000000      18.78750000  F        1       0.00000000       0.00000000      -0.24674716
Si       9.59897455       0.00000000      18.78750000  F        1      -0.00084117       0.00000000      -0.24805938
Si       1.91979491       3.83958982      18.78750000  F        1       0.00372980      -0.00000000      -0.24716478
Si       5.75938473       3.83958982      18.78750000  F        1       0.00000000      -0.00000000      -0.11270234
Si       9.59897455       3.83958982      18.78750000  F        1      -0.00372976      -0.00000000      -0.24716480
F        5.75938473       3.83958982      22.78750000  T        0       0.00000000       0.00000000       0.05100170
H        5.75938473       3.83958982      23.74873254  T        0       0.00000000      -0.00000000      -0.22632915
38
Lattice="11.518769465528859 0.0 0.0 0.0 7.679179643685906 0.0 0.0 0.0 30.7875" Properties=species:S:1:pos:R:3:move_mask:L:1:tags:I:1:forces:R:3 surface=Si100 species=HF site=atop_Si orientation=upright height_A=3.25 substrate_atoms=36 calculation_kind="Rigid evaluated approach scan; not NEB" energy=-188.06936441970245 pbc="T T F"
Si       0.00000000       0.00000000      12.00000000  F        6      -0.00000004       0.00000000       0.24922072
Si       3.83958982       0.00000000      12.00000000  F        6      -0.00075884       0.00000000       0.24940118
Si       7.67917964       0.00000000      12.00000000  F        6       0.00075884       0.00000000       0.24940118
Si       0.00000000       3.83958982      12.00000000  F        6      -0.00000004      -0.00000000       0.24891994
Si       3.83958982       3.83958982      12.00000000  F        6      -0.00060451      -0.00000000       0.24895029
Si       7.67917964       3.83958982      12.00000000  F        6       0.00060451      -0.00000000       0.24895029
Si       1.91979491       0.00000000      13.35750000  F        5       0.00094622      -0.00000002      -0.52761020
Si       5.75938473       0.00000000      13.35750000  F        5       0.00000000      -0.00000002      -0.52884748
Si       9.59897455       0.00000000      13.35750000  F        5      -0.00094619      -0.00000002      -0.52761022
Si       1.91979491       3.83958982      13.35750000  F        5       0.00140736       0.00000000      -0.52416901
Si       5.75938473       3.83958982      13.35750000  F        5       0.00000000       0.00000000      -0.52531106
Si       9.59897455       3.83958982      13.35750000  F        5      -0.00140732       0.00000000      -0.52416903
Si       1.91979491       1.91979491      14.71500000  F        4       0.00219469      -0.00222218       0.14503617
Si       5.75938473       1.91979491      14.71500000  F        4       0.00000000       0.00296443       0.15916766
Si       9.59897455       1.91979491      14.71500000  F        4      -0.00219466      -0.00222218       0.14503619
Si       1.91979491       5.75938473      14.71500000  F        4       0.00219469       0.00222220       0.14503615
Si       5.75938473       5.75938473      14.71500000  F        4       0.00000000      -0.00296441       0.15916764
Si       9.59897455       5.75938473      14.71500000  F        4      -0.00219466       0.00222220       0.14503618
Si       0.00000000       1.91979491      16.07250000  F        3      -0.00000004       0.00356183      -0.14372931
Si       3.83958982       1.91979491      16.07250000  F        3      -0.00043626       0.01798483      -0.13864589
Si       7.67917964       1.91979491      16.07250000  F        3       0.00043626       0.01798483      -0.13864589
Si       0.00000000       5.75938473      16.07250000  F        3      -0.00000004      -0.00356181      -0.14372930
Si       3.83958982       5.75938473      16.07250000  F        3      -0.00043626      -0.01798481      -0.13864587
Si       7.67917964       5.75938473      16.07250000  F        3       0.00043626      -0.01798481      -0.13864587
Si       0.00000000       0.00000000      17.43000000  F        2      -0.00000003      -0.00000002       0.52408850
Si       3.83958982       0.00000000      17.43000000  F        2       0.00225647      -0.00000002       0.52253205
Si       7.67917964       0.00000000      17.43000000  F        2      -0.00225647      -0.00000002       0.52253205
Si       0.00000000       3.83958982      17.43000000  F        2      -0.00000003       0.00000000       0.52596497
Si       3.83958982       3.83958982      17.43000000  F        2       0.05549122       0.00000000       0.51820219
Si       7.67917964       3.83958982      17.43000000  F        2      -0.05549122       0.00000000       0.51820218
Si       1.91979491       0.00000000      18.78750000  F        1       0.00250977       0.00000000      -0.24791167
Si       5.75938473       0.00000000      18.78750000  F        1       0.00000000       0.00000000      -0.23599419
Si       9.59897455       0.00000000      18.78750000  F        1      -0.00250973       0.00000000      -0.24791169
Si       1.91979491       3.83958982      18.78750000  F        1       0.00727515      -0.00000000      -0.25538173
Si       5.75938473       3.83958982      18.78750000  F        1       0.00000000      -0.00000000      -0.24907058
Si       9.59897455       3.83958982      18.78750000  F        1      -0.00727511      -0.00000000      -0.25538175
F        5.75938473       3.83958982      22.03750000  T        0       0.00000000       0.00000000       0.36732994
H        5.75938473       3.83958982      22.99873254  T        0       0.00000000      -0.00000000      -0.40076471
38
Lattice="11.518769465528859 0.0 0.0 0.0 7.679179643685906 0.0 0.0 0.0 30.7875" Properties=species:S:1:pos:R:3:move_mask:L:1:tags:I:1:forces:R:3 surface=Si100 species=HF site=atop_Si orientation=upright height_A=2.75 substrate_atoms=36 calculation_kind="Rigid evaluated approach scan; not NEB" energy=-188.05434572855052 pbc="T T F"
Si       0.00000000       0.00000000      12.00000000  F        6      -0.00000004       0.00000000       0.25072895
Si       3.83958982       0.00000000      12.00000000  F        6      -0.00139353       0.00000000       0.25058403
Si       7.67917964       0.00000000      12.00000000  F        6       0.00139354       0.00000000       0.25058403
Si       0.00000000       3.83958982      12.00000000  F        6      -0.00000004      -0.00000000       0.24868930
Si       3.83958982       3.83958982      12.00000000  F        6      -0.00130757      -0.00000000       0.24819462
Si       7.67917964       3.83958982      12.00000000  F        6       0.00130758      -0.00000000       0.24819462
Si       1.91979491       0.00000000      13.35750000  F        5       0.00130605      -0.00000002      -0.52786815
Si       5.75938473       0.00000000      13.35750000  F        5       0.00000000      -0.00000002      -0.53147965
Si       9.59897455       0.00000000      13.35750000  F        5      -0.00130602      -0.00000002      -0.52786817
Si       1.91979491       3.83958982      13.35750000  F        5       0.00004737       0.00000000      -0.52709098
Si       5.75938473       3.83958982      13.35750000  F        5       0.00000000       0.00000000      -0.52363823
Si       9.59897455       3.83958982      13.35750000  F        5      -0.00004733       0.00000000      -0.52709100
Si       1.91979491       1.91979491      14.71500000  F        4       0.00338425      -0.00451990       0.14655793
Si       5.75938473       1.91979491      14.71500000  F        4       0.00000000      -0.01985079       0.12743953
Si       9.59897455       1.91979491      14.71500000  F        4      -0.00338422      -0.00451990       0.14655796
Si       1.91979491       5.75938473      14.71500000  F        4       0.00338425       0.00451992       0.14655792
Si       5.75938473       5.75938473      14.71500000  F        4       0.00000000       0.01985081       0.12743951
Si       9.59897455       5.75938473      14.71500000  F        4      -0.00338422       0.00451992       0.14655794
Si       0.00000000       1.91979491      16.07250000  F        3      -0.00000004       0.00297984      -0.14372929
Si       3.83958982       1.91979491      16.07250000  F        3      -0.00155050       0.03719974      -0.10921573
Si       7.67917964       1.91979491      16.07250000  F        3       0.00155050       0.03719974      -0.10921572
Si       0.00000000       5.75938473      16.07250000  F        3      -0.00000004      -0.00297982      -0.14372927
Si       3.83958982       5.75938473      16.07250000  F        3      -0.00155050      -0.03719972      -0.10921571
Si       7.67917964       5.75938473      16.07250000  F        3       0.00155050      -0.03719972      -0.10921571
Si       0.00000000       0.00000000      17.43000000  F        2      -0.00000003      -0.00000002       0.52013950
Si       3.83958982       0.00000000      17.43000000  F        2       0.02323635      -0.00000002       0.53618466
Si       7.67917964       0.00000000      17.43000000  F        2      -0.02323635      -0.00000002       0.53618465
Si       0.00000000       3.83958982      17.43000000  F        2      -0.00000003       0.00000000       0.53117445
Si       3.83958982       3.83958982      17.43000000  F        2       0.12523565       0.00000000       0.52349499
Si       7.67917964       3.83958982      17.43000000  F        2      -0.12523566       0.00000000       0.52349499
Si       1.91979491       0.00000000      18.78750000  F        1       0.00228546       0.00000000      -0.24745547
Si       5.75938473       0.00000000      18.78750000  F        1       0.00000000       0.00000000      -0.20382592
Si       9.59897455       0.00000000      18.78750000  F        1      -0.00228543       0.00000000      -0.24745548
Si       1.91979491       3.83958982      18.78750000  F        1       0.04382425      -0.00000000      -0.24693359
Si       5.75938473       3.83958982      18.78750000  F        1       0.00000000      -0.00000000      -0.61089772
Si       9.59897455       3.83958982      18.78750000  F        1      -0.04382421      -0.00000000      -0.24693361
F        5.75938473       3.83958982      21.53750000  T        0       0.00000000      -0.00000000       0.87673334
H        5.75938473       3.83958982      22.49873254  T        0       0.00000000       0.00000000      -0.69263350
38
Lattice="11.518769465528859 0.0 0.0 0.0 7.679179643685906 0.0 0.0 0.0 30.7875" Properties=species:S:1:pos:R:3:move_mask:L:1:tags:I:1:forces:R:3 surface=Si100 species=HF site=atop_Si orientation=upright height_A=2.25 substrate_atoms=36 calculation_kind="Rigid evaluated approach scan; not NEB" energy=-187.94910244308642 pbc="T T F"
Si       0.00000000       0.00000000      12.00000000  F        6      -0.00000004       0.00000000       0.25270609
Si       3.83958982       0.00000000      12.00000000  F        6      -0.00101197       0.00000000       0.25131835
Si       7.67917964       0.00000000      12.00000000  F        6       0.00101197       0.00000000       0.25131835
Si       0.00000000       3.83958982      12.00000000  F        6      -0.00000004      -0.00000000       0.24734049
Si       3.83958982       3.83958982      12.00000000  F        6      -0.00127302      -0.00000000       0.24554116
Si       7.67917964       3.83958982      12.00000000  F        6       0.00127302      -0.00000000       0.24554116
Si       1.91979491       0.00000000      13.35750000  F        5       0.00037030      -0.00000002      -0.52639773
Si       5.75938473       0.00000000      13.35750000  F        5       0.00000000      -0.00000002      -0.52989296
Si       9.59897455       0.00000000      13.35750000  F        5      -0.00037027      -0.00000002      -0.52639775
Si       1.91979491       3.83958982      13.35750000  F        5       0.00101378       0.00000000      -0.52778668
Si       5.75938473       3.83958982      13.35750000  F        5       0.00000000       0.00000000      -0.51008193
Si       9.59897455       3.83958982      13.35750000  F        5      -0.00101375       0.00000000      -0.52778670
Si       1.91979491       1.91979491      14.71500000  F        4       0.01371625      -0.00507429       0.15796335
Si       5.75938473       1.91979491      14.71500000  F        4       0.00000000      -0.03286346       0.12753102
Si       9.59897455       1.91979491      14.71500000  F        4      -0.01371622      -0.00507429       0.15796337
Si       1.91979491       5.75938473      14.71500000  F        4       0.01371625       0.00507431       0.15796333
Si       5.75938473       5.75938473      14.71500000  F        4       0.00000000       0.03286348       0.12753101
Si       9.59897455       5.75938473      14.71500000  F        4      -0.01371622       0.00507431       0.15796336
Si       0.00000000       1.91979491      16.07250000  F        3      -0.00000004       0.00912794      -0.14144129
Si       3.83958982       1.91979491      16.07250000  F        3       0.01239299       0.03224263      -0.12812974
Si       7.67917964       1.91979491      16.07250000  F        3      -0.01239299       0.03224263      -0.12812974
Si       0.00000000       5.75938473      16.07250000  F        3      -0.00000004      -0.00912792      -0.14144128
Si       3.83958982       5.75938473      16.07250000  F        3       0.01239299      -0.03224260      -0.12812973
Si       7.67917964       5.75938473      16.07250000  F        3      -0.01239299      -0.03224260      -0.12812972
Si       0.00000000       0.00000000      17.43000000  F        2      -0.00000003      -0.00000002       0.51254133
Si       3.83958982       0.00000000      17.43000000  F        2       0.00874164      -0.00000002       0.49162196
Si       7.67917964       0.00000000      17.43000000  F        2      -0.00874164      -0.00000002       0.49162196
Si       0.00000000       3.83958982      17.43000000  F        2      -0.00000003       0.00000000       0.53290957
Si       3.83958982       3.83958982      17.43000000  F        2       0.10585875       0.00000000       0.49920588
Si       7.67917964       3.83958982      17.43000000  F        2      -0.10585875       0.00000000       0.49920587
Si       1.91979491       0.00000000      18.78750000  F        1       0.00235162       0.00000000      -0.24575108
Si       5.75938473       0.00000000      18.78750000  F        1       0.00000000       0.00000000      -0.15914006
Si       9.59897455       0.00000000      18.78750000  F        1      -0.00235159       0.00000000      -0.24575110
Si       1.91979491       3.83958982      18.78750000  F        1       0.09061182      -0.00000000      -0.18933636
Si       5.75938473       3.83958982      18.78750000  F        1       0.00000000      -0.00000000      -0.71566728
Si       9.59897455       3.83958982      18.78750000  F        1      -0.09061179      -0.00000000      -0.18933638
F        5.75938473       3.83958982      21.03750000  T        0       0.00000000       0.00000000       0.90315854
H        5.75938473       3.83958982      21.99873254  T        0       0.00000000       0.00000000      -0.62221865
38
Lattice="11.518769465528859 0.0 0.0 0.0 7.679179643685906 0.0 0.0 0.0 30.7875" Properties=species:S:1:pos:R:3:move_mask:L:1:tags:I:1:forces:R:3 surface=Si100 species=HF site=atop_Si orientation=upright height_A=1.9 substrate_atoms=36 calculation_kind="Rigid evaluated approach scan; not NEB" energy=-187.6300609715922 pbc="T T F"
Si       0.00000000       0.00000000      12.00000000  F        6      -0.00000004       0.00000000       0.25265127
Si       3.83958982       0.00000000      12.00000000  F        6      -0.00239562       0.00000000       0.25212351
Si       7.67917964       0.00000000      12.00000000  F        6       0.00239562       0.00000000       0.25212351
Si       0.00000000       3.83958982      12.00000000  F        6      -0.00000004      -0.00000000       0.24589818
Si       3.83958982       3.83958982      12.00000000  F        6      -0.00277495      -0.00000000       0.24404412
Si       7.67917964       3.83958982      12.00000000  F        6       0.00277495      -0.00000000       0.24404412
Si       1.91979491       0.00000000      13.35750000  F        5       0.00375116      -0.00000002      -0.52303108
Si       5.75938473       0.00000000      13.35750000  F        5       0.00000000      -0.00000002      -0.52722363
Si       9.59897455       0.00000000      13.35750000  F        5      -0.00375113      -0.00000002      -0.52303110
Si       1.91979491       3.83958982      13.35750000  F        5       0.00536242       0.00000000      -0.52316960
Si       5.75938473       3.83958982      13.35750000  F        5       0.00000000       0.00000000      -0.51290511
Si       9.59897455       3.83958982      13.35750000  F        5      -0.00536239       0.00000000      -0.52316963
Si       1.91979491       1.91979491      14.71500000  F        4       0.01447675      -0.00818110       0.15961976
Si       5.75938473       1.91979491      14.71500000  F        4       0.00000000      -0.00700038       0.19848607
Si       9.59897455       1.91979491      14.71500000  F        4      -0.01447671      -0.00818110       0.15961978
Si       1.91979491       5.75938473      14.71500000  F        4       0.01447675       0.00818112       0.15961975
Si       5.75938473       5.75938473      14.71500000  F        4       0.00000000       0.00700040       0.19848605
Si       9.59897455       5.75938473      14.71500000  F        4      -0.01447671       0.00818112       0.15961977
Si       0.00000000       1.91979491      16.07250000  F        3      -0.00000004       0.01992945      -0.13383751
Si       3.83958982       1.91979491      16.07250000  F        3       0.02893087       0.04534504      -0.14680998
Si       7.67917964       1.91979491      16.07250000  F        3      -0.02893087       0.04534504      -0.14680998
Si       0.00000000       5.75938473      16.07250000  F        3      -0.00000004      -0.01992943      -0.13383750
Si       3.83958982       5.75938473      16.07250000  F        3       0.02893087      -0.04534501      -0.14680997
Si       7.67917964       5.75938473      16.07250000  F        3      -0.02893087      -0.04534501      -0.14680996
Si       0.00000000       0.00000000      17.43000000  F        2      -0.00000003      -0.00000002       0.48858427
Si       3.83958982       0.00000000      17.43000000  F        2      -0.03377268      -0.00000002       0.44454594
Si       7.67917964       0.00000000      17.43000000  F        2       0.03377267      -0.00000002       0.44454593
Si       0.00000000       3.83958982      17.43000000  F        2      -0.00000003       0.00000000       0.52289926
Si       3.83958982       3.83958982      17.43000000  F        2      -0.27527395       0.00000000       0.20870696
Si       7.67917964       3.83958982      17.43000000  F        2       0.27527395       0.00000000       0.20870695
Si       1.91979491       0.00000000      18.78750000  F        1      -0.00633411       0.00000000      -0.22948875
Si       5.75938473       0.00000000      18.78750000  F        1       0.00000000       0.00000000      -0.09365619
Si       9.59897455       0.00000000      18.78750000  F        1       0.00633414       0.00000000      -0.22948877
Si       1.91979491       3.83958982      18.78750000  F        1       0.06803425      -0.00000000      -0.14728603
Si       5.75938473       3.83958982      18.78750000  F        1       0.00000000      -0.00000000      -1.82318860
Si       9.59897455       3.83958982      18.78750000  F        1      -0.06803422      -0.00000000      -0.14728605
F        5.75938473       3.83958982      20.68750000  T        0      -0.00000000       0.00000000       2.79415909
H        5.75938473       3.83958982      21.64873254  T        0       0.00000000       0.00000000      -0.98064487
38
Lattice="11.518769465528859 0.0 0.0 0.0 7.679179643685906 0.0 0.0 0.0 30.7875" Properties=species:S:1:pos:R:3:move_mask:L:1:tags:I:1:forces:R:3 surface=Si100 species=HF site=atop_Si orientation=upright height_A=1.6 substrate_atoms=36 calculation_kind="Rigid evaluated approach scan; not NEB" energy=-186.66371697392472 pbc="T T F"
Si       0.00000000       0.00000000      12.00000000  F        6      -0.00000004       0.00000000       0.25302850
Si       3.83958982       0.00000000      12.00000000  F        6      -0.00258329       0.00000000       0.25354208
Si       7.67917964       0.00000000      12.00000000  F        6       0.00258330       0.00000000       0.25354208
Si       0.00000000       3.83958982      12.00000000  F        6      -0.00000004      -0.00000000       0.24569499
Si       3.83958982       3.83958982      12.00000000  F        6      -0.00245840      -0.00000000       0.24546272
Si       7.67917964       3.83958982      12.00000000  F        6       0.00245840      -0.00000000       0.24546272
Si       1.91979491       0.00000000      13.35750000  F        5       0.00562644      -0.00000002      -0.52087333
Si       5.75938473       0.00000000      13.35750000  F        5       0.00000000      -0.00000002      -0.53085946
Si       9.59897455       0.00000000      13.35750000  F        5      -0.00562640      -0.00000002      -0.52087335
Si       1.91979491       3.83958982      13.35750000  F        5       0.01102213       0.00000000      -0.51305288
Si       5.75938473       3.83958982      13.35750000  F        5       0.00000000       0.00000000      -0.52819239
Si       9.59897455       3.83958982      13.35750000  F        5      -0.01102209       0.00000000      -0.51305290
Si       1.91979491       1.91979491      14.71500000  F        4      -0.00077326      -0.01212807       0.14750612
Si       5.75938473       1.91979491      14.71500000  F        4       0.00000000      -0.00583398       0.19790558
Si       9.59897455       1.91979491      14.71500000  F        4       0.00077330      -0.01212807       0.14750615
Si       1.91979491       5.75938473      14.71500000  F        4      -0.00077326       0.01212809       0.14750611
Si       5.75938473       5.75938473      14.71500000  F        4       0.00000000       0.00583400       0.19790557
Si       9.59897455       5.75938473      14.71500000  F        4       0.00077330       0.01212809       0.14750613
Si       0.00000000       1.91979491      16.07250000  F        3      -0.00000004       0.02804220      -0.12748442
Si       3.83958982       1.91979491      16.07250000  F        3       0.01713529       0.02852316      -0.14370540
Si       7.67917964       1.91979491      16.07250000  F        3      -0.01713529       0.02852316      -0.14370540
Si       0.00000000       5.75938473      16.07250000  F        3      -0.00000004      -0.02804218      -0.12748441
Si       3.83958982       5.75938473      16.07250000  F        3       0.01713529      -0.02852314      -0.14370539
Si       7.67917964       5.75938473      16.07250000  F        3      -0.01713529      -0.02852314      -0.14370539
Si       0.00000000       0.00000000      17.43000000  F        2      -0.00000003      -0.00000002       0.46811850
Si       3.83958982       0.00000000      17.43000000  F        2      -0.08179130      -0.00000002       0.43989206
Si       7.67917964       0.00000000      17.43000000  F        2       0.08179129      -0.00000002       0.43989206
Si       0.00000000       3.83958982      17.43000000  F        2      -0.00000003       0.00000000       0.52943873
Si       3.83958982       3.83958982      17.43000000  F        2      -0.45862686       0.00000000       0.08311667
Si       7.67917964       3.83958982      17.43000000  F        2       0.45862685       0.00000000       0.08311666
Si       1.91979491       0.00000000      18.78750000  F        1      -0.00299604       0.00000000      -0.21831270
Si       5.75938473       0.00000000      18.78750000  F        1       0.00000000      -0.00000000      -0.07235188
Si       9.59897455       0.00000000      18.78750000  F        1       0.00299607       0.00000000      -0.21831272
Si       1.91979491       3.83958982      18.78750000  F        1      -0.03340524      -0.00000000      -0.14804234
Si       5.75938473       3.83958982      18.78750000  F        1       0.00000000      -0.00000000      -5.08882071
Si       9.59897455       3.83958982      18.78750000  F        1       0.03340528      -0.00000000      -0.14804236
F        5.75938473       3.83958982      20.38750000  T        0      -0.00000000       0.00000000       6.53665806
H        5.75938473       3.83958982      21.34873254  T        0       0.00000000       0.00000000      -1.21222410
38
Lattice="11.518769465528859 0.0 0.0 0.0 7.679179643685906 0.0 0.0 0.0 30.7875" Properties=species:S:1:pos:R:3:move_mask:L:1:tags:I:1:forces:R:3 surface=Si100 species=HF site=atop_Si orientation=upright height_A=1.3 substrate_atoms=36 calculation_kind="Rigid evaluated approach scan; not NEB" energy=-182.14020744402538 pbc="T T F"
Si       0.00000000       0.00000000      12.00000000  F        6      -0.00000004       0.00000000       0.25420506
Si       3.83958982       0.00000000      12.00000000  F        6      -0.00140951       0.00000000       0.25611620
Si       7.67917964       0.00000000      12.00000000  F        6       0.00140951       0.00000000       0.25611619
Si       0.00000000       3.83958982      12.00000000  F        6      -0.00000004      -0.00000000       0.24610341
Si       3.83958982       3.83958982      12.00000000  F        6      -0.00151247      -0.00000000       0.24633988
Si       7.67917964       3.83958982      12.00000000  F        6       0.00151247      -0.00000000       0.24633988
Si       1.91979491       0.00000000      13.35750000  F        5       0.00452280      -0.00000002      -0.51801010
Si       5.75938473       0.00000000      13.35750000  F        5       0.00000000      -0.00000002      -0.53647223
Si       9.59897455       0.00000000      13.35750000  F        5      -0.00452277      -0.00000002      -0.51801013
Si       1.91979491       3.83958982      13.35750000  F        5       0.00959008       0.00000000      -0.51511789
Si       5.75938473       3.83958982      13.35750000  F        5       0.00000000       0.00000000      -0.52839814
Si       9.59897455       3.83958982      13.35750000  F        5      -0.00959004       0.00000000      -0.51511791
Si       1.91979491       1.91979491      14.71500000  F        4      -0.00306285      -0.01271173       0.14926144
Si       5.75938473       1.91979491      14.71500000  F        4       0.00000000      -0.03933925       0.16363834
Si       9.59897455       1.91979491      14.71500000  F        4       0.00306289      -0.01271173       0.14926146
Si       1.91979491       5.75938473      14.71500000  F        4      -0.00306285       0.01271176       0.14926142
Si       5.75938473       5.75938473      14.71500000  F        4       0.00000000       0.03933927       0.16363832
Si       9.59897455       5.75938473      14.71500000  F        4       0.00306289       0.01271176       0.14926145
Si       0.00000000       1.91979491      16.07250000  F        3      -0.00000004       0.02271712      -0.13069197
Si       3.83958982       1.91979491      16.07250000  F        3      -0.04018856      -0.12579450      -0.20708158
Si       7.67917964       1.91979491      16.07250000  F        3       0.04018856      -0.12579450      -0.20708158
Si       0.00000000       5.75938473      16.07250000  F        3      -0.00000004      -0.02271710      -0.13069196
Si       3.83958982       5.75938473      16.07250000  F        3      -0.04018856       0.12579452      -0.20708157
Si       7.67917964       5.75938473      16.07250000  F        3       0.04018856       0.12579452      -0.20708156
Si       0.00000000       0.00000000      17.43000000  F        2      -0.00000003      -0.00000002       0.45302525
Si       3.83958982       0.00000000      17.43000000  F        2      -0.10516580      -0.00000002       0.44644850
Si       7.67917964       0.00000000      17.43000000  F        2       0.10516580      -0.00000002       0.44644850
Si       0.00000000       3.83958982      17.43000000  F        2      -0.00000003       0.00000000       0.52883595
Si       3.83958982       3.83958982      17.43000000  F        2       0.00922775       0.00000000       0.27488327
Si       7.67917964       3.83958982      17.43000000  F        2      -0.00922776       0.00000000       0.27488327
Si       1.91979491       0.00000000      18.78750000  F        1      -0.00197717       0.00000000      -0.20237792
Si       5.75938473       0.00000000      18.78750000  F        1       0.00000000      -0.00000000      -0.03998150
Si       9.59897455       0.00000000      18.78750000  F        1       0.00197720       0.00000000      -0.20237794
Si       1.91979491       3.83958982      18.78750000  F        1      -0.26642435      -0.00000000      -0.10013081
Si       5.75938473       3.83958982      18.78750000  F        1       0.00000000       0.00000000     -29.95398330
Si       9.59897455       3.83958982      18.78750000  F        1       0.26642438      -0.00000000      -0.10013083
F        5.75938473       3.83958982      20.08750000  T        0      -0.00000000      -0.00000000      28.17603790
H        5.75938473       3.83958982      21.04873254  T        0       0.00000000       0.00000000       1.78971323
