39
Lattice="11.518769465528859 0.0 0.0 0.0 7.679179643685906 0.0 0.0 0.0 30.7875" Properties=species:S:1:pos:R:3:move_mask:L:1:tags:I:1:forces:R:3 surface=Si100 species=H2O site=bridge_Si_Si orientation=flipped height_A=6.5 substrate_atoms=36 calculation_kind="Rigid evaluated approach scan; not NEB" energy=-194.37464166994567 pbc="T T F"
Si       0.00000000       0.00000000      12.00000000  F        6      -0.00000004       0.00000000       0.24903484
Si       3.83958982       0.00000000      12.00000000  F        6      -0.00000000       0.00000000       0.24903482
Si       7.67917964       0.00000000      12.00000000  F        6       0.00000000       0.00000000       0.24903482
Si       0.00000000       3.83958982      12.00000000  F        6      -0.00000004      -0.00000000       0.24903484
Si       3.83958982       3.83958982      12.00000000  F        6      -0.00000000      -0.00000000       0.24903482
Si       7.67917964       3.83958982      12.00000000  F        6       0.00000000      -0.00000000       0.24903482
Si       1.91979491       0.00000000      13.35750000  F        5       0.00000000      -0.00000002      -0.52822352
Si       5.75938473       0.00000000      13.35750000  F        5       0.00000000      -0.00000002      -0.52822353
Si       9.59897455       0.00000000      13.35750000  F        5       0.00000003      -0.00000002      -0.52822354
Si       1.91979491       3.83958982      13.35750000  F        5       0.00000000       0.00000000      -0.52822354
Si       5.75938473       3.83958982      13.35750000  F        5       0.00000000       0.00000000      -0.52822354
Si       9.59897455       3.83958982      13.35750000  F        5       0.00000003       0.00000000      -0.52822356
Si       1.91979491       1.91979491      14.71500000  F        4      -0.00000000       0.00000000       0.14537709
Si       5.75938473       1.91979491      14.71500000  F        4       0.00000000       0.00000000       0.14537709
Si       9.59897455       1.91979491      14.71500000  F        4       0.00000004       0.00000000       0.14537711
Si       1.91979491       5.75938473      14.71500000  F        4      -0.00000000       0.00000002       0.14537707
Si       5.75938473       5.75938473      14.71500000  F        4       0.00000000       0.00000002       0.14537707
Si       9.59897455       5.75938473      14.71500000  F        4       0.00000004       0.00000002       0.14537709
Si       0.00000000       1.91979491      16.07250000  F        3      -0.00000004       0.00000000      -0.14537711
Si       3.83958982       1.91979491      16.07250000  F        3      -0.00000000       0.00000000      -0.14537709
Si       7.67917964       1.91979491      16.07250000  F        3       0.00000000       0.00000000      -0.14537709
Si       0.00000000       5.75938473      16.07250000  F        3      -0.00000004       0.00000002      -0.14537709
Si       3.83958982       5.75938473      16.07250000  F        3      -0.00000000       0.00000002      -0.14537707
Si       7.67917964       5.75938473      16.07250000  F        3       0.00000000       0.00000002      -0.14537707
Si       0.00000000       0.00000000      17.43000000  F        2      -0.00000003      -0.00000002       0.52822354
Si       3.83958982       0.00000000      17.43000000  F        2      -0.00000000      -0.00000002       0.52822353
Si       7.67917964       0.00000000      17.43000000  F        2      -0.00000000      -0.00000002       0.52822352
Si       0.00000000       3.83958982      17.43000000  F        2      -0.00000003       0.00000000       0.52822356
Si       3.83958982       3.83958982      17.43000000  F        2      -0.00000000       0.00000000       0.52822354
Si       7.67917964       3.83958982      17.43000000  F        2      -0.00000000       0.00000000       0.52822354
Si       1.91979491       0.00000000      18.78750000  F        1      -0.00000000       0.00000000      -0.24903482
Si       5.75938473       0.00000000      18.78750000  F        1       0.00000000       0.00000000      -0.24903482
Si       9.59897455       0.00000000      18.78750000  F        1       0.00000004       0.00000000      -0.24903484
Si       1.91979491       3.83958982      18.78750000  F        1      -0.00000000      -0.00000000      -0.24903482
Si       5.75938473       3.83958982      18.78750000  F        1       0.00000000      -0.00000000      -0.24903482
Si       9.59897455       3.83958982      18.78750000  F        1       0.00000004      -0.00000000      -0.24903484
O        7.67917964       3.83958982      25.89369698  T        0       0.00000000       0.00000000       0.00791150
H        6.92108817       3.83958982      25.28750000  T        0      -0.00428516       0.00000000      -0.00395575
H        8.43727111       3.83958982      25.28750000  T        0       0.00428516       0.00000000      -0.00395575
39
Lattice="11.518769465528859 0.0 0.0 0.0 7.679179643685906 0.0 0.0 0.0 30.7875" Properties=species:S:1:pos:R:3:move_mask:L:1:tags:I:1:forces:R:3 surface=Si100 species=H2O site=bridge_Si_Si orientation=flipped height_A=5.0 substrate_atoms=36 calculation_kind="Rigid evaluated approach scan; not NEB" energy=-194.37464166994567 pbc="T T F"
Si       0.00000000       0.00000000      12.00000000  F        6      -0.00000004       0.00000000       0.24903484
Si       3.83958982       0.00000000      12.00000000  F        6      -0.00000000       0.00000000       0.24903482
Si       7.67917964       0.00000000      12.00000000  F        6       0.00000000       0.00000000       0.24903482
Si       0.00000000       3.83958982      12.00000000  F        6      -0.00000004      -0.00000000       0.24903484
Si       3.83958982       3.83958982      12.00000000  F        6      -0.00000000      -0.00000000       0.24903482
Si       7.67917964       3.83958982      12.00000000  F        6       0.00000000      -0.00000000       0.24903482
Si       1.91979491       0.00000000      13.35750000  F        5       0.00000000      -0.00000002      -0.52822352
Si       5.75938473       0.00000000      13.35750000  F        5       0.00000000      -0.00000002      -0.52822353
Si       9.59897455       0.00000000      13.35750000  F        5       0.00000003      -0.00000002      -0.52822354
Si       1.91979491       3.83958982      13.35750000  F        5       0.00000000       0.00000000      -0.52822354
Si       5.75938473       3.83958982      13.35750000  F        5       0.00000000       0.00000000      -0.52822354
Si       9.59897455       3.83958982      13.35750000  F        5       0.00000003       0.00000000      -0.52822356
Si       1.91979491       1.91979491      14.71500000  F        4      -0.00000000       0.00000000       0.14537709
Si       5.75938473       1.91979491      14.71500000  F        4       0.00000000       0.00000000       0.14537709
Si       9.59897455       1.91979491      14.71500000  F        4       0.00000004       0.00000000       0.14537711
Si       1.91979491       5.75938473      14.71500000  F        4      -0.00000000       0.00000002       0.14537707
Si       5.75938473       5.75938473      14.71500000  F        4       0.00000000       0.00000002       0.14537707
Si       9.59897455       5.75938473      14.71500000  F        4       0.00000004       0.00000002       0.14537709
Si       0.00000000       1.91979491      16.07250000  F        3      -0.00000004       0.00000000      -0.14537711
Si       3.83958982       1.91979491      16.07250000  F        3      -0.00000000       0.00000000      -0.14537709
Si       7.67917964       1.91979491      16.07250000  F        3       0.00000000       0.00000000      -0.14537709
Si       0.00000000       5.75938473      16.07250000  F        3      -0.00000004       0.00000002      -0.14537709
Si       3.83958982       5.75938473      16.07250000  F        3      -0.00000000       0.00000002      -0.14537707
Si       7.67917964       5.75938473      16.07250000  F        3       0.00000000       0.00000002      -0.14537707
Si       0.00000000       0.00000000      17.43000000  F        2      -0.00000003      -0.00000002       0.52822354
Si       3.83958982       0.00000000      17.43000000  F        2      -0.00000000      -0.00000002       0.52822353
Si       7.67917964       0.00000000      17.43000000  F        2      -0.00000000      -0.00000002       0.52822352
Si       0.00000000       3.83958982      17.43000000  F        2      -0.00000003       0.00000000       0.52822356
Si       3.83958982       3.83958982      17.43000000  F        2      -0.00000000       0.00000000       0.52822354
Si       7.67917964       3.83958982      17.43000000  F        2      -0.00000000       0.00000000       0.52822354
Si       1.91979491       0.00000000      18.78750000  F        1      -0.00000000       0.00000000      -0.24903482
Si       5.75938473       0.00000000      18.78750000  F        1       0.00000000       0.00000000      -0.24903482
Si       9.59897455       0.00000000      18.78750000  F        1       0.00000004       0.00000000      -0.24903484
Si       1.91979491       3.83958982      18.78750000  F        1      -0.00000000      -0.00000000      -0.24903482
Si       5.75938473       3.83958982      18.78750000  F        1       0.00000000      -0.00000000      -0.24903482
Si       9.59897455       3.83958982      18.78750000  F        1       0.00000004      -0.00000000      -0.24903484
O        7.67917964       3.83958982      24.39369698  T        0       0.00000000       0.00000000       0.00791150
H        6.92108817       3.83958982      23.78750000  T        0      -0.00428516       0.00000000      -0.00395575
H        8.43727111       3.83958982      23.78750000  T        0       0.00428516       0.00000000      -0.00395575
39
Lattice="11.518769465528859 0.0 0.0 0.0 7.679179643685906 0.0 0.0 0.0 30.7875" Properties=species:S:1:pos:R:3:move_mask:L:1:tags:I:1:forces:R:3 surface=Si100 species=H2O site=bridge_Si_Si orientation=flipped height_A=4.0 substrate_atoms=36 calculation_kind="Rigid evaluated approach scan; not NEB" energy=-194.3835002531639 pbc="T T F"
Si       0.00000000       0.00000000      12.00000000  F        6      -0.00030991       0.00000000       0.24864096
Si       3.83958982       0.00000000      12.00000000  F        6       0.00030987       0.00000000       0.24864094
Si       7.67917964       0.00000000      12.00000000  F        6       0.00000000       0.00000000       0.24864023
Si       0.00000000       3.83958982      12.00000000  F        6      -0.00033025      -0.00000000       0.24925547
Si       3.83958982       3.83958982      12.00000000  F        6       0.00033022      -0.00000000       0.24925545
Si       7.67917964       3.83958982      12.00000000  F        6       0.00000000      -0.00000000       0.24948784
Si       1.91979491       0.00000000      13.35750000  F        5       0.00000000      -0.00000002      -0.52855471
Si       5.75938473       0.00000000      13.35750000  F        5      -0.00064555      -0.00000002      -0.52802542
Si       9.59897455       0.00000000      13.35750000  F        5       0.00064558      -0.00000002      -0.52802544
Si       1.91979491       3.83958982      13.35750000  F        5       0.00000000       0.00000000      -0.52649010
Si       5.75938473       3.83958982      13.35750000  F        5       0.00017554       0.00000000      -0.52525491
Si       9.59897455       3.83958982      13.35750000  F        5      -0.00017551       0.00000000      -0.52525493
Si       1.91979491       1.91979491      14.71500000  F        4      -0.00000000       0.00064242       0.14588994
Si       5.75938473       1.91979491      14.71500000  F        4       0.00098659       0.00140384       0.14665385
Si       9.59897455       1.91979491      14.71500000  F        4      -0.00098656       0.00140384       0.14665387
Si       1.91979491       5.75938473      14.71500000  F        4      -0.00000000      -0.00064239       0.14588993
Si       5.75938473       5.75938473      14.71500000  F        4       0.00098659      -0.00140382       0.14665384
Si       9.59897455       5.75938473      14.71500000  F        4      -0.00098656      -0.00140382       0.14665386
Si       0.00000000       1.91979491      16.07250000  F        3       0.00119182      -0.00047335      -0.15011072
Si       3.83958982       1.91979491      16.07250000  F        3      -0.00119185      -0.00047335      -0.15011070
Si       7.67917964       1.91979491      16.07250000  F        3       0.00000000      -0.01413364      -0.16280869
Si       0.00000000       5.75938473      16.07250000  F        3       0.00119182       0.00047338      -0.15011070
Si       3.83958982       5.75938473      16.07250000  F        3      -0.00119185       0.00047338      -0.15011068
Si       7.67917964       5.75938473      16.07250000  F        3       0.00000000       0.01413366      -0.16280868
Si       0.00000000       0.00000000      17.43000000  F        2       0.00016014      -0.00000002       0.53023653
Si       3.83958982       0.00000000      17.43000000  F        2      -0.00016017      -0.00000002       0.53023651
Si       7.67917964       0.00000000      17.43000000  F        2      -0.00000000      -0.00000002       0.52908967
Si       0.00000000       3.83958982      17.43000000  F        2      -0.00295551       0.00000000       0.53806815
Si       3.83958982       3.83958982      17.43000000  F        2       0.00295548       0.00000000       0.53806814
Si       7.67917964       3.83958982      17.43000000  F        2      -0.00000000       0.00000000       0.51196359
Si       1.91979491       0.00000000      18.78750000  F        1      -0.00000000       0.00000000      -0.25362631
Si       5.75938473       0.00000000      18.78750000  F        1       0.00261235       0.00000000      -0.24226398
Si       9.59897455       0.00000000      18.78750000  F        1      -0.00261231       0.00000000      -0.24226400
Si       1.91979491       3.83958982      18.78750000  F        1      -0.00000000      -0.00000000      -0.25117501
Si       5.75938473       3.83958982      18.78750000  F        1       0.00577907      -0.00000000      -0.17420681
Si       9.59897455       3.83958982      18.78750000  F        1      -0.00577903      -0.00000000      -0.17420682
O        7.67917964       3.83958982      23.39369698  T        0       0.00000000      -0.00000000      -0.00568871
H        6.92108817       3.83958982      22.78750000  T        0      -0.01179820      -0.00000000      -0.05944072
H        8.43727111       3.83958982      22.78750000  T        0       0.01179820      -0.00000000      -0.05944072
39
Lattice="11.518769465528859 0.0 0.0 0.0 7.679179643685906 0.0 0.0 0.0 30.7875" Properties=species:S:1:pos:R:3:move_mask:L:1:tags:I:1:forces:R:3 surface=Si100 species=H2O site=bridge_Si_Si orientation=flipped height_A=3.25 substrate_atoms=36 calculation_kind="Rigid evaluated approach scan; not NEB" energy=-194.46701630859462 pbc="T T F"
Si       0.00000000       0.00000000      12.00000000  F        6      -0.00070462       0.00000000       0.24953086
Si       3.83958982       0.00000000      12.00000000  F        6       0.00070458       0.00000000       0.24953084
Si       7.67917964       0.00000000      12.00000000  F        6       0.00000000       0.00000000       0.25020886
Si       0.00000000       3.83958982      12.00000000  F        6      -0.00040182      -0.00000000       0.24907330
Si       3.83958982       3.83958982      12.00000000  F        6       0.00040179      -0.00000000       0.24907328
Si       7.67917964       3.83958982      12.00000000  F        6       0.00000000      -0.00000000       0.24947743
Si       1.91979491       0.00000000      13.35750000  F        5       0.00000000      -0.00000002      -0.52674230
Si       5.75938473       0.00000000      13.35750000  F        5      -0.00086383      -0.00000002      -0.52684515
Si       9.59897455       0.00000000      13.35750000  F        5       0.00086386      -0.00000002      -0.52684517
Si       1.91979491       3.83958982      13.35750000  F        5       0.00000000       0.00000000      -0.52289086
Si       5.75938473       3.83958982      13.35750000  F        5       0.00026793       0.00000000      -0.52167802
Si       9.59897455       3.83958982      13.35750000  F        5      -0.00026790       0.00000000      -0.52167804
Si       1.91979491       1.91979491      14.71500000  F        4      -0.00000000      -0.00204863       0.14775483
Si       5.75938473       1.91979491      14.71500000  F        4       0.00377763      -0.00642709       0.13885732
Si       9.59897455       1.91979491      14.71500000  F        4      -0.00377759      -0.00642709       0.13885734
Si       1.91979491       5.75938473      14.71500000  F        4      -0.00000000       0.00204866       0.14775481
Si       5.75938473       5.75938473      14.71500000  F        4       0.00377763       0.00642712       0.13885731
Si       9.59897455       5.75938473      14.71500000  F        4      -0.00377759       0.00642712       0.13885733
Si       0.00000000       1.91979491      16.07250000  F        3       0.01054193      -0.00236978      -0.15613113
Si       3.83958982       1.91979491      16.07250000  F        3      -0.01054197      -0.00236978      -0.15613111
Si       7.67917964       1.91979491      16.07250000  F        3       0.00000000      -0.02730556      -0.17543353
Si       0.00000000       5.75938473      16.07250000  F        3       0.01054193       0.00236981      -0.15613111
Si       3.83958982       5.75938473      16.07250000  F        3      -0.01054197       0.00236981      -0.15613109
Si       7.67917964       5.75938473      16.07250000  F        3       0.00000000       0.02730558      -0.17543352
Si       0.00000000       0.00000000      17.43000000  F        2       0.00389291      -0.00000002       0.52284419
Si       3.83958982       0.00000000      17.43000000  F        2      -0.00389294      -0.00000002       0.52284417
Si       7.67917964       0.00000000      17.43000000  F        2      -0.00000000      -0.00000002       0.51878803
Si       0.00000000       3.83958982      17.43000000  F        2       0.01093149       0.00000000       0.53321646
Si       3.83958982       3.83958982      17.43000000  F        2      -0.01093153       0.00000000       0.53321644
Si       7.67917964       3.83958982      17.43000000  F        2      -0.00000000       0.00000000       0.40548554
Si       1.91979491       0.00000000      18.78750000  F        1      -0.00000000       0.00000000      -0.25463811
Si       5.75938473       0.00000000      18.78750000  F        1       0.00637456       0.00000000      -0.22651290
Si       9.59897455       0.00000000      18.78750000  F        1      -0.00637452       0.00000000      -0.22651292
Si       1.91979491       3.83958982      18.78750000  F        1      -0.00000000      -0.00000000      -0.25150057
Si       5.75938473       3.83958982      18.78750000  F        1       0.02611306      -0.00000000      -0.10151064
Si       9.59897455       3.83958982      18.78750000  F        1      -0.02611302      -0.00000000      -0.10151065
O        7.67917964       3.83958982      22.64369698  T        0      -0.00000000      -0.00000000       0.06924054
H        6.92108817       3.83958982      22.03750000  T        0       0.02156422      -0.00000000      -0.08460603
H        8.43727111       3.83958982      22.03750000  T        0      -0.02156422      -0.00000000      -0.08460603
39
Lattice="11.518769465528859 0.0 0.0 0.0 7.679179643685906 0.0 0.0 0.0 30.7875" Properties=species:S:1:pos:R:3:move_mask:L:1:tags:I:1:forces:R:3 surface=Si100 species=H2O site=bridge_Si_Si orientation=flipped height_A=2.75 substrate_atoms=36 calculation_kind="Rigid evaluated approach scan; not NEB" energy=-194.544613700735 pbc="T T F"
Si       0.00000000       0.00000000      12.00000000  F        6      -0.00079271       0.00000000       0.24813669
Si       3.83958982       0.00000000      12.00000000  F        6       0.00079267       0.00000000       0.24813667
Si       7.67917964       0.00000000      12.00000000  F        6       0.00000000       0.00000000       0.24964662
Si       0.00000000       3.83958982      12.00000000  F        6      -0.00081380      -0.00000000       0.24871034
Si       3.83958982       3.83958982      12.00000000  F        6       0.00081376      -0.00000000       0.24871032
Si       7.67917964       3.83958982      12.00000000  F        6       0.00000000      -0.00000000       0.25073746
Si       1.91979491       0.00000000      13.35750000  F        5       0.00000000      -0.00000002      -0.52387036
Si       5.75938473       0.00000000      13.35750000  F        5      -0.00051716      -0.00000002      -0.52482617
Si       9.59897455       0.00000000      13.35750000  F        5       0.00051720      -0.00000002      -0.52482619
Si       1.91979491       3.83958982      13.35750000  F        5       0.00000000       0.00000000      -0.52228832
Si       5.75938473       3.83958982      13.35750000  F        5      -0.00120103       0.00000000      -0.52281553
Si       9.59897455       3.83958982      13.35750000  F        5       0.00120106       0.00000000      -0.52281555
Si       1.91979491       1.91979491      14.71500000  F        4      -0.00000000      -0.00171926       0.15056169
Si       5.75938473       1.91979491      14.71500000  F        4       0.00095727      -0.00574297       0.14961644
Si       9.59897455       1.91979491      14.71500000  F        4      -0.00095724      -0.00574297       0.14961646
Si       1.91979491       5.75938473      14.71500000  F        4      -0.00000000       0.00171929       0.15056168
Si       5.75938473       5.75938473      14.71500000  F        4       0.00095727       0.00574300       0.14961643
Si       9.59897455       5.75938473      14.71500000  F        4      -0.00095724       0.00574300       0.14961645
Si       0.00000000       1.91979491      16.07250000  F        3      -0.00487878       0.00245380      -0.15420826
Si       3.83958982       1.91979491      16.07250000  F        3       0.00487875       0.00245380      -0.15420824
Si       7.67917964       1.91979491      16.07250000  F        3       0.00000000      -0.05184715      -0.18648184
Si       0.00000000       5.75938473      16.07250000  F        3      -0.00487878      -0.00245378      -0.15420825
Si       3.83958982       5.75938473      16.07250000  F        3       0.00487875      -0.00245378      -0.15420823
Si       7.67917964       5.75938473      16.07250000  F        3       0.00000000       0.05184717      -0.18648182
Si       0.00000000       0.00000000      17.43000000  F        2       0.00185584      -0.00000002       0.51859949
Si       3.83958982       0.00000000      17.43000000  F        2      -0.00185587      -0.00000002       0.51859947
Si       7.67917964       0.00000000      17.43000000  F        2      -0.00000000      -0.00000002       0.50741643
Si       0.00000000       3.83958982      17.43000000  F        2       0.06919860       0.00000000       0.50065050
Si       3.83958982       3.83958982      17.43000000  F        2      -0.06919863       0.00000000       0.50065048
Si       7.67917964       3.83958982      17.43000000  F        2      -0.00000000       0.00000000       0.45336420
Si       1.91979491       0.00000000      18.78750000  F        1      -0.00000000       0.00000000      -0.25754649
Si       5.75938473       0.00000000      18.78750000  F        1      -0.00149833       0.00000000      -0.23780462
Si       9.59897455       0.00000000      18.78750000  F        1       0.00149837       0.00000000      -0.23780464
Si       1.91979491       3.83958982      18.78750000  F        1      -0.00000000      -0.00000000      -0.23067289
Si       5.75938473       3.83958982      18.78750000  F        1       0.11217480      -0.00000000      -0.03523536
Si       9.59897455       3.83958982      18.78750000  F        1      -0.11217476      -0.00000000      -0.03523538
O        7.67917964       3.83958982      22.14369698  T        0      -0.00000000      -0.00000000       0.14155211
H        6.92108817       3.83958982      21.53750000  T        0       0.04851901       0.00000000      -0.18448090
H        8.43727111       3.83958982      21.53750000  T        0      -0.04851901       0.00000000      -0.18448091
39
Lattice="11.518769465528859 0.0 0.0 0.0 7.679179643685906 0.0 0.0 0.0 30.7875" Properties=species:S:1:pos:R:3:move_mask:L:1:tags:I:1:forces:R:3 surface=Si100 species=H2O site=bridge_Si_Si orientation=flipped height_A=2.25 substrate_atoms=36 calculation_kind="Rigid evaluated approach scan; not NEB" energy=-194.6095007271058 pbc="T T F"
Si       0.00000000       0.00000000      12.00000000  F        6      -0.00127935       0.00000000       0.24920495
Si       3.83958982       0.00000000      12.00000000  F        6       0.00127931       0.00000000       0.24920493
Si       7.67917964       0.00000000      12.00000000  F        6       0.00000000       0.00000000       0.25149077
Si       0.00000000       3.83958982      12.00000000  F        6      -0.00145671      -0.00000000       0.24895367
Si       3.83958982       3.83958982      12.00000000  F        6       0.00145668      -0.00000000       0.24895365
Si       7.67917964       3.83958982      12.00000000  F        6       0.00000000      -0.00000000       0.25086535
Si       1.91979491       0.00000000      13.35750000  F        5       0.00000000      -0.00000002      -0.52263513
Si       5.75938473       0.00000000      13.35750000  F        5      -0.00150105      -0.00000002      -0.52565160
Si       9.59897455       0.00000000      13.35750000  F        5       0.00150108      -0.00000002      -0.52565162
Si       1.91979491       3.83958982      13.35750000  F        5       0.00000000       0.00000000      -0.52013765
Si       5.75938473       3.83958982      13.35750000  F        5      -0.00720633       0.00000000      -0.52769946
Si       9.59897455       3.83958982      13.35750000  F        5       0.00720636       0.00000000      -0.52769948
Si       1.91979491       1.91979491      14.71500000  F        4      -0.00000000       0.00151362       0.15234667
Si       5.75938473       1.91979491      14.71500000  F        4       0.00102667      -0.00688753       0.16471396
Si       9.59897455       1.91979491      14.71500000  F        4      -0.00102663      -0.00688753       0.16471398
Si       1.91979491       5.75938473      14.71500000  F        4      -0.00000000      -0.00151360       0.15234666
Si       5.75938473       5.75938473      14.71500000  F        4       0.00102667       0.00688755       0.16471394
Si       9.59897455       5.75938473      14.71500000  F        4      -0.00102663       0.00688755       0.16471396
Si       0.00000000       1.91979491      16.07250000  F        3      -0.01774903       0.00540462      -0.15263988
Si       3.83958982       1.91979491      16.07250000  F        3       0.01774899       0.00540462      -0.15263986
Si       7.67917964       1.91979491      16.07250000  F        3       0.00000000      -0.07456154      -0.19528775
Si       0.00000000       5.75938473      16.07250000  F        3      -0.01774903      -0.00540460      -0.15263986
Si       3.83958982       5.75938473      16.07250000  F        3       0.01774899      -0.00540460      -0.15263984
Si       7.67917964       5.75938473      16.07250000  F        3       0.00000000       0.07456156      -0.19528773
Si       0.00000000       0.00000000      17.43000000  F        2       0.00887704      -0.00000002       0.51087151
Si       3.83958982       0.00000000      17.43000000  F        2      -0.00887707      -0.00000002       0.51087149
Si       7.67917964       0.00000000      17.43000000  F        2      -0.00000000      -0.00000002       0.46171851
Si       0.00000000       3.83958982      17.43000000  F        2       0.15279854       0.00000000       0.42538518
Si       3.83958982       3.83958982      17.43000000  F        2      -0.15279858       0.00000000       0.42538516
Si       7.67917964       3.83958982      17.43000000  F        2      -0.00000000       0.00000000       0.42912611
Si       1.91979491       0.00000000      18.78750000  F        1      -0.00000000       0.00000000      -0.26785010
Si       5.75938473       0.00000000      18.78750000  F        1      -0.02084857       0.00000000      -0.25427243
Si       9.59897455       0.00000000      18.78750000  F        1       0.02084861       0.00000000      -0.25427245
Si       1.91979491       3.83958982      18.78750000  F        1      -0.00000000      -0.00000000      -0.21545075
Si       5.75938473       3.83958982      18.78750000  F        1       0.09919227      -0.00000000      -0.08802920
Si       9.59897455       3.83958982      18.78750000  F        1      -0.09919223      -0.00000000      -0.08802922
O        7.67917964       3.83958982      21.64369698  T        0       0.00000000      -0.00000000       0.50434026
H        6.92108817       3.83958982      21.03750000  T        0      -0.02655713       0.00000000      -0.20570337
H        8.43727111       3.83958982      21.03750000  T        0       0.02655713       0.00000000      -0.20570337
39
Lattice="11.518769465528859 0.0 0.0 0.0 7.679179643685906 0.0 0.0 0.0 30.7875" Properties=species:S:1:pos:R:3:move_mask:L:1:tags:I:1:forces:R:3 surface=Si100 species=H2O site=bridge_Si_Si orientation=flipped height_A=1.9 substrate_atoms=36 calculation_kind="Rigid evaluated approach scan; not NEB" energy=-194.43511922091886 pbc="T T F"
Si       0.00000000       0.00000000      12.00000000  F        6      -0.00079739       0.00000000       0.25118491
Si       3.83958982       0.00000000      12.00000000  F        6       0.00079735       0.00000000       0.25118489
Si       7.67917964       0.00000000      12.00000000  F        6       0.00000000       0.00000000       0.25238465
Si       0.00000000       3.83958982      12.00000000  F        6      -0.00117873      -0.00000000       0.25026094
Si       3.83958982       3.83958982      12.00000000  F        6       0.00117869      -0.00000000       0.25026093
Si       7.67917964       3.83958982      12.00000000  F        6       0.00000000      -0.00000000       0.25007594
Si       1.91979491       0.00000000      13.35750000  F        5       0.00000000      -0.00000002      -0.52334644
Si       5.75938473       0.00000000      13.35750000  F        5      -0.00342534      -0.00000002      -0.52775503
Si       9.59897455       0.00000000      13.35750000  F        5       0.00342537      -0.00000002      -0.52775505
Si       1.91979491       3.83958982      13.35750000  F        5       0.00000000       0.00000000      -0.51878095
Si       5.75938473       3.83958982      13.35750000  F        5      -0.00939825       0.00000000      -0.52339007
Si       9.59897455       3.83958982      13.35750000  F        5       0.00939828       0.00000000      -0.52339009
Si       1.91979491       1.91979491      14.71500000  F        4      -0.00000000       0.00068774       0.14989928
Si       5.75938473       1.91979491      14.71500000  F        4       0.00514289      -0.01132226       0.16084228
Si       9.59897455       1.91979491      14.71500000  F        4      -0.00514285      -0.01132226       0.16084230
Si       1.91979491       5.75938473      14.71500000  F        4      -0.00000000      -0.00068772       0.14989926
Si       5.75938473       5.75938473      14.71500000  F        4       0.00514289       0.01132229       0.16084227
Si       9.59897455       5.75938473      14.71500000  F        4      -0.00514285       0.01132229       0.16084229
Si       0.00000000       1.91979491      16.07250000  F        3      -0.01702301       0.00664687      -0.15286996
Si       3.83958982       1.91979491      16.07250000  F        3       0.01702298       0.00664687      -0.15286994
Si       7.67917964       1.91979491      16.07250000  F        3       0.00000000      -0.06946580      -0.20257634
Si       0.00000000       5.75938473      16.07250000  F        3      -0.01702301      -0.00664685      -0.15286995
Si       3.83958982       5.75938473      16.07250000  F        3       0.01702298      -0.00664685      -0.15286993
Si       7.67917964       5.75938473      16.07250000  F        3       0.00000000       0.06946583      -0.20257633
Si       0.00000000       0.00000000      17.43000000  F        2       0.01858469      -0.00000002       0.50220571
Si       3.83958982       0.00000000      17.43000000  F        2      -0.01858472      -0.00000002       0.50220569
Si       7.67917964       0.00000000      17.43000000  F        2      -0.00000000      -0.00000002       0.43131006
Si       0.00000000       3.83958982      17.43000000  F        2       0.19810754       0.00000000       0.42693817
Si       3.83958982       3.83958982      17.43000000  F        2      -0.19810758       0.00000000       0.42693815
Si       7.67917964       3.83958982      17.43000000  F        2      -0.00000000       0.00000000       0.44074081
Si       1.91979491       0.00000000      18.78750000  F        1      -0.00000000       0.00000000      -0.27541127
Si       5.75938473       0.00000000      18.78750000  F        1      -0.02840376       0.00000000      -0.23296988
Si       9.59897455       0.00000000      18.78750000  F        1       0.02840380       0.00000000      -0.23296990
Si       1.91979491       3.83958982      18.78750000  F        1      -0.00000000      -0.00000000      -0.21624691
Si       5.75938473       3.83958982      18.78750000  F        1      -0.16478555      -0.00000000      -0.61080267
Si       9.59897455       3.83958982      18.78750000  F        1       0.16478558      -0.00000000      -0.61080269
O        7.67917964       3.83958982      21.29369698  T        0       0.00000000      -0.00000000       1.25157332
H        6.92108817       3.83958982      20.68750000  T        0      -0.24657298      -0.00000000      -0.04508922
H        8.43727111       3.83958982      20.68750000  T        0       0.24657298      -0.00000000      -0.04508922
39
Lattice="11.518769465528859 0.0 0.0 0.0 7.679179643685906 0.0 0.0 0.0 30.7875" Properties=species:S:1:pos:R:3:move_mask:L:1:tags:I:1:forces:R:3 surface=Si100 species=H2O site=bridge_Si_Si orientation=flipped height_A=1.6 substrate_atoms=36 calculation_kind="Rigid evaluated approach scan; not NEB" energy=-193.77518136937857 pbc="T T F"
Si       0.00000000       0.00000000      12.00000000  F        6       0.00004235       0.00000000       0.25310250
Si       3.83958982       0.00000000      12.00000000  F        6      -0.00004239       0.00000000       0.25310248
Si       7.67917964       0.00000000      12.00000000  F        6       0.00000000       0.00000000       0.25411494
Si       0.00000000       3.83958982      12.00000000  F        6      -0.00042731      -0.00000000       0.25135681
Si       3.83958982       3.83958982      12.00000000  F        6       0.00042727      -0.00000000       0.25135679
Si       7.67917964       3.83958982      12.00000000  F        6       0.00000000      -0.00000000       0.24905333
Si       1.91979491       0.00000000      13.35750000  F        5       0.00000000      -0.00000002      -0.52510787
Si       5.75938473       0.00000000      13.35750000  F        5      -0.00498667      -0.00000002      -0.53397224
Si       9.59897455       0.00000000      13.35750000  F        5       0.00498670      -0.00000002      -0.53397226
Si       1.91979491       3.83958982      13.35750000  F        5       0.00000000       0.00000000      -0.52232064
Si       5.75938473       3.83958982      13.35750000  F        5      -0.00607363       0.00000000      -0.51368432
Si       9.59897455       3.83958982      13.35750000  F        5       0.00607366       0.00000000      -0.51368434
Si       1.91979491       1.91979491      14.71500000  F        4      -0.00000000      -0.00250194       0.14241106
Si       5.75938473       1.91979491      14.71500000  F        4       0.00967897      -0.02024475       0.14065260
Si       9.59897455       1.91979491      14.71500000  F        4      -0.00967893      -0.02024475       0.14065262
Si       1.91979491       5.75938473      14.71500000  F        4      -0.00000000       0.00250196       0.14241105
Si       5.75938473       5.75938473      14.71500000  F        4       0.00967897       0.02024477       0.14065259
Si       9.59897455       5.75938473      14.71500000  F        4      -0.00967893       0.02024477       0.14065261
Si       0.00000000       1.91979491      16.07250000  F        3      -0.01712683       0.01430461      -0.14068327
Si       3.83958982       1.91979491      16.07250000  F        3       0.01712679       0.01430461      -0.14068325
Si       7.67917964       1.91979491      16.07250000  F        3       0.00000000      -0.08262231      -0.22720185
Si       0.00000000       5.75938473      16.07250000  F        3      -0.01712683      -0.01430459      -0.14068326
Si       3.83958982       5.75938473      16.07250000  F        3       0.01712679      -0.01430459      -0.14068324
Si       7.67917964       5.75938473      16.07250000  F        3       0.00000000       0.08262234      -0.22720183
Si       0.00000000       0.00000000      17.43000000  F        2       0.02218107      -0.00000002       0.50678533
Si       3.83958982       0.00000000      17.43000000  F        2      -0.02218111      -0.00000002       0.50678531
Si       7.67917964       0.00000000      17.43000000  F        2      -0.00000000      -0.00000002       0.41255168
Si       0.00000000       3.83958982      17.43000000  F        2       0.18829823       0.00000000       0.45765254
Si       3.83958982       3.83958982      17.43000000  F        2      -0.18829827       0.00000000       0.45765252
Si       7.67917964       3.83958982      17.43000000  F        2      -0.00000000       0.00000000       0.46483962
Si       1.91979491       0.00000000      18.78750000  F        1      -0.00000000       0.00000000      -0.27781867
Si       5.75938473       0.00000000      18.78750000  F        1      -0.03663259       0.00000000      -0.21548821
Si       9.59897455       0.00000000      18.78750000  F        1       0.03663263       0.00000000      -0.21548823
Si       1.91979491       3.83958982      18.78750000  F        1      -0.00000000      -0.00000000      -0.21282852
Si       5.75938473       3.83958982      18.78750000  F        1      -0.87210249      -0.00000000      -1.71658144
Si       9.59897455       3.83958982      18.78750000  F        1       0.87210253      -0.00000000      -1.71658146
O        7.67917964       3.83958982      20.99369698  T        0       0.00000000       0.00000000       2.73467454
H        6.92108817       3.83958982      20.38750000  T        0      -0.19147247       0.00000000       0.30710200
H        8.43727111       3.83958982      20.38750000  T        0       0.19147247       0.00000000       0.30710200
39
Lattice="11.518769465528859 0.0 0.0 0.0 7.679179643685906 0.0 0.0 0.0 30.7875" Properties=species:S:1:pos:R:3:move_mask:L:1:tags:I:1:forces:R:3 surface=Si100 species=H2O site=bridge_Si_Si orientation=flipped height_A=1.3 substrate_atoms=36 calculation_kind="Rigid evaluated approach scan; not NEB" energy=-192.4196507476101 pbc="T T F"
Si       0.00000000       0.00000000      12.00000000  F        6       0.00140412       0.00000000       0.25712079
Si       3.83958982       0.00000000      12.00000000  F        6      -0.00140416       0.00000000       0.25712078
Si       7.67917964       0.00000000      12.00000000  F        6       0.00000000       0.00000000       0.26335045
Si       0.00000000       3.83958982      12.00000000  F        6       0.00136889      -0.00000000       0.25205029
Si       3.83958982       3.83958982      12.00000000  F        6      -0.00136892      -0.00000000       0.25205027
Si       7.67917964       3.83958982      12.00000000  F        6       0.00000000      -0.00000000       0.24832170
Si       1.91979491       0.00000000      13.35750000  F        5       0.00000000      -0.00000002      -0.52734809
Si       5.75938473       0.00000000      13.35750000  F        5      -0.00283939      -0.00000002      -0.54985167
Si       9.59897455       0.00000000      13.35750000  F        5       0.00283942      -0.00000002      -0.54985169
Si       1.91979491       3.83958982      13.35750000  F        5       0.00000000       0.00000000      -0.51699050
Si       5.75938473       3.83958982      13.35750000  F        5      -0.00438108       0.00000000      -0.50462053
Si       9.59897455       3.83958982      13.35750000  F        5       0.00438111       0.00000000      -0.50462055
Si       1.91979491       1.91979491      14.71500000  F        4      -0.00000000      -0.00514337       0.12570024
Si       5.75938473       1.91979491      14.71500000  F        4       0.01368821      -0.03816682       0.09906320
Si       9.59897455       1.91979491      14.71500000  F        4      -0.01368818      -0.03816682       0.09906322
Si       1.91979491       5.75938473      14.71500000  F        4      -0.00000000       0.00514339       0.12570022
Si       5.75938473       5.75938473      14.71500000  F        4       0.01368821       0.03816684       0.09906319
Si       9.59897455       5.75938473      14.71500000  F        4      -0.01368818       0.03816684       0.09906321
Si       0.00000000       1.91979491      16.07250000  F        3      -0.01176224       0.04330865      -0.11751013
Si       3.83958982       1.91979491      16.07250000  F        3       0.01176220       0.04330865      -0.11751011
Si       7.67917964       1.91979491      16.07250000  F        3       0.00000000      -0.11616911      -0.28858846
Si       0.00000000       5.75938473      16.07250000  F        3      -0.01176224      -0.04330863      -0.11751012
Si       3.83958982       5.75938473      16.07250000  F        3       0.01176220      -0.04330863      -0.11751010
Si       7.67917964       5.75938473      16.07250000  F        3       0.00000000       0.11616913      -0.28858845
Si       0.00000000       0.00000000      17.43000000  F        2       0.03294962      -0.00000002       0.50070648
Si       3.83958982       0.00000000      17.43000000  F        2      -0.03294965      -0.00000002       0.50070646
Si       7.67917964       0.00000000      17.43000000  F        2      -0.00000000      -0.00000002       0.30948887
Si       0.00000000       3.83958982      17.43000000  F        2       0.24407506       0.00000000       0.49110203
Si       3.83958982       3.83958982      17.43000000  F        2      -0.24407509       0.00000000       0.49110202
Si       7.67917964       3.83958982      17.43000000  F        2      -0.00000000       0.00000000       0.25073185
Si       1.91979491       0.00000000      18.78750000  F        1      -0.00000000       0.00000000      -0.26539959
Si       5.75938473       0.00000000      18.78750000  F        1      -0.07213636       0.00000000      -0.20042974
Si       9.59897455       0.00000000      18.78750000  F        1       0.07213640       0.00000000      -0.20042975
Si       1.91979491       3.83958982      18.78750000  F        1      -0.00000000      -0.00000000      -0.19967103
Si       5.75938473       3.83958982      18.78750000  F        1      -1.57471209      -0.00000000      -2.65457335
Si       9.59897455       3.83958982      18.78750000  F        1       1.57471213      -0.00000000      -2.65457336
O        7.67917964       3.83958982      20.69369698  T        0      -0.00000000       0.00000000       5.71218516
H        6.92108817       3.83958982      20.08750000  T        0      -0.02296859       0.00000000      -0.02905660
H        8.43727111       3.83958982      20.08750000  T        0       0.02296860       0.00000000      -0.02905660
