41
Lattice="11.518769465528859 0.0 0.0 0.0 7.679179643685906 0.0 0.0 0.0 30.7875" Properties=species:S:1:pos:R:3:move_mask:L:1:tags:I:1:forces:R:3 surface=Si100 species=SiCl4 site=bridge_Si_Si orientation=upright height_A=6.5 substrate_atoms=36 calculation_kind="Rigid evaluated approach scan; not NEB" energy=-199.31249491099615 pbc="T T F"
Si       0.00000000       0.00000000      12.00000000  F        6      -0.00000004       0.00000000       0.24903484
Si       3.83958982       0.00000000      12.00000000  F        6      -0.00000000       0.00000000       0.24903482
Si       7.67917964       0.00000000      12.00000000  F        6       0.00000000       0.00000000       0.24903482
Si       0.00000000       3.83958982      12.00000000  F        6      -0.00000004      -0.00000000       0.24903484
Si       3.83958982       3.83958982      12.00000000  F        6      -0.00000000      -0.00000000       0.24903482
Si       7.67917964       3.83958982      12.00000000  F        6       0.00000000      -0.00000000       0.24903482
Si       1.91979491       0.00000000      13.35750000  F        5       0.00000000      -0.00000002      -0.52822352
Si       5.75938473       0.00000000      13.35750000  F        5       0.00000000      -0.00000002      -0.52822353
Si       9.59897455       0.00000000      13.35750000  F        5       0.00000003      -0.00000002      -0.52822354
Si       1.91979491       3.83958982      13.35750000  F        5       0.00000000       0.00000000      -0.52822354
Si       5.75938473       3.83958982      13.35750000  F        5       0.00000000       0.00000000      -0.52822354
Si       9.59897455       3.83958982      13.35750000  F        5       0.00000003       0.00000000      -0.52822356
Si       1.91979491       1.91979491      14.71500000  F        4      -0.00000000       0.00000000       0.14537709
Si       5.75938473       1.91979491      14.71500000  F        4       0.00000000       0.00000000       0.14537709
Si       9.59897455       1.91979491      14.71500000  F        4       0.00000004       0.00000000       0.14537711
Si       1.91979491       5.75938473      14.71500000  F        4      -0.00000000       0.00000002       0.14537707
Si       5.75938473       5.75938473      14.71500000  F        4       0.00000000       0.00000002       0.14537707
Si       9.59897455       5.75938473      14.71500000  F        4       0.00000004       0.00000002       0.14537709
Si       0.00000000       1.91979491      16.07250000  F        3      -0.00000004       0.00000000      -0.14537711
Si       3.83958982       1.91979491      16.07250000  F        3      -0.00000000       0.00000000      -0.14537709
Si       7.67917964       1.91979491      16.07250000  F        3       0.00000000       0.00000000      -0.14537709
Si       0.00000000       5.75938473      16.07250000  F        3      -0.00000004       0.00000002      -0.14537709
Si       3.83958982       5.75938473      16.07250000  F        3      -0.00000000       0.00000002      -0.14537707
Si       7.67917964       5.75938473      16.07250000  F        3       0.00000000       0.00000002      -0.14537707
Si       0.00000000       0.00000000      17.43000000  F        2      -0.00000003      -0.00000002       0.52822354
Si       3.83958982       0.00000000      17.43000000  F        2      -0.00000000      -0.00000002       0.52822353
Si       7.67917964       0.00000000      17.43000000  F        2      -0.00000000      -0.00000002       0.52822352
Si       0.00000000       3.83958982      17.43000000  F        2      -0.00000003       0.00000000       0.52822356
Si       3.83958982       3.83958982      17.43000000  F        2      -0.00000000       0.00000000       0.52822354
Si       7.67917964       3.83958982      17.43000000  F        2      -0.00000000       0.00000000       0.52822354
Si       1.91979491       0.00000000      18.78750000  F        1      -0.00000000       0.00000000      -0.24903482
Si       5.75938473       0.00000000      18.78750000  F        1       0.00000000       0.00000000      -0.24903482
Si       9.59897455       0.00000000      18.78750000  F        1       0.00000004       0.00000000      -0.24903484
Si       1.91979491       3.83958982      18.78750000  F        1      -0.00000000      -0.00000000      -0.24903482
Si       5.75938473       3.83958982      18.78750000  F        1       0.00000000      -0.00000000      -0.24903482
Si       9.59897455       3.83958982      18.78750000  F        1       0.00000004      -0.00000000      -0.24903484
Si       7.67917964       3.83958982      27.32191304  T        0       0.00074226       0.00000000      -0.00052482
Cl       7.67917964       3.83958982      25.28750000  T        0       0.00187593       0.00000000      -0.00472478
Cl       9.59724265       3.83958982      28.00005072  T        0       0.00507986       0.00000000      -0.00019372
Cl       6.72014814       5.50068111      28.00005072  T        0      -0.00384902      -0.00477622       0.00272166
Cl       6.72014814       2.17849853      28.00005072  T        0      -0.00384902       0.00477622       0.00272166
41
Lattice="11.518769465528859 0.0 0.0 0.0 7.679179643685906 0.0 0.0 0.0 30.7875" Properties=species:S:1:pos:R:3:move_mask:L:1:tags:I:1:forces:R:3 surface=Si100 species=SiCl4 site=bridge_Si_Si orientation=upright height_A=5.0 substrate_atoms=36 calculation_kind="Rigid evaluated approach scan; not NEB" energy=-199.31249491099615 pbc="T T F"
Si       0.00000000       0.00000000      12.00000000  F        6      -0.00000004       0.00000000       0.24903484
Si       3.83958982       0.00000000      12.00000000  F        6      -0.00000000       0.00000000       0.24903482
Si       7.67917964       0.00000000      12.00000000  F        6       0.00000000       0.00000000       0.24903482
Si       0.00000000       3.83958982      12.00000000  F        6      -0.00000004      -0.00000000       0.24903484
Si       3.83958982       3.83958982      12.00000000  F        6      -0.00000000      -0.00000000       0.24903482
Si       7.67917964       3.83958982      12.00000000  F        6       0.00000000      -0.00000000       0.24903482
Si       1.91979491       0.00000000      13.35750000  F        5       0.00000000      -0.00000002      -0.52822352
Si       5.75938473       0.00000000      13.35750000  F        5       0.00000000      -0.00000002      -0.52822353
Si       9.59897455       0.00000000      13.35750000  F        5       0.00000003      -0.00000002      -0.52822354
Si       1.91979491       3.83958982      13.35750000  F        5       0.00000000       0.00000000      -0.52822354
Si       5.75938473       3.83958982      13.35750000  F        5       0.00000000       0.00000000      -0.52822354
Si       9.59897455       3.83958982      13.35750000  F        5       0.00000003       0.00000000      -0.52822356
Si       1.91979491       1.91979491      14.71500000  F        4      -0.00000000       0.00000000       0.14537709
Si       5.75938473       1.91979491      14.71500000  F        4       0.00000000       0.00000000       0.14537709
Si       9.59897455       1.91979491      14.71500000  F        4       0.00000004       0.00000000       0.14537711
Si       1.91979491       5.75938473      14.71500000  F        4      -0.00000000       0.00000002       0.14537707
Si       5.75938473       5.75938473      14.71500000  F        4       0.00000000       0.00000002       0.14537707
Si       9.59897455       5.75938473      14.71500000  F        4       0.00000004       0.00000002       0.14537709
Si       0.00000000       1.91979491      16.07250000  F        3      -0.00000004       0.00000000      -0.14537711
Si       3.83958982       1.91979491      16.07250000  F        3      -0.00000000       0.00000000      -0.14537709
Si       7.67917964       1.91979491      16.07250000  F        3       0.00000000       0.00000000      -0.14537709
Si       0.00000000       5.75938473      16.07250000  F        3      -0.00000004       0.00000002      -0.14537709
Si       3.83958982       5.75938473      16.07250000  F        3      -0.00000000       0.00000002      -0.14537707
Si       7.67917964       5.75938473      16.07250000  F        3       0.00000000       0.00000002      -0.14537707
Si       0.00000000       0.00000000      17.43000000  F        2      -0.00000003      -0.00000002       0.52822354
Si       3.83958982       0.00000000      17.43000000  F        2      -0.00000000      -0.00000002       0.52822353
Si       7.67917964       0.00000000      17.43000000  F        2      -0.00000000      -0.00000002       0.52822352
Si       0.00000000       3.83958982      17.43000000  F        2      -0.00000003       0.00000000       0.52822356
Si       3.83958982       3.83958982      17.43000000  F        2      -0.00000000       0.00000000       0.52822354
Si       7.67917964       3.83958982      17.43000000  F        2      -0.00000000       0.00000000       0.52822354
Si       1.91979491       0.00000000      18.78750000  F        1      -0.00000000       0.00000000      -0.24903482
Si       5.75938473       0.00000000      18.78750000  F        1       0.00000000       0.00000000      -0.24903482
Si       9.59897455       0.00000000      18.78750000  F        1       0.00000004       0.00000000      -0.24903484
Si       1.91979491       3.83958982      18.78750000  F        1      -0.00000000      -0.00000000      -0.24903482
Si       5.75938473       3.83958982      18.78750000  F        1       0.00000000      -0.00000000      -0.24903482
Si       9.59897455       3.83958982      18.78750000  F        1       0.00000004      -0.00000000      -0.24903484
Si       7.67917964       3.83958982      25.82191304  T        0       0.00074226       0.00000000      -0.00052482
Cl       7.67917964       3.83958982      23.78750000  T        0       0.00187593       0.00000000      -0.00472478
Cl       9.59724265       3.83958982      26.50005072  T        0       0.00507986       0.00000000      -0.00019372
Cl       6.72014814       5.50068111      26.50005072  T        0      -0.00384902      -0.00477622       0.00272166
Cl       6.72014814       2.17849853      26.50005072  T        0      -0.00384902       0.00477622       0.00272166
41
Lattice="11.518769465528859 0.0 0.0 0.0 7.679179643685906 0.0 0.0 0.0 30.7875" Properties=species:S:1:pos:R:3:move_mask:L:1:tags:I:1:forces:R:3 surface=Si100 species=SiCl4 site=bridge_Si_Si orientation=upright height_A=4.0 substrate_atoms=36 calculation_kind="Rigid evaluated approach scan; not NEB" energy=-199.343969934614 pbc="T T F"
Si       0.00000000       0.00000000      12.00000000  F        6      -0.00017304       0.00000000       0.24853886
Si       3.83958982       0.00000000      12.00000000  F        6       0.00017300       0.00000000       0.24853885
Si       7.67917964       0.00000000      12.00000000  F        6       0.00000000       0.00000000       0.24842542
Si       0.00000000       3.83958982      12.00000000  F        6      -0.00028574      -0.00000000       0.24907695
Si       3.83958982       3.83958982      12.00000000  F        6       0.00028570      -0.00000000       0.24907694
Si       7.67917964       3.83958982      12.00000000  F        6       0.00000000      -0.00000000       0.24934280
Si       1.91979491       0.00000000      13.35750000  F        5       0.00000000      -0.00000002      -0.52823947
Si       5.75938473       0.00000000      13.35750000  F        5      -0.00014875      -0.00000002      -0.52786355
Si       9.59897455       0.00000000      13.35750000  F        5       0.00014878      -0.00000002      -0.52786357
Si       1.91979491       3.83958982      13.35750000  F        5       0.00000000       0.00000000      -0.52648352
Si       5.75938473       3.83958982      13.35750000  F        5       0.00052726       0.00000000      -0.52567050
Si       9.59897455       3.83958982      13.35750000  F        5      -0.00052722       0.00000000      -0.52567052
Si       1.91979491       1.91979491      14.71500000  F        4      -0.00000000       0.00099162       0.14531473
Si       5.75938473       1.91979491      14.71500000  F        4       0.00129051       0.00396337       0.15030246
Si       9.59897455       1.91979491      14.71500000  F        4      -0.00129026       0.00396834       0.15031344
Si       1.91979491       5.75938473      14.71500000  F        4      -0.00000000      -0.00099160       0.14531472
Si       5.75938473       5.75938473      14.71500000  F        4       0.00129051      -0.00396335       0.15030245
Si       9.59897455       5.75938473      14.71500000  F        4      -0.00129026      -0.00396832       0.15031343
Si       0.00000000       1.91979491      16.07250000  F        3       0.00044827      -0.00079165      -0.14407364
Si       3.83958982       1.91979491      16.07250000  F        3      -0.00045332      -0.00079734      -0.14407797
Si       7.67917964       1.91979491      16.07250000  F        3       0.00000414       0.00847483      -0.14232740
Si       0.00000000       5.75938473      16.07250000  F        3       0.00044827       0.00079167      -0.14407362
Si       3.83958982       5.75938473      16.07250000  F        3      -0.00045332       0.00079736      -0.14407796
Si       7.67917964       5.75938473      16.07250000  F        3       0.00000414      -0.00847481      -0.14232739
Si       0.00000000       0.00000000      17.43000000  F        2       0.00078821      -0.00000002       0.52912423
Si       3.83958982       0.00000000      17.43000000  F        2      -0.00079233      -0.00000002       0.52912427
Si       7.67917964       0.00000000      17.43000000  F        2       0.00000457      -0.00000002       0.52728684
Si       0.00000000       3.83958982      17.43000000  F        2       0.01674049       0.00000000       0.53003148
Si       3.83958982       3.83958982      17.43000000  F        2      -0.01668706       0.00000000       0.53008191
Si       7.67917964       3.83958982      17.43000000  F        2      -0.00005135       0.00000000       0.49075528
Si       1.91979491       0.00000000      18.78750000  F        1      -0.00000000       0.00000000      -0.25131583
Si       5.75938473       0.00000000      18.78750000  F        1      -0.00010774       0.00000000      -0.25335410
Si       9.59897455       0.00000000      18.78750000  F        1       0.00010698       0.00000000      -0.25335908
Si       1.91979491       3.83958982      18.78750000  F        1       0.00001408      -0.00000000      -0.25638276
Si       5.75938473       3.83958982      18.78750000  F        1       0.02859608      -0.00000000      -0.19436707
Si       9.59897455       3.83958982      18.78750000  F        1      -0.02865723      -0.00000000      -0.19434813
Si       7.67917964       3.83958982      24.82191304  T        0       0.00140329      -0.00000000      -0.05291361
Cl       7.67917964       3.83958982      22.78750000  T        0       0.00043795       0.00000000      -0.06655241
Cl       9.59724265       3.83958982      25.50005072  T        0       0.00919804      -0.00000000       0.00743393
Cl       6.72014814       5.50068111      25.50005072  T        0      -0.00549632      -0.00055260       0.00832156
Cl       6.72014814       2.17849853      25.50005072  T        0      -0.00549632       0.00055260       0.00832156
41
Lattice="11.518769465528859 0.0 0.0 0.0 7.679179643685906 0.0 0.0 0.0 30.7875" Properties=species:S:1:pos:R:3:move_mask:L:1:tags:I:1:forces:R:3 surface=Si100 species=SiCl4 site=bridge_Si_Si orientation=upright height_A=3.25 substrate_atoms=36 calculation_kind="Rigid evaluated approach scan; not NEB" energy=-199.38343828381178 pbc="T T F"
Si       0.00000000       0.00000000      12.00000000  F        6       0.00008909       0.00000000       0.24909321
Si       3.83958982       0.00000000      12.00000000  F        6      -0.00008912       0.00000000       0.24909319
Si       7.67917964       0.00000000      12.00000000  F        6       0.00000000       0.00000000       0.24959990
Si       0.00000000       3.83958982      12.00000000  F        6      -0.00027106      -0.00000000       0.24905298
Si       3.83958982       3.83958982      12.00000000  F        6       0.00027102      -0.00000000       0.24905296
Si       7.67917964       3.83958982      12.00000000  F        6       0.00000000      -0.00000000       0.25009160
Si       1.91979491       0.00000000      13.35750000  F        5       0.00000000      -0.00000002      -0.52711445
Si       5.75938473       0.00000000      13.35750000  F        5       0.00031261      -0.00000002      -0.52709260
Si       9.59897455       0.00000000      13.35750000  F        5      -0.00031258      -0.00000002      -0.52709262
Si       1.91979491       3.83958982      13.35750000  F        5       0.00000000       0.00000000      -0.52642901
Si       5.75938473       3.83958982      13.35750000  F        5       0.00133235       0.00000000      -0.52505539
Si       9.59897455       3.83958982      13.35750000  F        5      -0.00133231       0.00000000      -0.52505541
Si       1.91979491       1.91979491      14.71500000  F        4      -0.00000000      -0.00026763       0.14761088
Si       5.75938473       1.91979491      14.71500000  F        4       0.00244531       0.00468125       0.15776180
Si       9.59897455       1.91979491      14.71500000  F        4      -0.00244441       0.00470072       0.15780211
Si       1.91979491       5.75938473      14.71500000  F        4      -0.00000000       0.00026766       0.14761087
Si       5.75938473       5.75938473      14.71500000  F        4       0.00244531      -0.00468122       0.15776179
Si       9.59897455       5.75938473      14.71500000  F        4      -0.00244441      -0.00470070       0.15780209
Si       0.00000000       1.91979491      16.07250000  F        3      -0.01130032       0.02480663      -0.12843002
Si       3.83958982       1.91979491      16.07250000  F        3       0.01126837       0.02477362      -0.12844956
Si       7.67917964       1.91979491      16.07250000  F        3       0.00001811      -0.00434040      -0.17619529
Si       0.00000000       5.75938473      16.07250000  F        3      -0.01130032      -0.02480661      -0.12843001
Si       3.83958982       5.75938473      16.07250000  F        3       0.01126837      -0.02477359      -0.12844955
Si       7.67917964       5.75938473      16.07250000  F        3       0.00001811       0.00434043      -0.17619527
Si       0.00000000       0.00000000      17.43000000  F        2       0.00698581      -0.00000002       0.51749678
Si       3.83958982       0.00000000      17.43000000  F        2      -0.00699055      -0.00000002       0.51750435
Si       7.67917964       0.00000000      17.43000000  F        2       0.00000265      -0.00000002       0.49581858
Si       0.00000000       3.83958982      17.43000000  F        2      -0.01493458       0.00000000       0.54869708
Si       3.83958982       3.83958982      17.43000000  F        2       0.01510462       0.00000000       0.54883853
Si       7.67917964       3.83958982      17.43000000  F        2      -0.00010068       0.00000000       0.45184633
Si       1.91979491       0.00000000      18.78750000  F        1      -0.00000000       0.00000000      -0.24969506
Si       5.75938473       0.00000000      18.78750000  F        1      -0.00055670       0.00000000      -0.24768830
Si       9.59897455       0.00000000      18.78750000  F        1       0.00055266       0.00000000      -0.24769731
Si       1.91979491       3.83958982      18.78750000  F        1       0.00005622      -0.00000000      -0.27414938
Si       5.75938473       3.83958982      18.78750000  F        1      -0.02834747      -0.00000000      -0.24936759
Si       9.59897455       3.83958982      18.78750000  F        1       0.02833990      -0.00000000      -0.24928815
Si       7.67917964       3.83958982      24.07191304  T        0       0.00314986       0.00000000      -0.10760239
Cl       7.67917964       3.83958982      22.03750000  T        0      -0.00249651       0.00000000       0.15308093
Cl       9.59724265       3.83958982      24.75005072  T        0       0.00597434       0.00000000      -0.00054686
Cl       6.72014814       5.50068111      24.75005072  T        0      -0.00335683       0.00002033      -0.00279587
Cl       6.72014814       2.17849853      24.75005072  T        0      -0.00335683      -0.00002033      -0.00279587
41
Lattice="11.518769465528859 0.0 0.0 0.0 7.679179643685906 0.0 0.0 0.0 30.7875" Properties=species:S:1:pos:R:3:move_mask:L:1:tags:I:1:forces:R:3 surface=Si100 species=SiCl4 site=bridge_Si_Si orientation=upright height_A=2.75 substrate_atoms=36 calculation_kind="Rigid evaluated approach scan; not NEB" energy=-199.38081972753196 pbc="T T F"
Si       0.00000000       0.00000000      12.00000000  F        6       0.00036828       0.00000000       0.24941416
Si       3.83958982       0.00000000      12.00000000  F        6      -0.00036832       0.00000000       0.24941414
Si       7.67917964       0.00000000      12.00000000  F        6       0.00000000       0.00000000       0.25078783
Si       0.00000000       3.83958982      12.00000000  F        6      -0.00029171      -0.00000000       0.24919656
Si       3.83958982       3.83958982      12.00000000  F        6       0.00029167      -0.00000000       0.24919655
Si       7.67917964       3.83958982      12.00000000  F        6       0.00000000      -0.00000000       0.25154337
Si       1.91979491       0.00000000      13.35750000  F        5       0.00000000      -0.00000002      -0.52650937
Si       5.75938473       0.00000000      13.35750000  F        5       0.00030080      -0.00000002      -0.52735808
Si       9.59897455       0.00000000      13.35750000  F        5      -0.00030076      -0.00000002      -0.52735810
Si       1.91979491       3.83958982      13.35750000  F        5       0.00000000       0.00000000      -0.53068014
Si       5.75938473       3.83958982      13.35750000  F        5       0.00113295       0.00000000      -0.52891014
Si       9.59897455       3.83958982      13.35750000  F        5      -0.00113291       0.00000000      -0.52891016
Si       1.91979491       1.91979491      14.71500000  F        4      -0.00000000      -0.00112878       0.15010395
Si       5.75938473       1.91979491      14.71500000  F        4       0.00585066       0.00157456       0.15969159
Si       9.59897455       1.91979491      14.71500000  F        4      -0.00584874       0.00160568       0.15976068
Si       1.91979491       5.75938473      14.71500000  F        4      -0.00000000       0.00112880       0.15010394
Si       5.75938473       5.75938473      14.71500000  F        4       0.00585066      -0.00157453       0.15969157
Si       9.59897455       5.75938473      14.71500000  F        4      -0.00584874      -0.00160566       0.15976066
Si       0.00000000       1.91979491      16.07250000  F        3      -0.01141817       0.04128299      -0.12077800
Si       3.83958982       1.91979491      16.07250000  F        3       0.01133010       0.04118664      -0.12084878
Si       7.67917964       1.91979491      16.07250000  F        3       0.00004515      -0.02003564      -0.20161166
Si       0.00000000       5.75938473      16.07250000  F        3      -0.01141817      -0.04128297      -0.12077798
Si       3.83958982       5.75938473      16.07250000  F        3       0.01133010      -0.04118662      -0.12084876
Si       7.67917964       5.75938473      16.07250000  F        3       0.00004515       0.02003566      -0.20161165
Si       0.00000000       0.00000000      17.43000000  F        2       0.01538259      -0.00000002       0.50726652
Si       3.83958982       0.00000000      17.43000000  F        2      -0.01539145      -0.00000002       0.50728367
Si       7.67917964       0.00000000      17.43000000  F        2      -0.00000285      -0.00000002       0.45657494
Si       0.00000000       3.83958982      17.43000000  F        2       0.00844265       0.00000000       0.51349796
Si       3.83958982       3.83958982      17.43000000  F        2      -0.00813048       0.00000000       0.51376478
Si       7.67917964       3.83958982      17.43000000  F        2      -0.00009853       0.00000000       0.57398131
Si       1.91979491       0.00000000      18.78750000  F        1      -0.00000000       0.00000000      -0.25180823
Si       5.75938473       0.00000000      18.78750000  F        1      -0.00019184       0.00000000      -0.22798644
Si       9.59897455       0.00000000      18.78750000  F        1       0.00017940       0.00000000      -0.22800941
Si       1.91979491       3.83958982      18.78750000  F        1       0.00012022      -0.00000000      -0.28096588
Si       5.75938473       3.83958982      18.78750000  F        1      -0.04872313      -0.00000000      -0.24041968
Si       9.59897455       3.83958982      18.78750000  F        1       0.04810301      -0.00000000      -0.23987781
Si       7.67917964       3.83958982      23.57191304  T        0       0.00244394       0.00000000      -0.09738915
Cl       7.67917964       3.83958982      21.53750000  T        0       0.00435110       0.00000000       0.15148433
Cl       9.59724265       3.83958982      24.25005072  T        0       0.01137672       0.00000000      -0.01740262
Cl       6.72014814       5.50068111      24.25005072  T        0      -0.00888968       0.00922540      -0.01122825
Cl       6.72014814       2.17849853      24.25005072  T        0      -0.00888968      -0.00922540      -0.01122825
41
Lattice="11.518769465528859 0.0 0.0 0.0 7.679179643685906 0.0 0.0 0.0 30.7875" Properties=species:S:1:pos:R:3:move_mask:L:1:tags:I:1:forces:R:3 surface=Si100 species=SiCl4 site=bridge_Si_Si orientation=upright height_A=2.25 substrate_atoms=36 calculation_kind="Rigid evaluated approach scan; not NEB" energy=-199.25824955433703 pbc="T T F"
Si       0.00000000       0.00000000      12.00000000  F        6       0.00098528       0.00000000       0.25108734
Si       3.83958982       0.00000000      12.00000000  F        6      -0.00098540       0.00000000       0.25108745
Si       7.67917964       0.00000000      12.00000000  F        6       0.00000008       0.00000000       0.25224758
Si       0.00000000       3.83958982      12.00000000  F        6       0.00048650      -0.00000000       0.24825738
Si       3.83958982       3.83958982      12.00000000  F        6      -0.00048669      -0.00000000       0.24825723
Si       7.67917964       3.83958982      12.00000000  F        6       0.00000015      -0.00000000       0.24911781
Si       1.91979491       0.00000000      13.35750000  F        5      -0.00000005      -0.00000002      -0.52648962
Si       5.75938473       0.00000000      13.35750000  F        5      -0.00082297      -0.00000002      -0.53008005
Si       9.59897455       0.00000000      13.35750000  F        5       0.00082305      -0.00000002      -0.53007954
Si       1.91979491       3.83958982      13.35750000  F        5      -0.00000028       0.00000000      -0.53868230
Si       5.75938473       3.83958982      13.35750000  F        5       0.00593250       0.00000000      -0.52453055
Si       9.59897455       3.83958982      13.35750000  F        5      -0.00593219       0.00000000      -0.52452976
Si       1.91979491       1.91979491      14.71500000  F        4      -0.00000085      -0.00311749       0.15095798
Si       5.75938473       1.91979491      14.71500000  F        4       0.01250866      -0.00191187       0.16394257
Si       9.59897455       1.91979491      14.71500000  F        4      -0.01250400      -0.00187026       0.16403699
Si       1.91979491       5.75938473      14.71500000  F        4      -0.00000085       0.00311752       0.15095797
Si       5.75938473       5.75938473      14.71500000  F        4       0.01250866       0.00191190       0.16394256
Si       9.59897455       5.75938473      14.71500000  F        4      -0.01250400       0.00187028       0.16403698
Si       0.00000000       1.91979491      16.07250000  F        3      -0.01004988       0.06646432      -0.11051687
Si       3.83958982       1.91979491      16.07250000  F        3       0.00987597       0.06625218      -0.11072705
Si       7.67917964       1.91979491      16.07250000  F        3       0.00007523      -0.00631496      -0.19830826
Si       0.00000000       5.75938473      16.07250000  F        3      -0.01004988      -0.06646430      -0.11051685
Si       3.83958982       5.75938473      16.07250000  F        3       0.00987597      -0.06625216      -0.11072704
Si       7.67917964       5.75938473      16.07250000  F        3       0.00007523       0.00631499      -0.19830825
Si       0.00000000       0.00000000      17.43000000  F        2       0.02741189      -0.00000002       0.49379708
Si       3.83958982       0.00000000      17.43000000  F        2      -0.02743187      -0.00000002       0.49383017
Si       7.67917964       0.00000000      17.43000000  F        2      -0.00002156      -0.00000002       0.41549305
Si       0.00000000       3.83958982      17.43000000  F        2       0.11898020       0.00000000       0.41206525
Si       3.83958982       3.83958982      17.43000000  F        2      -0.11822001       0.00000000       0.41257788
Si       7.67917964       3.83958982      17.43000000  F        2      -0.00047038       0.00000000       0.51638686
Si       1.91979491       0.00000000      18.78750000  F        1       0.00000016       0.00000000      -0.25221133
Si       5.75938473       0.00000000      18.78750000  F        1       0.01746759       0.00000000      -0.17291259
Si       9.59897455       0.00000000      18.78750000  F        1      -0.01827234       0.00000000      -0.17199874
Si       1.91979491       3.83958982      18.78750000  F        1       0.00014310      -0.00000000      -0.28090753
Si       5.75938473       3.83958982      18.78750000  F        1      -0.21702801      -0.00000000      -0.43422318
Si       9.59897455       3.83958982      18.78750000  F        1       0.21165016      -0.00000000      -0.42628058
Si       7.67917964       3.83958982      23.07191304  T        0      -0.00549102      -0.00000000       0.13762467
Cl       7.67917964       3.83958982      21.03750000  T        0       0.02541088      -0.00000000       0.62981089
Cl       9.59724265       3.83958982      23.75005072  T        0       0.04721581       0.00000000      -0.09042108
Cl       6.72014814       5.50068111      23.75005072  T        0      -0.03057743       0.05310656      -0.06353226
Cl       6.72014814       2.17849853      23.75005072  T        0      -0.03057743      -0.05310656      -0.06353226
41
Lattice="11.518769465528859 0.0 0.0 0.0 7.679179643685906 0.0 0.0 0.0 30.7875" Properties=species:S:1:pos:R:3:move_mask:L:1:tags:I:1:forces:R:3 surface=Si100 species=SiCl4 site=bridge_Si_Si orientation=upright height_A=1.9 substrate_atoms=36 calculation_kind="Rigid evaluated approach scan; not NEB" energy=-198.9477188331597 pbc="T T F"
Si       0.00000000       0.00000000      12.00000000  F        6       0.00148242       0.00000000       0.25403641
Si       3.83958982       0.00000000      12.00000000  F        6      -0.00151136       0.00000000       0.25411438
Si       7.67917964       0.00000000      12.00000000  F        6       0.00002942       0.00000000       0.25475762
Si       0.00000000       3.83958982      12.00000000  F        6       0.00163716      -0.00000000       0.24709515
Si       3.83958982       3.83958982      12.00000000  F        6      -0.00170561      -0.00000000       0.24703365
Si       7.67917964       3.83958982      12.00000000  F        6       0.00006844      -0.00000000       0.24441385
Si       1.91979491       0.00000000      13.35750000  F        5      -0.00009020      -0.00000002      -0.52728501
Si       5.75938473       0.00000000      13.35750000  F        5      -0.00230248      -0.00000002      -0.53377062
Si       9.59897455       0.00000000      13.35750000  F        5       0.00239755      -0.00000002      -0.53344191
Si       1.91979491       3.83958982      13.35750000  F        5      -0.00028295       0.00000000      -0.55301993
Si       5.75938473       3.83958982      13.35750000  F        5       0.01479256       0.00000000      -0.52312666
Si       9.59897455       3.83958982      13.35750000  F        5      -0.01450718       0.00000000      -0.52229128
Si       1.91979491       1.91979491      14.71500000  F        4      -0.00052391      -0.00842989       0.14788806
Si       5.75938473       1.91979491      14.71500000  F        4       0.01694614      -0.01617307       0.15930837
Si       9.59897455       1.91979491      14.71500000  F        4      -0.01637004      -0.01584704       0.15876155
Si       1.91979491       5.75938473      14.71500000  F        4      -0.00052391       0.00842992       0.14788805
Si       5.75938473       5.75938473      14.71500000  F        4       0.01694614       0.01617310       0.15930835
Si       9.59897455       5.75938473      14.71500000  F        4      -0.01637004       0.01584706       0.15876153
Si       0.00000000       1.91979491      16.07250000  F        3      -0.01263554       0.08091562      -0.10127161
Si       3.83958982       1.91979491      16.07250000  F        3       0.01555737       0.08182209      -0.10105059
Si       7.67917964       1.91979491      16.07250000  F        3      -0.00296378      -0.01142112      -0.18221120
Si       0.00000000       5.75938473      16.07250000  F        3      -0.01263554      -0.08091560      -0.10127160
Si       3.83958982       5.75938473      16.07250000  F        3       0.01555737      -0.08182206      -0.10105058
Si       7.67917964       5.75938473      16.07250000  F        3      -0.00296378       0.01142114      -0.18221119
Si       0.00000000       0.00000000      17.43000000  F        2       0.04529717      -0.00000002       0.48018208
Si       3.83958982       0.00000000      17.43000000  F        2      -0.04359716      -0.00000002       0.48258745
Si       7.67917964       0.00000000      17.43000000  F        2      -0.00183024      -0.00000002       0.40393788
Si       0.00000000       3.83958982      17.43000000  F        2       0.16055388       0.00000000       0.36358370
Si       3.83958982       3.83958982      17.43000000  F        2      -0.15973956       0.00000000       0.36311210
Si       7.67917964       3.83958982      17.43000000  F        2      -0.00956539       0.00000000       0.36033463
Si       1.91979491       0.00000000      18.78750000  F        1      -0.00054957       0.00000000      -0.25151830
Si       5.75938473       0.00000000      18.78750000  F        1       0.05441490       0.00000000      -0.12406104
Si       9.59897455       0.00000000      18.78750000  F        1      -0.05735465       0.00000000      -0.11469346
Si       1.91979491       3.83958982      18.78750000  F        1       0.00072512      -0.00000000      -0.25313849
Si       5.75938473       3.83958982      18.78750000  F        1      -0.42969214      -0.00000000      -0.76548578
Si       9.59897455       3.83958982      18.78750000  F        1       0.43879532      -0.00000000      -0.66325830
Si       7.67917964       3.83958982      22.72191304  T        0      -0.00503079      -0.00000000       0.81381763
Cl       7.67917964       3.83958982      20.68750000  T        0       0.01721136      -0.00000000       1.04400854
Cl       9.59724265       3.83958982      23.40005072  T        0       0.07766521      -0.00000000      -0.27485568
Cl       6.72014814       5.50068111      23.40005072  T        0      -0.04366584       0.09532597      -0.16795888
Cl       6.72014814       2.17849853      23.40005072  T        0      -0.04366584      -0.09532597      -0.16795888
41
Lattice="11.518769465528859 0.0 0.0 0.0 7.679179643685906 0.0 0.0 0.0 30.7875" Properties=species:S:1:pos:R:3:move_mask:L:1:tags:I:1:forces:R:3 surface=Si100 species=SiCl4 site=bridge_Si_Si orientation=upright height_A=1.6 substrate_atoms=36 calculation_kind="Rigid evaluated approach scan; not NEB" energy=-198.50496657342376 pbc="T T F"
Si       0.00000000       0.00000000      12.00000000  F        6       0.00200966       0.00000000       0.25871919
Si       3.83958982       0.00000000      12.00000000  F        6      -0.00199097       0.00000000       0.25881859
Si       7.67917964       0.00000000      12.00000000  F        6      -0.00001792       0.00000000       0.25815190
Si       0.00000000       3.83958982      12.00000000  F        6       0.00363334      -0.00000000       0.24627878
Si       3.83958982       3.83958982      12.00000000  F        6      -0.00369794      -0.00000000       0.24626235
Si       7.67917964       3.83958982      12.00000000  F        6       0.00006477      -0.00000000       0.23975513
Si       1.91979491       0.00000000      13.35750000  F        5      -0.00026061      -0.00000002      -0.52593443
Si       5.75938473       0.00000000      13.35750000  F        5      -0.00332076      -0.00000002      -0.53631895
Si       9.59897455       0.00000000      13.35750000  F        5       0.00358870      -0.00000002      -0.53593226
Si       1.91979491       3.83958982      13.35750000  F        5      -0.00054628       0.00000000      -0.56537237
Si       5.75938473       3.83958982      13.35750000  F        5       0.01831930       0.00000000      -0.53218762
Si       9.59897455       3.83958982      13.35750000  F        5      -0.01778363       0.00000000      -0.53078629
Si       1.91979491       1.91979491      14.71500000  F        4      -0.00081925      -0.01984249       0.14030890
Si       5.75938473       1.91979491      14.71500000  F        4       0.02610726      -0.03731563       0.15467060
Si       9.59897455       1.91979491      14.71500000  F        4      -0.02508628      -0.03698446       0.15342668
Si       1.91979491       5.75938473      14.71500000  F        4      -0.00081925       0.01984251       0.14030889
Si       5.75938473       5.75938473      14.71500000  F        4       0.02610726       0.03731565       0.15467059
Si       9.59897455       5.75938473      14.71500000  F        4      -0.02508628       0.03698448       0.15342667
Si       0.00000000       1.91979491      16.07250000  F        3      -0.00948967       0.08550797      -0.10337811
Si       3.83958982       1.91979491      16.07250000  F        3       0.01418772       0.08596581      -0.10096769
Si       7.67917964       1.91979491      16.07250000  F        3      -0.00517474       0.00669319      -0.15060454
Si       0.00000000       5.75938473      16.07250000  F        3      -0.00948967      -0.08550795      -0.10337809
Si       3.83958982       5.75938473      16.07250000  F        3       0.01418772      -0.08596579      -0.10096767
Si       7.67917964       5.75938473      16.07250000  F        3      -0.00517474      -0.00669317      -0.15060453
Si       0.00000000       0.00000000      17.43000000  F        2       0.06447812      -0.00000002       0.45414562
Si       3.83958982       0.00000000      17.43000000  F        2      -0.06224028      -0.00000002       0.45781248
Si       7.67917964       0.00000000      17.43000000  F        2      -0.00303983      -0.00000002       0.36746907
Si       0.00000000       3.83958982      17.43000000  F        2       0.11684754       0.00000000       0.40423044
Si       3.83958982       3.83958982      17.43000000  F        2      -0.13743268       0.00000000       0.39709513
Si       7.67917964       3.83958982      17.43000000  F        2      -0.01072079       0.00000000      -0.20129329
Si       1.91979491       0.00000000      18.78750000  F        1      -0.00048035       0.00000000      -0.24272881
Si       5.75938473       0.00000000      18.78750000  F        1       0.07629192       0.00000000      -0.08693107
Si       9.59897455       0.00000000      18.78750000  F        1      -0.07730832       0.00000000      -0.08195365
Si       1.91979491       3.83958982      18.78750000  F        1      -0.00122334      -0.00000000      -0.22899706
Si       5.75938473       3.83958982      18.78750000  F        1      -0.56344255      -0.00000000      -0.67911157
Si       9.59897455       3.83958982      18.78750000  F        1       0.64971434      -0.00000000      -0.73991950
Si       7.67917964       3.83958982      22.42191304  T        0       0.01694637      -0.00000000       1.59714576
Cl       7.67917964       3.83958982      20.38750000  T        0      -0.01684945       0.00000000       1.06778154
Cl       9.59724265       3.83958982      23.10005072  T        0       0.07488175      -0.00000000      -0.31994026
Cl       6.72014814       5.50068111      23.10005072  T        0      -0.06293510       0.09550011      -0.31658528
Cl       6.72014814       2.17849853      23.10005072  T        0      -0.06293510      -0.09550011      -0.31658528
41
Lattice="11.518769465528859 0.0 0.0 0.0 7.679179643685906 0.0 0.0 0.0 30.7875" Properties=species:S:1:pos:R:3:move_mask:L:1:tags:I:1:forces:R:3 surface=Si100 species=SiCl4 site=bridge_Si_Si orientation=upright height_A=1.3 substrate_atoms=36 calculation_kind="Rigid evaluated approach scan; not NEB" energy=-197.88430377438573 pbc="T T F"
Si       0.00000000       0.00000000      12.00000000  F        6       0.00309181       0.00000000       0.26340321
Si       3.83958982       0.00000000      12.00000000  F        6      -0.00276663       0.00000000       0.26346900
Si       7.67917964       0.00000000      12.00000000  F        6      -0.00032576       0.00000000       0.26420418
Si       0.00000000       3.83958982      12.00000000  F        6       0.00642998      -0.00000000       0.24454169
Si       3.83958982       3.83958982      12.00000000  F        6      -0.00611195      -0.00000000       0.24458592
Si       7.67917964       3.83958982      12.00000000  F        6      -0.00031634      -0.00000000       0.23844628
Si       1.91979491       0.00000000      13.35750000  F        5      -0.00002552      -0.00000002      -0.51919816
Si       5.75938473       0.00000000      13.35750000  F        5      -0.00256391      -0.00000002      -0.53334878
Si       9.59897455       0.00000000      13.35750000  F        5       0.00257811      -0.00000002      -0.53511532
Si       1.91979491       3.83958982      13.35750000  F        5      -0.00010826       0.00000000      -0.56857784
Si       5.75938473       3.83958982      13.35750000  F        5       0.01292182       0.00000000      -0.53963523
Si       9.59897455       3.83958982      13.35750000  F        5      -0.01282418       0.00000000      -0.54081612
Si       1.91979491       1.91979491      14.71500000  F        4       0.00063335      -0.03380467       0.13036596
Si       5.75938473       1.91979491      14.71500000  F        4       0.02896947      -0.03525911       0.17806633
Si       9.59897455       1.91979491      14.71500000  F        4      -0.02912095      -0.02939128       0.18191834
Si       1.91979491       5.75938473      14.71500000  F        4       0.00063335       0.03380469       0.13036594
Si       5.75938473       5.75938473      14.71500000  F        4       0.02896947       0.03525914       0.17806631
Si       9.59897455       5.75938473      14.71500000  F        4      -0.02912095       0.02939130       0.18191833
Si       0.00000000       1.91979491      16.07250000  F        3      -0.02276086       0.08859937      -0.11083201
Si       3.83958982       1.91979491      16.07250000  F        3       0.01609442       0.08492529      -0.10507389
Si       7.67917964       1.91979491      16.07250000  F        3       0.00384644       0.09042028      -0.10215819
Si       0.00000000       5.75938473      16.07250000  F        3      -0.02276086      -0.08859935      -0.11083200
Si       3.83958982       5.75938473      16.07250000  F        3       0.01609442      -0.08492526      -0.10507388
Si       7.67917964       5.75938473      16.07250000  F        3       0.00384644      -0.09042025      -0.10215818
Si       0.00000000       0.00000000      17.43000000  F        2       0.06669132      -0.00000002       0.42370110
Si       3.83958982       0.00000000      17.43000000  F        2      -0.08187531      -0.00000002       0.41853626
Si       7.67917964       0.00000000      17.43000000  F        2       0.01066394      -0.00000002       0.30231243
Si       0.00000000       3.83958982      17.43000000  F        2       0.07405680       0.00000000       0.46678821
Si       3.83958982       3.83958982      17.43000000  F        2      -0.09610505       0.00000000       0.48220821
Si       7.67917964       3.83958982      17.43000000  F        2      -0.00293625       0.00000000      -1.01730043
Si       1.91979491       0.00000000      18.78750000  F        1       0.00289093       0.00000000      -0.22919262
Si       5.75938473       0.00000000      18.78750000  F        1       0.16858983       0.00000000       0.08222382
Si       9.59897455       0.00000000      18.78750000  F        1      -0.12781481       0.00000000      -0.04765968
Si       1.91979491       3.83958982      18.78750000  F        1      -0.00394766      -0.00000000      -0.20430562
Si       5.75938473       3.83958982      18.78750000  F        1      -1.13482776      -0.00000000      -0.80079760
Si       9.59897455       3.83958982      18.78750000  F        1       1.22139741      -0.00000000      -0.97635725
Si       7.67917964       3.83958982      22.12191304  T        0      -0.02439578      -0.00000000       2.04497501
Cl       7.67917964       3.83958982      20.08750000  T        0      -0.00677733       0.00000000       1.56852921
Cl       9.59724265       3.83958982      22.80005072  T        0       0.06956936      -0.00000000      -0.27063897
Cl       6.72014814       5.50068111      22.80005072  T        0      -0.06524130       0.09917628      -0.43477698
Cl       6.72014814       2.17849853      22.80005072  T        0      -0.06524130      -0.09917628      -0.43477698
