39
Lattice="11.518769465528859 0.0 0.0 0.0 7.679179643685906 0.0 0.0 0.0 30.7875" Properties=species:S:1:pos:R:3:move_mask:L:1:tags:I:1:forces:R:3 surface=Si100 species=H2O site=atop_Si orientation=flipped height_A=6.5 substrate_atoms=36 calculation_kind="Rigid evaluated approach scan; not NEB" energy=-194.37464166994567 pbc="T T F"
Si       0.00000000       0.00000000      12.00000000  F        6      -0.00000004       0.00000000       0.24903484
Si       3.83958982       0.00000000      12.00000000  F        6      -0.00000000       0.00000000       0.24903482
Si       7.67917964       0.00000000      12.00000000  F        6       0.00000000       0.00000000       0.24903482
Si       0.00000000       3.83958982      12.00000000  F        6      -0.00000004      -0.00000000       0.24903484
Si       3.83958982       3.83958982      12.00000000  F        6      -0.00000000      -0.00000000       0.24903482
Si       7.67917964       3.83958982      12.00000000  F        6       0.00000000      -0.00000000       0.24903482
Si       1.91979491       0.00000000      13.35750000  F        5       0.00000000      -0.00000002      -0.52822352
Si       5.75938473       0.00000000      13.35750000  F        5       0.00000000      -0.00000002      -0.52822353
Si       9.59897455       0.00000000      13.35750000  F        5       0.00000003      -0.00000002      -0.52822354
Si       1.91979491       3.83958982      13.35750000  F        5       0.00000000       0.00000000      -0.52822354
Si       5.75938473       3.83958982      13.35750000  F        5       0.00000000       0.00000000      -0.52822354
Si       9.59897455       3.83958982      13.35750000  F        5       0.00000003       0.00000000      -0.52822356
Si       1.91979491       1.91979491      14.71500000  F        4      -0.00000000       0.00000000       0.14537709
Si       5.75938473       1.91979491      14.71500000  F        4       0.00000000       0.00000000       0.14537709
Si       9.59897455       1.91979491      14.71500000  F        4       0.00000004       0.00000000       0.14537711
Si       1.91979491       5.75938473      14.71500000  F        4      -0.00000000       0.00000002       0.14537707
Si       5.75938473       5.75938473      14.71500000  F        4       0.00000000       0.00000002       0.14537707
Si       9.59897455       5.75938473      14.71500000  F        4       0.00000004       0.00000002       0.14537709
Si       0.00000000       1.91979491      16.07250000  F        3      -0.00000004       0.00000000      -0.14537711
Si       3.83958982       1.91979491      16.07250000  F        3      -0.00000000       0.00000000      -0.14537709
Si       7.67917964       1.91979491      16.07250000  F        3       0.00000000       0.00000000      -0.14537709
Si       0.00000000       5.75938473      16.07250000  F        3      -0.00000004       0.00000002      -0.14537709
Si       3.83958982       5.75938473      16.07250000  F        3      -0.00000000       0.00000002      -0.14537707
Si       7.67917964       5.75938473      16.07250000  F        3       0.00000000       0.00000002      -0.14537707
Si       0.00000000       0.00000000      17.43000000  F        2      -0.00000003      -0.00000002       0.52822354
Si       3.83958982       0.00000000      17.43000000  F        2      -0.00000000      -0.00000002       0.52822353
Si       7.67917964       0.00000000      17.43000000  F        2      -0.00000000      -0.00000002       0.52822352
Si       0.00000000       3.83958982      17.43000000  F        2      -0.00000003       0.00000000       0.52822356
Si       3.83958982       3.83958982      17.43000000  F        2      -0.00000000       0.00000000       0.52822354
Si       7.67917964       3.83958982      17.43000000  F        2      -0.00000000       0.00000000       0.52822354
Si       1.91979491       0.00000000      18.78750000  F        1      -0.00000000       0.00000000      -0.24903482
Si       5.75938473       0.00000000      18.78750000  F        1       0.00000000       0.00000000      -0.24903482
Si       9.59897455       0.00000000      18.78750000  F        1       0.00000004       0.00000000      -0.24903484
Si       1.91979491       3.83958982      18.78750000  F        1      -0.00000000      -0.00000000      -0.24903482
Si       5.75938473       3.83958982      18.78750000  F        1       0.00000000      -0.00000000      -0.24903482
Si       9.59897455       3.83958982      18.78750000  F        1       0.00000004      -0.00000000      -0.24903484
O        5.75938473       3.83958982      25.89369698  T        0       0.00000000       0.00000000       0.00791150
H        5.00129326       3.83958982      25.28750000  T        0      -0.00428516       0.00000000      -0.00395575
H        6.51747620       3.83958982      25.28750000  T        0       0.00428516       0.00000000      -0.00395575
39
Lattice="11.518769465528859 0.0 0.0 0.0 7.679179643685906 0.0 0.0 0.0 30.7875" Properties=species:S:1:pos:R:3:move_mask:L:1:tags:I:1:forces:R:3 surface=Si100 species=H2O site=atop_Si orientation=flipped height_A=5.0 substrate_atoms=36 calculation_kind="Rigid evaluated approach scan; not NEB" energy=-194.37464166994567 pbc="T T F"
Si       0.00000000       0.00000000      12.00000000  F        6      -0.00000004       0.00000000       0.24903484
Si       3.83958982       0.00000000      12.00000000  F        6      -0.00000000       0.00000000       0.24903482
Si       7.67917964       0.00000000      12.00000000  F        6       0.00000000       0.00000000       0.24903482
Si       0.00000000       3.83958982      12.00000000  F        6      -0.00000004      -0.00000000       0.24903484
Si       3.83958982       3.83958982      12.00000000  F        6      -0.00000000      -0.00000000       0.24903482
Si       7.67917964       3.83958982      12.00000000  F        6       0.00000000      -0.00000000       0.24903482
Si       1.91979491       0.00000000      13.35750000  F        5       0.00000000      -0.00000002      -0.52822352
Si       5.75938473       0.00000000      13.35750000  F        5       0.00000000      -0.00000002      -0.52822353
Si       9.59897455       0.00000000      13.35750000  F        5       0.00000003      -0.00000002      -0.52822354
Si       1.91979491       3.83958982      13.35750000  F        5       0.00000000       0.00000000      -0.52822354
Si       5.75938473       3.83958982      13.35750000  F        5       0.00000000       0.00000000      -0.52822354
Si       9.59897455       3.83958982      13.35750000  F        5       0.00000003       0.00000000      -0.52822356
Si       1.91979491       1.91979491      14.71500000  F        4      -0.00000000       0.00000000       0.14537709
Si       5.75938473       1.91979491      14.71500000  F        4       0.00000000       0.00000000       0.14537709
Si       9.59897455       1.91979491      14.71500000  F        4       0.00000004       0.00000000       0.14537711
Si       1.91979491       5.75938473      14.71500000  F        4      -0.00000000       0.00000002       0.14537707
Si       5.75938473       5.75938473      14.71500000  F        4       0.00000000       0.00000002       0.14537707
Si       9.59897455       5.75938473      14.71500000  F        4       0.00000004       0.00000002       0.14537709
Si       0.00000000       1.91979491      16.07250000  F        3      -0.00000004       0.00000000      -0.14537711
Si       3.83958982       1.91979491      16.07250000  F        3      -0.00000000       0.00000000      -0.14537709
Si       7.67917964       1.91979491      16.07250000  F        3       0.00000000       0.00000000      -0.14537709
Si       0.00000000       5.75938473      16.07250000  F        3      -0.00000004       0.00000002      -0.14537709
Si       3.83958982       5.75938473      16.07250000  F        3      -0.00000000       0.00000002      -0.14537707
Si       7.67917964       5.75938473      16.07250000  F        3       0.00000000       0.00000002      -0.14537707
Si       0.00000000       0.00000000      17.43000000  F        2      -0.00000003      -0.00000002       0.52822354
Si       3.83958982       0.00000000      17.43000000  F        2      -0.00000000      -0.00000002       0.52822353
Si       7.67917964       0.00000000      17.43000000  F        2      -0.00000000      -0.00000002       0.52822352
Si       0.00000000       3.83958982      17.43000000  F        2      -0.00000003       0.00000000       0.52822356
Si       3.83958982       3.83958982      17.43000000  F        2      -0.00000000       0.00000000       0.52822354
Si       7.67917964       3.83958982      17.43000000  F        2      -0.00000000       0.00000000       0.52822354
Si       1.91979491       0.00000000      18.78750000  F        1      -0.00000000       0.00000000      -0.24903482
Si       5.75938473       0.00000000      18.78750000  F        1       0.00000000       0.00000000      -0.24903482
Si       9.59897455       0.00000000      18.78750000  F        1       0.00000004       0.00000000      -0.24903484
Si       1.91979491       3.83958982      18.78750000  F        1      -0.00000000      -0.00000000      -0.24903482
Si       5.75938473       3.83958982      18.78750000  F        1       0.00000000      -0.00000000      -0.24903482
Si       9.59897455       3.83958982      18.78750000  F        1       0.00000004      -0.00000000      -0.24903484
O        5.75938473       3.83958982      24.39369698  T        0       0.00000000       0.00000000       0.00791150
H        5.00129326       3.83958982      23.78750000  T        0      -0.00428516       0.00000000      -0.00395575
H        6.51747620       3.83958982      23.78750000  T        0       0.00428516       0.00000000      -0.00395575
39
Lattice="11.518769465528859 0.0 0.0 0.0 7.679179643685906 0.0 0.0 0.0 30.7875" Properties=species:S:1:pos:R:3:move_mask:L:1:tags:I:1:forces:R:3 surface=Si100 species=H2O site=atop_Si orientation=flipped height_A=4.0 substrate_atoms=36 calculation_kind="Rigid evaluated approach scan; not NEB" energy=-194.39287420137555 pbc="T T F"
Si       0.00000000       0.00000000      12.00000000  F        6      -0.00000004       0.00000000       0.24846962
Si       3.83958982       0.00000000      12.00000000  F        6       0.00096033       0.00000000       0.24878459
Si       7.67917964       0.00000000      12.00000000  F        6      -0.00096033       0.00000000       0.24878459
Si       0.00000000       3.83958982      12.00000000  F        6      -0.00000004      -0.00000000       0.24901333
Si       3.83958982       3.83958982      12.00000000  F        6       0.00083995      -0.00000000       0.24968077
Si       7.67917964       3.83958982      12.00000000  F        6      -0.00083995      -0.00000000       0.24968076
Si       1.91979491       0.00000000      13.35750000  F        5      -0.00162570      -0.00000002      -0.52843183
Si       5.75938473       0.00000000      13.35750000  F        5       0.00000000      -0.00000002      -0.52761150
Si       9.59897455       0.00000000      13.35750000  F        5       0.00162574      -0.00000002      -0.52843185
Si       1.91979491       3.83958982      13.35750000  F        5       0.00079378       0.00000000      -0.52558385
Si       5.75938473       3.83958982      13.35750000  F        5       0.00000000       0.00000000      -0.52303792
Si       9.59897455       3.83958982      13.35750000  F        5      -0.00079374       0.00000000      -0.52558388
Si       1.91979491       1.91979491      14.71500000  F        4       0.00316168       0.00059770       0.14585841
Si       5.75938473       1.91979491      14.71500000  F        4       0.00000000       0.00051951       0.14319208
Si       9.59897455       1.91979491      14.71500000  F        4      -0.00316165       0.00059770       0.14585843
Si       1.91979491       5.75938473      14.71500000  F        4       0.00316168      -0.00059768       0.14585839
Si       5.75938473       5.75938473      14.71500000  F        4       0.00000000      -0.00051949       0.14319206
Si       9.59897455       5.75938473      14.71500000  F        4      -0.00316165      -0.00059768       0.14585841
Si       0.00000000       1.91979491      16.07250000  F        3      -0.00000004       0.00150123      -0.14531472
Si       3.83958982       1.91979491      16.07250000  F        3      -0.01162108      -0.00924441      -0.15984656
Si       7.67917964       1.91979491      16.07250000  F        3       0.01162108      -0.00924441      -0.15984656
Si       0.00000000       5.75938473      16.07250000  F        3      -0.00000004      -0.00150121      -0.14531470
Si       3.83958982       5.75938473      16.07250000  F        3      -0.01162108       0.00924444      -0.15984655
Si       7.67917964       5.75938473      16.07250000  F        3       0.01162108       0.00924444      -0.15984655
Si       0.00000000       0.00000000      17.43000000  F        2      -0.00000003      -0.00000002       0.53391184
Si       3.83958982       0.00000000      17.43000000  F        2      -0.00033042      -0.00000002       0.52843441
Si       7.67917964       0.00000000      17.43000000  F        2       0.00033042      -0.00000002       0.52843441
Si       0.00000000       3.83958982      17.43000000  F        2      -0.00000003       0.00000000       0.54512730
Si       3.83958982       3.83958982      17.43000000  F        2       0.00473959       0.00000000       0.51975265
Si       7.67917964       3.83958982      17.43000000  F        2      -0.00473960       0.00000000       0.51975264
Si       1.91979491       0.00000000      18.78750000  F        1       0.00143742       0.00000000      -0.25462764
Si       5.75938473       0.00000000      18.78750000  F        1       0.00000000       0.00000000      -0.22808296
Si       9.59897455       0.00000000      18.78750000  F        1      -0.00143739       0.00000000      -0.25462766
Si       1.91979491       3.83958982      18.78750000  F        1      -0.01184428      -0.00000000      -0.25337289
Si       5.75938473       3.83958982      18.78750000  F        1       0.00000000      -0.00000000      -0.04396984
Si       9.59897455       3.83958982      18.78750000  F        1       0.01184431      -0.00000000      -0.25337291
O        5.75938473       3.83958982      23.39369698  T        0      -0.00000000      -0.00000000      -0.01021702
H        5.00129326       3.83958982      22.78750000  T        0       0.02194110      -0.00000000      -0.07633866
H        6.51747620       3.83958982      22.78750000  T        0      -0.02194110      -0.00000000      -0.07633866
39
Lattice="11.518769465528859 0.0 0.0 0.0 7.679179643685906 0.0 0.0 0.0 30.7875" Properties=species:S:1:pos:R:3:move_mask:L:1:tags:I:1:forces:R:3 surface=Si100 species=H2O site=atop_Si orientation=flipped height_A=3.25 substrate_atoms=36 calculation_kind="Rigid evaluated approach scan; not NEB" energy=-194.47859577362584 pbc="T T F"
Si       0.00000000       0.00000000      12.00000000  F        6      -0.00000004       0.00000000       0.24878776
Si       3.83958982       0.00000000      12.00000000  F        6       0.00100621       0.00000000       0.24978617
Si       7.67917964       0.00000000      12.00000000  F        6      -0.00100621       0.00000000       0.24978617
Si       0.00000000       3.83958982      12.00000000  F        6      -0.00000004      -0.00000000       0.24830166
Si       3.83958982       3.83958982      12.00000000  F        6       0.00023626      -0.00000000       0.24838942
Si       7.67917964       3.83958982      12.00000000  F        6      -0.00023625      -0.00000000       0.24838942
Si       1.91979491       0.00000000      13.35750000  F        5      -0.00082126      -0.00000002      -0.52660249
Si       5.75938473       0.00000000      13.35750000  F        5       0.00000000      -0.00000002      -0.52732384
Si       9.59897455       0.00000000      13.35750000  F        5       0.00082130      -0.00000002      -0.52660251
Si       1.91979491       3.83958982      13.35750000  F        5       0.00150350       0.00000000      -0.52369865
Si       5.75938473       3.83958982      13.35750000  F        5       0.00000000       0.00000000      -0.51968352
Si       9.59897455       3.83958982      13.35750000  F        5      -0.00150347       0.00000000      -0.52369867
Si       1.91979491       1.91979491      14.71500000  F        4       0.00818069      -0.00440861       0.14661227
Si       5.75938473       1.91979491      14.71500000  F        4       0.00000000      -0.00806883       0.14201401
Si       9.59897455       1.91979491      14.71500000  F        4      -0.00818065      -0.00440861       0.14661229
Si       1.91979491       5.75938473      14.71500000  F        4       0.00818069       0.00440864       0.14661225
Si       5.75938473       5.75938473      14.71500000  F        4       0.00000000       0.00806885       0.14201400
Si       9.59897455       5.75938473      14.71500000  F        4      -0.00818065       0.00440864       0.14661227
Si       0.00000000       1.91979491      16.07250000  F        3      -0.00000004       0.00762827      -0.14498694
Si       3.83958982       1.91979491      16.07250000  F        3      -0.01606414      -0.00865372      -0.16497249
Si       7.67917964       1.91979491      16.07250000  F        3       0.01606414      -0.00865372      -0.16497249
Si       0.00000000       5.75938473      16.07250000  F        3      -0.00000004      -0.00762824      -0.14498693
Si       3.83958982       5.75938473      16.07250000  F        3      -0.01606414       0.00865375      -0.16497248
Si       7.67917964       5.75938473      16.07250000  F        3       0.01606414       0.00865375      -0.16497248
Si       0.00000000       0.00000000      17.43000000  F        2      -0.00000003      -0.00000002       0.52536389
Si       3.83958982       0.00000000      17.43000000  F        2      -0.00251369      -0.00000002       0.51107454
Si       7.67917964       0.00000000      17.43000000  F        2       0.00251368      -0.00000002       0.51107454
Si       0.00000000       3.83958982      17.43000000  F        2      -0.00000003       0.00000000       0.56104567
Si       3.83958982       3.83958982      17.43000000  F        2      -0.01869763       0.00000000       0.45736904
Si       7.67917964       3.83958982      17.43000000  F        2       0.01869763       0.00000000       0.45736904
Si       1.91979491       0.00000000      18.78750000  F        1       0.00292068       0.00000000      -0.24773054
Si       5.75938473       0.00000000      18.78750000  F        1       0.00000000       0.00000000      -0.20336304
Si       9.59897455       0.00000000      18.78750000  F        1      -0.00292064       0.00000000      -0.24773056
Si       1.91979491       3.83958982      18.78750000  F        1      -0.01754634      -0.00000000      -0.25525348
Si       5.75938473       3.83958982      18.78750000  F        1       0.00000000      -0.00000000       0.02159103
Si       9.59897455       3.83958982      18.78750000  F        1       0.01754638      -0.00000000      -0.25525350
O        5.75938473       3.83958982      22.64369698  T        0       0.00000000      -0.00000000      -0.01851442
H        5.00129326       3.83958982      22.03750000  T        0       0.12962021      -0.00000000      -0.04174320
H        6.51747620       3.83958982      22.03750000  T        0      -0.12962021      -0.00000000      -0.04174320
39
Lattice="11.518769465528859 0.0 0.0 0.0 7.679179643685906 0.0 0.0 0.0 30.7875" Properties=species:S:1:pos:R:3:move_mask:L:1:tags:I:1:forces:R:3 surface=Si100 species=H2O site=atop_Si orientation=flipped height_A=2.75 substrate_atoms=36 calculation_kind="Rigid evaluated approach scan; not NEB" energy=-194.46282467028698 pbc="T T F"
Si       0.00000000       0.00000000      12.00000000  F        6      -0.00000004       0.00000000       0.24909835
Si       3.83958982       0.00000000      12.00000000  F        6       0.00027283       0.00000000       0.24939800
Si       7.67917964       0.00000000      12.00000000  F        6      -0.00027283       0.00000000       0.24939800
Si       0.00000000       3.83958982      12.00000000  F        6      -0.00000004      -0.00000000       0.24855921
Si       3.83958982       3.83958982      12.00000000  F        6       0.00038965      -0.00000000       0.24930160
Si       7.67917964       3.83958982      12.00000000  F        6      -0.00038964      -0.00000000       0.24930160
Si       1.91979491       0.00000000      13.35750000  F        5      -0.00036670      -0.00000002      -0.52513535
Si       5.75938473       0.00000000      13.35750000  F        5       0.00000000      -0.00000002      -0.52727870
Si       9.59897455       0.00000000      13.35750000  F        5       0.00036673      -0.00000002      -0.52513538
Si       1.91979491       3.83958982      13.35750000  F        5       0.00014565       0.00000000      -0.52374135
Si       5.75938473       3.83958982      13.35750000  F        5       0.00000000       0.00000000      -0.51638571
Si       9.59897455       3.83958982      13.35750000  F        5      -0.00014561       0.00000000      -0.52374137
Si       1.91979491       1.91979491      14.71500000  F        4       0.00376243      -0.00344099       0.14769203
Si       5.75938473       1.91979491      14.71500000  F        4       0.00000000      -0.00627972       0.15837814
Si       9.59897455       1.91979491      14.71500000  F        4      -0.00376240      -0.00344099       0.14769205
Si       1.91979491       5.75938473      14.71500000  F        4       0.00376243       0.00344101       0.14769202
Si       5.75938473       5.75938473      14.71500000  F        4       0.00000000       0.00627975       0.15837812
Si       9.59897455       5.75938473      14.71500000  F        4      -0.00376240       0.00344101       0.14769204
Si       0.00000000       1.91979491      16.07250000  F        3      -0.00000004       0.00806113      -0.14064866
Si       3.83958982       1.91979491      16.07250000  F        3       0.00232075      -0.01515851      -0.16689132
Si       7.67917964       1.91979491      16.07250000  F        3      -0.00232075      -0.01515851      -0.16689132
Si       0.00000000       5.75938473      16.07250000  F        3      -0.00000004      -0.00806111      -0.14064865
Si       3.83958982       5.75938473      16.07250000  F        3       0.00232075       0.01515853      -0.16689130
Si       7.67917964       5.75938473      16.07250000  F        3      -0.00232075       0.01515853      -0.16689130
Si       0.00000000       0.00000000      17.43000000  F        2      -0.00000003      -0.00000002       0.52367666
Si       3.83958982       0.00000000      17.43000000  F        2      -0.00659039      -0.00000002       0.50578564
Si       7.67917964       0.00000000      17.43000000  F        2       0.00659039      -0.00000002       0.50578563
Si       0.00000000       3.83958982      17.43000000  F        2      -0.00000003       0.00000000       0.53007396
Si       3.83958982       3.83958982      17.43000000  F        2      -0.03859315       0.00000000       0.47380505
Si       7.67917964       3.83958982      17.43000000  F        2       0.03859314       0.00000000       0.47380504
Si       1.91979491       0.00000000      18.78750000  F        1       0.00262311       0.00000000      -0.25051125
Si       5.75938473       0.00000000      18.78750000  F        1       0.00000000       0.00000000      -0.24132048
Si       9.59897455       0.00000000      18.78750000  F        1      -0.00262308       0.00000000      -0.25051127
Si       1.91979491       3.83958982      18.78750000  F        1       0.01396006      -0.00000000      -0.24623385
Si       5.75938473       3.83958982      18.78750000  F        1       0.00000000      -0.00000000      -0.33408808
Si       9.59897455       3.83958982      18.78750000  F        1      -0.01396003      -0.00000000      -0.24623387
O        5.75938473       3.83958982      22.14369698  T        0       0.00000000      -0.00000000       0.10902475
H        5.00129326       3.83958982      21.53750000  T        0       0.07400242       0.00000000       0.06732065
H        6.51747620       3.83958982      21.53750000  T        0      -0.07400242       0.00000000       0.06732065
39
Lattice="11.518769465528859 0.0 0.0 0.0 7.679179643685906 0.0 0.0 0.0 30.7875" Properties=species:S:1:pos:R:3:move_mask:L:1:tags:I:1:forces:R:3 surface=Si100 species=H2O site=atop_Si orientation=flipped height_A=2.25 substrate_atoms=36 calculation_kind="Rigid evaluated approach scan; not NEB" energy=-194.2755325449778 pbc="T T F"
Si       0.00000000       0.00000000      12.00000000  F        6      -0.00000004       0.00000000       0.25141396
Si       3.83958982       0.00000000      12.00000000  F        6      -0.00055504       0.00000000       0.25269519
Si       7.67917964       0.00000000      12.00000000  F        6       0.00055504       0.00000000       0.25269519
Si       0.00000000       3.83958982      12.00000000  F        6      -0.00000004      -0.00000000       0.24777388
Si       3.83958982       3.83958982      12.00000000  F        6       0.00038984      -0.00000000       0.24761675
Si       7.67917964       3.83958982      12.00000000  F        6      -0.00038984      -0.00000000       0.24761675
Si       1.91979491       0.00000000      13.35750000  F        5       0.00023550      -0.00000002      -0.52725640
Si       5.75938473       0.00000000      13.35750000  F        5       0.00000000      -0.00000002      -0.53221257
Si       9.59897455       0.00000000      13.35750000  F        5      -0.00023547      -0.00000002      -0.52725642
Si       1.91979491       3.83958982      13.35750000  F        5      -0.00365970       0.00000000      -0.52829012
Si       5.75938473       3.83958982      13.35750000  F        5       0.00000000       0.00000000      -0.50446017
Si       9.59897455       3.83958982      13.35750000  F        5       0.00365973       0.00000000      -0.52829014
Si       1.91979491       1.91979491      14.71500000  F        4      -0.00003412      -0.00370914       0.15595974
Si       5.75938473       1.91979491      14.71500000  F        4       0.00000000      -0.02869541       0.15326435
Si       9.59897455       1.91979491      14.71500000  F        4       0.00003415      -0.00370914       0.15595976
Si       1.91979491       5.75938473      14.71500000  F        4      -0.00003412       0.00370916       0.15595973
Si       5.75938473       5.75938473      14.71500000  F        4       0.00000000       0.02869543       0.15326433
Si       9.59897455       5.75938473      14.71500000  F        4       0.00003415       0.00370916       0.15595975
Si       0.00000000       1.91979491      16.07250000  F        3      -0.00000004       0.00106726      -0.14124923
Si       3.83958982       1.91979491      16.07250000  F        3       0.02088773      -0.02783339      -0.17322865
Si       7.67917964       1.91979491      16.07250000  F        3      -0.02088773      -0.02783339      -0.17322865
Si       0.00000000       5.75938473      16.07250000  F        3      -0.00000004      -0.00106724      -0.14124922
Si       3.83958982       5.75938473      16.07250000  F        3       0.02088773       0.02783342      -0.17322864
Si       7.67917964       5.75938473      16.07250000  F        3      -0.02088773       0.02783342      -0.17322863
Si       0.00000000       0.00000000      17.43000000  F        2      -0.00000003      -0.00000002       0.51724869
Si       3.83958982       0.00000000      17.43000000  F        2      -0.02349542      -0.00000002       0.47394020
Si       7.67917964       0.00000000      17.43000000  F        2       0.02349542      -0.00000002       0.47394020
Si       0.00000000       3.83958982      17.43000000  F        2      -0.00000003       0.00000000       0.48412528
Si       3.83958982       3.83958982      17.43000000  F        2      -0.15007256       0.00000000       0.53990742
Si       7.67917964       3.83958982      17.43000000  F        2       0.15007256       0.00000000       0.53990742
Si       1.91979491       0.00000000      18.78750000  F        1      -0.01276642       0.00000000      -0.25476591
Si       5.75938473       0.00000000      18.78750000  F        1       0.00000000       0.00000000      -0.26839989
Si       9.59897455       0.00000000      18.78750000  F        1       0.01276645       0.00000000      -0.25476593
Si       1.91979491       3.83958982      18.78750000  F        1       0.11518117      -0.00000000      -0.20627916
Si       5.75938473       3.83958982      18.78750000  F        1       0.00000000      -0.00000000      -0.72068723
Si       9.59897455       3.83958982      18.78750000  F        1      -0.11518114      -0.00000000      -0.20627918
O        5.75938473       3.83958982      21.64369698  T        0       0.00000000       0.00000000       0.60520520
H        5.00129326       3.83958982      21.03750000  T        0      -0.06137186      -0.00000000      -0.01504883
H        6.51747620       3.83958982      21.03750000  T        0       0.06137186      -0.00000000      -0.01504883
39
Lattice="11.518769465528859 0.0 0.0 0.0 7.679179643685906 0.0 0.0 0.0 30.7875" Properties=species:S:1:pos:R:3:move_mask:L:1:tags:I:1:forces:R:3 surface=Si100 species=H2O site=atop_Si orientation=flipped height_A=1.9 substrate_atoms=36 calculation_kind="Rigid evaluated approach scan; not NEB" energy=-193.80809625776277 pbc="T T F"
Si       0.00000000       0.00000000      12.00000000  F        6      -0.00000004       0.00000000       0.25285691
Si       3.83958982       0.00000000      12.00000000  F        6      -0.00066856       0.00000000       0.25546842
Si       7.67917964       0.00000000      12.00000000  F        6       0.00066856       0.00000000       0.25546842
Si       0.00000000       3.83958982      12.00000000  F        6      -0.00000004      -0.00000000       0.24652408
Si       3.83958982       3.83958982      12.00000000  F        6       0.00099628      -0.00000000       0.24574221
Si       7.67917964       3.83958982      12.00000000  F        6      -0.00099627      -0.00000000       0.24574221
Si       1.91979491       0.00000000      13.35750000  F        5      -0.00166942      -0.00000002      -0.53037205
Si       5.75938473       0.00000000      13.35750000  F        5       0.00000000      -0.00000002      -0.53720452
Si       9.59897455       0.00000000      13.35750000  F        5       0.00166945      -0.00000002      -0.53037208
Si       1.91979491       3.83958982      13.35750000  F        5      -0.00261226       0.00000000      -0.52891839
Si       5.75938473       3.83958982      13.35750000  F        5       0.00000000       0.00000000      -0.47897352
Si       9.59897455       3.83958982      13.35750000  F        5       0.00261230       0.00000000      -0.52891841
Si       1.91979491       1.91979491      14.71500000  F        4       0.00757401      -0.00896872       0.15937168
Si       5.75938473       1.91979491      14.71500000  F        4       0.00000000      -0.06055510       0.11219061
Si       9.59897455       1.91979491      14.71500000  F        4      -0.00757397      -0.00896872       0.15937170
Si       1.91979491       5.75938473      14.71500000  F        4       0.00757401       0.00896874       0.15937166
Si       5.75938473       5.75938473      14.71500000  F        4       0.00000000       0.06055512       0.11219060
Si       9.59897455       5.75938473      14.71500000  F        4      -0.00757397       0.00896874       0.15937168
Si       0.00000000       1.91979491      16.07250000  F        3      -0.00000004      -0.00645230      -0.15544199
Si       3.83958982       1.91979491      16.07250000  F        3       0.03261804      -0.03644713      -0.17513496
Si       7.67917964       1.91979491      16.07250000  F        3      -0.03261804      -0.03644713      -0.17513496
Si       0.00000000       5.75938473      16.07250000  F        3      -0.00000004       0.00645232      -0.15544198
Si       3.83958982       5.75938473      16.07250000  F        3       0.03261804       0.03644716      -0.17513495
Si       7.67917964       5.75938473      16.07250000  F        3      -0.03261804       0.03644716      -0.17513495
Si       0.00000000       0.00000000      17.43000000  F        2      -0.00000003      -0.00000002       0.50840858
Si       3.83958982       0.00000000      17.43000000  F        2      -0.04199004      -0.00000002       0.44381029
Si       7.67917964       0.00000000      17.43000000  F        2       0.04199004      -0.00000002       0.44381029
Si       0.00000000       3.83958982      17.43000000  F        2      -0.00000003       0.00000000       0.51511292
Si       3.83958982       3.83958982      17.43000000  F        2      -0.17292036       0.00000000       0.57064835
Si       7.67917964       3.83958982      17.43000000  F        2       0.17292036       0.00000000       0.57064835
Si       1.91979491       0.00000000      18.78750000  F        1      -0.01719589       0.00000000      -0.25317494
Si       5.75938473       0.00000000      18.78750000  F        1       0.00000000       0.00000000      -0.21819415
Si       9.59897455       0.00000000      18.78750000  F        1       0.01719592       0.00000000      -0.25317496
Si       1.91979491       3.83958982      18.78750000  F        1       0.15331686      -0.00000000      -0.17299916
Si       5.75938473       3.83958982      18.78750000  F        1       0.00000000      -0.00000000      -2.50919888
Si       9.59897455       3.83958982      18.78750000  F        1      -0.15331682      -0.00000000      -0.17299918
O        5.75938473       3.83958982      21.29369698  T        0       0.00000000       0.00000000       1.53424751
H        5.00129326       3.83958982      20.68750000  T        0      -0.50752697      -0.00000000       0.38778378
H        6.51747620       3.83958982      20.68750000  T        0       0.50752697      -0.00000000       0.38778378
39
Lattice="11.518769465528859 0.0 0.0 0.0 7.679179643685906 0.0 0.0 0.0 30.7875" Properties=species:S:1:pos:R:3:move_mask:L:1:tags:I:1:forces:R:3 surface=Si100 species=H2O site=atop_Si orientation=flipped height_A=1.6 substrate_atoms=36 calculation_kind="Rigid evaluated approach scan; not NEB" energy=-192.76921361156695 pbc="T T F"
Si       0.00000000       0.00000000      12.00000000  F        6      -0.00000004       0.00000000       0.25498648
Si       3.83958982       0.00000000      12.00000000  F        6      -0.00032116       0.00000000       0.26101732
Si       7.67917964       0.00000000      12.00000000  F        6       0.00032116       0.00000000       0.26101732
Si       0.00000000       3.83958982      12.00000000  F        6      -0.00000004      -0.00000000       0.24793732
Si       3.83958982       3.83958982      12.00000000  F        6       0.00058035      -0.00000000       0.24804794
Si       7.67917964       3.83958982      12.00000000  F        6      -0.00058035      -0.00000000       0.24804794
Si       1.91979491       0.00000000      13.35750000  F        5      -0.00115206      -0.00000002      -0.52868255
Si       5.75938473       0.00000000      13.35750000  F        5       0.00000000      -0.00000002      -0.54246637
Si       9.59897455       0.00000000      13.35750000  F        5       0.00115209      -0.00000002      -0.52868257
Si       1.91979491       3.83958982      13.35750000  F        5      -0.00203778       0.00000000      -0.53207872
Si       5.75938473       3.83958982      13.35750000  F        5       0.00000000       0.00000000      -0.46443402
Si       9.59897455       3.83958982      13.35750000  F        5       0.00203782       0.00000000      -0.53207874
Si       1.91979491       1.91979491      14.71500000  F        4       0.01007931      -0.02364294       0.15637464
Si       5.75938473       1.91979491      14.71500000  F        4       0.00000000      -0.08444482       0.05365373
Si       9.59897455       1.91979491      14.71500000  F        4      -0.01007928      -0.02364294       0.15637466
Si       1.91979491       5.75938473      14.71500000  F        4       0.01007931       0.02364297       0.15637462
Si       5.75938473       5.75938473      14.71500000  F        4       0.00000000       0.08444484       0.05365371
Si       9.59897455       5.75938473      14.71500000  F        4      -0.01007928       0.02364297       0.15637464
Si       0.00000000       1.91979491      16.07250000  F        3      -0.00000004      -0.00814037      -0.16927129
Si       3.83958982       1.91979491      16.07250000  F        3       0.00699286      -0.00027975      -0.15129676
Si       7.67917964       1.91979491      16.07250000  F        3      -0.00699286      -0.00027975      -0.15129675
Si       0.00000000       5.75938473      16.07250000  F        3      -0.00000004       0.00814039      -0.16927128
Si       3.83958982       5.75938473      16.07250000  F        3       0.00699286       0.00027977      -0.15129674
Si       7.67917964       5.75938473      16.07250000  F        3      -0.00699286       0.00027977      -0.15129674
Si       0.00000000       0.00000000      17.43000000  F        2      -0.00000003      -0.00000002       0.47762625
Si       3.83958982       0.00000000      17.43000000  F        2      -0.08646819      -0.00000002       0.41375020
Si       7.67917964       0.00000000      17.43000000  F        2       0.08646819      -0.00000002       0.41375020
Si       0.00000000       3.83958982      17.43000000  F        2      -0.00000003       0.00000000       0.56842055
Si       3.83958982       3.83958982      17.43000000  F        2      -0.27850565       0.00000000       0.63957592
Si       7.67917964       3.83958982      17.43000000  F        2       0.27850565       0.00000000       0.63957592
Si       1.91979491       0.00000000      18.78750000  F        1      -0.00704887       0.00000000      -0.23783397
Si       5.75938473       0.00000000      18.78750000  F        1       0.00000000       0.00000000      -0.19604285
Si       9.59897455       0.00000000      18.78750000  F        1       0.00704891       0.00000000      -0.23783399
Si       1.91979491       3.83958982      18.78750000  F        1       0.18101412      -0.00000000      -0.14470259
Si       5.75938473       3.83958982      18.78750000  F        1       0.00000000      -0.00000000      -5.26980573
Si       9.59897455       3.83958982      18.78750000  F        1      -0.18101408      -0.00000000      -0.14470260
O        5.75938473       3.83958982      20.99369698  T        0      -0.00000000      -0.00000000       2.49130926
H        5.00129326       3.83958982      20.38750000  T        0      -1.25869483      -0.00000000       1.20260282
H        6.51747620       3.83958982      20.38750000  T        0       1.25869483      -0.00000000       1.20260282
39
Lattice="11.518769465528859 0.0 0.0 0.0 7.679179643685906 0.0 0.0 0.0 30.7875" Properties=species:S:1:pos:R:3:move_mask:L:1:tags:I:1:forces:R:3 surface=Si100 species=H2O site=atop_Si orientation=flipped height_A=1.3 substrate_atoms=36 calculation_kind="Rigid evaluated approach scan; not NEB" energy=-190.82052669130394 pbc="T T F"
Si       0.00000000       0.00000000      12.00000000  F        6      -0.00000004       0.00000000       0.25846010
Si       3.83958982       0.00000000      12.00000000  F        6      -0.00013226       0.00000000       0.26620429
Si       7.67917964       0.00000000      12.00000000  F        6       0.00013227       0.00000000       0.26620429
Si       0.00000000       3.83958982      12.00000000  F        6      -0.00000004      -0.00000000       0.25106912
Si       3.83958982       3.83958982      12.00000000  F        6      -0.00093584      -0.00000000       0.24854379
Si       7.67917964       3.83958982      12.00000000  F        6       0.00093584      -0.00000000       0.24854379
Si       1.91979491       0.00000000      13.35750000  F        5      -0.00321338      -0.00000002      -0.53264355
Si       5.75938473       0.00000000      13.35750000  F        5       0.00000000      -0.00000002      -0.55876214
Si       9.59897455       0.00000000      13.35750000  F        5       0.00321341      -0.00000002      -0.53264357
Si       1.91979491       3.83958982      13.35750000  F        5      -0.00341941       0.00000000      -0.53642451
Si       5.75938473       3.83958982      13.35750000  F        5       0.00000000       0.00000000      -0.45307620
Si       9.59897455       3.83958982      13.35750000  F        5       0.00341945       0.00000000      -0.53642453
Si       1.91979491       1.91979491      14.71500000  F        4      -0.00181701      -0.03886080       0.14384518
Si       5.75938473       1.91979491      14.71500000  F        4       0.00000000      -0.02025003       0.15979935
Si       9.59897455       1.91979491      14.71500000  F        4       0.00181704      -0.03886080       0.14384520
Si       1.91979491       5.75938473      14.71500000  F        4      -0.00181701       0.03886083       0.14384517
Si       5.75938473       5.75938473      14.71500000  F        4       0.00000000       0.02025005       0.15979933
Si       9.59897455       5.75938473      14.71500000  F        4       0.00181704       0.03886083       0.14384519
Si       0.00000000       1.91979491      16.07250000  F        3      -0.00000004      -0.01192533      -0.18978224
Si       3.83958982       1.91979491      16.07250000  F        3       0.07588838       0.13188971      -0.00294257
Si       7.67917964       1.91979491      16.07250000  F        3      -0.07588838       0.13188971      -0.00294257
Si       0.00000000       5.75938473      16.07250000  F        3      -0.00000004       0.01192535      -0.18978222
Si       3.83958982       5.75938473      16.07250000  F        3       0.07588838      -0.13188969      -0.00294256
Si       7.67917964       5.75938473      16.07250000  F        3      -0.07588838      -0.13188969      -0.00294256
Si       0.00000000       0.00000000      17.43000000  F        2      -0.00000003      -0.00000002       0.44262285
Si       3.83958982       0.00000000      17.43000000  F        2      -0.10172555      -0.00000002       0.39052953
Si       7.67917964       0.00000000      17.43000000  F        2       0.10172555      -0.00000002       0.39052952
Si       0.00000000       3.83958982      17.43000000  F        2      -0.00000003       0.00000000       0.58059312
Si       3.83958982       3.83958982      17.43000000  F        2      -0.81855992       0.00000000       0.36878426
Si       7.67917964       3.83958982      17.43000000  F        2       0.81855992       0.00000000       0.36878425
Si       1.91979491       0.00000000      18.78750000  F        1      -0.00145739       0.00000000      -0.20975019
Si       5.75938473       0.00000000      18.78750000  F        1       0.00000000       0.00000000      -0.13830962
Si       9.59897455       0.00000000      18.78750000  F        1       0.00145742       0.00000000      -0.20975021
Si       1.91979491       3.83958982      18.78750000  F        1       0.16836624      -0.00000000      -0.12434034
Si       5.75938473       3.83958982      18.78750000  F        1       0.00000000      -0.00000000      -8.70881444
Si       9.59897455       3.83958982      18.78750000  F        1      -0.16836621      -0.00000000      -0.12434036
O        5.75938473       3.83958982      20.69369698  T        0      -0.00000000      -0.00000000       4.79599406
H        5.00129326       3.83958982      20.08750000  T        0      -2.43504167       0.00000000       1.64238599
H        6.51747620       3.83958982      20.08750000  T        0       2.43504167       0.00000000       1.64238599
