38
Lattice="11.518769465528859 0.0 0.0 0.0 7.679179643685906 0.0 0.0 0.0 30.7875" Properties=species:S:1:pos:R:3:move_mask:L:1:tags:I:1:forces:R:3 surface=Si100 species=HCl site=atop_Si orientation=flipped height_A=6.5 substrate_atoms=36 calculation_kind="Rigid evaluated approach scan; not NEB" energy=-186.32958991594327 pbc="T T F"
Si       0.00000000       0.00000000      12.00000000  F        6      -0.00000004       0.00000000       0.24903484
Si       3.83958982       0.00000000      12.00000000  F        6      -0.00000000       0.00000000       0.24903482
Si       7.67917964       0.00000000      12.00000000  F        6       0.00000000       0.00000000       0.24903482
Si       0.00000000       3.83958982      12.00000000  F        6      -0.00000004      -0.00000000       0.24903484
Si       3.83958982       3.83958982      12.00000000  F        6      -0.00000000      -0.00000000       0.24903482
Si       7.67917964       3.83958982      12.00000000  F        6       0.00000000      -0.00000000       0.24903482
Si       1.91979491       0.00000000      13.35750000  F        5       0.00000000      -0.00000002      -0.52822352
Si       5.75938473       0.00000000      13.35750000  F        5       0.00000000      -0.00000002      -0.52822353
Si       9.59897455       0.00000000      13.35750000  F        5       0.00000003      -0.00000002      -0.52822354
Si       1.91979491       3.83958982      13.35750000  F        5       0.00000000       0.00000000      -0.52822354
Si       5.75938473       3.83958982      13.35750000  F        5       0.00000000       0.00000000      -0.52822354
Si       9.59897455       3.83958982      13.35750000  F        5       0.00000003       0.00000000      -0.52822356
Si       1.91979491       1.91979491      14.71500000  F        4      -0.00000000       0.00000000       0.14537709
Si       5.75938473       1.91979491      14.71500000  F        4       0.00000000       0.00000000       0.14537709
Si       9.59897455       1.91979491      14.71500000  F        4       0.00000004       0.00000000       0.14537711
Si       1.91979491       5.75938473      14.71500000  F        4      -0.00000000       0.00000002       0.14537707
Si       5.75938473       5.75938473      14.71500000  F        4       0.00000000       0.00000002       0.14537707
Si       9.59897455       5.75938473      14.71500000  F        4       0.00000004       0.00000002       0.14537709
Si       0.00000000       1.91979491      16.07250000  F        3      -0.00000004       0.00000000      -0.14537711
Si       3.83958982       1.91979491      16.07250000  F        3      -0.00000000       0.00000000      -0.14537709
Si       7.67917964       1.91979491      16.07250000  F        3       0.00000000       0.00000000      -0.14537709
Si       0.00000000       5.75938473      16.07250000  F        3      -0.00000004       0.00000002      -0.14537709
Si       3.83958982       5.75938473      16.07250000  F        3      -0.00000000       0.00000002      -0.14537707
Si       7.67917964       5.75938473      16.07250000  F        3       0.00000000       0.00000002      -0.14537707
Si       0.00000000       0.00000000      17.43000000  F        2      -0.00000003      -0.00000002       0.52822354
Si       3.83958982       0.00000000      17.43000000  F        2      -0.00000000      -0.00000002       0.52822353
Si       7.67917964       0.00000000      17.43000000  F        2      -0.00000000      -0.00000002       0.52822352
Si       0.00000000       3.83958982      17.43000000  F        2      -0.00000003       0.00000000       0.52822356
Si       3.83958982       3.83958982      17.43000000  F        2      -0.00000000       0.00000000       0.52822354
Si       7.67917964       3.83958982      17.43000000  F        2      -0.00000000       0.00000000       0.52822354
Si       1.91979491       0.00000000      18.78750000  F        1      -0.00000000       0.00000000      -0.24903482
Si       5.75938473       0.00000000      18.78750000  F        1       0.00000000       0.00000000      -0.24903482
Si       9.59897455       0.00000000      18.78750000  F        1       0.00000004       0.00000000      -0.24903484
Si       1.91979491       3.83958982      18.78750000  F        1      -0.00000000      -0.00000000      -0.24903482
Si       5.75938473       3.83958982      18.78750000  F        1       0.00000000      -0.00000000      -0.24903482
Si       9.59897455       3.83958982      18.78750000  F        1       0.00000004      -0.00000000      -0.24903484
Cl       5.75938473       3.83958982      26.58928926  T        0       0.00000000       0.00000000       0.00729331
H        5.75938473       3.83958982      25.28750000  T        0       0.00000000       0.00000000      -0.00729331
38
Lattice="11.518769465528859 0.0 0.0 0.0 7.679179643685906 0.0 0.0 0.0 30.7875" Properties=species:S:1:pos:R:3:move_mask:L:1:tags:I:1:forces:R:3 surface=Si100 species=HCl site=atop_Si orientation=flipped height_A=5.0 substrate_atoms=36 calculation_kind="Rigid evaluated approach scan; not NEB" energy=-186.32958991594327 pbc="T T F"
Si       0.00000000       0.00000000      12.00000000  F        6      -0.00000004       0.00000000       0.24903484
Si       3.83958982       0.00000000      12.00000000  F        6      -0.00000000       0.00000000       0.24903482
Si       7.67917964       0.00000000      12.00000000  F        6       0.00000000       0.00000000       0.24903482
Si       0.00000000       3.83958982      12.00000000  F        6      -0.00000004      -0.00000000       0.24903484
Si       3.83958982       3.83958982      12.00000000  F        6      -0.00000000      -0.00000000       0.24903482
Si       7.67917964       3.83958982      12.00000000  F        6       0.00000000      -0.00000000       0.24903482
Si       1.91979491       0.00000000      13.35750000  F        5       0.00000000      -0.00000002      -0.52822352
Si       5.75938473       0.00000000      13.35750000  F        5       0.00000000      -0.00000002      -0.52822353
Si       9.59897455       0.00000000      13.35750000  F        5       0.00000003      -0.00000002      -0.52822354
Si       1.91979491       3.83958982      13.35750000  F        5       0.00000000       0.00000000      -0.52822354
Si       5.75938473       3.83958982      13.35750000  F        5       0.00000000       0.00000000      -0.52822354
Si       9.59897455       3.83958982      13.35750000  F        5       0.00000003       0.00000000      -0.52822356
Si       1.91979491       1.91979491      14.71500000  F        4      -0.00000000       0.00000000       0.14537709
Si       5.75938473       1.91979491      14.71500000  F        4       0.00000000       0.00000000       0.14537709
Si       9.59897455       1.91979491      14.71500000  F        4       0.00000004       0.00000000       0.14537711
Si       1.91979491       5.75938473      14.71500000  F        4      -0.00000000       0.00000002       0.14537707
Si       5.75938473       5.75938473      14.71500000  F        4       0.00000000       0.00000002       0.14537707
Si       9.59897455       5.75938473      14.71500000  F        4       0.00000004       0.00000002       0.14537709
Si       0.00000000       1.91979491      16.07250000  F        3      -0.00000004       0.00000000      -0.14537711
Si       3.83958982       1.91979491      16.07250000  F        3      -0.00000000       0.00000000      -0.14537709
Si       7.67917964       1.91979491      16.07250000  F        3       0.00000000       0.00000000      -0.14537709
Si       0.00000000       5.75938473      16.07250000  F        3      -0.00000004       0.00000002      -0.14537709
Si       3.83958982       5.75938473      16.07250000  F        3      -0.00000000       0.00000002      -0.14537707
Si       7.67917964       5.75938473      16.07250000  F        3       0.00000000       0.00000002      -0.14537707
Si       0.00000000       0.00000000      17.43000000  F        2      -0.00000003      -0.00000002       0.52822354
Si       3.83958982       0.00000000      17.43000000  F        2      -0.00000000      -0.00000002       0.52822353
Si       7.67917964       0.00000000      17.43000000  F        2      -0.00000000      -0.00000002       0.52822352
Si       0.00000000       3.83958982      17.43000000  F        2      -0.00000003       0.00000000       0.52822356
Si       3.83958982       3.83958982      17.43000000  F        2      -0.00000000       0.00000000       0.52822354
Si       7.67917964       3.83958982      17.43000000  F        2      -0.00000000       0.00000000       0.52822354
Si       1.91979491       0.00000000      18.78750000  F        1      -0.00000000       0.00000000      -0.24903482
Si       5.75938473       0.00000000      18.78750000  F        1       0.00000000       0.00000000      -0.24903482
Si       9.59897455       0.00000000      18.78750000  F        1       0.00000004       0.00000000      -0.24903484
Si       1.91979491       3.83958982      18.78750000  F        1      -0.00000000      -0.00000000      -0.24903482
Si       5.75938473       3.83958982      18.78750000  F        1       0.00000000      -0.00000000      -0.24903482
Si       9.59897455       3.83958982      18.78750000  F        1       0.00000004      -0.00000000      -0.24903484
Cl       5.75938473       3.83958982      25.08928926  T        0       0.00000000       0.00000000       0.00729331
H        5.75938473       3.83958982      23.78750000  T        0       0.00000000       0.00000000      -0.00729331
38
Lattice="11.518769465528859 0.0 0.0 0.0 7.679179643685906 0.0 0.0 0.0 30.7875" Properties=species:S:1:pos:R:3:move_mask:L:1:tags:I:1:forces:R:3 surface=Si100 species=HCl site=atop_Si orientation=flipped height_A=4.0 substrate_atoms=36 calculation_kind="Rigid evaluated approach scan; not NEB" energy=-186.36536703025575 pbc="T T F"
Si       0.00000000       0.00000000      12.00000000  F        6      -0.00000004       0.00000000       0.24867360
Si       3.83958982       0.00000000      12.00000000  F        6       0.00040722       0.00000000       0.24876055
Si       7.67917964       0.00000000      12.00000000  F        6      -0.00040722       0.00000000       0.24876055
Si       0.00000000       3.83958982      12.00000000  F        6      -0.00000004      -0.00000000       0.24896474
Si       3.83958982       3.83958982      12.00000000  F        6       0.00034871      -0.00000000       0.24924794
Si       7.67917964       3.83958982      12.00000000  F        6      -0.00034871      -0.00000000       0.24924794
Si       1.91979491       0.00000000      13.35750000  F        5      -0.00080647      -0.00000002      -0.52841589
Si       5.75938473       0.00000000      13.35750000  F        5       0.00000000      -0.00000002      -0.52827973
Si       9.59897455       0.00000000      13.35750000  F        5       0.00080650      -0.00000002      -0.52841591
Si       1.91979491       3.83958982      13.35750000  F        5       0.00040479       0.00000000      -0.52712352
Si       5.75938473       3.83958982      13.35750000  F        5       0.00000000       0.00000000      -0.52573290
Si       9.59897455       3.83958982      13.35750000  F        5      -0.00040476       0.00000000      -0.52712354
Si       1.91979491       1.91979491      14.71500000  F        4       0.00193803       0.00032749       0.14569462
Si       5.75938473       1.91979491      14.71500000  F        4       0.00000000      -0.00330324       0.13797780
Si       9.59897455       1.91979491      14.71500000  F        4      -0.00193800       0.00032749       0.14569465
Si       1.91979491       5.75938473      14.71500000  F        4       0.00193803      -0.00032747       0.14569461
Si       5.75938473       5.75938473      14.71500000  F        4       0.00000000       0.00330326       0.13797779
Si       9.59897455       5.75938473      14.71500000  F        4      -0.00193800      -0.00032747       0.14569463
Si       0.00000000       1.91979491      16.07250000  F        3      -0.00000004       0.00005854      -0.14573725
Si       3.83958982       1.91979491      16.07250000  F        3      -0.00814225      -0.00557436      -0.15229894
Si       7.67917964       1.91979491      16.07250000  F        3       0.00814225      -0.00557436      -0.15229894
Si       0.00000000       5.75938473      16.07250000  F        3      -0.00000004      -0.00005851      -0.14573724
Si       3.83958982       5.75938473      16.07250000  F        3      -0.00814225       0.00557438      -0.15229893
Si       7.67917964       5.75938473      16.07250000  F        3       0.00814225       0.00557438      -0.15229892
Si       0.00000000       0.00000000      17.43000000  F        2      -0.00000003      -0.00000002       0.53102819
Si       3.83958982       0.00000000      17.43000000  F        2       0.00071819      -0.00000002       0.52906115
Si       7.67917964       0.00000000      17.43000000  F        2      -0.00071819      -0.00000002       0.52906114
Si       0.00000000       3.83958982      17.43000000  F        2      -0.00000003       0.00000000       0.53964271
Si       3.83958982       3.83958982      17.43000000  F        2       0.00838479       0.00000000       0.53286357
Si       7.67917964       3.83958982      17.43000000  F        2      -0.00838480       0.00000000       0.53286356
Si       1.91979491       0.00000000      18.78750000  F        1       0.00040347       0.00000000      -0.25194625
Si       5.75938473       0.00000000      18.78750000  F        1       0.00000000       0.00000000      -0.23536209
Si       9.59897455       0.00000000      18.78750000  F        1      -0.00040343       0.00000000      -0.25194626
Si       1.91979491       3.83958982      18.78750000  F        1      -0.00820035      -0.00000000      -0.25238447
Si       5.75938473       3.83958982      18.78750000  F        1       0.00000000      -0.00000000      -0.06335672
Si       9.59897455       3.83958982      18.78750000  F        1       0.00820038      -0.00000000      -0.25238449
Cl       5.75938473       3.83958982      24.08928926  T        0       0.00000000       0.00000000      -0.00493753
H        5.75938473       3.83958982      22.78750000  T        0       0.00000000      -0.00000000      -0.16883024
38
Lattice="11.518769465528859 0.0 0.0 0.0 7.679179643685906 0.0 0.0 0.0 30.7875" Properties=species:S:1:pos:R:3:move_mask:L:1:tags:I:1:forces:R:3 surface=Si100 species=HCl site=atop_Si orientation=flipped height_A=3.25 substrate_atoms=36 calculation_kind="Rigid evaluated approach scan; not NEB" energy=-186.52901541227564 pbc="T T F"
Si       0.00000000       0.00000000      12.00000000  F        6      -0.00000004       0.00000000       0.24852835
Si       3.83958982       0.00000000      12.00000000  F        6       0.00057837       0.00000000       0.24829281
Si       7.67917964       0.00000000      12.00000000  F        6      -0.00057837       0.00000000       0.24829281
Si       0.00000000       3.83958982      12.00000000  F        6      -0.00000004      -0.00000000       0.24872988
Si       3.83958982       3.83958982      12.00000000  F        6       0.00033570      -0.00000000       0.24863325
Si       7.67917964       3.83958982      12.00000000  F        6      -0.00033569      -0.00000000       0.24863324
Si       1.91979491       0.00000000      13.35750000  F        5      -0.00069475      -0.00000002      -0.52758564
Si       5.75938473       0.00000000      13.35750000  F        5       0.00000000      -0.00000002      -0.52653973
Si       9.59897455       0.00000000      13.35750000  F        5       0.00069479      -0.00000002      -0.52758566
Si       1.91979491       3.83958982      13.35750000  F        5       0.00045936       0.00000000      -0.52596314
Si       5.75938473       3.83958982      13.35750000  F        5       0.00000000       0.00000000      -0.52258080
Si       9.59897455       3.83958982      13.35750000  F        5      -0.00045933       0.00000000      -0.52596316
Si       1.91979491       1.91979491      14.71500000  F        4       0.00628952      -0.00035772       0.14858955
Si       5.75938473       1.91979491      14.71500000  F        4       0.00000000      -0.00699399       0.13859230
Si       9.59897455       1.91979491      14.71500000  F        4      -0.00628948      -0.00035772       0.14858957
Si       1.91979491       5.75938473      14.71500000  F        4       0.00628952       0.00035775       0.14858953
Si       5.75938473       5.75938473      14.71500000  F        4       0.00000000       0.00699402       0.13859229
Si       9.59897455       5.75938473      14.71500000  F        4      -0.00628948       0.00035775       0.14858956
Si       0.00000000       1.91979491      16.07250000  F        3      -0.00000004       0.00115390      -0.14525145
Si       3.83958982       1.91979491      16.07250000  F        3      -0.01415565      -0.00720055      -0.15429413
Si       7.67917964       1.91979491      16.07250000  F        3       0.01415565      -0.00720055      -0.15429413
Si       0.00000000       5.75938473      16.07250000  F        3      -0.00000004      -0.00115388      -0.14525144
Si       3.83958982       5.75938473      16.07250000  F        3      -0.01415565       0.00720057      -0.15429412
Si       7.67917964       5.75938473      16.07250000  F        3       0.01415565       0.00720057      -0.15429412
Si       0.00000000       0.00000000      17.43000000  F        2      -0.00000003      -0.00000002       0.53078404
Si       3.83958982       0.00000000      17.43000000  F        2      -0.00288542      -0.00000002       0.51698684
Si       7.67917964       0.00000000      17.43000000  F        2       0.00288541      -0.00000002       0.51698683
Si       0.00000000       3.83958982      17.43000000  F        2      -0.00000003       0.00000000       0.54532967
Si       3.83958982       3.83958982      17.43000000  F        2      -0.01295545       0.00000000       0.51780668
Si       7.67917964       3.83958982      17.43000000  F        2       0.01295545       0.00000000       0.51780668
Si       1.91979491       0.00000000      18.78750000  F        1       0.00042768       0.00000000      -0.25368535
Si       5.75938473       0.00000000      18.78750000  F        1       0.00000000       0.00000000      -0.22056162
Si       9.59897455       0.00000000      18.78750000  F        1      -0.00042764       0.00000000      -0.25368536
Si       1.91979491       3.83958982      18.78750000  F        1       0.00297174      -0.00000000      -0.26047840
Si       5.75938473       3.83958982      18.78750000  F        1       0.00000000      -0.00000000       0.06722598
Si       9.59897455       3.83958982      18.78750000  F        1      -0.00297171      -0.00000000      -0.26047842
Cl       5.75938473       3.83958982      23.33928926  T        0      -0.00000000       0.00000000      -0.14807464
H        5.75938473       3.83958982      22.03750000  T        0       0.00000000      -0.00000000      -0.11471856
38
Lattice="11.518769465528859 0.0 0.0 0.0 7.679179643685906 0.0 0.0 0.0 30.7875" Properties=species:S:1:pos:R:3:move_mask:L:1:tags:I:1:forces:R:3 surface=Si100 species=HCl site=atop_Si orientation=flipped height_A=2.75 substrate_atoms=36 calculation_kind="Rigid evaluated approach scan; not NEB" energy=-186.58658479507662 pbc="T T F"
Si       0.00000000       0.00000000      12.00000000  F        6      -0.00000004       0.00000000       0.24886574
Si       3.83958982       0.00000000      12.00000000  F        6       0.00071642       0.00000000       0.24757345
Si       7.67917964       0.00000000      12.00000000  F        6      -0.00071641       0.00000000       0.24757345
Si       0.00000000       3.83958982      12.00000000  F        6      -0.00000004      -0.00000000       0.24876808
Si       3.83958982       3.83958982      12.00000000  F        6       0.00107940      -0.00000000       0.24875676
Si       7.67917964       3.83958982      12.00000000  F        6      -0.00107939      -0.00000000       0.24875676
Si       1.91979491       0.00000000      13.35750000  F        5      -0.00057961      -0.00000002      -0.52616265
Si       5.75938473       0.00000000      13.35750000  F        5       0.00000000      -0.00000002      -0.52331396
Si       9.59897455       0.00000000      13.35750000  F        5       0.00057964      -0.00000002      -0.52616267
Si       1.91979491       3.83958982      13.35750000  F        5       0.00066850       0.00000000      -0.52369662
Si       5.75938473       3.83958982      13.35750000  F        5       0.00000000       0.00000000      -0.51586248
Si       9.59897455       3.83958982      13.35750000  F        5      -0.00066846       0.00000000      -0.52369665
Si       1.91979491       1.91979491      14.71500000  F        4       0.00587571      -0.00018415       0.14927558
Si       5.75938473       1.91979491      14.71500000  F        4       0.00000000       0.00004391       0.16087033
Si       9.59897455       1.91979491      14.71500000  F        4      -0.00587568      -0.00018415       0.14927560
Si       1.91979491       5.75938473      14.71500000  F        4       0.00587571       0.00018417       0.14927556
Si       5.75938473       5.75938473      14.71500000  F        4       0.00000000      -0.00004389       0.16087031
Si       9.59897455       5.75938473      14.71500000  F        4      -0.00587568       0.00018417       0.14927559
Si       0.00000000       1.91979491      16.07250000  F        3      -0.00000004       0.00739868      -0.14026571
Si       3.83958982       1.91979491      16.07250000  F        3       0.00369655      -0.00712045      -0.15808557
Si       7.67917964       1.91979491      16.07250000  F        3      -0.00369655      -0.00712045      -0.15808557
Si       0.00000000       5.75938473      16.07250000  F        3      -0.00000004      -0.00739866      -0.14026569
Si       3.83958982       5.75938473      16.07250000  F        3       0.00369655       0.00712048      -0.15808556
Si       7.67917964       5.75938473      16.07250000  F        3      -0.00369655       0.00712048      -0.15808556
Si       0.00000000       0.00000000      17.43000000  F        2      -0.00000003      -0.00000002       0.52797126
Si       3.83958982       0.00000000      17.43000000  F        2      -0.01060474      -0.00000002       0.50153558
Si       7.67917964       0.00000000      17.43000000  F        2       0.01060473      -0.00000002       0.50153557
Si       0.00000000       3.83958982      17.43000000  F        2      -0.00000003       0.00000000       0.53331177
Si       3.83958982       3.83958982      17.43000000  F        2      -0.06792232       0.00000000       0.48470656
Si       7.67917964       3.83958982      17.43000000  F        2       0.06792231       0.00000000       0.48470656
Si       1.91979491       0.00000000      18.78750000  F        1       0.00064374       0.00000000      -0.25491279
Si       5.75938473       0.00000000      18.78750000  F        1       0.00000000       0.00000000      -0.27261729
Si       9.59897455       0.00000000      18.78750000  F        1      -0.00064371       0.00000000      -0.25491281
Si       1.91979491       3.83958982      18.78750000  F        1       0.00402600      -0.00000000      -0.26795271
Si       5.75938473       3.83958982      18.78750000  F        1       0.00000000      -0.00000000      -0.08043190
Si       9.59897455       3.83958982      18.78750000  F        1      -0.00402597      -0.00000000      -0.26795273
Cl       5.75938473       3.83958982      22.83928926  T        0      -0.00000000      -0.00000000       0.28756548
H        5.75938473       3.83958982      21.53750000  T        0       0.00000000       0.00000000      -0.27992108
38
Lattice="11.518769465528859 0.0 0.0 0.0 7.679179643685906 0.0 0.0 0.0 30.7875" Properties=species:S:1:pos:R:3:move_mask:L:1:tags:I:1:forces:R:3 surface=Si100 species=HCl site=atop_Si orientation=flipped height_A=2.25 substrate_atoms=36 calculation_kind="Rigid evaluated approach scan; not NEB" energy=-186.65072772861785 pbc="T T F"
Si       0.00000000       0.00000000      12.00000000  F        6      -0.00000004       0.00000000       0.25158898
Si       3.83958982       0.00000000      12.00000000  F        6       0.00046515       0.00000000       0.25044425
Si       7.67917964       0.00000000      12.00000000  F        6      -0.00046515       0.00000000       0.25044425
Si       0.00000000       3.83958982      12.00000000  F        6      -0.00000004      -0.00000000       0.24831294
Si       3.83958982       3.83958982      12.00000000  F        6       0.00163792      -0.00000000       0.24779951
Si       7.67917964       3.83958982      12.00000000  F        6      -0.00163792      -0.00000000       0.24779951
Si       1.91979491       0.00000000      13.35750000  F        5      -0.00116138      -0.00000002      -0.52623590
Si       5.75938473       0.00000000      13.35750000  F        5       0.00000000      -0.00000002      -0.52258972
Si       9.59897455       0.00000000      13.35750000  F        5       0.00116141      -0.00000002      -0.52623593
Si       1.91979491       3.83958982      13.35750000  F        5      -0.00166734       0.00000000      -0.52659624
Si       5.75938473       3.83958982      13.35750000  F        5       0.00000000       0.00000000      -0.50596839
Si       9.59897455       3.83958982      13.35750000  F        5       0.00166738       0.00000000      -0.52659626
Si       1.91979491       1.91979491      14.71500000  F        4       0.00592885      -0.00451188       0.14522342
Si       5.75938473       1.91979491      14.71500000  F        4       0.00000000      -0.00877702       0.16855692
Si       9.59897455       1.91979491      14.71500000  F        4      -0.00592882      -0.00451188       0.14522344
Si       1.91979491       5.75938473      14.71500000  F        4       0.00592885       0.00451190       0.14522341
Si       5.75938473       5.75938473      14.71500000  F        4       0.00000000       0.00877705       0.16855690
Si       9.59897455       5.75938473      14.71500000  F        4      -0.00592882       0.00451190       0.14522343
Si       0.00000000       1.91979491      16.07250000  F        3      -0.00000004       0.01263592      -0.13333273
Si       3.83958982       1.91979491      16.07250000  F        3       0.02720402      -0.01082906      -0.17630325
Si       7.67917964       1.91979491      16.07250000  F        3      -0.02720402      -0.01082906      -0.17630325
Si       0.00000000       5.75938473      16.07250000  F        3      -0.00000004      -0.01263590      -0.13333272
Si       3.83958982       5.75938473      16.07250000  F        3       0.02720402       0.01082908      -0.17630324
Si       7.67917964       5.75938473      16.07250000  F        3      -0.02720402       0.01082908      -0.17630324
Si       0.00000000       0.00000000      17.43000000  F        2      -0.00000003      -0.00000002       0.52470470
Si       3.83958982       0.00000000      17.43000000  F        2      -0.05279944      -0.00000002       0.45382729
Si       7.67917964       0.00000000      17.43000000  F        2       0.05279943      -0.00000002       0.45382729
Si       0.00000000       3.83958982      17.43000000  F        2      -0.00000003       0.00000000       0.52934212
Si       3.83958982       3.83958982      17.43000000  F        2      -0.14506511       0.00000000       0.55985050
Si       7.67917964       3.83958982      17.43000000  F        2       0.14506511       0.00000000       0.55985050
Si       1.91979491       0.00000000      18.78750000  F        1      -0.00824629       0.00000000      -0.25194686
Si       5.75938473       0.00000000      18.78750000  F        1       0.00000000       0.00000000      -0.22549248
Si       9.59897455       0.00000000      18.78750000  F        1       0.00824632       0.00000000      -0.25194688
Si       1.91979491       3.83958982      18.78750000  F        1      -0.01582726      -0.00000000      -0.25950996
Si       5.75938473       3.83958982      18.78750000  F        1       0.00000000      -0.00000000      -0.09268500
Si       9.59897455       3.83958982      18.78750000  F        1       0.01582730      -0.00000000      -0.25950998
Cl       5.75938473       3.83958982      22.33928926  T        0      -0.00000000      -0.00000000       0.45774862
H        5.75938473       3.83958982      21.03750000  T        0      -0.00000000      -0.00000000      -0.50635594
38
Lattice="11.518769465528859 0.0 0.0 0.0 7.679179643685906 0.0 0.0 0.0 30.7875" Properties=species:S:1:pos:R:3:move_mask:L:1:tags:I:1:forces:R:3 surface=Si100 species=HCl site=atop_Si orientation=flipped height_A=1.9 substrate_atoms=36 calculation_kind="Rigid evaluated approach scan; not NEB" energy=-186.4119313696354 pbc="T T F"
Si       0.00000000       0.00000000      12.00000000  F        6      -0.00000004       0.00000000       0.25263926
Si       3.83958982       0.00000000      12.00000000  F        6       0.00010884       0.00000000       0.25185789
Si       7.67917964       0.00000000      12.00000000  F        6      -0.00010884       0.00000000       0.25185789
Si       0.00000000       3.83958982      12.00000000  F        6      -0.00000004      -0.00000000       0.24815403
Si       3.83958982       3.83958982      12.00000000  F        6       0.00195783      -0.00000000       0.24774447
Si       7.67917964       3.83958982      12.00000000  F        6      -0.00195783      -0.00000000       0.24774447
Si       1.91979491       0.00000000      13.35750000  F        5      -0.00280478      -0.00000002      -0.52827899
Si       5.75938473       0.00000000      13.35750000  F        5       0.00000000      -0.00000002      -0.52385069
Si       9.59897455       0.00000000      13.35750000  F        5       0.00280482      -0.00000002      -0.52827901
Si       1.91979491       3.83958982      13.35750000  F        5      -0.00378635       0.00000000      -0.53112346
Si       5.75938473       3.83958982      13.35750000  F        5       0.00000000       0.00000000      -0.49755525
Si       9.59897455       3.83958982      13.35750000  F        5       0.00378638       0.00000000      -0.53112349
Si       1.91979491       1.91979491      14.71500000  F        4       0.01276505      -0.00711644       0.14783629
Si       5.75938473       1.91979491      14.71500000  F        4       0.00000000      -0.02936056       0.14145103
Si       9.59897455       1.91979491      14.71500000  F        4      -0.01276501      -0.00711644       0.14783631
Si       1.91979491       5.75938473      14.71500000  F        4       0.01276505       0.00711646       0.14783628
Si       5.75938473       5.75938473      14.71500000  F        4       0.00000000       0.02936059       0.14145102
Si       9.59897455       5.75938473      14.71500000  F        4      -0.01276501       0.00711646       0.14783630
Si       0.00000000       1.91979491      16.07250000  F        3      -0.00000004       0.01282215      -0.13323578
Si       3.83958982       1.91979491      16.07250000  F        3       0.02948200      -0.00662803      -0.16446269
Si       7.67917964       1.91979491      16.07250000  F        3      -0.02948200      -0.00662803      -0.16446268
Si       0.00000000       5.75938473      16.07250000  F        3      -0.00000004      -0.01282213      -0.13323576
Si       3.83958982       5.75938473      16.07250000  F        3       0.02948200       0.00662805      -0.16446267
Si       7.67917964       5.75938473      16.07250000  F        3      -0.02948200       0.00662805      -0.16446267
Si       0.00000000       0.00000000      17.43000000  F        2      -0.00000003      -0.00000002       0.52802505
Si       3.83958982       0.00000000      17.43000000  F        2      -0.08119498      -0.00000002       0.42515467
Si       7.67917964       0.00000000      17.43000000  F        2       0.08119498      -0.00000002       0.42515467
Si       0.00000000       3.83958982      17.43000000  F        2      -0.00000003       0.00000000       0.53464812
Si       3.83958982       3.83958982      17.43000000  F        2      -0.17839879       0.00000000       0.52758558
Si       7.67917964       3.83958982      17.43000000  F        2       0.17839879       0.00000000       0.52758557
Si       1.91979491       0.00000000      18.78750000  F        1      -0.00410039       0.00000000      -0.25504836
Si       5.75938473       0.00000000      18.78750000  F        1       0.00000000       0.00000000      -0.13832699
Si       9.59897455       0.00000000      18.78750000  F        1       0.00410043       0.00000000      -0.25504838
Si       1.91979491       3.83958982      18.78750000  F        1      -0.02204820      -0.00000000      -0.25892987
Si       5.75938473       3.83958982      18.78750000  F        1       0.00000000      -0.00000000      -1.72896083
Si       9.59897455       3.83958982      18.78750000  F        1       0.02204823      -0.00000000      -0.25892989
Cl       5.75938473       3.83958982      21.98928926  T        0       0.00000000      -0.00000000       1.17677296
H        5.75938473       3.83958982      20.68750000  T        0      -0.00000000      -0.00000000       0.44060560
38
Lattice="11.518769465528859 0.0 0.0 0.0 7.679179643685906 0.0 0.0 0.0 30.7875" Properties=species:S:1:pos:R:3:move_mask:L:1:tags:I:1:forces:R:3 surface=Si100 species=HCl site=atop_Si orientation=flipped height_A=1.6 substrate_atoms=36 calculation_kind="Rigid evaluated approach scan; not NEB" energy=-185.86208003718608 pbc="T T F"
Si       0.00000000       0.00000000      12.00000000  F        6      -0.00000004       0.00000000       0.25229668
Si       3.83958982       0.00000000      12.00000000  F        6       0.00066713       0.00000000       0.25266234
Si       7.67917964       0.00000000      12.00000000  F        6      -0.00066713       0.00000000       0.25266234
Si       0.00000000       3.83958982      12.00000000  F        6      -0.00000004      -0.00000000       0.24872047
Si       3.83958982       3.83958982      12.00000000  F        6       0.00266867      -0.00000000       0.25048770
Si       7.67917964       3.83958982      12.00000000  F        6      -0.00266866      -0.00000000       0.25048770
Si       1.91979491       0.00000000      13.35750000  F        5      -0.00384475      -0.00000002      -0.53087698
Si       5.75938473       0.00000000      13.35750000  F        5       0.00000000      -0.00000002      -0.52903237
Si       9.59897455       0.00000000      13.35750000  F        5       0.00384478      -0.00000002      -0.53087700
Si       1.91979491       3.83958982      13.35750000  F        5      -0.00134744       0.00000000      -0.53079146
Si       5.75938473       3.83958982      13.35750000  F        5       0.00000000       0.00000000      -0.48897859
Si       9.59897455       3.83958982      13.35750000  F        5       0.00134747       0.00000000      -0.53079148
Si       1.91979491       1.91979491      14.71500000  F        4       0.01613699      -0.00802722       0.14985043
Si       5.75938473       1.91979491      14.71500000  F        4       0.00000000      -0.05416966       0.09356667
Si       9.59897455       1.91979491      14.71500000  F        4      -0.01613696      -0.00802722       0.14985045
Si       1.91979491       5.75938473      14.71500000  F        4       0.01613699       0.00802724       0.14985042
Si       5.75938473       5.75938473      14.71500000  F        4       0.00000000       0.05416968       0.09356666
Si       9.59897455       5.75938473      14.71500000  F        4      -0.01613696       0.00802724       0.14985044
Si       0.00000000       1.91979491      16.07250000  F        3      -0.00000004       0.01124046      -0.13873263
Si       3.83958982       1.91979491      16.07250000  F        3       0.01728822       0.00210544      -0.13115344
Si       7.67917964       1.91979491      16.07250000  F        3      -0.01728822       0.00210544      -0.13115344
Si       0.00000000       5.75938473      16.07250000  F        3      -0.00000004      -0.01124044      -0.13873262
Si       3.83958982       5.75938473      16.07250000  F        3       0.01728822      -0.00210542      -0.13115343
Si       7.67917964       5.75938473      16.07250000  F        3      -0.01728822      -0.00210542      -0.13115342
Si       0.00000000       0.00000000      17.43000000  F        2      -0.00000003      -0.00000002       0.52210923
Si       3.83958982       0.00000000      17.43000000  F        2      -0.06946185      -0.00000002       0.44407755
Si       7.67917964       0.00000000      17.43000000  F        2       0.06946184      -0.00000002       0.44407754
Si       0.00000000       3.83958982      17.43000000  F        2      -0.00000003       0.00000000       0.54611169
Si       3.83958982       3.83958982      17.43000000  F        2       0.02250468       0.00000000       0.72119394
Si       7.67917964       3.83958982      17.43000000  F        2      -0.02250468       0.00000000       0.72119393
Si       1.91979491       0.00000000      18.78750000  F        1       0.01434314       0.00000000      -0.26070230
Si       5.75938473       0.00000000      18.78750000  F        1       0.00000000       0.00000000      -0.09852549
Si       9.59897455       0.00000000      18.78750000  F        1      -0.01434310       0.00000000      -0.26070232
Si       1.91979491       3.83958982      18.78750000  F        1      -0.04072657      -0.00000000      -0.28182483
Si       5.75938473       3.83958982      18.78750000  F        1       0.00000000      -0.00000000      -2.72819654
Si       9.59897455       3.83958982      18.78750000  F        1       0.04072660      -0.00000000      -0.28182485
Cl       5.75938473       3.83958982      21.68928926  T        0      -0.00000000      -0.00000000       2.85462435
H        5.75938473       3.83958982      20.38750000  T        0      -0.00000000       0.00000000      -0.69203733
38
Lattice="11.518769465528859 0.0 0.0 0.0 7.679179643685906 0.0 0.0 0.0 30.7875" Properties=species:S:1:pos:R:3:move_mask:L:1:tags:I:1:forces:R:3 surface=Si100 species=HCl site=atop_Si orientation=flipped height_A=1.3 substrate_atoms=36 calculation_kind="Rigid evaluated approach scan; not NEB" energy=-183.9434414173197 pbc="T T F"
Si       0.00000000       0.00000000      12.00000000  F        6      -0.00000004       0.00000000       0.25298551
Si       3.83958982       0.00000000      12.00000000  F        6      -0.00006364       0.00000000       0.25509592
Si       7.67917964       0.00000000      12.00000000  F        6       0.00006364       0.00000000       0.25509591
Si       0.00000000       3.83958982      12.00000000  F        6      -0.00000004      -0.00000000       0.24955814
Si       3.83958982       3.83958982      12.00000000  F        6       0.00150409      -0.00000000       0.25297963
Si       7.67917964       3.83958982      12.00000000  F        6      -0.00150408      -0.00000000       0.25297963
Si       1.91979491       0.00000000      13.35750000  F        5      -0.00138796      -0.00000002      -0.53038581
Si       5.75938473       0.00000000      13.35750000  F        5       0.00000000      -0.00000002      -0.52866866
Si       9.59897455       0.00000000      13.35750000  F        5       0.00138799      -0.00000002      -0.53038583
Si       1.91979491       3.83958982      13.35750000  F        5       0.00277164       0.00000000      -0.52628514
Si       5.75938473       3.83958982      13.35750000  F        5       0.00000000       0.00000000      -0.46992172
Si       9.59897455       3.83958982      13.35750000  F        5      -0.00277160       0.00000000      -0.52628516
Si       1.91979491       1.91979491      14.71500000  F        4       0.01891271      -0.01266243       0.15236533
Si       5.75938473       1.91979491      14.71500000  F        4       0.00000000      -0.04602366       0.11322509
Si       9.59897455       1.91979491      14.71500000  F        4      -0.01891268      -0.01266243       0.15236535
Si       1.91979491       5.75938473      14.71500000  F        4       0.01891271       0.01266245       0.15236532
Si       5.75938473       5.75938473      14.71500000  F        4       0.00000000       0.04602368       0.11322507
Si       9.59897455       5.75938473      14.71500000  F        4      -0.01891268       0.01266245       0.15236534
Si       0.00000000       1.91979491      16.07250000  F        3      -0.00000004       0.00350573      -0.14740362
Si       3.83958982       1.91979491      16.07250000  F        3       0.03286185       0.02085771      -0.11842932
Si       7.67917964       1.91979491      16.07250000  F        3      -0.03286185       0.02085771      -0.11842932
Si       0.00000000       5.75938473      16.07250000  F        3      -0.00000004      -0.00350571      -0.14740361
Si       3.83958982       5.75938473      16.07250000  F        3       0.03286185      -0.02085769      -0.11842930
Si       7.67917964       5.75938473      16.07250000  F        3      -0.03286185      -0.02085769      -0.11842930
Si       0.00000000       0.00000000      17.43000000  F        2      -0.00000003      -0.00000002       0.49965643
Si       3.83958982       0.00000000      17.43000000  F        2      -0.13607118      -0.00000002       0.41610774
Si       7.67917964       0.00000000      17.43000000  F        2       0.13607117      -0.00000002       0.41610774
Si       0.00000000       3.83958982      17.43000000  F        2      -0.00000003       0.00000000       0.52949419
Si       3.83958982       3.83958982      17.43000000  F        2       0.37026772       0.00000000       0.87491035
Si       7.67917964       3.83958982      17.43000000  F        2      -0.37026772       0.00000000       0.87491034
Si       1.91979491       0.00000000      18.78750000  F        1       0.01957887       0.00000000      -0.26042762
Si       5.75938473       0.00000000      18.78750000  F        1       0.00000000       0.00000000       0.06554848
Si       9.59897455       0.00000000      18.78750000  F        1      -0.01957884       0.00000000      -0.26042764
Si       1.91979491       3.83958982      18.78750000  F        1       0.01193006      -0.00000000      -0.24249665
Si       5.75938473       3.83958982      18.78750000  F        1       0.00000000      -0.00000000     -15.25261366
Si       9.59897455       3.83958982      18.78750000  F        1      -0.01193003      -0.00000000      -0.24249667
Cl       5.75938473       3.83958982      21.38928926  T        0      -0.00000000      -0.00000000       8.41254283
H        5.75938473       3.83958982      20.08750000  T        0      -0.00000000       0.00000000       5.69503467
