30
Lattice="7.6044 0.0 0.0 -3.802199999999998 6.585603580538386 0.0 0.0 -0.0 28.35945" Properties=species:S:1:pos:R:3:move_mask:L:1:spacegroup_kinds:I:1:tags:I:1:forces:R:3 surface=beta_Si3N4_001 calculation_kind="Single-HF reference relaxation; not a reaction path" energy=-222.5621481994658 pbc="T T F"
Si       5.18010587       1.14956320      12.00000000  F        0        2       1.65574735       1.16907154       1.55141877
Si      -1.37790587       5.43604038      13.45315000  F        0        2      -0.10947495       0.52018301      -2.08037477
Si       4.01879613       3.91132168      12.00000000  F        0        2      -1.87703224       0.88580431       1.52135969
Si      -0.21659613       2.67428190      13.45315000  F        0        2      -0.64397103      -0.24743228      -2.16656109
Si       2.20769800       1.52471870      12.00000000  F        0        2       0.30149443      -2.07542184       1.12559468
Si       1.59450200       5.06088488      13.45315000  F        0        2       0.63183414      -0.11030023      -1.04881132
N       -1.02370433       2.17482973      12.00000000  F        1        2      -0.56262351      -0.61739576       0.27846570
N        4.82590433       4.41077385      13.45315000  F        1        2       0.24378963      -0.05148603       0.27883194
N        2.43059437       4.61163476      12.00000000  F        1        2       0.84924960      -0.25846744       0.17561915
N        1.37160563       1.97396882      13.45315000  F        1        2      -0.04232930       0.15277497       0.80625062
N       -1.40689004       6.38474267      12.00000000  F        1        2      -0.26370811       0.93416756       0.28280014
N        5.20909004       0.20086091      13.45315000  F        1        2      -0.14072747      -0.12956426       0.29068375
N        3.80216198       2.19517924      12.00000000  F        2        2       0.01228763      -0.01787153      -1.71880343
N        0.00003802       4.39042434      13.45315000  F        2        2      -0.13930885      -0.17120968       0.71369238
Si       5.19097488       1.12315722      14.99324624  T        0        1       0.00048439       0.01831701       0.02951000
Si      -1.42331441       5.21068988      16.19485556  T        0        1      -0.00017508       0.00501501      -0.00432590
Si       3.98438215       3.92198149      14.97940415  T        0        1       0.01329772       0.00099354      -0.01872081
Si      -0.05067562       2.74280829      16.24222268  T        0        1      -0.00311058      -0.01836745       0.00789957
Si       2.24507930       1.49512095      14.91682627  T        0        1       0.02211233      -0.00759249      -0.00269300
Si       1.63061490       5.21481957      16.44549772  T        0        1       0.02581466       0.01736139       0.00999750
N       -0.97942832       2.18199613      14.96096546  T        1        1       0.00368791      -0.01414260      -0.02058965
N        4.83666098       4.32756748      16.36331815  T        1        1      -0.00196076       0.00236121      -0.00176623
N        2.36025959       4.56728187      14.97200478  T        1        1      -0.00938538      -0.01243718       0.02311461
N        1.38943681       1.87502768      16.42618520  T        1        1       0.01001718      -0.00124694      -0.02030839
N       -1.36824292       6.36491698      14.95318821  T        1        1      -0.00127084       0.01068264      -0.00368067
N        5.21051539       0.26479137      16.40788767  T        1        1       0.01250732       0.01541779       0.00661506
N        3.80671589       2.18663611      14.86311341  T        2        1       0.01043165      -0.00551966      -0.01765664
N        0.01181606       4.39440494      16.64865117  T        2        1       0.00459560       0.02492736       0.00861440
F        2.40506210       4.63011825      17.73857415  T        0        0      -0.04749685      -0.04543930       0.02132243
H        2.01322481       2.15708207      17.18214201  T        0        0       0.04522344       0.02681735      -0.02749848
