38
Lattice="11.518769465528859 0.0 0.0 0.0 7.679179643685906 0.0 0.0 0.0 30.7875" Properties=species:S:1:pos:R:3:move_mask:L:1:tags:I:1:forces:R:3 surface=Si100 species=HCl height_A=6.5 substrate_atoms=36 calculation_kind="Rigid approach energy evaluation; not NEB or TS" energy=-186.32958991591116 pbc="T T F"
Si       0.00000000       0.00000000      12.00000000  F        6       0.00000000       0.00000000       0.24903483
Si       3.83958982       0.00000000      12.00000000  F        6       0.00000000      -0.00000000       0.24903483
Si       7.67917964       0.00000000      12.00000000  F        6      -0.00000000       0.00000000       0.24903483
Si       0.00000000       3.83958982      12.00000000  F        6      -0.00000000      -0.00000000       0.24903483
Si       3.83958982       3.83958982      12.00000000  F        6       0.00000000       0.00000000       0.24903483
Si       7.67917964       3.83958982      12.00000000  F        6      -0.00000000      -0.00000000       0.24903483
Si       1.91979491       0.00000000      13.35750000  F        5       0.00000000       0.00000000      -0.52822354
Si       5.75938473       0.00000000      13.35750000  F        5      -0.00000000      -0.00000000      -0.52822354
Si       9.59897455       0.00000000      13.35750000  F        5      -0.00000000      -0.00000000      -0.52822354
Si       1.91979491       3.83958982      13.35750000  F        5       0.00000000       0.00000000      -0.52822354
Si       5.75938473       3.83958982      13.35750000  F        5       0.00000000       0.00000000      -0.52822354
Si       9.59897455       3.83958982      13.35750000  F        5       0.00000000       0.00000000      -0.52822354
Si       1.91979491       1.91979491      14.71500000  F        4      -0.00000000       0.00000000       0.14537709
Si       5.75938473       1.91979491      14.71500000  F        4      -0.00000000      -0.00000000       0.14537709
Si       9.59897455       1.91979491      14.71500000  F        4      -0.00000000       0.00000000       0.14537709
Si       1.91979491       5.75938473      14.71500000  F        4       0.00000000      -0.00000000       0.14537709
Si       5.75938473       5.75938473      14.71500000  F        4      -0.00000000      -0.00000000       0.14537709
Si       9.59897455       5.75938473      14.71500000  F        4      -0.00000000       0.00000000       0.14537709
Si       0.00000000       1.91979491      16.07250000  F        3      -0.00000000      -0.00000000      -0.14537709
Si       3.83958982       1.91979491      16.07250000  F        3      -0.00000000       0.00000000      -0.14537709
Si       7.67917964       1.91979491      16.07250000  F        3       0.00000000       0.00000000      -0.14537709
Si       0.00000000       5.75938473      16.07250000  F        3       0.00000000       0.00000000      -0.14537709
Si       3.83958982       5.75938473      16.07250000  F        3       0.00000000      -0.00000000      -0.14537709
Si       7.67917964       5.75938473      16.07250000  F        3      -0.00000000      -0.00000000      -0.14537709
Si       0.00000000       0.00000000      17.43000000  F        2      -0.00000000       0.00000000       0.52822354
Si       3.83958982       0.00000000      17.43000000  F        2       0.00000000      -0.00000000       0.52822354
Si       7.67917964       0.00000000      17.43000000  F        2       0.00000000      -0.00000000       0.52822354
Si       0.00000000       3.83958982      17.43000000  F        2       0.00000000       0.00000000       0.52822354
Si       3.83958982       3.83958982      17.43000000  F        2       0.00000000      -0.00000000       0.52822354
Si       7.67917964       3.83958982      17.43000000  F        2      -0.00000000      -0.00000000       0.52822354
Si       1.91979491       0.00000000      18.78750000  F        1       0.00000000      -0.00000000      -0.24903483
Si       5.75938473       0.00000000      18.78750000  F        1      -0.00000000       0.00000000      -0.24903483
Si       9.59897455       0.00000000      18.78750000  F        1       0.00000000      -0.00000000      -0.24903483
Si       1.91979491       3.83958982      18.78750000  F        1       0.00000000       0.00000000      -0.24903483
Si       5.75938473       3.83958982      18.78750000  F        1       0.00000000       0.00000000      -0.24903483
Si       9.59897455       3.83958982      18.78750000  F        1      -0.00000000       0.00000000      -0.24903483
Cl       5.75938473       3.83958982      25.28750000  F        0       0.00000000       0.00000000      -0.00729343
H        5.75938473       3.83958982      26.58928926  F        0       0.00000000       0.00000000       0.00729343
38
Lattice="11.518769465528859 0.0 0.0 0.0 7.679179643685906 0.0 0.0 0.0 30.7875" Properties=species:S:1:pos:R:3:move_mask:L:1:tags:I:1:forces:R:3 surface=Si100 species=HCl height_A=5.0 substrate_atoms=36 calculation_kind="Rigid approach energy evaluation; not NEB or TS" energy=-186.32958991591116 pbc="T T F"
Si       0.00000000       0.00000000      12.00000000  F        6       0.00000000       0.00000000       0.24903483
Si       3.83958982       0.00000000      12.00000000  F        6       0.00000000      -0.00000000       0.24903483
Si       7.67917964       0.00000000      12.00000000  F        6      -0.00000000       0.00000000       0.24903483
Si       0.00000000       3.83958982      12.00000000  F        6      -0.00000000      -0.00000000       0.24903483
Si       3.83958982       3.83958982      12.00000000  F        6       0.00000000       0.00000000       0.24903483
Si       7.67917964       3.83958982      12.00000000  F        6      -0.00000000      -0.00000000       0.24903483
Si       1.91979491       0.00000000      13.35750000  F        5       0.00000000       0.00000000      -0.52822354
Si       5.75938473       0.00000000      13.35750000  F        5      -0.00000000      -0.00000000      -0.52822354
Si       9.59897455       0.00000000      13.35750000  F        5      -0.00000000      -0.00000000      -0.52822354
Si       1.91979491       3.83958982      13.35750000  F        5       0.00000000       0.00000000      -0.52822354
Si       5.75938473       3.83958982      13.35750000  F        5       0.00000000       0.00000000      -0.52822354
Si       9.59897455       3.83958982      13.35750000  F        5       0.00000000       0.00000000      -0.52822354
Si       1.91979491       1.91979491      14.71500000  F        4      -0.00000000       0.00000000       0.14537709
Si       5.75938473       1.91979491      14.71500000  F        4      -0.00000000      -0.00000000       0.14537709
Si       9.59897455       1.91979491      14.71500000  F        4      -0.00000000       0.00000000       0.14537709
Si       1.91979491       5.75938473      14.71500000  F        4       0.00000000      -0.00000000       0.14537709
Si       5.75938473       5.75938473      14.71500000  F        4      -0.00000000      -0.00000000       0.14537709
Si       9.59897455       5.75938473      14.71500000  F        4      -0.00000000       0.00000000       0.14537709
Si       0.00000000       1.91979491      16.07250000  F        3      -0.00000000      -0.00000000      -0.14537709
Si       3.83958982       1.91979491      16.07250000  F        3      -0.00000000       0.00000000      -0.14537709
Si       7.67917964       1.91979491      16.07250000  F        3       0.00000000       0.00000000      -0.14537709
Si       0.00000000       5.75938473      16.07250000  F        3       0.00000000       0.00000000      -0.14537709
Si       3.83958982       5.75938473      16.07250000  F        3       0.00000000      -0.00000000      -0.14537709
Si       7.67917964       5.75938473      16.07250000  F        3      -0.00000000      -0.00000000      -0.14537709
Si       0.00000000       0.00000000      17.43000000  F        2      -0.00000000       0.00000000       0.52822354
Si       3.83958982       0.00000000      17.43000000  F        2       0.00000000      -0.00000000       0.52822354
Si       7.67917964       0.00000000      17.43000000  F        2       0.00000000      -0.00000000       0.52822354
Si       0.00000000       3.83958982      17.43000000  F        2       0.00000000       0.00000000       0.52822354
Si       3.83958982       3.83958982      17.43000000  F        2       0.00000000      -0.00000000       0.52822354
Si       7.67917964       3.83958982      17.43000000  F        2      -0.00000000      -0.00000000       0.52822354
Si       1.91979491       0.00000000      18.78750000  F        1       0.00000000      -0.00000000      -0.24903483
Si       5.75938473       0.00000000      18.78750000  F        1      -0.00000000       0.00000000      -0.24903483
Si       9.59897455       0.00000000      18.78750000  F        1       0.00000000      -0.00000000      -0.24903483
Si       1.91979491       3.83958982      18.78750000  F        1       0.00000000       0.00000000      -0.24903483
Si       5.75938473       3.83958982      18.78750000  F        1       0.00000000       0.00000000      -0.24903483
Si       9.59897455       3.83958982      18.78750000  F        1      -0.00000000       0.00000000      -0.24903483
Cl       5.75938473       3.83958982      23.78750000  F        0       0.00000000       0.00000000      -0.00729343
H        5.75938473       3.83958982      25.08928926  F        0       0.00000000       0.00000000       0.00729343
38
Lattice="11.518769465528859 0.0 0.0 0.0 7.679179643685906 0.0 0.0 0.0 30.7875" Properties=species:S:1:pos:R:3:move_mask:L:1:tags:I:1:forces:R:3 surface=Si100 species=HCl height_A=4.0 substrate_atoms=36 calculation_kind="Rigid approach energy evaluation; not NEB or TS" energy=-186.47303028374844 pbc="T T F"
Si       0.00000000       0.00000000      12.00000000  F        6      -0.00000000      -0.00000000       0.24888998
Si       3.83958982       0.00000000      12.00000000  F        6       0.00031923      -0.00000000       0.24830738
Si       7.67917964       0.00000000      12.00000000  F        6      -0.00031923       0.00000000       0.24830738
Si       0.00000000       3.83958982      12.00000000  F        6      -0.00000000       0.00000000       0.24885800
Si       3.83958982       3.83958982      12.00000000  F        6       0.00045525       0.00000000       0.24859783
Si       7.67917964       3.83958982      12.00000000  F        6      -0.00045525      -0.00000000       0.24859783
Si       1.91979491       0.00000000      13.35750000  F        5       0.00023396       0.00000000      -0.52736414
Si       5.75938473       0.00000000      13.35750000  F        5       0.00000000       0.00000000      -0.52599832
Si       9.59897455       0.00000000      13.35750000  F        5      -0.00023396      -0.00000000      -0.52736414
Si       1.91979491       3.83958982      13.35750000  F        5       0.00115286       0.00000000      -0.52519144
Si       5.75938473       3.83958982      13.35750000  F        5      -0.00000000      -0.00000000      -0.52183919
Si       9.59897455       3.83958982      13.35750000  F        5      -0.00115286       0.00000000      -0.52519144
Si       1.91979491       1.91979491      14.71500000  F        4       0.00343645       0.00028516       0.14775350
Si       5.75938473       1.91979491      14.71500000  F        4      -0.00000000       0.00535213       0.15971735
Si       9.59897455       1.91979491      14.71500000  F        4      -0.00343645       0.00028516       0.14775350
Si       1.91979491       5.75938473      14.71500000  F        4       0.00343645      -0.00028516       0.14775350
Si       5.75938473       5.75938473      14.71500000  F        4      -0.00000000      -0.00535213       0.15971735
Si       9.59897455       5.75938473      14.71500000  F        4      -0.00343645      -0.00028516       0.14775350
Si       0.00000000       1.91979491      16.07250000  F        3       0.00000000       0.00497654      -0.14224658
Si       3.83958982       1.91979491      16.07250000  F        3       0.00350437       0.00959279      -0.14162049
Si       7.67917964       1.91979491      16.07250000  F        3      -0.00350437       0.00959279      -0.14162049
Si       0.00000000       5.75938473      16.07250000  F        3      -0.00000000      -0.00497654      -0.14224658
Si       3.83958982       5.75938473      16.07250000  F        3       0.00350437      -0.00959279      -0.14162049
Si       7.67917964       5.75938473      16.07250000  F        3      -0.00350437      -0.00959279      -0.14162049
Si       0.00000000       0.00000000      17.43000000  F        2       0.00000000       0.00000000       0.52884103
Si       3.83958982       0.00000000      17.43000000  F        2      -0.00985409       0.00000000       0.51206737
Si       7.67917964       0.00000000      17.43000000  F        2       0.00985409       0.00000000       0.51206737
Si       0.00000000       3.83958982      17.43000000  F        2      -0.00000000       0.00000000       0.52478010
Si       3.83958982       3.83958982      17.43000000  F        2      -0.04483219      -0.00000000       0.50207949
Si       7.67917964       3.83958982      17.43000000  F        2       0.04483219       0.00000000       0.50207949
Si       1.91979491       0.00000000      18.78750000  F        1       0.00129735      -0.00000000      -0.25080380
Si       5.75938473       0.00000000      18.78750000  F        1      -0.00000000      -0.00000000      -0.23997457
Si       9.59897455       0.00000000      18.78750000  F        1      -0.00129735       0.00000000      -0.25080380
Si       1.91979491       3.83958982      18.78750000  F        1      -0.01496822       0.00000000      -0.26103261
Si       5.75938473       3.83958982      18.78750000  F        1       0.00000000       0.00000000      -0.17655090
Si       9.59897455       3.83958982      18.78750000  F        1       0.01496822       0.00000000      -0.26103261
Cl       5.75938473       3.83958982      22.78750000  F        0       0.00000000      -0.00000000      -0.22171565
H        5.75938473       3.83958982      24.08928926  F        0       0.00000000       0.00000000       0.18191578
38
Lattice="11.518769465528859 0.0 0.0 0.0 7.679179643685906 0.0 0.0 0.0 30.7875" Properties=species:S:1:pos:R:3:move_mask:L:1:tags:I:1:forces:R:3 surface=Si100 species=HCl height_A=3.25 substrate_atoms=36 calculation_kind="Rigid approach energy evaluation; not NEB or TS" energy=-186.4889958633201 pbc="T T F"
Si       0.00000000       0.00000000      12.00000000  F        6       0.00000000      -0.00000000       0.24984612
Si       3.83958982       0.00000000      12.00000000  F        6      -0.00013930       0.00000000       0.24943204
Si       7.67917964       0.00000000      12.00000000  F        6       0.00013930      -0.00000000       0.24943204
Si       0.00000000       3.83958982      12.00000000  F        6       0.00000000       0.00000000       0.24897789
Si       3.83958982       3.83958982      12.00000000  F        6       0.00021599      -0.00000000       0.24815166
Si       7.67917964       3.83958982      12.00000000  F        6      -0.00021599       0.00000000       0.24815166
Si       1.91979491       0.00000000      13.35750000  F        5       0.00000059       0.00000000      -0.52656829
Si       5.75938473       0.00000000      13.35750000  F        5      -0.00000000       0.00000000      -0.52630134
Si       9.59897455       0.00000000      13.35750000  F        5      -0.00000059       0.00000000      -0.52656829
Si       1.91979491       3.83958982      13.35750000  F        5       0.00128875      -0.00000000      -0.52282995
Si       5.75938473       3.83958982      13.35750000  F        5      -0.00000000       0.00000000      -0.52195551
Si       9.59897455       3.83958982      13.35750000  F        5      -0.00128875      -0.00000000      -0.52282995
Si       1.91979491       1.91979491      14.71500000  F        4       0.00494600      -0.00128494       0.14872011
Si       5.75938473       1.91979491      14.71500000  F        4       0.00000000       0.00070699       0.16526503
Si       9.59897455       1.91979491      14.71500000  F        4      -0.00494600      -0.00128494       0.14872011
Si       1.91979491       5.75938473      14.71500000  F        4       0.00494600       0.00128494       0.14872011
Si       5.75938473       5.75938473      14.71500000  F        4       0.00000000      -0.00070699       0.16526503
Si       9.59897455       5.75938473      14.71500000  F        4      -0.00494600       0.00128494       0.14872011
Si       0.00000000       1.91979491      16.07250000  F        3      -0.00000000       0.00868519      -0.14108830
Si       3.83958982       1.91979491      16.07250000  F        3       0.00371071       0.01876561      -0.15346025
Si       7.67917964       1.91979491      16.07250000  F        3      -0.00371071       0.01876561      -0.15346025
Si       0.00000000       5.75938473      16.07250000  F        3       0.00000000      -0.00868519      -0.14108830
Si       3.83958982       5.75938473      16.07250000  F        3       0.00371071      -0.01876561      -0.15346025
Si       7.67917964       5.75938473      16.07250000  F        3      -0.00371071      -0.01876561      -0.15346025
Si       0.00000000       0.00000000      17.43000000  F        2       0.00000000      -0.00000000       0.52418507
Si       3.83958982       0.00000000      17.43000000  F        2      -0.01557134      -0.00000000       0.49709173
Si       7.67917964       0.00000000      17.43000000  F        2       0.01557134       0.00000000       0.49709173
Si       0.00000000       3.83958982      17.43000000  F        2       0.00000000      -0.00000000       0.52242057
Si       3.83958982       3.83958982      17.43000000  F        2       0.05125752      -0.00000000       0.55731818
Si       7.67917964       3.83958982      17.43000000  F        2      -0.05125752       0.00000000       0.55731818
Si       1.91979491       0.00000000      18.78750000  F        1       0.00183254       0.00000000      -0.24683395
Si       5.75938473       0.00000000      18.78750000  F        1      -0.00000000      -0.00000000      -0.23309195
Si       9.59897455       0.00000000      18.78750000  F        1      -0.00183254       0.00000000      -0.24683395
Si       1.91979491       3.83958982      18.78750000  F        1      -0.02244932      -0.00000000      -0.25981661
Si       5.75938473       3.83958982      18.78750000  F        1       0.00000000       0.00000000      -0.34197010
Si       9.59897455       3.83958982      18.78750000  F        1       0.02244932      -0.00000000      -0.25981661
Cl       5.75938473       3.83958982      22.03750000  F        0      -0.00000000      -0.00000000       0.13190440
H        5.75938473       3.83958982      23.33928926  F        0       0.00000000      -0.00000000      -0.07529765
38
Lattice="11.518769465528859 0.0 0.0 0.0 7.679179643685906 0.0 0.0 0.0 30.7875" Properties=species:S:1:pos:R:3:move_mask:L:1:tags:I:1:forces:R:3 surface=Si100 species=HCl height_A=2.75 substrate_atoms=36 calculation_kind="Rigid approach energy evaluation; not NEB or TS" energy=-186.33786747202217 pbc="T T F"
Si       0.00000000       0.00000000      12.00000000  F        6       0.00000000      -0.00000000       0.25066643
Si       3.83958982       0.00000000      12.00000000  F        6      -0.00126361      -0.00000000       0.25071640
Si       7.67917964       0.00000000      12.00000000  F        6       0.00126361      -0.00000000       0.25071640
Si       0.00000000       3.83958982      12.00000000  F        6       0.00000000      -0.00000000       0.24881387
Si       3.83958982       3.83958982      12.00000000  F        6      -0.00035324       0.00000000       0.24922670
Si       7.67917964       3.83958982      12.00000000  F        6       0.00035324       0.00000000       0.24922670
Si       1.91979491       0.00000000      13.35750000  F        5       0.00066485      -0.00000000      -0.52772089
Si       5.75938473       0.00000000      13.35750000  F        5       0.00000000       0.00000000      -0.52653398
Si       9.59897455       0.00000000      13.35750000  F        5      -0.00066485       0.00000000      -0.52772089
Si       1.91979491       3.83958982      13.35750000  F        5       0.00160903       0.00000000      -0.52933338
Si       5.75938473       3.83958982      13.35750000  F        5      -0.00000000      -0.00000000      -0.52595734
Si       9.59897455       3.83958982      13.35750000  F        5      -0.00160903      -0.00000000      -0.52933338
Si       1.91979491       1.91979491      14.71500000  F        4       0.00648166      -0.00539029       0.14549499
Si       5.75938473       1.91979491      14.71500000  F        4       0.00000000      -0.00792925       0.16475139
Si       9.59897455       1.91979491      14.71500000  F        4      -0.00648166      -0.00539029       0.14549499
Si       1.91979491       5.75938473      14.71500000  F        4       0.00648166       0.00539029       0.14549499
Si       5.75938473       5.75938473      14.71500000  F        4       0.00000000       0.00792925       0.16475139
Si       9.59897455       5.75938473      14.71500000  F        4      -0.00648166       0.00539029       0.14549499
Si       0.00000000       1.91979491      16.07250000  F        3      -0.00000000       0.00140971      -0.14181314
Si       3.83958982       1.91979491      16.07250000  F        3       0.00985459       0.02243897      -0.15355738
Si       7.67917964       1.91979491      16.07250000  F        3      -0.00985459       0.02243897      -0.15355738
Si       0.00000000       5.75938473      16.07250000  F        3       0.00000000      -0.00140971      -0.14181314
Si       3.83958982       5.75938473      16.07250000  F        3       0.00985459      -0.02243897      -0.15355738
Si       7.67917964       5.75938473      16.07250000  F        3      -0.00985459      -0.02243897      -0.15355738
Si       0.00000000       0.00000000      17.43000000  F        2       0.00000000       0.00000000       0.52439092
Si       3.83958982       0.00000000      17.43000000  F        2      -0.00240674       0.00000000       0.49564148
Si       7.67917964       0.00000000      17.43000000  F        2       0.00240674       0.00000000       0.49564148
Si       0.00000000       3.83958982      17.43000000  F        2       0.00000000       0.00000000       0.55274238
Si       3.83958982       3.83958982      17.43000000  F        2       0.03091886       0.00000000       0.59999890
Si       7.67917964       3.83958982      17.43000000  F        2      -0.03091886       0.00000000       0.59999890
Si       1.91979491       0.00000000      18.78750000  F        1       0.00219463       0.00000000      -0.25211602
Si       5.75938473       0.00000000      18.78750000  F        1      -0.00000000       0.00000000      -0.11647196
Si       9.59897455       0.00000000      18.78750000  F        1      -0.00219463      -0.00000000      -0.25211602
Si       1.91979491       3.83958982      18.78750000  F        1      -0.00646673       0.00000000      -0.27957228
Si       5.75938473       3.83958982      18.78750000  F        1       0.00000000      -0.00000000      -1.12592524
Si       9.59897455       3.83958982      18.78750000  F        1       0.00646673       0.00000000      -0.27957228
Cl       5.75938473       3.83958982      21.53750000  F        0      -0.00000000      -0.00000000       0.75183394
H        5.75938473       3.83958982      22.83928926  F        0       0.00000000      -0.00000000      -0.06086779
38
Lattice="11.518769465528859 0.0 0.0 0.0 7.679179643685906 0.0 0.0 0.0 30.7875" Properties=species:S:1:pos:R:3:move_mask:L:1:tags:I:1:forces:R:3 surface=Si100 species=HCl height_A=2.25 substrate_atoms=36 calculation_kind="Rigid approach energy evaluation; not NEB or TS" energy=-185.56747399818693 pbc="T T F"
Si       0.00000000       0.00000000      12.00000000  F        6      -0.00000000      -0.00000000       0.25164259
Si       3.83958982       0.00000000      12.00000000  F        6      -0.00377133       0.00000000       0.25506891
Si       7.67917964       0.00000000      12.00000000  F        6       0.00377133      -0.00000000       0.25506891
Si       0.00000000       3.83958982      12.00000000  F        6       0.00000000       0.00000000       0.24918678
Si       3.83958982       3.83958982      12.00000000  F        6      -0.00391291      -0.00000000       0.25016337
Si       7.67917964       3.83958982      12.00000000  F        6       0.00391291      -0.00000000       0.25016337
Si       1.91979491       0.00000000      13.35750000  F        5       0.00888570      -0.00000000      -0.52475711
Si       5.75938473       0.00000000      13.35750000  F        5       0.00000000       0.00000000      -0.52053250
Si       9.59897455       0.00000000      13.35750000  F        5      -0.00888570       0.00000000      -0.52475711
Si       1.91979491       3.83958982      13.35750000  F        5       0.00119659      -0.00000000      -0.54366463
Si       5.75938473       3.83958982      13.35750000  F        5       0.00000000       0.00000000      -0.52507158
Si       9.59897455       3.83958982      13.35750000  F        5      -0.00119659       0.00000000      -0.54366463
Si       1.91979491       1.91979491      14.71500000  F        4       0.00874670      -0.01388197       0.14700149
Si       5.75938473       1.91979491      14.71500000  F        4       0.00000000      -0.04513024       0.11967173
Si       9.59897455       1.91979491      14.71500000  F        4      -0.00874670      -0.01388197       0.14700149
Si       1.91979491       5.75938473      14.71500000  F        4       0.00874670       0.01388197       0.14700149
Si       5.75938473       5.75938473      14.71500000  F        4       0.00000000       0.04513024       0.11967173
Si       9.59897455       5.75938473      14.71500000  F        4      -0.00874670       0.01388197       0.14700149
Si       0.00000000       1.91979491      16.07250000  F        3      -0.00000000      -0.00452866      -0.13305974
Si       3.83958982       1.91979491      16.07250000  F        3      -0.00200963       0.00820371      -0.16105505
Si       7.67917964       1.91979491      16.07250000  F        3       0.00200963       0.00820371      -0.16105505
Si       0.00000000       5.75938473      16.07250000  F        3       0.00000000       0.00452866      -0.13305974
Si       3.83958982       5.75938473      16.07250000  F        3      -0.00200963      -0.00820371      -0.16105505
Si       7.67917964       5.75938473      16.07250000  F        3       0.00200963      -0.00820371      -0.16105505
Si       0.00000000       0.00000000      17.43000000  F        2       0.00000000      -0.00000000       0.49227529
Si       3.83958982       0.00000000      17.43000000  F        2      -0.06139508       0.00000000       0.47062174
Si       7.67917964       0.00000000      17.43000000  F        2       0.06139508      -0.00000000       0.47062174
Si       0.00000000       3.83958982      17.43000000  F        2       0.00000000       0.00000000       0.54139052
Si       3.83958982       3.83958982      17.43000000  F        2      -0.08219418      -0.00000000       0.53392406
Si       7.67917964       3.83958982      17.43000000  F        2       0.08219418      -0.00000000       0.53392406
Si       1.91979491       0.00000000      18.78750000  F        1      -0.00943976      -0.00000000      -0.25710978
Si       5.75938473       0.00000000      18.78750000  F        1      -0.00000000       0.00000000      -0.01296506
Si       9.59897455       0.00000000      18.78750000  F        1       0.00943976       0.00000000      -0.25710978
Si       1.91979491       3.83958982      18.78750000  F        1       0.00667690       0.00000000      -0.23342679
Si       5.75938473       3.83958982      18.78750000  F        1       0.00000000      -0.00000000      -2.41533694
Si       9.59897455       3.83958982      18.78750000  F        1      -0.00667690      -0.00000000      -0.23342679
Cl       5.75938473       3.83958982      21.03750000  F        0       0.00000000      -0.00000000       1.18018402
H        5.75938473       3.83958982      22.33928926  F        0       0.00000000      -0.00000000       0.94057759
38
Lattice="11.518769465528859 0.0 0.0 0.0 7.679179643685906 0.0 0.0 0.0 30.7875" Properties=species:S:1:pos:R:3:move_mask:L:1:tags:I:1:forces:R:3 surface=Si100 species=HCl height_A=1.9 substrate_atoms=36 calculation_kind="Rigid approach energy evaluation; not NEB or TS" energy=-184.49516164379457 pbc="T T F"
Si       0.00000000       0.00000000      12.00000000  F        6      -0.00000000       0.00000000       0.25187061
Si       3.83958982       0.00000000      12.00000000  F        6      -0.00163983       0.00000000       0.25549750
Si       7.67917964       0.00000000      12.00000000  F        6       0.00163983      -0.00000000       0.25549750
Si       0.00000000       3.83958982      12.00000000  F        6       0.00000000      -0.00000000       0.24935553
Si       3.83958982       3.83958982      12.00000000  F        6      -0.00247941      -0.00000000       0.24955534
Si       7.67917964       3.83958982      12.00000000  F        6       0.00247941       0.00000000       0.24955534
Si       1.91979491       0.00000000      13.35750000  F        5       0.00832254      -0.00000000      -0.52052201
Si       5.75938473       0.00000000      13.35750000  F        5      -0.00000000       0.00000000      -0.52207491
Si       9.59897455       0.00000000      13.35750000  F        5      -0.00832254      -0.00000000      -0.52052201
Si       1.91979491       3.83958982      13.35750000  F        5       0.00222961       0.00000000      -0.53765203
Si       5.75938473       3.83958982      13.35750000  F        5       0.00000000      -0.00000000      -0.52007231
Si       9.59897455       3.83958982      13.35750000  F        5      -0.00222961      -0.00000000      -0.53765203
Si       1.91979491       1.91979491      14.71500000  F        4       0.01021857      -0.01230395       0.14933672
Si       5.75938473       1.91979491      14.71500000  F        4       0.00000000      -0.05370195       0.09777083
Si       9.59897455       1.91979491      14.71500000  F        4      -0.01021857      -0.01230395       0.14933672
Si       1.91979491       5.75938473      14.71500000  F        4       0.01021857       0.01230395       0.14933672
Si       5.75938473       5.75938473      14.71500000  F        4      -0.00000000       0.05370195       0.09777083
Si       9.59897455       5.75938473      14.71500000  F        4      -0.01021857       0.01230395       0.14933672
Si       0.00000000       1.91979491      16.07250000  F        3      -0.00000000       0.01072557      -0.12133636
Si       3.83958982       1.91979491      16.07250000  F        3      -0.00865803      -0.01892844      -0.16439701
Si       7.67917964       1.91979491      16.07250000  F        3       0.00865803      -0.01892844      -0.16439701
Si       0.00000000       5.75938473      16.07250000  F        3       0.00000000      -0.01072557      -0.12133636
Si       3.83958982       5.75938473      16.07250000  F        3      -0.00865803       0.01892844      -0.16439701
Si       7.67917964       5.75938473      16.07250000  F        3       0.00865803       0.01892844      -0.16439701
Si       0.00000000       0.00000000      17.43000000  F        2      -0.00000000      -0.00000000       0.47606935
Si       3.83958982       0.00000000      17.43000000  F        2      -0.12104849      -0.00000000       0.44368378
Si       7.67917964       0.00000000      17.43000000  F        2       0.12104849       0.00000000       0.44368378
Si       0.00000000       3.83958982      17.43000000  F        2       0.00000000       0.00000000       0.53254474
Si       3.83958982       3.83958982      17.43000000  F        2       0.00138624       0.00000000       0.59173452
Si       7.67917964       3.83958982      17.43000000  F        2      -0.00138624       0.00000000       0.59173452
Si       1.91979491       0.00000000      18.78750000  F        1      -0.01664946       0.00000000      -0.25006069
Si       5.75938473       0.00000000      18.78750000  F        1       0.00000000       0.00000000       0.02454967
Si       9.59897455       0.00000000      18.78750000  F        1       0.01664946      -0.00000000      -0.25006069
Si       1.91979491       3.83958982      18.78750000  F        1       0.02313494      -0.00000000      -0.14683981
Si       5.75938473       3.83958982      18.78750000  F        1       0.00000000       0.00000000      -6.12886006
Si       9.59897455       3.83958982      18.78750000  F        1      -0.02313494      -0.00000000      -0.14683981
Cl       5.75938473       3.83958982      20.68750000  F        0       0.00000000      -0.00000000       3.79168699
H        5.75938473       3.83958982      21.98928926  F        0       0.00000000      -0.00000000       1.78150941
38
Lattice="11.518769465528859 0.0 0.0 0.0 7.679179643685906 0.0 0.0 0.0 30.7875" Properties=species:S:1:pos:R:3:move_mask:L:1:tags:I:1:forces:R:3 surface=Si100 species=HCl height_A=1.6 substrate_atoms=36 calculation_kind="Rigid approach energy evaluation; not NEB or TS" energy=-181.12905502901398 pbc="T T F"
Si       0.00000000       0.00000000      12.00000000  F        6       0.00000000       0.00000000       0.25196320
Si       3.83958982       0.00000000      12.00000000  F        6       0.00109252       0.00000000       0.25565094
Si       7.67917964       0.00000000      12.00000000  F        6      -0.00109252      -0.00000000       0.25565094
Si       0.00000000       3.83958982      12.00000000  F        6      -0.00000000      -0.00000000       0.24963879
Si       3.83958982       3.83958982      12.00000000  F        6       0.00020517      -0.00000000       0.24949716
Si       7.67917964       3.83958982      12.00000000  F        6      -0.00020517       0.00000000       0.24949716
Si       1.91979491       0.00000000      13.35750000  F        5       0.00391791      -0.00000000      -0.51925550
Si       5.75938473       0.00000000      13.35750000  F        5      -0.00000000       0.00000000      -0.52522083
Si       9.59897455       0.00000000      13.35750000  F        5      -0.00391791       0.00000000      -0.51925550
Si       1.91979491       3.83958982      13.35750000  F        5       0.00427136       0.00000000      -0.52692826
Si       5.75938473       3.83958982      13.35750000  F        5       0.00000000       0.00000000      -0.52234108
Si       9.59897455       3.83958982      13.35750000  F        5      -0.00427136      -0.00000000      -0.52692826
Si       1.91979491       1.91979491      14.71500000  F        4       0.01205683      -0.00462847       0.15643508
Si       5.75938473       1.91979491      14.71500000  F        4      -0.00000000      -0.07136111       0.06427238
Si       9.59897455       1.91979491      14.71500000  F        4      -0.01205683      -0.00462847       0.15643508
Si       1.91979491       5.75938473      14.71500000  F        4       0.01205683       0.00462847       0.15643508
Si       5.75938473       5.75938473      14.71500000  F        4       0.00000000       0.07136111       0.06427238
Si       9.59897455       5.75938473      14.71500000  F        4      -0.01205683       0.00462847       0.15643508
Si       0.00000000       1.91979491      16.07250000  F        3      -0.00000000       0.02046532      -0.11848398
Si       3.83958982       1.91979491      16.07250000  F        3      -0.03927844      -0.12549000      -0.24485544
Si       7.67917964       1.91979491      16.07250000  F        3       0.03927844      -0.12549000      -0.24485544
Si       0.00000000       5.75938473      16.07250000  F        3      -0.00000000      -0.02046532      -0.11848398
Si       3.83958982       5.75938473      16.07250000  F        3      -0.03927844       0.12549000      -0.24485544
Si       7.67917964       5.75938473      16.07250000  F        3       0.03927844       0.12549000      -0.24485544
Si       0.00000000       0.00000000      17.43000000  F        2      -0.00000000       0.00000000       0.47350086
Si       3.83958982       0.00000000      17.43000000  F        2      -0.12422257      -0.00000000       0.45934839
Si       7.67917964       0.00000000      17.43000000  F        2       0.12422257      -0.00000000       0.45934839
Si       0.00000000       3.83958982      17.43000000  F        2       0.00000000      -0.00000000       0.53682631
Si       3.83958982       3.83958982      17.43000000  F        2       0.48379322       0.00000000       0.65786284
Si       7.67917964       3.83958982      17.43000000  F        2      -0.48379322       0.00000000       0.65786284
Si       1.91979491       0.00000000      18.78750000  F        1      -0.02446567       0.00000000      -0.23042267
Si       5.75938473       0.00000000      18.78750000  F        1       0.00000000       0.00000000       0.03543044
Si       9.59897455       0.00000000      18.78750000  F        1       0.02446567      -0.00000000      -0.23042267
Si       1.91979491       3.83958982      18.78750000  F        1      -0.14078586      -0.00000000      -0.03045315
Si       5.75938473       3.83958982      18.78750000  F        1       0.00000000       0.00000000     -20.18760894
Si       9.59897455       3.83958982      18.78750000  F        1       0.14078586       0.00000000      -0.03045315
Cl       5.75938473       3.83958982      20.38750000  F        0      -0.00000000      -0.00000000      17.57876630
H        5.75938473       3.83958982      21.68928926  F        0       0.00000000       0.00000000       1.94055007
38
Lattice="11.518769465528859 0.0 0.0 0.0 7.679179643685906 0.0 0.0 0.0 30.7875" Properties=species:S:1:pos:R:3:move_mask:L:1:tags:I:1:forces:R:3 surface=Si100 species=HCl height_A=1.3 substrate_atoms=36 calculation_kind="Rigid approach energy evaluation; not NEB or TS" energy=-166.70623903581205 pbc="T T F"
Si       0.00000000       0.00000000      12.00000000  F        6      -0.00000000      -0.00000000       0.25327175
Si       3.83958982       0.00000000      12.00000000  F        6       0.00478361       0.00000000       0.25736718
Si       7.67917964       0.00000000      12.00000000  F        6      -0.00478361       0.00000000       0.25736718
Si       0.00000000       3.83958982      12.00000000  F        6       0.00000000       0.00000000       0.25058056
Si       3.83958982       3.83958982      12.00000000  F        6       0.00391048       0.00000000       0.24962121
Si       7.67917964       3.83958982      12.00000000  F        6      -0.00391048       0.00000000       0.24962121
Si       1.91979491       0.00000000      13.35750000  F        5       0.00002545       0.00000000      -0.51757109
Si       5.75938473       0.00000000      13.35750000  F        5       0.00000000       0.00000000      -0.53328598
Si       9.59897455       0.00000000      13.35750000  F        5      -0.00002545       0.00000000      -0.51757109
Si       1.91979491       3.83958982      13.35750000  F        5       0.00383525       0.00000000      -0.51631092
Si       5.75938473       3.83958982      13.35750000  F        5      -0.00000000      -0.00000000      -0.53349635
Si       9.59897455       3.83958982      13.35750000  F        5      -0.00383525      -0.00000000      -0.51631092
Si       1.91979491       1.91979491      14.71500000  F        4       0.01173851      -0.00098508       0.15915338
Si       5.75938473       1.91979491      14.71500000  F        4       0.00000000      -0.12455461      -0.05113370
Si       9.59897455       1.91979491      14.71500000  F        4      -0.01173851      -0.00098508       0.15915338
Si       1.91979491       5.75938473      14.71500000  F        4       0.01173851       0.00098508       0.15915338
Si       5.75938473       5.75938473      14.71500000  F        4       0.00000000       0.12455461      -0.05113370
Si       9.59897455       5.75938473      14.71500000  F        4      -0.01173851       0.00098508       0.15915338
Si       0.00000000       1.91979491      16.07250000  F        3       0.00000000       0.01612634      -0.12620354
Si       3.83958982       1.91979491      16.07250000  F        3      -0.16623383      -0.33326850      -0.67556823
Si       7.67917964       1.91979491      16.07250000  F        3       0.16623383      -0.33326850      -0.67556823
Si       0.00000000       5.75938473      16.07250000  F        3       0.00000000      -0.01612634      -0.12620354
Si       3.83958982       5.75938473      16.07250000  F        3      -0.16623383       0.33326850      -0.67556823
Si       7.67917964       5.75938473      16.07250000  F        3       0.16623383       0.33326850      -0.67556823
Si       0.00000000       0.00000000      17.43000000  F        2       0.00000000       0.00000000       0.46569191
Si       3.83958982       0.00000000      17.43000000  F        2      -0.40795423       0.00000000       0.22655445
Si       7.67917964       0.00000000      17.43000000  F        2       0.40795423      -0.00000000       0.22655445
Si       0.00000000       3.83958982      17.43000000  F        2       0.00000000      -0.00000000       0.58818217
Si       3.83958982       3.83958982      17.43000000  F        2       1.83782513       0.00000000       1.75230475
Si       7.67917964       3.83958982      17.43000000  F        2      -1.83782513       0.00000000       1.75230475
Si       1.91979491       0.00000000      18.78750000  F        1      -0.08693641      -0.00000000      -0.18793770
Si       5.75938473       0.00000000      18.78750000  F        1       0.00000000      -0.00000000       0.34421086
Si       9.59897455       0.00000000      18.78750000  F        1       0.08693641       0.00000000      -0.18793770
Si       1.91979491       3.83958982      18.78750000  F        1      -0.30771061       0.00000000       0.20748959
Si       5.75938473       3.83958982      18.78750000  F        1       0.00000000       0.00000000     -94.01907671
Si       9.59897455       3.83958982      18.78750000  F        1       0.30771061      -0.00000000       0.20748959
Cl       5.75938473       3.83958982      20.08750000  F        0       0.00000000      -0.00000000      93.98966374
H        5.75938473       3.83958982      21.38928926  F        0       0.00000000       0.00000000      -1.32844303
