38
Lattice="11.518769465528859 0.0 0.0 0.0 7.679179643685906 0.0 0.0 0.0 30.7875" Properties=species:S:1:pos:R:3:move_mask:L:1:tags:I:1:forces:R:3 surface=Si100 species=HCl site=bridge_Si_Si orientation=upright height_A=6.5 substrate_atoms=36 calculation_kind="Rigid evaluated approach scan; not NEB" energy=-186.32958991594327 pbc="T T F"
Si       0.00000000       0.00000000      12.00000000  F        6      -0.00000004       0.00000000       0.24903484
Si       3.83958982       0.00000000      12.00000000  F        6      -0.00000000       0.00000000       0.24903482
Si       7.67917964       0.00000000      12.00000000  F        6       0.00000000       0.00000000       0.24903482
Si       0.00000000       3.83958982      12.00000000  F        6      -0.00000004      -0.00000000       0.24903484
Si       3.83958982       3.83958982      12.00000000  F        6      -0.00000000      -0.00000000       0.24903482
Si       7.67917964       3.83958982      12.00000000  F        6       0.00000000      -0.00000000       0.24903482
Si       1.91979491       0.00000000      13.35750000  F        5       0.00000000      -0.00000002      -0.52822352
Si       5.75938473       0.00000000      13.35750000  F        5       0.00000000      -0.00000002      -0.52822353
Si       9.59897455       0.00000000      13.35750000  F        5       0.00000003      -0.00000002      -0.52822354
Si       1.91979491       3.83958982      13.35750000  F        5       0.00000000       0.00000000      -0.52822354
Si       5.75938473       3.83958982      13.35750000  F        5       0.00000000       0.00000000      -0.52822354
Si       9.59897455       3.83958982      13.35750000  F        5       0.00000003       0.00000000      -0.52822356
Si       1.91979491       1.91979491      14.71500000  F        4      -0.00000000       0.00000000       0.14537709
Si       5.75938473       1.91979491      14.71500000  F        4       0.00000000       0.00000000       0.14537709
Si       9.59897455       1.91979491      14.71500000  F        4       0.00000004       0.00000000       0.14537711
Si       1.91979491       5.75938473      14.71500000  F        4      -0.00000000       0.00000002       0.14537707
Si       5.75938473       5.75938473      14.71500000  F        4       0.00000000       0.00000002       0.14537707
Si       9.59897455       5.75938473      14.71500000  F        4       0.00000004       0.00000002       0.14537709
Si       0.00000000       1.91979491      16.07250000  F        3      -0.00000004       0.00000000      -0.14537711
Si       3.83958982       1.91979491      16.07250000  F        3      -0.00000000       0.00000000      -0.14537709
Si       7.67917964       1.91979491      16.07250000  F        3       0.00000000       0.00000000      -0.14537709
Si       0.00000000       5.75938473      16.07250000  F        3      -0.00000004       0.00000002      -0.14537709
Si       3.83958982       5.75938473      16.07250000  F        3      -0.00000000       0.00000002      -0.14537707
Si       7.67917964       5.75938473      16.07250000  F        3       0.00000000       0.00000002      -0.14537707
Si       0.00000000       0.00000000      17.43000000  F        2      -0.00000003      -0.00000002       0.52822354
Si       3.83958982       0.00000000      17.43000000  F        2      -0.00000000      -0.00000002       0.52822353
Si       7.67917964       0.00000000      17.43000000  F        2      -0.00000000      -0.00000002       0.52822352
Si       0.00000000       3.83958982      17.43000000  F        2      -0.00000003       0.00000000       0.52822356
Si       3.83958982       3.83958982      17.43000000  F        2      -0.00000000       0.00000000       0.52822354
Si       7.67917964       3.83958982      17.43000000  F        2      -0.00000000       0.00000000       0.52822354
Si       1.91979491       0.00000000      18.78750000  F        1      -0.00000000       0.00000000      -0.24903482
Si       5.75938473       0.00000000      18.78750000  F        1       0.00000000       0.00000000      -0.24903482
Si       9.59897455       0.00000000      18.78750000  F        1       0.00000004       0.00000000      -0.24903484
Si       1.91979491       3.83958982      18.78750000  F        1      -0.00000000      -0.00000000      -0.24903482
Si       5.75938473       3.83958982      18.78750000  F        1       0.00000000      -0.00000000      -0.24903482
Si       9.59897455       3.83958982      18.78750000  F        1       0.00000004      -0.00000000      -0.24903484
Cl       7.67917964       3.83958982      25.28750000  T        0       0.00000000       0.00000000      -0.00729331
H        7.67917964       3.83958982      26.58928926  T        0       0.00000000       0.00000000       0.00729331
38
Lattice="11.518769465528859 0.0 0.0 0.0 7.679179643685906 0.0 0.0 0.0 30.7875" Properties=species:S:1:pos:R:3:move_mask:L:1:tags:I:1:forces:R:3 surface=Si100 species=HCl site=bridge_Si_Si orientation=upright height_A=5.0 substrate_atoms=36 calculation_kind="Rigid evaluated approach scan; not NEB" energy=-186.32958991594327 pbc="T T F"
Si       0.00000000       0.00000000      12.00000000  F        6      -0.00000004       0.00000000       0.24903484
Si       3.83958982       0.00000000      12.00000000  F        6      -0.00000000       0.00000000       0.24903482
Si       7.67917964       0.00000000      12.00000000  F        6       0.00000000       0.00000000       0.24903482
Si       0.00000000       3.83958982      12.00000000  F        6      -0.00000004      -0.00000000       0.24903484
Si       3.83958982       3.83958982      12.00000000  F        6      -0.00000000      -0.00000000       0.24903482
Si       7.67917964       3.83958982      12.00000000  F        6       0.00000000      -0.00000000       0.24903482
Si       1.91979491       0.00000000      13.35750000  F        5       0.00000000      -0.00000002      -0.52822352
Si       5.75938473       0.00000000      13.35750000  F        5       0.00000000      -0.00000002      -0.52822353
Si       9.59897455       0.00000000      13.35750000  F        5       0.00000003      -0.00000002      -0.52822354
Si       1.91979491       3.83958982      13.35750000  F        5       0.00000000       0.00000000      -0.52822354
Si       5.75938473       3.83958982      13.35750000  F        5       0.00000000       0.00000000      -0.52822354
Si       9.59897455       3.83958982      13.35750000  F        5       0.00000003       0.00000000      -0.52822356
Si       1.91979491       1.91979491      14.71500000  F        4      -0.00000000       0.00000000       0.14537709
Si       5.75938473       1.91979491      14.71500000  F        4       0.00000000       0.00000000       0.14537709
Si       9.59897455       1.91979491      14.71500000  F        4       0.00000004       0.00000000       0.14537711
Si       1.91979491       5.75938473      14.71500000  F        4      -0.00000000       0.00000002       0.14537707
Si       5.75938473       5.75938473      14.71500000  F        4       0.00000000       0.00000002       0.14537707
Si       9.59897455       5.75938473      14.71500000  F        4       0.00000004       0.00000002       0.14537709
Si       0.00000000       1.91979491      16.07250000  F        3      -0.00000004       0.00000000      -0.14537711
Si       3.83958982       1.91979491      16.07250000  F        3      -0.00000000       0.00000000      -0.14537709
Si       7.67917964       1.91979491      16.07250000  F        3       0.00000000       0.00000000      -0.14537709
Si       0.00000000       5.75938473      16.07250000  F        3      -0.00000004       0.00000002      -0.14537709
Si       3.83958982       5.75938473      16.07250000  F        3      -0.00000000       0.00000002      -0.14537707
Si       7.67917964       5.75938473      16.07250000  F        3       0.00000000       0.00000002      -0.14537707
Si       0.00000000       0.00000000      17.43000000  F        2      -0.00000003      -0.00000002       0.52822354
Si       3.83958982       0.00000000      17.43000000  F        2      -0.00000000      -0.00000002       0.52822353
Si       7.67917964       0.00000000      17.43000000  F        2      -0.00000000      -0.00000002       0.52822352
Si       0.00000000       3.83958982      17.43000000  F        2      -0.00000003       0.00000000       0.52822356
Si       3.83958982       3.83958982      17.43000000  F        2      -0.00000000       0.00000000       0.52822354
Si       7.67917964       3.83958982      17.43000000  F        2      -0.00000000       0.00000000       0.52822354
Si       1.91979491       0.00000000      18.78750000  F        1      -0.00000000       0.00000000      -0.24903482
Si       5.75938473       0.00000000      18.78750000  F        1       0.00000000       0.00000000      -0.24903482
Si       9.59897455       0.00000000      18.78750000  F        1       0.00000004       0.00000000      -0.24903484
Si       1.91979491       3.83958982      18.78750000  F        1      -0.00000000      -0.00000000      -0.24903482
Si       5.75938473       3.83958982      18.78750000  F        1       0.00000000      -0.00000000      -0.24903482
Si       9.59897455       3.83958982      18.78750000  F        1       0.00000004      -0.00000000      -0.24903484
Cl       7.67917964       3.83958982      23.78750000  T        0       0.00000000       0.00000000      -0.00729331
H        7.67917964       3.83958982      25.08928926  T        0       0.00000000       0.00000000       0.00729331
38
Lattice="11.518769465528859 0.0 0.0 0.0 7.679179643685906 0.0 0.0 0.0 30.7875" Properties=species:S:1:pos:R:3:move_mask:L:1:tags:I:1:forces:R:3 surface=Si100 species=HCl site=bridge_Si_Si orientation=upright height_A=4.0 substrate_atoms=36 calculation_kind="Rigid evaluated approach scan; not NEB" energy=-186.4228533012229 pbc="T T F"
Si       0.00000000       0.00000000      12.00000000  F        6      -0.00019571       0.00000000       0.24836954
Si       3.83958982       0.00000000      12.00000000  F        6       0.00019567       0.00000000       0.24836952
Si       7.67917964       0.00000000      12.00000000  F        6       0.00000000       0.00000000       0.24847629
Si       0.00000000       3.83958982      12.00000000  F        6      -0.00030841      -0.00000000       0.24890763
Si       3.83958982       3.83958982      12.00000000  F        6       0.00030837      -0.00000000       0.24890761
Si       7.67917964       3.83958982      12.00000000  F        6       0.00000000      -0.00000000       0.24939368
Si       1.91979491       0.00000000      13.35750000  F        5       0.00000000      -0.00000002      -0.52815025
Si       5.75938473       0.00000000      13.35750000  F        5      -0.00004931      -0.00000002      -0.52720158
Si       9.59897455       0.00000000      13.35750000  F        5       0.00004934      -0.00000002      -0.52720160
Si       1.91979491       3.83958982      13.35750000  F        5       0.00000000       0.00000000      -0.52709270
Si       5.75938473       3.83958982      13.35750000  F        5       0.00095588       0.00000000      -0.52500243
Si       9.59897455       3.83958982      13.35750000  F        5      -0.00095585       0.00000000      -0.52500244
Si       1.91979491       1.91979491      14.71500000  F        4      -0.00000000       0.00093566       0.14655153
Si       5.75938473       1.91979491      14.71500000  F        4       0.00129887       0.00236980       0.14956319
Si       9.59897455       1.91979491      14.71500000  F        4      -0.00129884       0.00236980       0.14956321
Si       1.91979491       5.75938473      14.71500000  F        4      -0.00000000      -0.00093564       0.14655151
Si       5.75938473       5.75938473      14.71500000  F        4       0.00129887      -0.00236978       0.14956318
Si       9.59897455       5.75938473      14.71500000  F        4      -0.00129884      -0.00236978       0.14956320
Si       0.00000000       1.91979491      16.07250000  F        3      -0.00052751       0.00001700      -0.14280086
Si       3.83958982       1.91979491      16.07250000  F        3       0.00052747       0.00001700      -0.14280084
Si       7.67917964       1.91979491      16.07250000  F        3       0.00000000       0.00457760      -0.14435452
Si       0.00000000       5.75938473      16.07250000  F        3      -0.00052751      -0.00001698      -0.14280085
Si       3.83958982       5.75938473      16.07250000  F        3       0.00052747      -0.00001698      -0.14280083
Si       7.67917964       5.75938473      16.07250000  F        3       0.00000000      -0.00457758      -0.14435450
Si       0.00000000       0.00000000      17.43000000  F        2       0.00344575      -0.00000002       0.52511255
Si       3.83958982       0.00000000      17.43000000  F        2      -0.00344578      -0.00000002       0.52511253
Si       7.67917964       0.00000000      17.43000000  F        2      -0.00000000      -0.00000002       0.52167591
Si       0.00000000       3.83958982      17.43000000  F        2       0.01926426       0.00000000       0.53241863
Si       3.83958982       3.83958982      17.43000000  F        2      -0.01926429       0.00000000       0.53241861
Si       7.67917964       3.83958982      17.43000000  F        2      -0.00000000       0.00000000       0.48653451
Si       1.91979491       0.00000000      18.78750000  F        1      -0.00000000       0.00000000      -0.25225957
Si       5.75938473       0.00000000      18.78750000  F        1      -0.00025324       0.00000000      -0.25074891
Si       9.59897455       0.00000000      18.78750000  F        1       0.00025327       0.00000000      -0.25074893
Si       1.91979491       3.83958982      18.78750000  F        1      -0.00000000      -0.00000000      -0.25605522
Si       5.75938473       3.83958982      18.78750000  F        1       0.07857790      -0.00000000      -0.13197931
Si       9.59897455       3.83958982      18.78750000  F        1      -0.07857786      -0.00000000      -0.13197932
Cl       7.67917964       3.83958982      22.78750000  T        0       0.00000000       0.00000000      -0.50939349
H        7.67917964       3.83958982      24.08928926  T        0      -0.00000000       0.00000000       0.29567532
38
Lattice="11.518769465528859 0.0 0.0 0.0 7.679179643685906 0.0 0.0 0.0 30.7875" Properties=species:S:1:pos:R:3:move_mask:L:1:tags:I:1:forces:R:3 surface=Si100 species=HCl site=bridge_Si_Si orientation=upright height_A=3.25 substrate_atoms=36 calculation_kind="Rigid evaluated approach scan; not NEB" energy=-186.523415874525 pbc="T T F"
Si       0.00000000       0.00000000      12.00000000  F        6       0.00006329       0.00000000       0.24847829
Si       3.83958982       0.00000000      12.00000000  F        6      -0.00006333       0.00000000       0.24847827
Si       7.67917964       0.00000000      12.00000000  F        6       0.00000000       0.00000000       0.24963631
Si       0.00000000       3.83958982      12.00000000  F        6      -0.00031017      -0.00000000       0.24844395
Si       3.83958982       3.83958982      12.00000000  F        6       0.00031013      -0.00000000       0.24844394
Si       7.67917964       3.83958982      12.00000000  F        6       0.00000000      -0.00000000       0.25013967
Si       1.91979491       0.00000000      13.35750000  F        5       0.00000000      -0.00000002      -0.52740407
Si       5.75938473       0.00000000      13.35750000  F        5       0.00075635      -0.00000002      -0.52586848
Si       9.59897455       0.00000000      13.35750000  F        5      -0.00075632      -0.00000002      -0.52586850
Si       1.91979491       3.83958982      13.35750000  F        5       0.00000000       0.00000000      -0.52564522
Si       5.75938473       3.83958982      13.35750000  F        5       0.00124944       0.00000000      -0.52348674
Si       9.59897455       3.83958982      13.35750000  F        5      -0.00124941       0.00000000      -0.52348676
Si       1.91979491       1.91979491      14.71500000  F        4      -0.00000000      -0.00001836       0.15043237
Si       5.75938473       1.91979491      14.71500000  F        4       0.00087217       0.00426692       0.15963079
Si       9.59897455       1.91979491      14.71500000  F        4      -0.00087213       0.00426692       0.15963081
Si       1.91979491       5.75938473      14.71500000  F        4      -0.00000000       0.00001838       0.15043236
Si       5.75938473       5.75938473      14.71500000  F        4       0.00087217      -0.00426690       0.15963078
Si       9.59897455       5.75938473      14.71500000  F        4      -0.00087213      -0.00426690       0.15963080
Si       0.00000000       1.91979491      16.07250000  F        3      -0.01568323       0.02728120      -0.12465708
Si       3.83958982       1.91979491      16.07250000  F        3       0.01568319       0.02728120      -0.12465706
Si       7.67917964       1.91979491      16.07250000  F        3       0.00000000      -0.01507303      -0.18366933
Si       0.00000000       5.75938473      16.07250000  F        3      -0.01568323      -0.02728117      -0.12465707
Si       3.83958982       5.75938473      16.07250000  F        3       0.01568319      -0.02728117      -0.12465705
Si       7.67917964       5.75938473      16.07250000  F        3       0.00000000       0.01507305      -0.18366932
Si       0.00000000       0.00000000      17.43000000  F        2       0.01048517      -0.00000002       0.50993107
Si       3.83958982       0.00000000      17.43000000  F        2      -0.01048520      -0.00000002       0.50993105
Si       7.67917964       0.00000000      17.43000000  F        2      -0.00000000      -0.00000002       0.49132515
Si       0.00000000       3.83958982      17.43000000  F        2       0.00187450       0.00000000       0.56799689
Si       3.83958982       3.83958982      17.43000000  F        2      -0.00187453       0.00000000       0.56799687
Si       7.67917964       3.83958982      17.43000000  F        2      -0.00000000       0.00000000       0.48069012
Si       1.91979491       0.00000000      18.78750000  F        1      -0.00000000       0.00000000      -0.25087444
Si       5.75938473       0.00000000      18.78750000  F        1      -0.00185833       0.00000000      -0.24473414
Si       9.59897455       0.00000000      18.78750000  F        1       0.00185837       0.00000000      -0.24473416
Si       1.91979491       3.83958982      18.78750000  F        1      -0.00000000      -0.00000000      -0.27751411
Si       5.75938473       3.83958982      18.78750000  F        1       0.02131187      -0.00000000      -0.21881212
Si       9.59897455       3.83958982      18.78750000  F        1      -0.02131183      -0.00000000      -0.21881214
Cl       7.67917964       3.83958982      22.03750000  T        0       0.00000000       0.00000000      -0.31282164
H        7.67917964       3.83958982      23.33928926  T        0      -0.00000000      -0.00000000       0.22514995
38
Lattice="11.518769465528859 0.0 0.0 0.0 7.679179643685906 0.0 0.0 0.0 30.7875" Properties=species:S:1:pos:R:3:move_mask:L:1:tags:I:1:forces:R:3 surface=Si100 species=HCl site=bridge_Si_Si orientation=upright height_A=2.75 substrate_atoms=36 calculation_kind="Rigid evaluated approach scan; not NEB" energy=-186.58204407919627 pbc="T T F"
Si       0.00000000       0.00000000      12.00000000  F        6       0.00022685       0.00000000       0.24821554
Si       3.83958982       0.00000000      12.00000000  F        6      -0.00022689       0.00000000       0.24821552
Si       7.67917964       0.00000000      12.00000000  F        6       0.00000000       0.00000000       0.25051594
Si       0.00000000       3.83958982      12.00000000  F        6      -0.00054824      -0.00000000       0.24820929
Si       3.83958982       3.83958982      12.00000000  F        6       0.00054820      -0.00000000       0.24820927
Si       7.67917964       3.83958982      12.00000000  F        6       0.00000000      -0.00000000       0.25165530
Si       1.91979491       0.00000000      13.35750000  F        5       0.00000000      -0.00000002      -0.52724939
Si       5.75938473       0.00000000      13.35750000  F        5       0.00096709      -0.00000002      -0.52467302
Si       9.59897455       0.00000000      13.35750000  F        5      -0.00096705      -0.00000002      -0.52467304
Si       1.91979491       3.83958982      13.35750000  F        5       0.00000000       0.00000000      -0.52783491
Si       5.75938473       3.83958982      13.35750000  F        5       0.00004917       0.00000000      -0.52596540
Si       9.59897455       3.83958982      13.35750000  F        5      -0.00004914       0.00000000      -0.52596542
Si       1.91979491       1.91979491      14.71500000  F        4      -0.00000000      -0.00187063       0.15530541
Si       5.75938473       1.91979491      14.71500000  F        4       0.00366039       0.00281511       0.16628659
Si       9.59897455       1.91979491      14.71500000  F        4      -0.00366035       0.00281511       0.16628661
Si       1.91979491       5.75938473      14.71500000  F        4      -0.00000000       0.00187065       0.15530540
Si       5.75938473       5.75938473      14.71500000  F        4       0.00366039      -0.00281509       0.16628658
Si       9.59897455       5.75938473      14.71500000  F        4      -0.00366035      -0.00281509       0.16628660
Si       0.00000000       1.91979491      16.07250000  F        3      -0.01619191       0.05093982      -0.11645838
Si       3.83958982       1.91979491      16.07250000  F        3       0.01619187       0.05093982      -0.11645836
Si       7.67917964       1.91979491      16.07250000  F        3       0.00000000      -0.03956175      -0.22020488
Si       0.00000000       5.75938473      16.07250000  F        3      -0.01619191      -0.05093980      -0.11645836
Si       3.83958982       5.75938473      16.07250000  F        3       0.01619187      -0.05093980      -0.11645834
Si       7.67917964       5.75938473      16.07250000  F        3       0.00000000       0.03956177      -0.22020486
Si       0.00000000       0.00000000      17.43000000  F        2       0.02062430      -0.00000002       0.49321553
Si       3.83958982       0.00000000      17.43000000  F        2      -0.02062434      -0.00000002       0.49321551
Si       7.67917964       0.00000000      17.43000000  F        2      -0.00000000      -0.00000002       0.45122206
Si       0.00000000       3.83958982      17.43000000  F        2       0.00685986       0.00000000       0.55394163
Si       3.83958982       3.83958982      17.43000000  F        2      -0.00685990       0.00000000       0.55394162
Si       7.67917964       3.83958982      17.43000000  F        2      -0.00000000       0.00000000       0.54120020
Si       1.91979491       0.00000000      18.78750000  F        1      -0.00000000       0.00000000      -0.25392805
Si       5.75938473       0.00000000      18.78750000  F        1       0.00134291       0.00000000      -0.21929874
Si       9.59897455       0.00000000      18.78750000  F        1      -0.00134287       0.00000000      -0.21929876
Si       1.91979491       3.83958982      18.78750000  F        1      -0.00000000      -0.00000000      -0.30330685
Si       5.75938473       3.83958982      18.78750000  F        1       0.00729024      -0.00000000      -0.20325918
Si       9.59897455       3.83958982      18.78750000  F        1      -0.00729020      -0.00000000      -0.20325919
Cl       7.67917964       3.83958982      21.53750000  T        0       0.00000000       0.00000000      -0.28249399
H        7.67917964       3.83958982      22.83928926  T        0      -0.00000000      -0.00000000       0.18993456
38
Lattice="11.518769465528859 0.0 0.0 0.0 7.679179643685906 0.0 0.0 0.0 30.7875" Properties=species:S:1:pos:R:3:move_mask:L:1:tags:I:1:forces:R:3 surface=Si100 species=HCl site=bridge_Si_Si orientation=upright height_A=2.25 substrate_atoms=36 calculation_kind="Rigid evaluated approach scan; not NEB" energy=-186.5347578619279 pbc="T T F"
Si       0.00000000       0.00000000      12.00000000  F        6       0.00078510       0.00000000       0.24952699
Si       3.83958982       0.00000000      12.00000000  F        6      -0.00078513       0.00000000       0.24952697
Si       7.67917964       0.00000000      12.00000000  F        6       0.00000000       0.00000000       0.25192369
Si       0.00000000       3.83958982      12.00000000  F        6       0.00030393      -0.00000000       0.24708535
Si       3.83958982       3.83958982      12.00000000  F        6      -0.00030397      -0.00000000       0.24708533
Si       7.67917964       3.83958982      12.00000000  F        6       0.00000000      -0.00000000       0.24928324
Si       1.91979491       0.00000000      13.35750000  F        5       0.00000000      -0.00000002      -0.52738154
Si       5.75938473       0.00000000      13.35750000  F        5      -0.00001818      -0.00000002      -0.52653315
Si       9.59897455       0.00000000      13.35750000  F        5       0.00001821      -0.00000002      -0.52653317
Si       1.91979491       3.83958982      13.35750000  F        5       0.00000000       0.00000000      -0.53910993
Si       5.75938473       3.83958982      13.35750000  F        5       0.00537427       0.00000000      -0.52304474
Si       9.59897455       3.83958982      13.35750000  F        5      -0.00537423       0.00000000      -0.52304476
Si       1.91979491       1.91979491      14.71500000  F        4      -0.00000000      -0.00689890       0.15673097
Si       5.75938473       1.91979491      14.71500000  F        4       0.01338769      -0.00324284       0.17120537
Si       9.59897455       1.91979491      14.71500000  F        4      -0.01338765      -0.00324284       0.17120539
Si       1.91979491       5.75938473      14.71500000  F        4      -0.00000000       0.00689893       0.15673095
Si       5.75938473       5.75938473      14.71500000  F        4       0.01338769       0.00324287       0.17120535
Si       9.59897455       5.75938473      14.71500000  F        4      -0.01338765       0.00324287       0.17120537
Si       0.00000000       1.91979491      16.07250000  F        3      -0.00828232       0.06771328      -0.11098076
Si       3.83958982       1.91979491      16.07250000  F        3       0.00828228       0.06771328      -0.11098074
Si       7.67917964       1.91979491      16.07250000  F        3       0.00000000      -0.01163921      -0.20706921
Si       0.00000000       5.75938473      16.07250000  F        3      -0.00828232      -0.06771325      -0.11098075
Si       3.83958982       5.75938473      16.07250000  F        3       0.00828228      -0.06771325      -0.11098073
Si       7.67917964       5.75938473      16.07250000  F        3       0.00000000       0.01163923      -0.20706920
Si       0.00000000       0.00000000      17.43000000  F        2       0.03202136      -0.00000002       0.47729731
Si       3.83958982       0.00000000      17.43000000  F        2      -0.03202140      -0.00000002       0.47729730
Si       7.67917964       0.00000000      17.43000000  F        2      -0.00000000      -0.00000002       0.40301896
Si       0.00000000       3.83958982      17.43000000  F        2       0.06331723       0.00000000       0.46800841
Si       3.83958982       3.83958982      17.43000000  F        2      -0.06331726       0.00000000       0.46800839
Si       7.67917964       3.83958982      17.43000000  F        2      -0.00000000       0.00000000       0.42290242
Si       1.91979491       0.00000000      18.78750000  F        1      -0.00000000       0.00000000      -0.25556901
Si       5.75938473       0.00000000      18.78750000  F        1       0.02337748       0.00000000      -0.15231053
Si       9.59897455       0.00000000      18.78750000  F        1      -0.02337744       0.00000000      -0.15231055
Si       1.91979491       3.83958982      18.78750000  F        1      -0.00000000      -0.00000000      -0.30609146
Si       5.75938473       3.83958982      18.78750000  F        1      -0.12075901      -0.00000000      -0.38667400
Si       9.59897455       3.83958982      18.78750000  F        1       0.12075905      -0.00000000      -0.38667402
Cl       7.67917964       3.83958982      21.03750000  T        0       0.00000000      -0.00000000       0.57700730
H        7.67917964       3.83958982      22.33928926  T        0       0.00000000       0.00000000      -0.12291682
38
Lattice="11.518769465528859 0.0 0.0 0.0 7.679179643685906 0.0 0.0 0.0 30.7875" Properties=species:S:1:pos:R:3:move_mask:L:1:tags:I:1:forces:R:3 surface=Si100 species=HCl site=bridge_Si_Si orientation=upright height_A=1.9 substrate_atoms=36 calculation_kind="Rigid evaluated approach scan; not NEB" energy=-186.14364823494986 pbc="T T F"
Si       0.00000000       0.00000000      12.00000000  F        6       0.00161841       0.00000000       0.25242337
Si       3.83958982       0.00000000      12.00000000  F        6      -0.00161844       0.00000000       0.25242335
Si       7.67917964       0.00000000      12.00000000  F        6       0.00000000       0.00000000       0.25410593
Si       0.00000000       3.83958982      12.00000000  F        6       0.00175024      -0.00000000       0.24593232
Si       3.83958982       3.83958982      12.00000000  F        6      -0.00175028      -0.00000000       0.24593231
Si       7.67917964       3.83958982      12.00000000  F        6       0.00000000      -0.00000000       0.24444408
Si       1.91979491       0.00000000      13.35750000  F        5       0.00000000      -0.00000002      -0.52821701
Si       5.75938473       0.00000000      13.35750000  F        5      -0.00111500      -0.00000002      -0.53027587
Si       9.59897455       0.00000000      13.35750000  F        5       0.00111503      -0.00000002      -0.53027589
Si       1.91979491       3.83958982      13.35750000  F        5       0.00000000       0.00000000      -0.55655385
Si       5.75938473       3.83958982      13.35750000  F        5       0.01565425       0.00000000      -0.52339026
Si       9.59897455       3.83958982      13.35750000  F        5      -0.01565422       0.00000000      -0.52339028
Si       1.91979491       1.91979491      14.71500000  F        4      -0.00000000      -0.01388490       0.15101727
Si       5.75938473       1.91979491      14.71500000  F        4       0.02368133      -0.02258919       0.16012126
Si       9.59897455       1.91979491      14.71500000  F        4      -0.02368129      -0.02258919       0.16012128
Si       1.91979491       5.75938473      14.71500000  F        4      -0.00000000       0.01388493       0.15101726
Si       5.75938473       5.75938473      14.71500000  F        4       0.02368133       0.02258921       0.16012125
Si       9.59897455       5.75938473      14.71500000  F        4      -0.02368129       0.02258921       0.16012127
Si       0.00000000       1.91979491      16.07250000  F        3      -0.00786202       0.07661020      -0.10243191
Si       3.83958982       1.91979491      16.07250000  F        3       0.00786199       0.07661020      -0.10243189
Si       7.67917964       1.91979491      16.07250000  F        3       0.00000000      -0.02094052      -0.19432412
Si       0.00000000       5.75938473      16.07250000  F        3      -0.00786202      -0.07661018      -0.10243189
Si       3.83958982       5.75938473      16.07250000  F        3       0.00786199      -0.07661018      -0.10243187
Si       7.67917964       5.75938473      16.07250000  F        3       0.00000000       0.02094054      -0.19432411
Si       0.00000000       0.00000000      17.43000000  F        2       0.04272379      -0.00000002       0.47372341
Si       3.83958982       0.00000000      17.43000000  F        2      -0.04272382      -0.00000002       0.47372339
Si       7.67917964       0.00000000      17.43000000  F        2      -0.00000000      -0.00000002       0.38483514
Si       0.00000000       3.83958982      17.43000000  F        2       0.05809630       0.00000000       0.45738483
Si       3.83958982       3.83958982      17.43000000  F        2      -0.05809633       0.00000000       0.45738481
Si       7.67917964       3.83958982      17.43000000  F        2      -0.00000000       0.00000000       0.44502898
Si       1.91979491       0.00000000      18.78750000  F        1      -0.00000000       0.00000000      -0.25242532
Si       5.75938473       0.00000000      18.78750000  F        1       0.05039478       0.00000000      -0.10686537
Si       9.59897455       0.00000000      18.78750000  F        1      -0.05039474       0.00000000      -0.10686539
Si       1.91979491       3.83958982      18.78750000  F        1      -0.00000000      -0.00000000      -0.27505037
Si       5.75938473       3.83958982      18.78750000  F        1      -0.64386636      -0.00000000      -1.11783611
Si       9.59897455       3.83958982      18.78750000  F        1       0.64386640      -0.00000000      -1.11783613
Cl       7.67917964       3.83958982      20.68750000  T        0      -0.00000000      -0.00000000       1.45304205
H        7.67917964       3.83958982      21.98928926  T        0      -0.00000000       0.00000000       0.38445408
38
Lattice="11.518769465528859 0.0 0.0 0.0 7.679179643685906 0.0 0.0 0.0 30.7875" Properties=species:S:1:pos:R:3:move_mask:L:1:tags:I:1:forces:R:3 surface=Si100 species=HCl site=bridge_Si_Si orientation=upright height_A=1.6 substrate_atoms=36 calculation_kind="Rigid evaluated approach scan; not NEB" energy=-185.52377837294122 pbc="T T F"
Si       0.00000000       0.00000000      12.00000000  F        6       0.00232763       0.00000000       0.25754481
Si       3.83958982       0.00000000      12.00000000  F        6      -0.00232767       0.00000000       0.25754479
Si       7.67917964       0.00000000      12.00000000  F        6       0.00000000       0.00000000       0.25714235
Si       0.00000000       3.83958982      12.00000000  F        6       0.00387894      -0.00000000       0.24574786
Si       3.83958982       3.83958982      12.00000000  F        6      -0.00387898      -0.00000000       0.24574784
Si       7.67917964       3.83958982      12.00000000  F        6       0.00000000      -0.00000000       0.23981553
Si       1.91979491       0.00000000      13.35750000  F        5       0.00000000      -0.00000002      -0.52668756
Si       5.75938473       0.00000000      13.35750000  F        5      -0.00244275      -0.00000002      -0.53316213
Si       9.59897455       0.00000000      13.35750000  F        5       0.00244278      -0.00000002      -0.53316215
Si       1.91979491       3.83958982      13.35750000  F        5       0.00000000       0.00000000      -0.57003196
Si       5.75938473       3.83958982      13.35750000  F        5       0.01894854       0.00000000      -0.53444095
Si       9.59897455       3.83958982      13.35750000  F        5      -0.01894851       0.00000000      -0.53444097
Si       1.91979491       1.91979491      14.71500000  F        4      -0.00000000      -0.02408198       0.14095881
Si       5.75938473       1.91979491      14.71500000  F        4       0.03578611      -0.04767871       0.15138335
Si       9.59897455       1.91979491      14.71500000  F        4      -0.03578607      -0.04767871       0.15138337
Si       1.91979491       5.75938473      14.71500000  F        4      -0.00000000       0.02408200       0.14095879
Si       5.75938473       5.75938473      14.71500000  F        4       0.03578611       0.04767873       0.15138334
Si       9.59897455       5.75938473      14.71500000  F        4      -0.03578607       0.04767873       0.15138336
Si       0.00000000       1.91979491      16.07250000  F        3      -0.01506936       0.08290197      -0.09536200
Si       3.83958982       1.91979491      16.07250000  F        3       0.01506932       0.08290197      -0.09536198
Si       7.67917964       1.91979491      16.07250000  F        3       0.00000000      -0.01401369      -0.14084143
Si       0.00000000       5.75938473      16.07250000  F        3      -0.01506936      -0.08290195      -0.09536199
Si       3.83958982       5.75938473      16.07250000  F        3       0.01506932      -0.08290195      -0.09536197
Si       7.67917964       5.75938473      16.07250000  F        3       0.00000000       0.01401371      -0.14084141
Si       0.00000000       0.00000000      17.43000000  F        2       0.05784669      -0.00000002       0.46039210
Si       3.83958982       0.00000000      17.43000000  F        2      -0.05784672      -0.00000002       0.46039208
Si       7.67917964       0.00000000      17.43000000  F        2      -0.00000000      -0.00000002       0.32980257
Si       0.00000000       3.83958982      17.43000000  F        2       0.02154394       0.00000000       0.50442708
Si       3.83958982       3.83958982      17.43000000  F        2      -0.02154397       0.00000000       0.50442707
Si       7.67917964       3.83958982      17.43000000  F        2      -0.00000000       0.00000000       0.45720499
Si       1.91979491       0.00000000      18.78750000  F        1      -0.00000000       0.00000000      -0.24273345
Si       5.75938473       0.00000000      18.78750000  F        1       0.04562385       0.00000000      -0.10437344
Si       9.59897455       0.00000000      18.78750000  F        1      -0.04562381       0.00000000      -0.10437346
Si       1.91979491       3.83958982      18.78750000  F        1      -0.00000000      -0.00000000      -0.23874190
Si       5.75938473       3.83958982      18.78750000  F        1      -1.11228749      -0.00000000      -1.31479414
Si       9.59897455       3.83958982      18.78750000  F        1       1.11228752      -0.00000000      -1.31479416
Cl       7.67917964       3.83958982      20.38750000  T        0      -0.00000000      -0.00000000       0.99366175
H        7.67917964       3.83958982      21.68928926  T        0      -0.00000000       0.00000000       1.11356522
38
Lattice="11.518769465528859 0.0 0.0 0.0 7.679179643685906 0.0 0.0 0.0 30.7875" Properties=species:S:1:pos:R:3:move_mask:L:1:tags:I:1:forces:R:3 surface=Si100 species=HCl site=bridge_Si_Si orientation=upright height_A=1.3 substrate_atoms=36 calculation_kind="Rigid evaluated approach scan; not NEB" energy=-184.8481428954897 pbc="T T F"
Si       0.00000000       0.00000000      12.00000000  F        6       0.00297189       0.00000000       0.26189768
Si       3.83958982       0.00000000      12.00000000  F        6      -0.00297193       0.00000000       0.26189767
Si       7.67917964       0.00000000      12.00000000  F        6       0.00000000       0.00000000       0.26101114
Si       0.00000000       3.83958982      12.00000000  F        6       0.00652623      -0.00000000       0.24486119
Si       3.83958982       3.83958982      12.00000000  F        6      -0.00652626      -0.00000000       0.24486117
Si       7.67917964       3.83958982      12.00000000  F        6       0.00000000      -0.00000000       0.23841374
Si       1.91979491       0.00000000      13.35750000  F        5       0.00000000      -0.00000002      -0.51994195
Si       5.75938473       0.00000000      13.35750000  F        5      -0.00218664      -0.00000002      -0.53102393
Si       9.59897455       0.00000000      13.35750000  F        5       0.00218667      -0.00000002      -0.53102395
Si       1.91979491       3.83958982      13.35750000  F        5       0.00000000       0.00000000      -0.57122005
Si       5.75938473       3.83958982      13.35750000  F        5       0.01103104       0.00000000      -0.54595461
Si       9.59897455       3.83958982      13.35750000  F        5      -0.01103101       0.00000000      -0.54595462
Si       1.91979491       1.91979491      14.71500000  F        4      -0.00000000      -0.03285660       0.13134107
Si       5.75938473       1.91979491      14.71500000  F        4       0.03417604      -0.04817507       0.16492069
Si       9.59897455       1.91979491      14.71500000  F        4      -0.03417601      -0.04817507       0.16492071
Si       1.91979491       5.75938473      14.71500000  F        4      -0.00000000       0.03285662       0.13134106
Si       5.75938473       5.75938473      14.71500000  F        4       0.03417604       0.04817509       0.16492067
Si       9.59897455       5.75938473      14.71500000  F        4      -0.03417601       0.04817509       0.16492069
Si       0.00000000       1.91979491      16.07250000  F        3      -0.02966388       0.07376858      -0.10344431
Si       3.83958982       1.91979491      16.07250000  F        3       0.02966384       0.07376858      -0.10344429
Si       7.67917964       1.91979491      16.07250000  F        3       0.00000000       0.05624157      -0.10660243
Si       0.00000000       5.75938473      16.07250000  F        3      -0.02966388      -0.07376855      -0.10344429
Si       3.83958982       5.75938473      16.07250000  F        3       0.02966384      -0.07376855      -0.10344427
Si       7.67917964       5.75938473      16.07250000  F        3       0.00000000      -0.05624155      -0.10660241
Si       0.00000000       0.00000000      17.43000000  F        2       0.06697394      -0.00000002       0.43582860
Si       3.83958982       0.00000000      17.43000000  F        2      -0.06697397      -0.00000002       0.43582859
Si       7.67917964       0.00000000      17.43000000  F        2      -0.00000000      -0.00000002       0.24380156
Si       0.00000000       3.83958982      17.43000000  F        2       0.03593316       0.00000000       0.53171079
Si       3.83958982       3.83958982      17.43000000  F        2      -0.03593319       0.00000000       0.53171077
Si       7.67917964       3.83958982      17.43000000  F        2      -0.00000000       0.00000000      -1.06543976
Si       1.91979491       0.00000000      18.78750000  F        1      -0.00000000       0.00000000      -0.23039162
Si       5.75938473       0.00000000      18.78750000  F        1       0.08327227       0.00000000      -0.06942739
Si       9.59897455       0.00000000      18.78750000  F        1      -0.08327223       0.00000000      -0.06942741
Si       1.91979491       3.83958982      18.78750000  F        1      -0.00000000      -0.00000000      -0.19552038
Si       5.75938473       3.83958982      18.78750000  F        1      -1.44513188      -0.00000000      -0.86606456
Si       9.59897455       3.83958982      18.78750000  F        1       1.44513191      -0.00000000      -0.86606457
Cl       7.67917964       3.83958982      20.08750000  T        0       0.00000001       0.00000000       0.52988935
H        7.67917964       3.83958982      21.38928926  T        0       0.00000000       0.00000000       2.09035964
