40
Lattice="9.8418 0.0 0.0 -2.460449999999999 4.261624409482844 0.0 0.0 -0.0 34.16586254" Properties=species:S:1:pos:R:3:move_mask:L:1:spacegroup_kinds:I:1:tags:I:1:forces:R:3 spacegroup="P 32 2 1" unit_cell=conventional surface=alpha_quartz_001 species=HF site=atop_O orientation=flipped height_A=1.9 substrate_atoms=36 calculation_kind="Rigid evaluated approach scan; not NEB" energy=-282.9416919542075 pbc="T T F"
Si       2.31725181       0.00000000      12.00000000  F        0        2      -0.13432782      -0.36625876      -1.70664806
Si      -1.15862590       2.00679893      15.60606667  F        0        2      -0.13294630       0.03975641       1.25024174
Si       1.30182410       2.25482548      13.80303333  F        0        2       0.03382574      -0.15834822       1.00953964
O        1.38326499       1.13103512      12.65233746  F        1        2      -0.50543049       0.21700702      -0.21529081
O        0.28787265       1.76346018      14.95372921  F        1        2       0.44662105      -0.24428936      -0.38316067
O        3.24976236       0.63242506      16.25840413  F        1        2      -0.21776214      -0.52414012       0.05445103
O        0.78931236       3.62919935      13.15069587  F        1        2       0.42635282       0.28422381       0.53988654
O        2.74832265       2.49816423      14.45537079  F        1        2       0.01029683       0.38577571      -0.72902529
O       -1.07718501       3.13058929      16.75676254  F        1        2       0.04538030       0.39679090       0.19936623
Si       2.31153795       0.01444068      17.46234745  T        0        1       0.00074738       0.00123764       0.00776539
Si      -1.18077629       1.79776872      21.13530152  T        0        1       0.00830931       0.00190064      -0.01577323
Si       1.30332381       2.26984945      19.30363049  T        0        1       0.00250133       0.00151588      -0.00555380
O        1.36644859       1.17137596      18.08161692  T        1        1       0.00291968      -0.00406633      -0.00267572
O        0.29162311       1.76207906      20.45441858  T        1        1      -0.01804151      -0.00326922       0.01261236
O        3.12684083       0.73568303      21.94610339  T        1        1      -0.00149864      -0.00476649       0.00316093
O        0.78490405       3.65782209      18.62348300  T        1        1      -0.00295416       0.00309022      -0.00452756
O        2.77339230       2.52615047      19.93073220  T        1        1       0.00810529      -0.00066889       0.00802204
O       -1.22218043       2.39095461      22.65707269  T        1        1      -0.00306818      -0.00238068       0.00436439
Si       7.23815181       0.00000000      12.00000000  F        0        2      -0.13344451      -0.36623381      -1.70201410
Si       3.76227409       2.00679893      15.60606667  F        0        2      -0.10737996       0.07896190       1.23187631
Si       6.22272410       2.25482548      13.80303333  F        0        2       0.02844016      -0.16401160       1.02261016
O        6.30416499       1.13103512      12.65233746  F        1        2      -0.50533299       0.21458613      -0.22064718
O        5.20877265       1.76346018      14.95372921  F        1        2       0.43319467      -0.24743453      -0.38031815
O        8.17066236       0.63242506      16.25840413  F        1        2      -0.15974699      -0.53406059       0.04126414
O        5.71021236       3.62919935      13.15069587  F        1        2       0.42630477       0.28653352       0.53359783
O        7.66922265       2.49816423      14.45537079  F        1        2       0.02007196       0.38781688      -0.72840252
O        3.84371499       3.13058929      16.75676254  F        1        2       0.09414236       0.33759154       0.17704593
Si       7.25144443      -0.00455867      17.46594275  T        0        1       0.00004135       0.00146371       0.00659956
Si       3.74658893       1.99048601      21.13674234  T        0        1       0.00421202       0.00298764      -0.01363135
Si       6.22100362       2.23741823      19.31392322  T        0        1      -0.00027842       0.00032583      -0.00243617
O        6.31185389       1.14928907      18.09188269  T        1        1       0.00179964      -0.00430652      -0.00403755
O        5.18030363       1.70465823      20.42801195  T        1        1      -0.00996090      -0.00034410       0.00674027
O        8.17630294       0.33023996      21.70521738  T        1        1      -0.00145891      -0.00643034      -0.00122818
O        5.74138421       3.63220197      18.61589134  T        1        1      -0.00350240       0.00383905      -0.00419549
O        7.67239549       2.45638425      20.00879064  T        1        1       0.00632722      -0.00257655       0.00449965
O        3.83641818       2.95825918      22.45842850  T        1        1       0.00132965       0.00214067       0.00437140
F        2.92615833       0.27125763      24.26386926  T        0        0      -0.01427738      -0.00061024      -0.00317816
H        3.04924885       0.51425638      23.21487588  T        0        0      -0.00731053       0.00026651      -0.00305397
F        4.31868482       1.37085113      25.90218034  T        0        0      -0.02229660      -0.00817842       0.00606998
H        3.73313869       0.91304060      25.19598611  T        0        0      -0.01990469      -0.00543685       0.00171243
