38
Lattice="11.518769465528859 0.0 0.0 0.0 7.679179643685906 0.0 0.0 0.0 30.7875" Properties=species:S:1:pos:R:3:move_mask:L:1:tags:I:1:forces:R:3 surface=Si100 species=H2 site=hollow orientation=parallel height_A=6.5 substrate_atoms=36 calculation_kind="Rigid evaluated approach scan; not NEB" energy=-186.84483600269022 pbc="T T F"
Si       0.00000000       0.00000000      12.00000000  F        6      -0.00000004       0.00000000       0.24903484
Si       3.83958982       0.00000000      12.00000000  F        6      -0.00000000       0.00000000       0.24903482
Si       7.67917964       0.00000000      12.00000000  F        6       0.00000000       0.00000000       0.24903482
Si       0.00000000       3.83958982      12.00000000  F        6      -0.00000004      -0.00000000       0.24903484
Si       3.83958982       3.83958982      12.00000000  F        6      -0.00000000      -0.00000000       0.24903482
Si       7.67917964       3.83958982      12.00000000  F        6       0.00000000      -0.00000000       0.24903482
Si       1.91979491       0.00000000      13.35750000  F        5       0.00000000      -0.00000002      -0.52822352
Si       5.75938473       0.00000000      13.35750000  F        5       0.00000000      -0.00000002      -0.52822353
Si       9.59897455       0.00000000      13.35750000  F        5       0.00000003      -0.00000002      -0.52822354
Si       1.91979491       3.83958982      13.35750000  F        5       0.00000000       0.00000000      -0.52822354
Si       5.75938473       3.83958982      13.35750000  F        5       0.00000000       0.00000000      -0.52822354
Si       9.59897455       3.83958982      13.35750000  F        5       0.00000003       0.00000000      -0.52822356
Si       1.91979491       1.91979491      14.71500000  F        4      -0.00000000       0.00000000       0.14537709
Si       5.75938473       1.91979491      14.71500000  F        4       0.00000000       0.00000000       0.14537709
Si       9.59897455       1.91979491      14.71500000  F        4       0.00000004       0.00000000       0.14537711
Si       1.91979491       5.75938473      14.71500000  F        4      -0.00000000       0.00000002       0.14537707
Si       5.75938473       5.75938473      14.71500000  F        4       0.00000000       0.00000002       0.14537707
Si       9.59897455       5.75938473      14.71500000  F        4       0.00000004       0.00000002       0.14537709
Si       0.00000000       1.91979491      16.07250000  F        3      -0.00000004       0.00000000      -0.14537711
Si       3.83958982       1.91979491      16.07250000  F        3      -0.00000000       0.00000000      -0.14537709
Si       7.67917964       1.91979491      16.07250000  F        3       0.00000000       0.00000000      -0.14537709
Si       0.00000000       5.75938473      16.07250000  F        3      -0.00000004       0.00000002      -0.14537709
Si       3.83958982       5.75938473      16.07250000  F        3      -0.00000000       0.00000002      -0.14537707
Si       7.67917964       5.75938473      16.07250000  F        3       0.00000000       0.00000002      -0.14537707
Si       0.00000000       0.00000000      17.43000000  F        2      -0.00000003      -0.00000002       0.52822354
Si       3.83958982       0.00000000      17.43000000  F        2      -0.00000000      -0.00000002       0.52822353
Si       7.67917964       0.00000000      17.43000000  F        2      -0.00000000      -0.00000002       0.52822352
Si       0.00000000       3.83958982      17.43000000  F        2      -0.00000003       0.00000000       0.52822356
Si       3.83958982       3.83958982      17.43000000  F        2      -0.00000000       0.00000000       0.52822354
Si       7.67917964       3.83958982      17.43000000  F        2      -0.00000000       0.00000000       0.52822354
Si       1.91979491       0.00000000      18.78750000  F        1      -0.00000000       0.00000000      -0.24903482
Si       5.75938473       0.00000000      18.78750000  F        1       0.00000000       0.00000000      -0.24903482
Si       9.59897455       0.00000000      18.78750000  F        1       0.00000004       0.00000000      -0.24903484
Si       1.91979491       3.83958982      18.78750000  F        1      -0.00000000      -0.00000000      -0.24903482
Si       5.75938473       3.83958982      18.78750000  F        1       0.00000000      -0.00000000      -0.24903482
Si       9.59897455       3.83958982      18.78750000  F        1       0.00000004      -0.00000000      -0.24903484
H        7.30377683       1.91979491      25.28750000  T        0      -0.00400540       0.00000000       0.00000000
H        8.05458245       1.91979491      25.28750000  T        0       0.00400540       0.00000000       0.00000000
38
Lattice="11.518769465528859 0.0 0.0 0.0 7.679179643685906 0.0 0.0 0.0 30.7875" Properties=species:S:1:pos:R:3:move_mask:L:1:tags:I:1:forces:R:3 surface=Si100 species=H2 site=hollow orientation=parallel height_A=5.0 substrate_atoms=36 calculation_kind="Rigid evaluated approach scan; not NEB" energy=-186.84483600269022 pbc="T T F"
Si       0.00000000       0.00000000      12.00000000  F        6      -0.00000004       0.00000000       0.24903484
Si       3.83958982       0.00000000      12.00000000  F        6      -0.00000000       0.00000000       0.24903482
Si       7.67917964       0.00000000      12.00000000  F        6       0.00000000       0.00000000       0.24903482
Si       0.00000000       3.83958982      12.00000000  F        6      -0.00000004      -0.00000000       0.24903484
Si       3.83958982       3.83958982      12.00000000  F        6      -0.00000000      -0.00000000       0.24903482
Si       7.67917964       3.83958982      12.00000000  F        6       0.00000000      -0.00000000       0.24903482
Si       1.91979491       0.00000000      13.35750000  F        5       0.00000000      -0.00000002      -0.52822352
Si       5.75938473       0.00000000      13.35750000  F        5       0.00000000      -0.00000002      -0.52822353
Si       9.59897455       0.00000000      13.35750000  F        5       0.00000003      -0.00000002      -0.52822354
Si       1.91979491       3.83958982      13.35750000  F        5       0.00000000       0.00000000      -0.52822354
Si       5.75938473       3.83958982      13.35750000  F        5       0.00000000       0.00000000      -0.52822354
Si       9.59897455       3.83958982      13.35750000  F        5       0.00000003       0.00000000      -0.52822356
Si       1.91979491       1.91979491      14.71500000  F        4      -0.00000000       0.00000000       0.14537709
Si       5.75938473       1.91979491      14.71500000  F        4       0.00000000       0.00000000       0.14537709
Si       9.59897455       1.91979491      14.71500000  F        4       0.00000004       0.00000000       0.14537711
Si       1.91979491       5.75938473      14.71500000  F        4      -0.00000000       0.00000002       0.14537707
Si       5.75938473       5.75938473      14.71500000  F        4       0.00000000       0.00000002       0.14537707
Si       9.59897455       5.75938473      14.71500000  F        4       0.00000004       0.00000002       0.14537709
Si       0.00000000       1.91979491      16.07250000  F        3      -0.00000004       0.00000000      -0.14537711
Si       3.83958982       1.91979491      16.07250000  F        3      -0.00000000       0.00000000      -0.14537709
Si       7.67917964       1.91979491      16.07250000  F        3       0.00000000       0.00000000      -0.14537709
Si       0.00000000       5.75938473      16.07250000  F        3      -0.00000004       0.00000002      -0.14537709
Si       3.83958982       5.75938473      16.07250000  F        3      -0.00000000       0.00000002      -0.14537707
Si       7.67917964       5.75938473      16.07250000  F        3       0.00000000       0.00000002      -0.14537707
Si       0.00000000       0.00000000      17.43000000  F        2      -0.00000003      -0.00000002       0.52822354
Si       3.83958982       0.00000000      17.43000000  F        2      -0.00000000      -0.00000002       0.52822353
Si       7.67917964       0.00000000      17.43000000  F        2      -0.00000000      -0.00000002       0.52822352
Si       0.00000000       3.83958982      17.43000000  F        2      -0.00000003       0.00000000       0.52822356
Si       3.83958982       3.83958982      17.43000000  F        2      -0.00000000       0.00000000       0.52822354
Si       7.67917964       3.83958982      17.43000000  F        2      -0.00000000       0.00000000       0.52822354
Si       1.91979491       0.00000000      18.78750000  F        1      -0.00000000       0.00000000      -0.24903482
Si       5.75938473       0.00000000      18.78750000  F        1       0.00000000       0.00000000      -0.24903482
Si       9.59897455       0.00000000      18.78750000  F        1       0.00000004       0.00000000      -0.24903484
Si       1.91979491       3.83958982      18.78750000  F        1      -0.00000000      -0.00000000      -0.24903482
Si       5.75938473       3.83958982      18.78750000  F        1       0.00000000      -0.00000000      -0.24903482
Si       9.59897455       3.83958982      18.78750000  F        1       0.00000004      -0.00000000      -0.24903484
H        7.30377683       1.91979491      23.78750000  T        0      -0.00400540       0.00000000       0.00000000
H        8.05458245       1.91979491      23.78750000  T        0       0.00400540       0.00000000       0.00000000
38
Lattice="11.518769465528859 0.0 0.0 0.0 7.679179643685906 0.0 0.0 0.0 30.7875" Properties=species:S:1:pos:R:3:move_mask:L:1:tags:I:1:forces:R:3 surface=Si100 species=H2 site=hollow orientation=parallel height_A=4.0 substrate_atoms=36 calculation_kind="Rigid evaluated approach scan; not NEB" energy=-186.82357814680455 pbc="T T F"
Si       0.00000000       0.00000000      12.00000000  F        6      -0.00008496      -0.00000913       0.24911310
Si       3.83958982       0.00000000      12.00000000  F        6       0.00008492      -0.00000913       0.24911309
Si       7.67917964       0.00000000      12.00000000  F        6       0.00000000      -0.00002159       0.24915193
Si       0.00000000       3.83958982      12.00000000  F        6      -0.00008496       0.00000913       0.24911310
Si       3.83958982       3.83958982      12.00000000  F        6       0.00008492       0.00000913       0.24911309
Si       7.67917964       3.83958982      12.00000000  F        6       0.00000000       0.00002159       0.24915193
Si       1.91979491       0.00000000      13.35750000  F        5       0.00000000       0.00001054      -0.52832659
Si       5.75938473       0.00000000      13.35750000  F        5      -0.00008620      -0.00000613      -0.52837072
Si       9.59897455       0.00000000      13.35750000  F        5       0.00008623      -0.00000613      -0.52837074
Si       1.91979491       3.83958982      13.35750000  F        5       0.00000000      -0.00001056      -0.52832660
Si       5.75938473       3.83958982      13.35750000  F        5      -0.00008620       0.00000610      -0.52837074
Si       9.59897455       3.83958982      13.35750000  F        5       0.00008623       0.00000610      -0.52837075
Si       1.91979491       1.91979491      14.71500000  F        4      -0.00000000       0.00000000       0.14500157
Si       5.75938473       1.91979491      14.71500000  F        4      -0.00050973       0.00000000       0.14381034
Si       9.59897455       1.91979491      14.71500000  F        4       0.00050977       0.00000000       0.14381036
Si       1.91979491       5.75938473      14.71500000  F        4      -0.00000000       0.00000002       0.14500783
Si       5.75938473       5.75938473      14.71500000  F        4      -0.00083773       0.00000002       0.14661435
Si       9.59897455       5.75938473      14.71500000  F        4       0.00083777       0.00000002       0.14661437
Si       0.00000000       1.91979491      16.07250000  F        3       0.00092807       0.00000000      -0.14681395
Si       3.83958982       1.91979491      16.07250000  F        3      -0.00092810       0.00000000      -0.14681393
Si       7.67917964       1.91979491      16.07250000  F        3       0.00000000       0.00000000      -0.14625577
Si       0.00000000       5.75938473      16.07250000  F        3      -0.00198024       0.00000002      -0.14464184
Si       3.83958982       5.75938473      16.07250000  F        3       0.00198021       0.00000002      -0.14464182
Si       7.67917964       5.75938473      16.07250000  F        3       0.00000000       0.00000002      -0.15090515
Si       0.00000000       0.00000000      17.43000000  F        2      -0.00474150      -0.00147418       0.53021801
Si       3.83958982       0.00000000      17.43000000  F        2       0.00474147      -0.00147418       0.53021799
Si       7.67917964       0.00000000      17.43000000  F        2      -0.00000000       0.00255260       0.52824884
Si       0.00000000       3.83958982      17.43000000  F        2      -0.00474150       0.00147416       0.53021802
Si       3.83958982       3.83958982      17.43000000  F        2       0.00474147       0.00147416       0.53021801
Si       7.67917964       3.83958982      17.43000000  F        2      -0.00000000      -0.00255263       0.52824885
Si       1.91979491       0.00000000      18.78750000  F        1      -0.00000000       0.00049055      -0.24871788
Si       5.75938473       0.00000000      18.78750000  F        1      -0.02242034      -0.01141312      -0.28822189
Si       9.59897455       0.00000000      18.78750000  F        1       0.02242038      -0.01141312      -0.28822191
Si       1.91979491       3.83958982      18.78750000  F        1      -0.00000000      -0.00049055      -0.24871788
Si       5.75938473       3.83958982      18.78750000  F        1      -0.02242034       0.01141312      -0.28822189
Si       9.59897455       3.83958982      18.78750000  F        1       0.02242038       0.01141312      -0.28822191
H        7.30377683       1.91979491      22.78750000  T        0       0.03095514       0.00000000       0.07877359
H        8.05458245       1.91979491      22.78750000  T        0      -0.03095514       0.00000000       0.07877359
38
Lattice="11.518769465528859 0.0 0.0 0.0 7.679179643685906 0.0 0.0 0.0 30.7875" Properties=species:S:1:pos:R:3:move_mask:L:1:tags:I:1:forces:R:3 surface=Si100 species=H2 site=hollow orientation=parallel height_A=3.25 substrate_atoms=36 calculation_kind="Rigid evaluated approach scan; not NEB" energy=-186.66557182455438 pbc="T T F"
Si       0.00000000       0.00000000      12.00000000  F        6      -0.00092858      -0.00005629       0.25006935
Si       3.83958982       0.00000000      12.00000000  F        6       0.00092854      -0.00005629       0.25006933
Si       7.67917964       0.00000000      12.00000000  F        6       0.00000000      -0.00016736       0.25041249
Si       0.00000000       3.83958982      12.00000000  F        6      -0.00092858       0.00005629       0.25006935
Si       3.83958982       3.83958982      12.00000000  F        6       0.00092854       0.00005629       0.25006933
Si       7.67917964       3.83958982      12.00000000  F        6       0.00000000       0.00016736       0.25041249
Si       1.91979491       0.00000000      13.35750000  F        5       0.00000000       0.00016431      -0.52830661
Si       5.75938473       0.00000000      13.35750000  F        5      -0.00119920      -0.00009963      -0.52988180
Si       9.59897455       0.00000000      13.35750000  F        5       0.00119923      -0.00009963      -0.52988182
Si       1.91979491       3.83958982      13.35750000  F        5       0.00000000      -0.00016434      -0.52830662
Si       5.75938473       3.83958982      13.35750000  F        5      -0.00119920       0.00009961      -0.52988181
Si       9.59897455       3.83958982      13.35750000  F        5       0.00119923       0.00009961      -0.52988183
Si       1.91979491       1.91979491      14.71500000  F        4      -0.00000000      -0.00000000       0.14313037
Si       5.75938473       1.91979491      14.71500000  F        4      -0.00278548      -0.00000000       0.13194262
Si       9.59897455       1.91979491      14.71500000  F        4       0.00278552      -0.00000000       0.13194264
Si       1.91979491       5.75938473      14.71500000  F        4      -0.00000000       0.00000002       0.14306801
Si       5.75938473       5.75938473      14.71500000  F        4      -0.00506589       0.00000002       0.13217327
Si       9.59897455       5.75938473      14.71500000  F        4       0.00506593       0.00000002       0.13217329
Si       0.00000000       1.91979491      16.07250000  F        3       0.01156544       0.00000000      -0.15443252
Si       3.83958982       1.91979491      16.07250000  F        3      -0.01156548       0.00000000      -0.15443250
Si       7.67917964       1.91979491      16.07250000  F        3       0.00000000       0.00000000      -0.14159455
Si       0.00000000       5.75938473      16.07250000  F        3      -0.00326704       0.00000002      -0.13516465
Si       3.83958982       5.75938473      16.07250000  F        3       0.00326701       0.00000002      -0.13516463
Si       7.67917964       5.75938473      16.07250000  F        3       0.00000000       0.00000002      -0.18278560
Si       0.00000000       0.00000000      17.43000000  F        2      -0.03687530      -0.01120068       0.55067193
Si       3.83958982       0.00000000      17.43000000  F        2       0.03687526      -0.01120068       0.55067191
Si       7.67917964       0.00000000      17.43000000  F        2      -0.00000000       0.00909707       0.50648498
Si       0.00000000       3.83958982      17.43000000  F        2      -0.03687530       0.01120066       0.55067194
Si       3.83958982       3.83958982      17.43000000  F        2       0.03687526       0.01120066       0.55067192
Si       7.67917964       3.83958982      17.43000000  F        2      -0.00000000      -0.00909709       0.50648500
Si       1.91979491       0.00000000      18.78750000  F        1      -0.00000000       0.00108765      -0.25248904
Si       5.75938473       0.00000000      18.78750000  F        1      -0.08279260       0.06273369      -0.26440318
Si       9.59897455       0.00000000      18.78750000  F        1       0.08279264       0.06273369      -0.26440320
Si       1.91979491       3.83958982      18.78750000  F        1      -0.00000000      -0.00108766      -0.25248904
Si       5.75938473       3.83958982      18.78750000  F        1      -0.08279260      -0.06273369      -0.26440318
Si       9.59897455       3.83958982      18.78750000  F        1       0.08279264      -0.06273369      -0.26440320
H        7.30377683       1.91979491      22.03750000  T        0      -0.08908366      -0.00000000       0.05555780
H        8.05458245       1.91979491      22.03750000  T        0       0.08908366      -0.00000000       0.05555780
38
Lattice="11.518769465528859 0.0 0.0 0.0 7.679179643685906 0.0 0.0 0.0 30.7875" Properties=species:S:1:pos:R:3:move_mask:L:1:tags:I:1:forces:R:3 surface=Si100 species=H2 site=hollow orientation=parallel height_A=2.75 substrate_atoms=36 calculation_kind="Rigid evaluated approach scan; not NEB" energy=-186.58190521992108 pbc="T T F"
Si       0.00000000       0.00000000      12.00000000  F        6      -0.00098318      -0.00012630       0.25051692
Si       3.83958982       0.00000000      12.00000000  F        6       0.00098314      -0.00012630       0.25051690
Si       7.67917964       0.00000000      12.00000000  F        6       0.00000000      -0.00025807       0.25098302
Si       0.00000000       3.83958982      12.00000000  F        6      -0.00098318       0.00012630       0.25051692
Si       3.83958982       3.83958982      12.00000000  F        6       0.00098314       0.00012630       0.25051690
Si       7.67917964       3.83958982      12.00000000  F        6       0.00000000       0.00025807       0.25098302
Si       1.91979491       0.00000000      13.35750000  F        5       0.00000000       0.00018835      -0.52658245
Si       5.75938473       0.00000000      13.35750000  F        5      -0.00130642      -0.00013596      -0.53006205
Si       9.59897455       0.00000000      13.35750000  F        5       0.00130645      -0.00013596      -0.53006207
Si       1.91979491       3.83958982      13.35750000  F        5       0.00000000      -0.00018838      -0.52658246
Si       5.75938473       3.83958982      13.35750000  F        5      -0.00130642       0.00013593      -0.53006206
Si       9.59897455       3.83958982      13.35750000  F        5       0.00130645       0.00013593      -0.53006208
Si       1.91979491       1.91979491      14.71500000  F        4      -0.00000000      -0.00000000       0.14380060
Si       5.75938473       1.91979491      14.71500000  F        4      -0.00415965      -0.00000000       0.13957689
Si       9.59897455       1.91979491      14.71500000  F        4       0.00415969      -0.00000000       0.13957691
Si       1.91979491       5.75938473      14.71500000  F        4      -0.00000000       0.00000002       0.14149845
Si       5.75938473       5.75938473      14.71500000  F        4      -0.00140773       0.00000002       0.09973228
Si       9.59897455       5.75938473      14.71500000  F        4       0.00140777       0.00000002       0.09973230
Si       0.00000000       1.91979491      16.07250000  F        3       0.01248807       0.00000000      -0.15429707
Si       3.83958982       1.91979491      16.07250000  F        3      -0.01248810       0.00000000      -0.15429705
Si       7.67917964       1.91979491      16.07250000  F        3       0.00000000      -0.00000000      -0.13332575
Si       0.00000000       5.75938473      16.07250000  F        3       0.00968609       0.00000002      -0.14276439
Si       3.83958982       5.75938473      16.07250000  F        3      -0.00968613       0.00000002      -0.14276437
Si       7.67917964       5.75938473      16.07250000  F        3       0.00000000       0.00000002      -0.16092096
Si       0.00000000       0.00000000      17.43000000  F        2      -0.02808509       0.00221363       0.54267138
Si       3.83958982       0.00000000      17.43000000  F        2       0.02808506       0.00221363       0.54267136
Si       7.67917964       0.00000000      17.43000000  F        2      -0.00000000      -0.05365332       0.36863210
Si       0.00000000       3.83958982      17.43000000  F        2      -0.02808509      -0.00221365       0.54267140
Si       3.83958982       3.83958982      17.43000000  F        2       0.02808506      -0.00221365       0.54267138
Si       7.67917964       3.83958982      17.43000000  F        2      -0.00000000       0.05365329       0.36863212
Si       1.91979491       0.00000000      18.78750000  F        1      -0.00000000       0.00134583      -0.23680677
Si       5.75938473       0.00000000      18.78750000  F        1      -0.04246406       0.08763850      -0.23682492
Si       9.59897455       0.00000000      18.78750000  F        1       0.04246410       0.08763850      -0.23682493
Si       1.91979491       3.83958982      18.78750000  F        1      -0.00000000      -0.00134583      -0.23680677
Si       5.75938473       3.83958982      18.78750000  F        1      -0.04246406      -0.08763850      -0.23682492
Si       9.59897455       3.83958982      18.78750000  F        1       0.04246410      -0.08763850      -0.23682493
H        7.30377683       1.91979491      21.53750000  T        0       0.16395443      -0.00000000       0.15339759
H        8.05458245       1.91979491      21.53750000  T        0      -0.16395443      -0.00000000       0.15339759
38
Lattice="11.518769465528859 0.0 0.0 0.0 7.679179643685906 0.0 0.0 0.0 30.7875" Properties=species:S:1:pos:R:3:move_mask:L:1:tags:I:1:forces:R:3 surface=Si100 species=H2 site=hollow orientation=parallel height_A=2.25 substrate_atoms=36 calculation_kind="Rigid evaluated approach scan; not NEB" energy=-186.4630691074382 pbc="T T F"
Si       0.00000000       0.00000000      12.00000000  F        6      -0.00071410      -0.00031232       0.25051258
Si       3.83958982       0.00000000      12.00000000  F        6       0.00071407      -0.00031232       0.25051256
Si       7.67917964       0.00000000      12.00000000  F        6       0.00000000      -0.00042504       0.25183874
Si       0.00000000       3.83958982      12.00000000  F        6      -0.00071410       0.00031232       0.25051258
Si       3.83958982       3.83958982      12.00000000  F        6       0.00071407       0.00031232       0.25051256
Si       7.67917964       3.83958982      12.00000000  F        6       0.00000000       0.00042504       0.25183874
Si       1.91979491       0.00000000      13.35750000  F        5       0.00000000      -0.00008808      -0.52419020
Si       5.75938473       0.00000000      13.35750000  F        5      -0.00261946       0.00222281      -0.53240500
Si       9.59897455       0.00000000      13.35750000  F        5       0.00261949       0.00222281      -0.53240502
Si       1.91979491       3.83958982      13.35750000  F        5       0.00000000       0.00008805      -0.52419022
Si       5.75938473       3.83958982      13.35750000  F        5      -0.00261946      -0.00222284      -0.53240501
Si       9.59897455       3.83958982      13.35750000  F        5       0.00261949      -0.00222284      -0.53240503
Si       1.91979491       1.91979491      14.71500000  F        4      -0.00000000      -0.00000000       0.14583619
Si       5.75938473       1.91979491      14.71500000  F        4      -0.00635285       0.00000000       0.15221693
Si       9.59897455       1.91979491      14.71500000  F        4       0.00635289       0.00000000       0.15221695
Si       1.91979491       5.75938473      14.71500000  F        4      -0.00000000       0.00000002       0.13749870
Si       5.75938473       5.75938473      14.71500000  F        4      -0.00254259       0.00000002       0.10328498
Si       9.59897455       5.75938473      14.71500000  F        4       0.00254263       0.00000002       0.10328500
Si       0.00000000       1.91979491      16.07250000  F        3       0.00524968       0.00000000      -0.16213896
Si       3.83958982       1.91979491      16.07250000  F        3      -0.00524972       0.00000000      -0.16213894
Si       7.67917964       1.91979491      16.07250000  F        3       0.00000000      -0.00000000      -0.14483534
Si       0.00000000       5.75938473      16.07250000  F        3       0.00336236       0.00000002      -0.14444719
Si       3.83958982       5.75938473      16.07250000  F        3      -0.00336240       0.00000002      -0.14444717
Si       7.67917964       5.75938473      16.07250000  F        3       0.00000000       0.00000002      -0.14990270
Si       0.00000000       0.00000000      17.43000000  F        2       0.00423781       0.01548155       0.50428033
Si       3.83958982       0.00000000      17.43000000  F        2      -0.00423785       0.01548155       0.50428031
Si       7.67917964       0.00000000      17.43000000  F        2      -0.00000000      -0.00789385       0.47138078
Si       0.00000000       3.83958982      17.43000000  F        2       0.00423781      -0.01548157       0.50428035
Si       3.83958982       3.83958982      17.43000000  F        2      -0.00423785      -0.01548157       0.50428033
Si       7.67917964       3.83958982      17.43000000  F        2      -0.00000000       0.00789382       0.47138079
Si       1.91979491       0.00000000      18.78750000  F        1      -0.00000000       0.00229522      -0.21310645
Si       5.75938473       0.00000000      18.78750000  F        1       0.01211975       0.06900556      -0.20921803
Si       9.59897455       0.00000000      18.78750000  F        1      -0.01211971       0.06900556      -0.20921804
Si       1.91979491       3.83958982      18.78750000  F        1      -0.00000000      -0.00229522      -0.21310645
Si       5.75938473       3.83958982      18.78750000  F        1       0.01211975      -0.06900556      -0.20921803
Si       9.59897455       3.83958982      18.78750000  F        1      -0.01211971      -0.06900556      -0.20921804
H        7.30377683       1.91979491      21.03750000  T        0       0.37235401      -0.00000000       0.04452321
H        8.05458245       1.91979491      21.03750000  T        0      -0.37235401      -0.00000000       0.04452321
38
Lattice="11.518769465528859 0.0 0.0 0.0 7.679179643685906 0.0 0.0 0.0 30.7875" Properties=species:S:1:pos:R:3:move_mask:L:1:tags:I:1:forces:R:3 surface=Si100 species=H2 site=hollow orientation=parallel height_A=1.9 substrate_atoms=36 calculation_kind="Rigid evaluated approach scan; not NEB" energy=-186.43700169180016 pbc="T T F"
Si       0.00000000       0.00000000      12.00000000  F        6      -0.00063468      -0.00040558       0.24998298
Si       3.83958982       0.00000000      12.00000000  F        6       0.00063464      -0.00040558       0.24998296
Si       7.67917964       0.00000000      12.00000000  F        6       0.00000000       0.00030722       0.25228597
Si       0.00000000       3.83958982      12.00000000  F        6      -0.00063468       0.00040558       0.24998298
Si       3.83958982       3.83958982      12.00000000  F        6       0.00063464       0.00040558       0.24998296
Si       7.67917964       3.83958982      12.00000000  F        6       0.00000000      -0.00030722       0.25228597
Si       1.91979491       0.00000000      13.35750000  F        5       0.00000000      -0.00050330      -0.52185527
Si       5.75938473       0.00000000      13.35750000  F        5      -0.00488772       0.00401981      -0.53458535
Si       9.59897455       0.00000000      13.35750000  F        5       0.00488776       0.00401981      -0.53458537
Si       1.91979491       3.83958982      13.35750000  F        5       0.00000000       0.00050328      -0.52185529
Si       5.75938473       3.83958982      13.35750000  F        5      -0.00488772      -0.00401984      -0.53458536
Si       9.59897455       3.83958982      13.35750000  F        5       0.00488776      -0.00401984      -0.53458538
Si       1.91979491       1.91979491      14.71500000  F        4      -0.00000000      -0.00000000       0.14899852
Si       5.75938473       1.91979491      14.71500000  F        4      -0.00547120       0.00000000       0.16486068
Si       9.59897455       1.91979491      14.71500000  F        4       0.00547124       0.00000000       0.16486070
Si       1.91979491       5.75938473      14.71500000  F        4      -0.00000000       0.00000002       0.13552296
Si       5.75938473       5.75938473      14.71500000  F        4      -0.00775583       0.00000002       0.13098484
Si       9.59897455       5.75938473      14.71500000  F        4       0.00775587       0.00000002       0.13098486
Si       0.00000000       1.91979491      16.07250000  F        3      -0.00267821       0.00000000      -0.16914159
Si       3.83958982       1.91979491      16.07250000  F        3       0.00267817       0.00000000      -0.16914157
Si       7.67917964       1.91979491      16.07250000  F        3       0.00000000      -0.00000000      -0.28191816
Si       0.00000000       5.75938473      16.07250000  F        3      -0.00601303       0.00000002      -0.14329819
Si       3.83958982       5.75938473      16.07250000  F        3       0.00601299       0.00000002      -0.14329817
Si       7.67917964       5.75938473      16.07250000  F        3       0.00000000       0.00000002      -0.16364610
Si       0.00000000       0.00000000      17.43000000  F        2       0.03213628       0.01939881       0.46394321
Si       3.83958982       0.00000000      17.43000000  F        2      -0.03213631       0.01939881       0.46394319
Si       7.67917964       0.00000000      17.43000000  F        2      -0.00000000       0.00970529       0.54317220
Si       0.00000000       3.83958982      17.43000000  F        2       0.03213628      -0.01939883       0.46394322
Si       3.83958982       3.83958982      17.43000000  F        2      -0.03213631      -0.01939883       0.46394320
Si       7.67917964       3.83958982      17.43000000  F        2      -0.00000000      -0.00970532       0.54317222
Si       1.91979491       0.00000000      18.78750000  F        1      -0.00000000       0.00059203      -0.20180014
Si       5.75938473       0.00000000      18.78750000  F        1       0.04882951       0.02994383      -0.19147735
Si       9.59897455       0.00000000      18.78750000  F        1      -0.04882948       0.02994383      -0.19147736
Si       1.91979491       3.83958982      18.78750000  F        1      -0.00000000      -0.00059203      -0.20180014
Si       5.75938473       3.83958982      18.78750000  F        1       0.04882951      -0.02994383      -0.19147735
Si       9.59897455       3.83958982      18.78750000  F        1      -0.04882948      -0.02994383      -0.19147736
H        7.30377683       1.91979491      20.68750000  T        0       0.38331556      -0.00000000       0.04958594
H        8.05458245       1.91979491      20.68750000  T        0      -0.38331556      -0.00000000       0.04958594
38
Lattice="11.518769465528859 0.0 0.0 0.0 7.679179643685906 0.0 0.0 0.0 30.7875" Properties=species:S:1:pos:R:3:move_mask:L:1:tags:I:1:forces:R:3 surface=Si100 species=H2 site=hollow orientation=parallel height_A=1.6 substrate_atoms=36 calculation_kind="Rigid evaluated approach scan; not NEB" energy=-186.4021879385427 pbc="T T F"
Si       0.00000000       0.00000000      12.00000000  F        6      -0.00072023      -0.00045276       0.24950115
Si       3.83958982       0.00000000      12.00000000  F        6       0.00072019      -0.00045276       0.24950113
Si       7.67917964       0.00000000      12.00000000  F        6       0.00000000       0.00069584       0.25043706
Si       0.00000000       3.83958982      12.00000000  F        6      -0.00072023       0.00045276       0.24950115
Si       3.83958982       3.83958982      12.00000000  F        6       0.00072019       0.00045276       0.24950113
Si       7.67917964       3.83958982      12.00000000  F        6       0.00000000      -0.00069584       0.25043706
Si       1.91979491       0.00000000      13.35750000  F        5       0.00000000      -0.00102719      -0.52031329
Si       5.75938473       0.00000000      13.35750000  F        5      -0.00636505       0.00421728      -0.53373908
Si       9.59897455       0.00000000      13.35750000  F        5       0.00636508       0.00421728      -0.53373910
Si       1.91979491       3.83958982      13.35750000  F        5       0.00000000       0.00102717      -0.52031330
Si       5.75938473       3.83958982      13.35750000  F        5      -0.00636505      -0.00421730      -0.53373909
Si       9.59897455       3.83958982      13.35750000  F        5       0.00636508      -0.00421730      -0.53373911
Si       1.91979491       1.91979491      14.71500000  F        4      -0.00000000      -0.00000000       0.15222385
Si       5.75938473       1.91979491      14.71500000  F        4      -0.00278081       0.00000000       0.17911268
Si       9.59897455       1.91979491      14.71500000  F        4       0.00278085       0.00000000       0.17911270
Si       1.91979491       5.75938473      14.71500000  F        4      -0.00000000       0.00000002       0.13459381
Si       5.75938473       5.75938473      14.71500000  F        4      -0.01356983       0.00000002       0.15246101
Si       9.59897455       5.75938473      14.71500000  F        4       0.01356987       0.00000002       0.15246103
Si       0.00000000       1.91979491      16.07250000  F        3      -0.01092809       0.00000000      -0.16960992
Si       3.83958982       1.91979491      16.07250000  F        3       0.01092805       0.00000000      -0.16960990
Si       7.67917964       1.91979491      16.07250000  F        3       0.00000000      -0.00000000      -0.23224668
Si       0.00000000       5.75938473      16.07250000  F        3      -0.01094644       0.00000002      -0.14248194
Si       3.83958982       5.75938473      16.07250000  F        3       0.01094641       0.00000002      -0.14248192
Si       7.67917964       5.75938473      16.07250000  F        3       0.00000000       0.00000002      -0.16994503
Si       0.00000000       0.00000000      17.43000000  F        2       0.05321063       0.01496678       0.42884649
Si       3.83958982       0.00000000      17.43000000  F        2      -0.05321067       0.01496678       0.42884647
Si       7.67917964       0.00000000      17.43000000  F        2      -0.00000000       0.00964154       0.57217856
Si       0.00000000       3.83958982      17.43000000  F        2       0.05321063      -0.01496680       0.42884650
Si       3.83958982       3.83958982      17.43000000  F        2      -0.05321067      -0.01496680       0.42884648
Si       7.67917964       3.83958982      17.43000000  F        2      -0.00000000      -0.00964156       0.57217857
Si       1.91979491       0.00000000      18.78750000  F        1      -0.00000000      -0.00294006      -0.19844254
Si       5.75938473       0.00000000      18.78750000  F        1       0.04000328      -0.03886055      -0.20760071
Si       9.59897455       0.00000000      18.78750000  F        1      -0.04000324      -0.03886055      -0.20760073
Si       1.91979491       3.83958982      18.78750000  F        1      -0.00000000       0.00294006      -0.19844254
Si       5.75938473       3.83958982      18.78750000  F        1       0.04000328       0.03886055      -0.20760071
Si       9.59897455       3.83958982      18.78750000  F        1      -0.04000324       0.03886055      -0.20760073
H        7.30377683       1.91979491      20.38750000  T        0       0.37057364      -0.00000000       0.06032974
H        8.05458245       1.91979491      20.38750000  T        0      -0.37057364      -0.00000000       0.06032974
38
Lattice="11.518769465528859 0.0 0.0 0.0 7.679179643685906 0.0 0.0 0.0 30.7875" Properties=species:S:1:pos:R:3:move_mask:L:1:tags:I:1:forces:R:3 surface=Si100 species=H2 site=hollow orientation=parallel height_A=1.3 substrate_atoms=36 calculation_kind="Rigid evaluated approach scan; not NEB" energy=-186.35590015506494 pbc="T T F"
Si       0.00000000       0.00000000      12.00000000  F        6      -0.00071798      -0.00054032       0.24872987
Si       3.83958982       0.00000000      12.00000000  F        6       0.00071794      -0.00054032       0.24872985
Si       7.67917964       0.00000000      12.00000000  F        6       0.00000000      -0.00298340       0.24187411
Si       0.00000000       3.83958982      12.00000000  F        6      -0.00071798       0.00054032       0.24872987
Si       3.83958982       3.83958982      12.00000000  F        6       0.00071794       0.00054032       0.24872985
Si       7.67917964       3.83958982      12.00000000  F        6       0.00000000       0.00298340       0.24187411
Si       1.91979491       0.00000000      13.35750000  F        5       0.00000000      -0.00120887      -0.51883300
Si       5.75938473       0.00000000      13.35750000  F        5      -0.00705816       0.00361306      -0.52440502
Si       9.59897455       0.00000000      13.35750000  F        5       0.00705819       0.00361306      -0.52440504
Si       1.91979491       3.83958982      13.35750000  F        5       0.00000000       0.00120884      -0.51883302
Si       5.75938473       3.83958982      13.35750000  F        5      -0.00705816      -0.00361308      -0.52440504
Si       9.59897455       3.83958982      13.35750000  F        5       0.00705819      -0.00361308      -0.52440506
Si       1.91979491       1.91979491      14.71500000  F        4      -0.00000000      -0.00000000       0.15442043
Si       5.75938473       1.91979491      14.71500000  F        4      -0.00411041       0.00000000       0.18956217
Si       9.59897455       1.91979491      14.71500000  F        4       0.00411045       0.00000000       0.18956219
Si       1.91979491       5.75938473      14.71500000  F        4      -0.00000000       0.00000002       0.13436782
Si       5.75938473       5.75938473      14.71500000  F        4      -0.01748888       0.00000002       0.16730523
Si       9.59897455       5.75938473      14.71500000  F        4       0.01748891       0.00000002       0.16730525
Si       0.00000000       1.91979491      16.07250000  F        3      -0.01813865       0.00000000      -0.16827116
Si       3.83958982       1.91979491      16.07250000  F        3       0.01813862       0.00000000      -0.16827114
Si       7.67917964       1.91979491      16.07250000  F        3       0.00000000      -0.00000000      -0.12431609
Si       0.00000000       5.75938473      16.07250000  F        3      -0.01382042       0.00000002      -0.14330048
Si       3.83958982       5.75938473      16.07250000  F        3       0.01382038       0.00000002      -0.14330046
Si       7.67917964       5.75938473      16.07250000  F        3       0.00000000       0.00000002      -0.17265488
Si       0.00000000       0.00000000      17.43000000  F        2       0.06504932       0.00776634       0.40762578
Si       3.83958982       0.00000000      17.43000000  F        2      -0.06504936       0.00776634       0.40762576
Si       7.67917964       0.00000000      17.43000000  F        2      -0.00000000      -0.02835747       0.51181961
Si       0.00000000       3.83958982      17.43000000  F        2       0.06504932      -0.00776636       0.40762580
Si       3.83958982       3.83958982      17.43000000  F        2      -0.06504936      -0.00776636       0.40762578
Si       7.67917964       3.83958982      17.43000000  F        2      -0.00000000       0.02835745       0.51181963
Si       1.91979491       0.00000000      18.78750000  F        1      -0.00000000      -0.00747506      -0.20512736
Si       5.75938473       0.00000000      18.78750000  F        1       0.01589511      -0.10103513      -0.22244070
Si       9.59897455       0.00000000      18.78750000  F        1      -0.01589507      -0.10103513      -0.22244072
Si       1.91979491       3.83958982      18.78750000  F        1      -0.00000000       0.00747505      -0.20512736
Si       5.75938473       3.83958982      18.78750000  F        1       0.01589511       0.10103513      -0.22244070
Si       9.59897455       3.83958982      18.78750000  F        1      -0.01589507       0.10103513      -0.22244072
H        7.30377683       1.91979491      20.08750000  T        0       0.30427661      -0.00000000       0.11004242
H        8.05458245       1.91979491      20.08750000  T        0      -0.30427661      -0.00000000       0.11004242
