31
Lattice="7.6044 0.0 0.0 -3.802199999999998 6.585603580538386 0.0 0.0 -0.0 28.35945" Properties=species:S:1:pos:R:3:move_mask:L:1:spacegroup_kinds:I:1:tags:I:1:forces:R:3 spacegroup="P 63/m" unit_cell=conventional occupancy="_JSON {\"0\": {\"Si\": 1.0}, \"1\": {\"N\": 1.0}, \"2\": {\"N\": 1.0}}" energy=-227.766539874322 pbc="T T F"
Si       5.18010587       1.14956320      12.00000000  F        0        2       1.70263228       1.21770905       1.38695948
Si      -1.37790587       5.43604038      13.45315000  F        0        2      -0.11119854       0.44323388      -1.63888644
Si       4.01879613       3.91132168      12.00000000  F        0        2      -1.92175188       0.91711333       1.37875267
Si      -0.21659613       2.67428190      13.45315000  F        0        2      -0.53060682      -0.10431573      -1.75129738
Si       2.20769800       1.52471870      12.00000000  F        0        2       0.24711387      -2.14372781       1.25886471
Si       1.59450200       5.06088488      13.45315000  F        0        2       0.39177038      -0.20540298      -1.53293143
N       -1.02370433       2.17482973      12.00000000  F        1        2      -0.57767165      -0.66447031       0.15223387
N        4.82590433       4.41077385      13.45315000  F        1        2       0.46118419      -0.03997806      -0.50798100
N        2.43059437       4.61163476      12.00000000  F        1        2       0.87208098      -0.21746175       0.11820807
N        1.37160563       1.97396882      13.45315000  F        1        2      -0.28320163       0.44244293       0.32523054
N       -1.40689004       6.38474267      12.00000000  F        1        2      -0.26612518       0.88390945       0.07245376
N        5.20909004       0.20086091      13.45315000  F        1        2      -0.23527200      -0.42967840      -0.27215748
N        3.80216198       2.19517924      12.00000000  F        2        2       0.00180809      -0.00176950      -1.76504652
N        0.00003802       4.39042434      13.45315000  F        2        2       0.04007233      -0.03477923       0.42184158
Si       5.18010587       1.14956320      14.90630000  F        0        1       0.08798785      -0.70311087       1.50803416
Si      -1.37790587       5.43604038      16.35945000  F        0        1      -1.29324275      -0.60378473       0.35089892
Si       4.01879613       3.91132168      14.90630000  F        0        1       0.56360992       0.51170236       1.59011592
Si      -0.21659613       2.67428190      16.35945000  F        0        1       0.53249033       0.20624447      -1.58722919
Si       2.21176904       1.50314945      14.91095110  T        0        1       0.01179214       0.00129091       0.01295152
Si       1.59450200       5.06088488      16.35945000  F        0        1      -0.42100013       2.31582272      -1.71320190
N       -1.02370433       2.17482973      14.90630000  F        1        1      -0.00405364      -0.08596362       0.58815626
N        4.82590433       4.41077385      16.35945000  F        1        1       0.50780544       0.18573047      -0.61184574
N        2.43059437       4.61163476      14.90630000  F        1        1       0.10220918      -0.53432442       0.46210017
N        1.37160563       1.97396882      16.35945000  F        1        1      -0.60572384       0.14228020       0.42171727
N       -1.40689004       6.38474267      14.90630000  F        1        1       0.08686031       0.04957743      -0.04620933
N        5.20909004       0.20086091      16.35945000  F        1        1       0.38539238      -0.69018648       0.09905512
N        3.79433480       2.19391702      14.83943710  T        2        1      -0.01497291       0.00121929      -0.00761220
N        0.00003802       4.39042434      16.35945000  F        2        1       0.27016146      -0.85769836       1.29223688
O        2.66196925      -0.12560714      17.66463410  T        0        0      -0.01346321      -0.00264550       0.00837008
H        1.72425808       1.46968257      17.18064930  T        0        0       0.00595828       0.00157170      -0.01185001
H        3.58560743       0.21171911      17.55629883  T        0        0       0.00735477      -0.00055048      -0.00193236
