41
Lattice="11.518769465528859 0.0 0.0 0.0 7.679179643685906 0.0 0.0 0.0 30.7875" Properties=species:S:1:pos:R:3:move_mask:L:1:tags:I:1 surface=Si100 species=SiCl4 site=hollow orientation=parallel height_A=6.5 substrate_atoms=36 calculation_kind="Rigid evaluated approach scan; not NEB" energy=-199.31249491099615 pbc="T T F"
Si       0.00000000       0.00000000      12.00000000  F        6
Si       3.83958982       0.00000000      12.00000000  F        6
Si       7.67917964       0.00000000      12.00000000  F        6
Si       0.00000000       3.83958982      12.00000000  F        6
Si       3.83958982       3.83958982      12.00000000  F        6
Si       7.67917964       3.83958982      12.00000000  F        6
Si       1.91979491       0.00000000      13.35750000  F        5
Si       5.75938473       0.00000000      13.35750000  F        5
Si       9.59897455       0.00000000      13.35750000  F        5
Si       1.91979491       3.83958982      13.35750000  F        5
Si       5.75938473       3.83958982      13.35750000  F        5
Si       9.59897455       3.83958982      13.35750000  F        5
Si       1.91979491       1.91979491      14.71500000  F        4
Si       5.75938473       1.91979491      14.71500000  F        4
Si       9.59897455       1.91979491      14.71500000  F        4
Si       1.91979491       5.75938473      14.71500000  F        4
Si       5.75938473       5.75938473      14.71500000  F        4
Si       9.59897455       5.75938473      14.71500000  F        4
Si       0.00000000       1.91979491      16.07250000  F        3
Si       3.83958982       1.91979491      16.07250000  F        3
Si       7.67917964       1.91979491      16.07250000  F        3
Si       0.00000000       5.75938473      16.07250000  F        3
Si       3.83958982       5.75938473      16.07250000  F        3
Si       7.67917964       5.75938473      16.07250000  F        3
Si       0.00000000       0.00000000      17.43000000  F        2
Si       3.83958982       0.00000000      17.43000000  F        2
Si       7.67917964       0.00000000      17.43000000  F        2
Si       0.00000000       3.83958982      17.43000000  F        2
Si       3.83958982       3.83958982      17.43000000  F        2
Si       7.67917964       3.83958982      17.43000000  F        2
Si       1.91979491       0.00000000      18.78750000  F        1
Si       5.75938473       0.00000000      18.78750000  F        1
Si       9.59897455       0.00000000      18.78750000  F        1
Si       1.91979491       3.83958982      18.78750000  F        1
Si       5.75938473       3.83958982      18.78750000  F        1
Si       9.59897455       3.83958982      18.78750000  F        1
Si       7.67917964       1.91979491      27.20556301  T        0
Cl       5.64476660       1.91979491      27.20556301  T        0
Cl       8.35731732       1.91979491      25.28750000  T        0
Cl       8.35731732       3.58088620      28.16459451  T        0
Cl       8.35731732       0.25870362      28.16459451  T        0
41
Lattice="11.518769465528859 0.0 0.0 0.0 7.679179643685906 0.0 0.0 0.0 30.7875" Properties=species:S:1:pos:R:3:move_mask:L:1:tags:I:1 surface=Si100 species=SiCl4 site=hollow orientation=parallel height_A=5.0 substrate_atoms=36 calculation_kind="Rigid evaluated approach scan; not NEB" energy=-199.31249491099615 pbc="T T F"
Si       0.00000000       0.00000000      12.00000000  F        6
Si       3.83958982       0.00000000      12.00000000  F        6
Si       7.67917964       0.00000000      12.00000000  F        6
Si       0.00000000       3.83958982      12.00000000  F        6
Si       3.83958982       3.83958982      12.00000000  F        6
Si       7.67917964       3.83958982      12.00000000  F        6
Si       1.91979491       0.00000000      13.35750000  F        5
Si       5.75938473       0.00000000      13.35750000  F        5
Si       9.59897455       0.00000000      13.35750000  F        5
Si       1.91979491       3.83958982      13.35750000  F        5
Si       5.75938473       3.83958982      13.35750000  F        5
Si       9.59897455       3.83958982      13.35750000  F        5
Si       1.91979491       1.91979491      14.71500000  F        4
Si       5.75938473       1.91979491      14.71500000  F        4
Si       9.59897455       1.91979491      14.71500000  F        4
Si       1.91979491       5.75938473      14.71500000  F        4
Si       5.75938473       5.75938473      14.71500000  F        4
Si       9.59897455       5.75938473      14.71500000  F        4
Si       0.00000000       1.91979491      16.07250000  F        3
Si       3.83958982       1.91979491      16.07250000  F        3
Si       7.67917964       1.91979491      16.07250000  F        3
Si       0.00000000       5.75938473      16.07250000  F        3
Si       3.83958982       5.75938473      16.07250000  F        3
Si       7.67917964       5.75938473      16.07250000  F        3
Si       0.00000000       0.00000000      17.43000000  F        2
Si       3.83958982       0.00000000      17.43000000  F        2
Si       7.67917964       0.00000000      17.43000000  F        2
Si       0.00000000       3.83958982      17.43000000  F        2
Si       3.83958982       3.83958982      17.43000000  F        2
Si       7.67917964       3.83958982      17.43000000  F        2
Si       1.91979491       0.00000000      18.78750000  F        1
Si       5.75938473       0.00000000      18.78750000  F        1
Si       9.59897455       0.00000000      18.78750000  F        1
Si       1.91979491       3.83958982      18.78750000  F        1
Si       5.75938473       3.83958982      18.78750000  F        1
Si       9.59897455       3.83958982      18.78750000  F        1
Si       7.67917964       1.91979491      25.70556301  T        0
Cl       5.64476660       1.91979491      25.70556301  T        0
Cl       8.35731732       1.91979491      23.78750000  T        0
Cl       8.35731732       3.58088620      26.66459451  T        0
Cl       8.35731732       0.25870362      26.66459451  T        0
41
Lattice="11.518769465528859 0.0 0.0 0.0 7.679179643685906 0.0 0.0 0.0 30.7875" Properties=species:S:1:pos:R:3:move_mask:L:1:tags:I:1 surface=Si100 species=SiCl4 site=hollow orientation=parallel height_A=4.0 substrate_atoms=36 calculation_kind="Rigid evaluated approach scan; not NEB" energy=-199.3317142292458 pbc="T T F"
Si       0.00000000       0.00000000      12.00000000  F        6
Si       3.83958982       0.00000000      12.00000000  F        6
Si       7.67917964       0.00000000      12.00000000  F        6
Si       0.00000000       3.83958982      12.00000000  F        6
Si       3.83958982       3.83958982      12.00000000  F        6
Si       7.67917964       3.83958982      12.00000000  F        6
Si       1.91979491       0.00000000      13.35750000  F        5
Si       5.75938473       0.00000000      13.35750000  F        5
Si       9.59897455       0.00000000      13.35750000  F        5
Si       1.91979491       3.83958982      13.35750000  F        5
Si       5.75938473       3.83958982      13.35750000  F        5
Si       9.59897455       3.83958982      13.35750000  F        5
Si       1.91979491       1.91979491      14.71500000  F        4
Si       5.75938473       1.91979491      14.71500000  F        4
Si       9.59897455       1.91979491      14.71500000  F        4
Si       1.91979491       5.75938473      14.71500000  F        4
Si       5.75938473       5.75938473      14.71500000  F        4
Si       9.59897455       5.75938473      14.71500000  F        4
Si       0.00000000       1.91979491      16.07250000  F        3
Si       3.83958982       1.91979491      16.07250000  F        3
Si       7.67917964       1.91979491      16.07250000  F        3
Si       0.00000000       5.75938473      16.07250000  F        3
Si       3.83958982       5.75938473      16.07250000  F        3
Si       7.67917964       5.75938473      16.07250000  F        3
Si       0.00000000       0.00000000      17.43000000  F        2
Si       3.83958982       0.00000000      17.43000000  F        2
Si       7.67917964       0.00000000      17.43000000  F        2
Si       0.00000000       3.83958982      17.43000000  F        2
Si       3.83958982       3.83958982      17.43000000  F        2
Si       7.67917964       3.83958982      17.43000000  F        2
Si       1.91979491       0.00000000      18.78750000  F        1
Si       5.75938473       0.00000000      18.78750000  F        1
Si       9.59897455       0.00000000      18.78750000  F        1
Si       1.91979491       3.83958982      18.78750000  F        1
Si       5.75938473       3.83958982      18.78750000  F        1
Si       9.59897455       3.83958982      18.78750000  F        1
Si       7.67917964       1.91979491      24.70556301  T        0
Cl       5.64476660       1.91979491      24.70556301  T        0
Cl       8.35731732       1.91979491      22.78750000  T        0
Cl       8.35731732       3.58088620      25.66459451  T        0
Cl       8.35731732       0.25870362      25.66459451  T        0
41
Lattice="11.518769465528859 0.0 0.0 0.0 7.679179643685906 0.0 0.0 0.0 30.7875" Properties=species:S:1:pos:R:3:move_mask:L:1:tags:I:1 surface=Si100 species=SiCl4 site=hollow orientation=parallel height_A=3.25 substrate_atoms=36 calculation_kind="Rigid evaluated approach scan; not NEB" energy=-199.40583179214886 pbc="T T F"
Si       0.00000000       0.00000000      12.00000000  F        6
Si       3.83958982       0.00000000      12.00000000  F        6
Si       7.67917964       0.00000000      12.00000000  F        6
Si       0.00000000       3.83958982      12.00000000  F        6
Si       3.83958982       3.83958982      12.00000000  F        6
Si       7.67917964       3.83958982      12.00000000  F        6
Si       1.91979491       0.00000000      13.35750000  F        5
Si       5.75938473       0.00000000      13.35750000  F        5
Si       9.59897455       0.00000000      13.35750000  F        5
Si       1.91979491       3.83958982      13.35750000  F        5
Si       5.75938473       3.83958982      13.35750000  F        5
Si       9.59897455       3.83958982      13.35750000  F        5
Si       1.91979491       1.91979491      14.71500000  F        4
Si       5.75938473       1.91979491      14.71500000  F        4
Si       9.59897455       1.91979491      14.71500000  F        4
Si       1.91979491       5.75938473      14.71500000  F        4
Si       5.75938473       5.75938473      14.71500000  F        4
Si       9.59897455       5.75938473      14.71500000  F        4
Si       0.00000000       1.91979491      16.07250000  F        3
Si       3.83958982       1.91979491      16.07250000  F        3
Si       7.67917964       1.91979491      16.07250000  F        3
Si       0.00000000       5.75938473      16.07250000  F        3
Si       3.83958982       5.75938473      16.07250000  F        3
Si       7.67917964       5.75938473      16.07250000  F        3
Si       0.00000000       0.00000000      17.43000000  F        2
Si       3.83958982       0.00000000      17.43000000  F        2
Si       7.67917964       0.00000000      17.43000000  F        2
Si       0.00000000       3.83958982      17.43000000  F        2
Si       3.83958982       3.83958982      17.43000000  F        2
Si       7.67917964       3.83958982      17.43000000  F        2
Si       1.91979491       0.00000000      18.78750000  F        1
Si       5.75938473       0.00000000      18.78750000  F        1
Si       9.59897455       0.00000000      18.78750000  F        1
Si       1.91979491       3.83958982      18.78750000  F        1
Si       5.75938473       3.83958982      18.78750000  F        1
Si       9.59897455       3.83958982      18.78750000  F        1
Si       7.67917964       1.91979491      23.95556301  T        0
Cl       5.64476660       1.91979491      23.95556301  T        0
Cl       8.35731732       1.91979491      22.03750000  T        0
Cl       8.35731732       3.58088620      24.91459451  T        0
Cl       8.35731732       0.25870362      24.91459451  T        0
41
Lattice="11.518769465528859 0.0 0.0 0.0 7.679179643685906 0.0 0.0 0.0 30.7875" Properties=species:S:1:pos:R:3:move_mask:L:1:tags:I:1 surface=Si100 species=SiCl4 site=hollow orientation=parallel height_A=2.75 substrate_atoms=36 calculation_kind="Rigid evaluated approach scan; not NEB" energy=-199.4036647463835 pbc="T T F"
Si       0.00000000       0.00000000      12.00000000  F        6
Si       3.83958982       0.00000000      12.00000000  F        6
Si       7.67917964       0.00000000      12.00000000  F        6
Si       0.00000000       3.83958982      12.00000000  F        6
Si       3.83958982       3.83958982      12.00000000  F        6
Si       7.67917964       3.83958982      12.00000000  F        6
Si       1.91979491       0.00000000      13.35750000  F        5
Si       5.75938473       0.00000000      13.35750000  F        5
Si       9.59897455       0.00000000      13.35750000  F        5
Si       1.91979491       3.83958982      13.35750000  F        5
Si       5.75938473       3.83958982      13.35750000  F        5
Si       9.59897455       3.83958982      13.35750000  F        5
Si       1.91979491       1.91979491      14.71500000  F        4
Si       5.75938473       1.91979491      14.71500000  F        4
Si       9.59897455       1.91979491      14.71500000  F        4
Si       1.91979491       5.75938473      14.71500000  F        4
Si       5.75938473       5.75938473      14.71500000  F        4
Si       9.59897455       5.75938473      14.71500000  F        4
Si       0.00000000       1.91979491      16.07250000  F        3
Si       3.83958982       1.91979491      16.07250000  F        3
Si       7.67917964       1.91979491      16.07250000  F        3
Si       0.00000000       5.75938473      16.07250000  F        3
Si       3.83958982       5.75938473      16.07250000  F        3
Si       7.67917964       5.75938473      16.07250000  F        3
Si       0.00000000       0.00000000      17.43000000  F        2
Si       3.83958982       0.00000000      17.43000000  F        2
Si       7.67917964       0.00000000      17.43000000  F        2
Si       0.00000000       3.83958982      17.43000000  F        2
Si       3.83958982       3.83958982      17.43000000  F        2
Si       7.67917964       3.83958982      17.43000000  F        2
Si       1.91979491       0.00000000      18.78750000  F        1
Si       5.75938473       0.00000000      18.78750000  F        1
Si       9.59897455       0.00000000      18.78750000  F        1
Si       1.91979491       3.83958982      18.78750000  F        1
Si       5.75938473       3.83958982      18.78750000  F        1
Si       9.59897455       3.83958982      18.78750000  F        1
Si       7.67917964       1.91979491      23.45556301  T        0
Cl       5.64476660       1.91979491      23.45556301  T        0
Cl       8.35731732       1.91979491      21.53750000  T        0
Cl       8.35731732       3.58088620      24.41459451  T        0
Cl       8.35731732       0.25870362      24.41459451  T        0
41
Lattice="11.518769465528859 0.0 0.0 0.0 7.679179643685906 0.0 0.0 0.0 30.7875" Properties=species:S:1:pos:R:3:move_mask:L:1:tags:I:1 surface=Si100 species=SiCl4 site=hollow orientation=parallel height_A=2.25 substrate_atoms=36 calculation_kind="Rigid evaluated approach scan; not NEB" energy=-199.44315281024623 pbc="T T F"
Si       0.00000000       0.00000000      12.00000000  F        6
Si       3.83958982       0.00000000      12.00000000  F        6
Si       7.67917964       0.00000000      12.00000000  F        6
Si       0.00000000       3.83958982      12.00000000  F        6
Si       3.83958982       3.83958982      12.00000000  F        6
Si       7.67917964       3.83958982      12.00000000  F        6
Si       1.91979491       0.00000000      13.35750000  F        5
Si       5.75938473       0.00000000      13.35750000  F        5
Si       9.59897455       0.00000000      13.35750000  F        5
Si       1.91979491       3.83958982      13.35750000  F        5
Si       5.75938473       3.83958982      13.35750000  F        5
Si       9.59897455       3.83958982      13.35750000  F        5
Si       1.91979491       1.91979491      14.71500000  F        4
Si       5.75938473       1.91979491      14.71500000  F        4
Si       9.59897455       1.91979491      14.71500000  F        4
Si       1.91979491       5.75938473      14.71500000  F        4
Si       5.75938473       5.75938473      14.71500000  F        4
Si       9.59897455       5.75938473      14.71500000  F        4
Si       0.00000000       1.91979491      16.07250000  F        3
Si       3.83958982       1.91979491      16.07250000  F        3
Si       7.67917964       1.91979491      16.07250000  F        3
Si       0.00000000       5.75938473      16.07250000  F        3
Si       3.83958982       5.75938473      16.07250000  F        3
Si       7.67917964       5.75938473      16.07250000  F        3
Si       0.00000000       0.00000000      17.43000000  F        2
Si       3.83958982       0.00000000      17.43000000  F        2
Si       7.67917964       0.00000000      17.43000000  F        2
Si       0.00000000       3.83958982      17.43000000  F        2
Si       3.83958982       3.83958982      17.43000000  F        2
Si       7.67917964       3.83958982      17.43000000  F        2
Si       1.91979491       0.00000000      18.78750000  F        1
Si       5.75938473       0.00000000      18.78750000  F        1
Si       9.59897455       0.00000000      18.78750000  F        1
Si       1.91979491       3.83958982      18.78750000  F        1
Si       5.75938473       3.83958982      18.78750000  F        1
Si       9.59897455       3.83958982      18.78750000  F        1
Si       7.67917964       1.91979491      22.95556301  T        0
Cl       5.64476660       1.91979491      22.95556301  T        0
Cl       8.35731732       1.91979491      21.03750000  T        0
Cl       8.35731732       3.58088620      23.91459451  T        0
Cl       8.35731732       0.25870362      23.91459451  T        0
41
Lattice="11.518769465528859 0.0 0.0 0.0 7.679179643685906 0.0 0.0 0.0 30.7875" Properties=species:S:1:pos:R:3:move_mask:L:1:tags:I:1 surface=Si100 species=SiCl4 site=hollow orientation=parallel height_A=1.9 substrate_atoms=36 calculation_kind="Rigid evaluated approach scan; not NEB" energy=-199.43095821405743 pbc="T T F"
Si       0.00000000       0.00000000      12.00000000  F        6
Si       3.83958982       0.00000000      12.00000000  F        6
Si       7.67917964       0.00000000      12.00000000  F        6
Si       0.00000000       3.83958982      12.00000000  F        6
Si       3.83958982       3.83958982      12.00000000  F        6
Si       7.67917964       3.83958982      12.00000000  F        6
Si       1.91979491       0.00000000      13.35750000  F        5
Si       5.75938473       0.00000000      13.35750000  F        5
Si       9.59897455       0.00000000      13.35750000  F        5
Si       1.91979491       3.83958982      13.35750000  F        5
Si       5.75938473       3.83958982      13.35750000  F        5
Si       9.59897455       3.83958982      13.35750000  F        5
Si       1.91979491       1.91979491      14.71500000  F        4
Si       5.75938473       1.91979491      14.71500000  F        4
Si       9.59897455       1.91979491      14.71500000  F        4
Si       1.91979491       5.75938473      14.71500000  F        4
Si       5.75938473       5.75938473      14.71500000  F        4
Si       9.59897455       5.75938473      14.71500000  F        4
Si       0.00000000       1.91979491      16.07250000  F        3
Si       3.83958982       1.91979491      16.07250000  F        3
Si       7.67917964       1.91979491      16.07250000  F        3
Si       0.00000000       5.75938473      16.07250000  F        3
Si       3.83958982       5.75938473      16.07250000  F        3
Si       7.67917964       5.75938473      16.07250000  F        3
Si       0.00000000       0.00000000      17.43000000  F        2
Si       3.83958982       0.00000000      17.43000000  F        2
Si       7.67917964       0.00000000      17.43000000  F        2
Si       0.00000000       3.83958982      17.43000000  F        2
Si       3.83958982       3.83958982      17.43000000  F        2
Si       7.67917964       3.83958982      17.43000000  F        2
Si       1.91979491       0.00000000      18.78750000  F        1
Si       5.75938473       0.00000000      18.78750000  F        1
Si       9.59897455       0.00000000      18.78750000  F        1
Si       1.91979491       3.83958982      18.78750000  F        1
Si       5.75938473       3.83958982      18.78750000  F        1
Si       9.59897455       3.83958982      18.78750000  F        1
Si       7.67917964       1.91979491      22.60556301  T        0
Cl       5.64476660       1.91979491      22.60556301  T        0
Cl       8.35731732       1.91979491      20.68750000  T        0
Cl       8.35731732       3.58088620      23.56459451  T        0
Cl       8.35731732       0.25870362      23.56459451  T        0
41
Lattice="11.518769465528859 0.0 0.0 0.0 7.679179643685906 0.0 0.0 0.0 30.7875" Properties=species:S:1:pos:R:3:move_mask:L:1:tags:I:1 surface=Si100 species=SiCl4 site=hollow orientation=parallel height_A=1.6 substrate_atoms=36 calculation_kind="Rigid evaluated approach scan; not NEB" energy=-199.2996365883248 pbc="T T F"
Si       0.00000000       0.00000000      12.00000000  F        6
Si       3.83958982       0.00000000      12.00000000  F        6
Si       7.67917964       0.00000000      12.00000000  F        6
Si       0.00000000       3.83958982      12.00000000  F        6
Si       3.83958982       3.83958982      12.00000000  F        6
Si       7.67917964       3.83958982      12.00000000  F        6
Si       1.91979491       0.00000000      13.35750000  F        5
Si       5.75938473       0.00000000      13.35750000  F        5
Si       9.59897455       0.00000000      13.35750000  F        5
Si       1.91979491       3.83958982      13.35750000  F        5
Si       5.75938473       3.83958982      13.35750000  F        5
Si       9.59897455       3.83958982      13.35750000  F        5
Si       1.91979491       1.91979491      14.71500000  F        4
Si       5.75938473       1.91979491      14.71500000  F        4
Si       9.59897455       1.91979491      14.71500000  F        4
Si       1.91979491       5.75938473      14.71500000  F        4
Si       5.75938473       5.75938473      14.71500000  F        4
Si       9.59897455       5.75938473      14.71500000  F        4
Si       0.00000000       1.91979491      16.07250000  F        3
Si       3.83958982       1.91979491      16.07250000  F        3
Si       7.67917964       1.91979491      16.07250000  F        3
Si       0.00000000       5.75938473      16.07250000  F        3
Si       3.83958982       5.75938473      16.07250000  F        3
Si       7.67917964       5.75938473      16.07250000  F        3
Si       0.00000000       0.00000000      17.43000000  F        2
Si       3.83958982       0.00000000      17.43000000  F        2
Si       7.67917964       0.00000000      17.43000000  F        2
Si       0.00000000       3.83958982      17.43000000  F        2
Si       3.83958982       3.83958982      17.43000000  F        2
Si       7.67917964       3.83958982      17.43000000  F        2
Si       1.91979491       0.00000000      18.78750000  F        1
Si       5.75938473       0.00000000      18.78750000  F        1
Si       9.59897455       0.00000000      18.78750000  F        1
Si       1.91979491       3.83958982      18.78750000  F        1
Si       5.75938473       3.83958982      18.78750000  F        1
Si       9.59897455       3.83958982      18.78750000  F        1
Si       7.67917964       1.91979491      22.30556301  T        0
Cl       5.64476660       1.91979491      22.30556301  T        0
Cl       8.35731732       1.91979491      20.38750000  T        0
Cl       8.35731732       3.58088620      23.26459451  T        0
Cl       8.35731732       0.25870362      23.26459451  T        0
41
Lattice="11.518769465528859 0.0 0.0 0.0 7.679179643685906 0.0 0.0 0.0 30.7875" Properties=species:S:1:pos:R:3:move_mask:L:1:tags:I:1 surface=Si100 species=SiCl4 site=hollow orientation=parallel height_A=1.3 substrate_atoms=36 calculation_kind="Rigid evaluated approach scan; not NEB" energy=-199.06421894360258 pbc="T T F"
Si       0.00000000       0.00000000      12.00000000  F        6
Si       3.83958982       0.00000000      12.00000000  F        6
Si       7.67917964       0.00000000      12.00000000  F        6
Si       0.00000000       3.83958982      12.00000000  F        6
Si       3.83958982       3.83958982      12.00000000  F        6
Si       7.67917964       3.83958982      12.00000000  F        6
Si       1.91979491       0.00000000      13.35750000  F        5
Si       5.75938473       0.00000000      13.35750000  F        5
Si       9.59897455       0.00000000      13.35750000  F        5
Si       1.91979491       3.83958982      13.35750000  F        5
Si       5.75938473       3.83958982      13.35750000  F        5
Si       9.59897455       3.83958982      13.35750000  F        5
Si       1.91979491       1.91979491      14.71500000  F        4
Si       5.75938473       1.91979491      14.71500000  F        4
Si       9.59897455       1.91979491      14.71500000  F        4
Si       1.91979491       5.75938473      14.71500000  F        4
Si       5.75938473       5.75938473      14.71500000  F        4
Si       9.59897455       5.75938473      14.71500000  F        4
Si       0.00000000       1.91979491      16.07250000  F        3
Si       3.83958982       1.91979491      16.07250000  F        3
Si       7.67917964       1.91979491      16.07250000  F        3
Si       0.00000000       5.75938473      16.07250000  F        3
Si       3.83958982       5.75938473      16.07250000  F        3
Si       7.67917964       5.75938473      16.07250000  F        3
Si       0.00000000       0.00000000      17.43000000  F        2
Si       3.83958982       0.00000000      17.43000000  F        2
Si       7.67917964       0.00000000      17.43000000  F        2
Si       0.00000000       3.83958982      17.43000000  F        2
Si       3.83958982       3.83958982      17.43000000  F        2
Si       7.67917964       3.83958982      17.43000000  F        2
Si       1.91979491       0.00000000      18.78750000  F        1
Si       5.75938473       0.00000000      18.78750000  F        1
Si       9.59897455       0.00000000      18.78750000  F        1
Si       1.91979491       3.83958982      18.78750000  F        1
Si       5.75938473       3.83958982      18.78750000  F        1
Si       9.59897455       3.83958982      18.78750000  F        1
Si       7.67917964       1.91979491      22.00556301  T        0
Cl       5.64476660       1.91979491      22.00556301  T        0
Cl       8.35731732       1.91979491      20.08750000  T        0
Cl       8.35731732       3.58088620      22.96459451  T        0
Cl       8.35731732       0.25870362      22.96459451  T        0
