38
Lattice="11.518769465528859 0.0 0.0 3.839589821842953 6.650364651656328 0.0 0.0 0.0 32.62128289467409" Properties=species:S:1:pos:R:3:move_mask:L:1:tags:I:1:forces:R:3 energy=-181.0825225782845 pbc="T T F"
Si       1.91979491       1.10839411      12.00000000  F        6       0.00173063      -0.00063964       0.17374087
Si       5.75938473       1.10839411      12.00000000  F        6      -0.00135060       0.00193934       0.18001170
Si       9.59897455       1.10839411      12.00000000  F        6      -0.00038936      -0.00107951       0.17901404
Si       3.83958982       4.43357643      12.00000000  F        6       0.00064118      -0.00075549       0.17827869
Si       7.67917964       4.43357643      12.00000000  F        6      -0.00213478       0.00006207       0.17802474
Si      11.51876947       4.43357643      12.00000000  F        6       0.00147307       0.00041113       0.17468488
Si       1.91979491       1.10839411      14.35125897  F        5      -0.01583566      -0.01055438      -0.30215095
Si       5.75938473       1.10839411      14.35125897  F        5       0.02570947       0.01370641      -0.28702245
Si       9.59897455       1.10839411      14.35125897  F        5      -0.00157679       0.01555662      -0.27981279
Si       3.83958982       4.43357643      14.35125897  F        5       0.03009745       0.01008274      -0.29526162
Si       7.67917964       4.43357643      14.35125897  F        5      -0.01032032      -0.01495686      -0.27535495
Si      11.51876947       4.43357643      14.35125897  F        5      -0.00944527      -0.00955055      -0.30462546
Si      -0.00000000       2.21678822      15.13501196  F        4      -0.00604779      -0.00933338      -0.10121756
Si       3.83958982       2.21678822      15.13501196  F        4       0.00141121       0.00388728      -0.20224060
Si       7.67917964       2.21678822      15.13501196  F        4       0.00125497       0.00520462      -0.10173767
Si       1.91979491       5.54197054      15.13501196  F        4      -0.01044001       0.01245968      -0.16114477
Si       5.75938473       5.54197054      15.13501196  F        4       0.00111654      -0.01272657      -0.12682819
Si       9.59897455       5.54197054      15.13501196  F        4       0.00168884       0.00063806      -0.08969662
Si      -0.00000000       2.21678822      17.48627093  F        3      -0.06713473       0.00872426       0.08624162
Si       3.83958982       2.21678822      17.48627093  F        3       0.12004217       0.05151461      -0.02972038
Si       7.67917964       2.21678822      17.48627093  F        3      -0.07474077       0.03601021      -0.08055262
Si       1.91979491       5.54197054      17.48627093  F        3       0.03973243       0.01476549      -0.27660068
Si       5.75938473       5.54197054      17.48627093  F        3      -0.03867522      -0.06730899       0.19124799
Si       9.59897455       5.54197054      17.48627093  F        3      -0.01364502      -0.02379495      -0.05889207
Si       0.00000000       0.00000000      18.27002392  F        2      -0.58729700      -0.30998188       0.64172462
Si       3.83958982       0.00000000      18.27002392  F        2      -0.03029164      -0.21937178       0.18082272
Si       7.67917964       0.00000000      18.27002392  F        2      -0.21371981       0.08547608      -0.11595561
Si       1.91979491       3.32518233      18.27002392  F        2      -0.21632014      -0.19731684      -0.04072069
Si       5.75938473       3.32518233      18.27002392  F        2      -0.55802138      -0.26269802       0.58085443
Si       9.59897455       3.32518233      18.27002392  F        2      -0.03606347      -0.02127269      -0.05750835
Si      -1.55482003      -0.85053818      20.49566783  T        1       0.00522690      -0.00932193       0.01146057
Si       3.83958982       0.00000000      20.62128289  F        1       0.31153938       0.64126054      -0.13477725
Si       7.67917964       0.00000000      20.62128289  F        1       0.62521480      -0.40239000       0.26110573
Si       1.91979491       3.32518233      20.62128289  F        1       0.57466390       0.60500052      -0.12120337
Si       4.14423843       2.38468792      20.50860127  T        1      -0.01283012       0.00969084       0.00106744
Si       9.59897455       3.32518233      20.62128289  F        1       0.16241875       0.06090782       0.42725255
Cl       7.61878676       2.31535796      20.88952923  T        0       0.00678216      -0.00195865      -0.00321504
Cl       3.61546771       6.42639864      21.98773947  T        0      -0.00446399      -0.00228622       0.00070709
