41
Lattice="11.518769465528859 0.0 0.0 3.839589821842953 6.650364651656328 0.0 0.0 0.0 32.62128289467409" Properties=species:S:1:pos:R:3:move_mask:L:1:tags:I:1 surface=Si111 species=SiCl4 site=atop_Si orientation=flipped height_A=6.5 substrate_atoms=36 calculation_kind="Rigid evaluated approach scan; not NEB" energy=-186.2334299664767 pbc="T T F"
Si       1.91979491       1.10839411      12.00000000  F        6
Si       5.75938473       1.10839411      12.00000000  F        6
Si       9.59897455       1.10839411      12.00000000  F        6
Si       3.83958982       4.43357643      12.00000000  F        6
Si       7.67917964       4.43357643      12.00000000  F        6
Si      11.51876947       4.43357643      12.00000000  F        6
Si       1.91979491       1.10839411      14.35125897  F        5
Si       5.75938473       1.10839411      14.35125897  F        5
Si       9.59897455       1.10839411      14.35125897  F        5
Si       3.83958982       4.43357643      14.35125897  F        5
Si       7.67917964       4.43357643      14.35125897  F        5
Si      11.51876947       4.43357643      14.35125897  F        5
Si      -0.00000000       2.21678822      15.13501196  F        4
Si       3.83958982       2.21678822      15.13501196  F        4
Si       7.67917964       2.21678822      15.13501196  F        4
Si       1.91979491       5.54197054      15.13501196  F        4
Si       5.75938473       5.54197054      15.13501196  F        4
Si       9.59897455       5.54197054      15.13501196  F        4
Si      -0.00000000       2.21678822      17.48627093  F        3
Si       3.83958982       2.21678822      17.48627093  F        3
Si       7.67917964       2.21678822      17.48627093  F        3
Si       1.91979491       5.54197054      17.48627093  F        3
Si       5.75938473       5.54197054      17.48627093  F        3
Si       9.59897455       5.54197054      17.48627093  F        3
Si       0.00000000       0.00000000      18.27002392  F        2
Si       3.83958982       0.00000000      18.27002392  F        2
Si       7.67917964       0.00000000      18.27002392  F        2
Si       1.91979491       3.32518233      18.27002392  F        2
Si       5.75938473       3.32518233      18.27002392  F        2
Si       9.59897455       3.32518233      18.27002392  F        2
Si       0.00000000       0.00000000      20.62128289  F        1
Si       3.83958982       0.00000000      20.62128289  F        1
Si       7.67917964       0.00000000      20.62128289  F        1
Si       1.91979491       3.32518233      20.62128289  F        1
Si       5.75938473       3.32518233      20.62128289  F        1
Si       9.59897455       3.32518233      20.62128289  F        1
Si       9.59897455       3.32518233      27.79942057  T        0
Cl       9.59897455       3.32518233      29.83383361  T        0
Cl       7.68091154       3.32518233      27.12128289  T        0
Cl      10.55800605       4.98627362      27.12128289  T        0
Cl      10.55800605       1.66409104      27.12128289  T        0
41
Lattice="11.518769465528859 0.0 0.0 3.839589821842953 6.650364651656328 0.0 0.0 0.0 32.62128289467409" Properties=species:S:1:pos:R:3:move_mask:L:1:tags:I:1 surface=Si111 species=SiCl4 site=atop_Si orientation=flipped height_A=5.0 substrate_atoms=36 calculation_kind="Rigid evaluated approach scan; not NEB" energy=-186.2334299664767 pbc="T T F"
Si       1.91979491       1.10839411      12.00000000  F        6
Si       5.75938473       1.10839411      12.00000000  F        6
Si       9.59897455       1.10839411      12.00000000  F        6
Si       3.83958982       4.43357643      12.00000000  F        6
Si       7.67917964       4.43357643      12.00000000  F        6
Si      11.51876947       4.43357643      12.00000000  F        6
Si       1.91979491       1.10839411      14.35125897  F        5
Si       5.75938473       1.10839411      14.35125897  F        5
Si       9.59897455       1.10839411      14.35125897  F        5
Si       3.83958982       4.43357643      14.35125897  F        5
Si       7.67917964       4.43357643      14.35125897  F        5
Si      11.51876947       4.43357643      14.35125897  F        5
Si      -0.00000000       2.21678822      15.13501196  F        4
Si       3.83958982       2.21678822      15.13501196  F        4
Si       7.67917964       2.21678822      15.13501196  F        4
Si       1.91979491       5.54197054      15.13501196  F        4
Si       5.75938473       5.54197054      15.13501196  F        4
Si       9.59897455       5.54197054      15.13501196  F        4
Si      -0.00000000       2.21678822      17.48627093  F        3
Si       3.83958982       2.21678822      17.48627093  F        3
Si       7.67917964       2.21678822      17.48627093  F        3
Si       1.91979491       5.54197054      17.48627093  F        3
Si       5.75938473       5.54197054      17.48627093  F        3
Si       9.59897455       5.54197054      17.48627093  F        3
Si       0.00000000       0.00000000      18.27002392  F        2
Si       3.83958982       0.00000000      18.27002392  F        2
Si       7.67917964       0.00000000      18.27002392  F        2
Si       1.91979491       3.32518233      18.27002392  F        2
Si       5.75938473       3.32518233      18.27002392  F        2
Si       9.59897455       3.32518233      18.27002392  F        2
Si       0.00000000       0.00000000      20.62128289  F        1
Si       3.83958982       0.00000000      20.62128289  F        1
Si       7.67917964       0.00000000      20.62128289  F        1
Si       1.91979491       3.32518233      20.62128289  F        1
Si       5.75938473       3.32518233      20.62128289  F        1
Si       9.59897455       3.32518233      20.62128289  F        1
Si       9.59897455       3.32518233      26.29942057  T        0
Cl       9.59897455       3.32518233      28.33383361  T        0
Cl       7.68091154       3.32518233      25.62128289  T        0
Cl      10.55800605       4.98627362      25.62128289  T        0
Cl      10.55800605       1.66409104      25.62128289  T        0
41
Lattice="11.518769465528859 0.0 0.0 3.839589821842953 6.650364651656328 0.0 0.0 0.0 32.62128289467409" Properties=species:S:1:pos:R:3:move_mask:L:1:tags:I:1 surface=Si111 species=SiCl4 site=atop_Si orientation=flipped height_A=4.0 substrate_atoms=36 calculation_kind="Rigid evaluated approach scan; not NEB" energy=-186.18060714245925 pbc="T T F"
Si       1.91979491       1.10839411      12.00000000  F        6
Si       5.75938473       1.10839411      12.00000000  F        6
Si       9.59897455       1.10839411      12.00000000  F        6
Si       3.83958982       4.43357643      12.00000000  F        6
Si       7.67917964       4.43357643      12.00000000  F        6
Si      11.51876947       4.43357643      12.00000000  F        6
Si       1.91979491       1.10839411      14.35125897  F        5
Si       5.75938473       1.10839411      14.35125897  F        5
Si       9.59897455       1.10839411      14.35125897  F        5
Si       3.83958982       4.43357643      14.35125897  F        5
Si       7.67917964       4.43357643      14.35125897  F        5
Si      11.51876947       4.43357643      14.35125897  F        5
Si      -0.00000000       2.21678822      15.13501196  F        4
Si       3.83958982       2.21678822      15.13501196  F        4
Si       7.67917964       2.21678822      15.13501196  F        4
Si       1.91979491       5.54197054      15.13501196  F        4
Si       5.75938473       5.54197054      15.13501196  F        4
Si       9.59897455       5.54197054      15.13501196  F        4
Si      -0.00000000       2.21678822      17.48627093  F        3
Si       3.83958982       2.21678822      17.48627093  F        3
Si       7.67917964       2.21678822      17.48627093  F        3
Si       1.91979491       5.54197054      17.48627093  F        3
Si       5.75938473       5.54197054      17.48627093  F        3
Si       9.59897455       5.54197054      17.48627093  F        3
Si       0.00000000       0.00000000      18.27002392  F        2
Si       3.83958982       0.00000000      18.27002392  F        2
Si       7.67917964       0.00000000      18.27002392  F        2
Si       1.91979491       3.32518233      18.27002392  F        2
Si       5.75938473       3.32518233      18.27002392  F        2
Si       9.59897455       3.32518233      18.27002392  F        2
Si       0.00000000       0.00000000      20.62128289  F        1
Si       3.83958982       0.00000000      20.62128289  F        1
Si       7.67917964       0.00000000      20.62128289  F        1
Si       1.91979491       3.32518233      20.62128289  F        1
Si       5.75938473       3.32518233      20.62128289  F        1
Si       9.59897455       3.32518233      20.62128289  F        1
Si       9.59897455       3.32518233      25.29942057  T        0
Cl       9.59897455       3.32518233      27.33383361  T        0
Cl       7.68091154       3.32518233      24.62128289  T        0
Cl      10.55800605       4.98627362      24.62128289  T        0
Cl      10.55800605       1.66409104      24.62128289  T        0
41
Lattice="11.518769465528859 0.0 0.0 3.839589821842953 6.650364651656328 0.0 0.0 0.0 32.62128289467409" Properties=species:S:1:pos:R:3:move_mask:L:1:tags:I:1 surface=Si111 species=SiCl4 site=atop_Si orientation=flipped height_A=3.25 substrate_atoms=36 calculation_kind="Rigid evaluated approach scan; not NEB" energy=-186.6477089770098 pbc="T T F"
Si       1.91979491       1.10839411      12.00000000  F        6
Si       5.75938473       1.10839411      12.00000000  F        6
Si       9.59897455       1.10839411      12.00000000  F        6
Si       3.83958982       4.43357643      12.00000000  F        6
Si       7.67917964       4.43357643      12.00000000  F        6
Si      11.51876947       4.43357643      12.00000000  F        6
Si       1.91979491       1.10839411      14.35125897  F        5
Si       5.75938473       1.10839411      14.35125897  F        5
Si       9.59897455       1.10839411      14.35125897  F        5
Si       3.83958982       4.43357643      14.35125897  F        5
Si       7.67917964       4.43357643      14.35125897  F        5
Si      11.51876947       4.43357643      14.35125897  F        5
Si      -0.00000000       2.21678822      15.13501196  F        4
Si       3.83958982       2.21678822      15.13501196  F        4
Si       7.67917964       2.21678822      15.13501196  F        4
Si       1.91979491       5.54197054      15.13501196  F        4
Si       5.75938473       5.54197054      15.13501196  F        4
Si       9.59897455       5.54197054      15.13501196  F        4
Si      -0.00000000       2.21678822      17.48627093  F        3
Si       3.83958982       2.21678822      17.48627093  F        3
Si       7.67917964       2.21678822      17.48627093  F        3
Si       1.91979491       5.54197054      17.48627093  F        3
Si       5.75938473       5.54197054      17.48627093  F        3
Si       9.59897455       5.54197054      17.48627093  F        3
Si       0.00000000       0.00000000      18.27002392  F        2
Si       3.83958982       0.00000000      18.27002392  F        2
Si       7.67917964       0.00000000      18.27002392  F        2
Si       1.91979491       3.32518233      18.27002392  F        2
Si       5.75938473       3.32518233      18.27002392  F        2
Si       9.59897455       3.32518233      18.27002392  F        2
Si       0.00000000       0.00000000      20.62128289  F        1
Si       3.83958982       0.00000000      20.62128289  F        1
Si       7.67917964       0.00000000      20.62128289  F        1
Si       1.91979491       3.32518233      20.62128289  F        1
Si       5.75938473       3.32518233      20.62128289  F        1
Si       9.59897455       3.32518233      20.62128289  F        1
Si       9.59897455       3.32518233      24.54942057  T        0
Cl       9.59897455       3.32518233      26.58383361  T        0
Cl       7.68091154       3.32518233      23.87128289  T        0
Cl      10.55800605       4.98627362      23.87128289  T        0
Cl      10.55800605       1.66409104      23.87128289  T        0
41
Lattice="11.518769465528859 0.0 0.0 3.839589821842953 6.650364651656328 0.0 0.0 0.0 32.62128289467409" Properties=species:S:1:pos:R:3:move_mask:L:1:tags:I:1 surface=Si111 species=SiCl4 site=atop_Si orientation=flipped height_A=2.75 substrate_atoms=36 calculation_kind="Rigid evaluated approach scan; not NEB" energy=-187.23774533714683 pbc="T T F"
Si       1.91979491       1.10839411      12.00000000  F        6
Si       5.75938473       1.10839411      12.00000000  F        6
Si       9.59897455       1.10839411      12.00000000  F        6
Si       3.83958982       4.43357643      12.00000000  F        6
Si       7.67917964       4.43357643      12.00000000  F        6
Si      11.51876947       4.43357643      12.00000000  F        6
Si       1.91979491       1.10839411      14.35125897  F        5
Si       5.75938473       1.10839411      14.35125897  F        5
Si       9.59897455       1.10839411      14.35125897  F        5
Si       3.83958982       4.43357643      14.35125897  F        5
Si       7.67917964       4.43357643      14.35125897  F        5
Si      11.51876947       4.43357643      14.35125897  F        5
Si      -0.00000000       2.21678822      15.13501196  F        4
Si       3.83958982       2.21678822      15.13501196  F        4
Si       7.67917964       2.21678822      15.13501196  F        4
Si       1.91979491       5.54197054      15.13501196  F        4
Si       5.75938473       5.54197054      15.13501196  F        4
Si       9.59897455       5.54197054      15.13501196  F        4
Si      -0.00000000       2.21678822      17.48627093  F        3
Si       3.83958982       2.21678822      17.48627093  F        3
Si       7.67917964       2.21678822      17.48627093  F        3
Si       1.91979491       5.54197054      17.48627093  F        3
Si       5.75938473       5.54197054      17.48627093  F        3
Si       9.59897455       5.54197054      17.48627093  F        3
Si       0.00000000       0.00000000      18.27002392  F        2
Si       3.83958982       0.00000000      18.27002392  F        2
Si       7.67917964       0.00000000      18.27002392  F        2
Si       1.91979491       3.32518233      18.27002392  F        2
Si       5.75938473       3.32518233      18.27002392  F        2
Si       9.59897455       3.32518233      18.27002392  F        2
Si       0.00000000       0.00000000      20.62128289  F        1
Si       3.83958982       0.00000000      20.62128289  F        1
Si       7.67917964       0.00000000      20.62128289  F        1
Si       1.91979491       3.32518233      20.62128289  F        1
Si       5.75938473       3.32518233      20.62128289  F        1
Si       9.59897455       3.32518233      20.62128289  F        1
Si       9.59897455       3.32518233      24.04942057  T        0
Cl       9.59897455       3.32518233      26.08383361  T        0
Cl       7.68091154       3.32518233      23.37128289  T        0
Cl      10.55800605       4.98627362      23.37128289  T        0
Cl      10.55800605       1.66409104      23.37128289  T        0
41
Lattice="11.518769465528859 0.0 0.0 3.839589821842953 6.650364651656328 0.0 0.0 0.0 32.62128289467409" Properties=species:S:1:pos:R:3:move_mask:L:1:tags:I:1 surface=Si111 species=SiCl4 site=atop_Si orientation=flipped height_A=2.25 substrate_atoms=36 calculation_kind="Rigid evaluated approach scan; not NEB" energy=-187.02041091833016 pbc="T T F"
Si       1.91979491       1.10839411      12.00000000  F        6
Si       5.75938473       1.10839411      12.00000000  F        6
Si       9.59897455       1.10839411      12.00000000  F        6
Si       3.83958982       4.43357643      12.00000000  F        6
Si       7.67917964       4.43357643      12.00000000  F        6
Si      11.51876947       4.43357643      12.00000000  F        6
Si       1.91979491       1.10839411      14.35125897  F        5
Si       5.75938473       1.10839411      14.35125897  F        5
Si       9.59897455       1.10839411      14.35125897  F        5
Si       3.83958982       4.43357643      14.35125897  F        5
Si       7.67917964       4.43357643      14.35125897  F        5
Si      11.51876947       4.43357643      14.35125897  F        5
Si      -0.00000000       2.21678822      15.13501196  F        4
Si       3.83958982       2.21678822      15.13501196  F        4
Si       7.67917964       2.21678822      15.13501196  F        4
Si       1.91979491       5.54197054      15.13501196  F        4
Si       5.75938473       5.54197054      15.13501196  F        4
Si       9.59897455       5.54197054      15.13501196  F        4
Si      -0.00000000       2.21678822      17.48627093  F        3
Si       3.83958982       2.21678822      17.48627093  F        3
Si       7.67917964       2.21678822      17.48627093  F        3
Si       1.91979491       5.54197054      17.48627093  F        3
Si       5.75938473       5.54197054      17.48627093  F        3
Si       9.59897455       5.54197054      17.48627093  F        3
Si       0.00000000       0.00000000      18.27002392  F        2
Si       3.83958982       0.00000000      18.27002392  F        2
Si       7.67917964       0.00000000      18.27002392  F        2
Si       1.91979491       3.32518233      18.27002392  F        2
Si       5.75938473       3.32518233      18.27002392  F        2
Si       9.59897455       3.32518233      18.27002392  F        2
Si       0.00000000       0.00000000      20.62128289  F        1
Si       3.83958982       0.00000000      20.62128289  F        1
Si       7.67917964       0.00000000      20.62128289  F        1
Si       1.91979491       3.32518233      20.62128289  F        1
Si       5.75938473       3.32518233      20.62128289  F        1
Si       9.59897455       3.32518233      20.62128289  F        1
Si       9.59897455       3.32518233      23.54942057  T        0
Cl       9.59897455       3.32518233      25.58383361  T        0
Cl       7.68091154       3.32518233      22.87128289  T        0
Cl      10.55800605       4.98627362      22.87128289  T        0
Cl      10.55800605       1.66409104      22.87128289  T        0
41
Lattice="11.518769465528859 0.0 0.0 3.839589821842953 6.650364651656328 0.0 0.0 0.0 32.62128289467409" Properties=species:S:1:pos:R:3:move_mask:L:1:tags:I:1 surface=Si111 species=SiCl4 site=atop_Si orientation=flipped height_A=1.9 substrate_atoms=36 calculation_kind="Rigid evaluated approach scan; not NEB" energy=-186.10690322933013 pbc="T T F"
Si       1.91979491       1.10839411      12.00000000  F        6
Si       5.75938473       1.10839411      12.00000000  F        6
Si       9.59897455       1.10839411      12.00000000  F        6
Si       3.83958982       4.43357643      12.00000000  F        6
Si       7.67917964       4.43357643      12.00000000  F        6
Si      11.51876947       4.43357643      12.00000000  F        6
Si       1.91979491       1.10839411      14.35125897  F        5
Si       5.75938473       1.10839411      14.35125897  F        5
Si       9.59897455       1.10839411      14.35125897  F        5
Si       3.83958982       4.43357643      14.35125897  F        5
Si       7.67917964       4.43357643      14.35125897  F        5
Si      11.51876947       4.43357643      14.35125897  F        5
Si      -0.00000000       2.21678822      15.13501196  F        4
Si       3.83958982       2.21678822      15.13501196  F        4
Si       7.67917964       2.21678822      15.13501196  F        4
Si       1.91979491       5.54197054      15.13501196  F        4
Si       5.75938473       5.54197054      15.13501196  F        4
Si       9.59897455       5.54197054      15.13501196  F        4
Si      -0.00000000       2.21678822      17.48627093  F        3
Si       3.83958982       2.21678822      17.48627093  F        3
Si       7.67917964       2.21678822      17.48627093  F        3
Si       1.91979491       5.54197054      17.48627093  F        3
Si       5.75938473       5.54197054      17.48627093  F        3
Si       9.59897455       5.54197054      17.48627093  F        3
Si       0.00000000       0.00000000      18.27002392  F        2
Si       3.83958982       0.00000000      18.27002392  F        2
Si       7.67917964       0.00000000      18.27002392  F        2
Si       1.91979491       3.32518233      18.27002392  F        2
Si       5.75938473       3.32518233      18.27002392  F        2
Si       9.59897455       3.32518233      18.27002392  F        2
Si       0.00000000       0.00000000      20.62128289  F        1
Si       3.83958982       0.00000000      20.62128289  F        1
Si       7.67917964       0.00000000      20.62128289  F        1
Si       1.91979491       3.32518233      20.62128289  F        1
Si       5.75938473       3.32518233      20.62128289  F        1
Si       9.59897455       3.32518233      20.62128289  F        1
Si       9.59897455       3.32518233      23.19942057  T        0
Cl       9.59897455       3.32518233      25.23383361  T        0
Cl       7.68091154       3.32518233      22.52128289  T        0
Cl      10.55800605       4.98627362      22.52128289  T        0
Cl      10.55800605       1.66409104      22.52128289  T        0
41
Lattice="11.518769465528859 0.0 0.0 3.839589821842953 6.650364651656328 0.0 0.0 0.0 32.62128289467409" Properties=species:S:1:pos:R:3:move_mask:L:1:tags:I:1 surface=Si111 species=SiCl4 site=atop_Si orientation=flipped height_A=1.6 substrate_atoms=36 calculation_kind="Rigid evaluated approach scan; not NEB" energy=-185.147615617492 pbc="T T F"
Si       1.91979491       1.10839411      12.00000000  F        6
Si       5.75938473       1.10839411      12.00000000  F        6
Si       9.59897455       1.10839411      12.00000000  F        6
Si       3.83958982       4.43357643      12.00000000  F        6
Si       7.67917964       4.43357643      12.00000000  F        6
Si      11.51876947       4.43357643      12.00000000  F        6
Si       1.91979491       1.10839411      14.35125897  F        5
Si       5.75938473       1.10839411      14.35125897  F        5
Si       9.59897455       1.10839411      14.35125897  F        5
Si       3.83958982       4.43357643      14.35125897  F        5
Si       7.67917964       4.43357643      14.35125897  F        5
Si      11.51876947       4.43357643      14.35125897  F        5
Si      -0.00000000       2.21678822      15.13501196  F        4
Si       3.83958982       2.21678822      15.13501196  F        4
Si       7.67917964       2.21678822      15.13501196  F        4
Si       1.91979491       5.54197054      15.13501196  F        4
Si       5.75938473       5.54197054      15.13501196  F        4
Si       9.59897455       5.54197054      15.13501196  F        4
Si      -0.00000000       2.21678822      17.48627093  F        3
Si       3.83958982       2.21678822      17.48627093  F        3
Si       7.67917964       2.21678822      17.48627093  F        3
Si       1.91979491       5.54197054      17.48627093  F        3
Si       5.75938473       5.54197054      17.48627093  F        3
Si       9.59897455       5.54197054      17.48627093  F        3
Si       0.00000000       0.00000000      18.27002392  F        2
Si       3.83958982       0.00000000      18.27002392  F        2
Si       7.67917964       0.00000000      18.27002392  F        2
Si       1.91979491       3.32518233      18.27002392  F        2
Si       5.75938473       3.32518233      18.27002392  F        2
Si       9.59897455       3.32518233      18.27002392  F        2
Si       0.00000000       0.00000000      20.62128289  F        1
Si       3.83958982       0.00000000      20.62128289  F        1
Si       7.67917964       0.00000000      20.62128289  F        1
Si       1.91979491       3.32518233      20.62128289  F        1
Si       5.75938473       3.32518233      20.62128289  F        1
Si       9.59897455       3.32518233      20.62128289  F        1
Si       9.59897455       3.32518233      22.89942057  T        0
Cl       9.59897455       3.32518233      24.93383361  T        0
Cl       7.68091154       3.32518233      22.22128289  T        0
Cl      10.55800605       4.98627362      22.22128289  T        0
Cl      10.55800605       1.66409104      22.22128289  T        0
41
Lattice="11.518769465528859 0.0 0.0 3.839589821842953 6.650364651656328 0.0 0.0 0.0 32.62128289467409" Properties=species:S:1:pos:R:3:move_mask:L:1:tags:I:1 surface=Si111 species=SiCl4 site=atop_Si orientation=flipped height_A=1.3 substrate_atoms=36 calculation_kind="Rigid evaluated approach scan; not NEB" energy=-182.940985758208 pbc="T T F"
Si       1.91979491       1.10839411      12.00000000  F        6
Si       5.75938473       1.10839411      12.00000000  F        6
Si       9.59897455       1.10839411      12.00000000  F        6
Si       3.83958982       4.43357643      12.00000000  F        6
Si       7.67917964       4.43357643      12.00000000  F        6
Si      11.51876947       4.43357643      12.00000000  F        6
Si       1.91979491       1.10839411      14.35125897  F        5
Si       5.75938473       1.10839411      14.35125897  F        5
Si       9.59897455       1.10839411      14.35125897  F        5
Si       3.83958982       4.43357643      14.35125897  F        5
Si       7.67917964       4.43357643      14.35125897  F        5
Si      11.51876947       4.43357643      14.35125897  F        5
Si      -0.00000000       2.21678822      15.13501196  F        4
Si       3.83958982       2.21678822      15.13501196  F        4
Si       7.67917964       2.21678822      15.13501196  F        4
Si       1.91979491       5.54197054      15.13501196  F        4
Si       5.75938473       5.54197054      15.13501196  F        4
Si       9.59897455       5.54197054      15.13501196  F        4
Si      -0.00000000       2.21678822      17.48627093  F        3
Si       3.83958982       2.21678822      17.48627093  F        3
Si       7.67917964       2.21678822      17.48627093  F        3
Si       1.91979491       5.54197054      17.48627093  F        3
Si       5.75938473       5.54197054      17.48627093  F        3
Si       9.59897455       5.54197054      17.48627093  F        3
Si       0.00000000       0.00000000      18.27002392  F        2
Si       3.83958982       0.00000000      18.27002392  F        2
Si       7.67917964       0.00000000      18.27002392  F        2
Si       1.91979491       3.32518233      18.27002392  F        2
Si       5.75938473       3.32518233      18.27002392  F        2
Si       9.59897455       3.32518233      18.27002392  F        2
Si       0.00000000       0.00000000      20.62128289  F        1
Si       3.83958982       0.00000000      20.62128289  F        1
Si       7.67917964       0.00000000      20.62128289  F        1
Si       1.91979491       3.32518233      20.62128289  F        1
Si       5.75938473       3.32518233      20.62128289  F        1
Si       9.59897455       3.32518233      20.62128289  F        1
Si       9.59897455       3.32518233      22.59942057  T        0
Cl       9.59897455       3.32518233      24.63383361  T        0
Cl       7.68091154       3.32518233      21.92128289  T        0
Cl      10.55800605       4.98627362      21.92128289  T        0
Cl      10.55800605       1.66409104      21.92128289  T        0
