38
Lattice="11.518769465528859 0.0 0.0 0.0 7.679179643685906 0.0 0.0 0.0 30.7875" Properties=species:S:1:pos:R:3:move_mask:L:1:tags:I:1:forces:R:3 surface=Si100 species=H2 site=bridge_Si_Si orientation=parallel height_A=6.5 substrate_atoms=36 calculation_kind="Rigid evaluated approach scan; not NEB" energy=-186.84483600269022 pbc="T T F"
Si       0.00000000       0.00000000      12.00000000  F        6      -0.00000004       0.00000000       0.24903484
Si       3.83958982       0.00000000      12.00000000  F        6      -0.00000000       0.00000000       0.24903482
Si       7.67917964       0.00000000      12.00000000  F        6       0.00000000       0.00000000       0.24903482
Si       0.00000000       3.83958982      12.00000000  F        6      -0.00000004      -0.00000000       0.24903484
Si       3.83958982       3.83958982      12.00000000  F        6      -0.00000000      -0.00000000       0.24903482
Si       7.67917964       3.83958982      12.00000000  F        6       0.00000000      -0.00000000       0.24903482
Si       1.91979491       0.00000000      13.35750000  F        5       0.00000000      -0.00000002      -0.52822352
Si       5.75938473       0.00000000      13.35750000  F        5       0.00000000      -0.00000002      -0.52822353
Si       9.59897455       0.00000000      13.35750000  F        5       0.00000003      -0.00000002      -0.52822354
Si       1.91979491       3.83958982      13.35750000  F        5       0.00000000       0.00000000      -0.52822354
Si       5.75938473       3.83958982      13.35750000  F        5       0.00000000       0.00000000      -0.52822354
Si       9.59897455       3.83958982      13.35750000  F        5       0.00000003       0.00000000      -0.52822356
Si       1.91979491       1.91979491      14.71500000  F        4      -0.00000000       0.00000000       0.14537709
Si       5.75938473       1.91979491      14.71500000  F        4       0.00000000       0.00000000       0.14537709
Si       9.59897455       1.91979491      14.71500000  F        4       0.00000004       0.00000000       0.14537711
Si       1.91979491       5.75938473      14.71500000  F        4      -0.00000000       0.00000002       0.14537707
Si       5.75938473       5.75938473      14.71500000  F        4       0.00000000       0.00000002       0.14537707
Si       9.59897455       5.75938473      14.71500000  F        4       0.00000004       0.00000002       0.14537709
Si       0.00000000       1.91979491      16.07250000  F        3      -0.00000004       0.00000000      -0.14537711
Si       3.83958982       1.91979491      16.07250000  F        3      -0.00000000       0.00000000      -0.14537709
Si       7.67917964       1.91979491      16.07250000  F        3       0.00000000       0.00000000      -0.14537709
Si       0.00000000       5.75938473      16.07250000  F        3      -0.00000004       0.00000002      -0.14537709
Si       3.83958982       5.75938473      16.07250000  F        3      -0.00000000       0.00000002      -0.14537707
Si       7.67917964       5.75938473      16.07250000  F        3       0.00000000       0.00000002      -0.14537707
Si       0.00000000       0.00000000      17.43000000  F        2      -0.00000003      -0.00000002       0.52822354
Si       3.83958982       0.00000000      17.43000000  F        2      -0.00000000      -0.00000002       0.52822353
Si       7.67917964       0.00000000      17.43000000  F        2      -0.00000000      -0.00000002       0.52822352
Si       0.00000000       3.83958982      17.43000000  F        2      -0.00000003       0.00000000       0.52822356
Si       3.83958982       3.83958982      17.43000000  F        2      -0.00000000       0.00000000       0.52822354
Si       7.67917964       3.83958982      17.43000000  F        2      -0.00000000       0.00000000       0.52822354
Si       1.91979491       0.00000000      18.78750000  F        1      -0.00000000       0.00000000      -0.24903482
Si       5.75938473       0.00000000      18.78750000  F        1       0.00000000       0.00000000      -0.24903482
Si       9.59897455       0.00000000      18.78750000  F        1       0.00000004       0.00000000      -0.24903484
Si       1.91979491       3.83958982      18.78750000  F        1      -0.00000000      -0.00000000      -0.24903482
Si       5.75938473       3.83958982      18.78750000  F        1       0.00000000      -0.00000000      -0.24903482
Si       9.59897455       3.83958982      18.78750000  F        1       0.00000004      -0.00000000      -0.24903484
H        7.30377683       3.83958982      25.28750000  T        0      -0.00400540       0.00000000       0.00000000
H        8.05458245       3.83958982      25.28750000  T        0       0.00400540       0.00000000       0.00000000
38
Lattice="11.518769465528859 0.0 0.0 0.0 7.679179643685906 0.0 0.0 0.0 30.7875" Properties=species:S:1:pos:R:3:move_mask:L:1:tags:I:1:forces:R:3 surface=Si100 species=H2 site=bridge_Si_Si orientation=parallel height_A=5.0 substrate_atoms=36 calculation_kind="Rigid evaluated approach scan; not NEB" energy=-186.84483600269022 pbc="T T F"
Si       0.00000000       0.00000000      12.00000000  F        6      -0.00000004       0.00000000       0.24903484
Si       3.83958982       0.00000000      12.00000000  F        6      -0.00000000       0.00000000       0.24903482
Si       7.67917964       0.00000000      12.00000000  F        6       0.00000000       0.00000000       0.24903482
Si       0.00000000       3.83958982      12.00000000  F        6      -0.00000004      -0.00000000       0.24903484
Si       3.83958982       3.83958982      12.00000000  F        6      -0.00000000      -0.00000000       0.24903482
Si       7.67917964       3.83958982      12.00000000  F        6       0.00000000      -0.00000000       0.24903482
Si       1.91979491       0.00000000      13.35750000  F        5       0.00000000      -0.00000002      -0.52822352
Si       5.75938473       0.00000000      13.35750000  F        5       0.00000000      -0.00000002      -0.52822353
Si       9.59897455       0.00000000      13.35750000  F        5       0.00000003      -0.00000002      -0.52822354
Si       1.91979491       3.83958982      13.35750000  F        5       0.00000000       0.00000000      -0.52822354
Si       5.75938473       3.83958982      13.35750000  F        5       0.00000000       0.00000000      -0.52822354
Si       9.59897455       3.83958982      13.35750000  F        5       0.00000003       0.00000000      -0.52822356
Si       1.91979491       1.91979491      14.71500000  F        4      -0.00000000       0.00000000       0.14537709
Si       5.75938473       1.91979491      14.71500000  F        4       0.00000000       0.00000000       0.14537709
Si       9.59897455       1.91979491      14.71500000  F        4       0.00000004       0.00000000       0.14537711
Si       1.91979491       5.75938473      14.71500000  F        4      -0.00000000       0.00000002       0.14537707
Si       5.75938473       5.75938473      14.71500000  F        4       0.00000000       0.00000002       0.14537707
Si       9.59897455       5.75938473      14.71500000  F        4       0.00000004       0.00000002       0.14537709
Si       0.00000000       1.91979491      16.07250000  F        3      -0.00000004       0.00000000      -0.14537711
Si       3.83958982       1.91979491      16.07250000  F        3      -0.00000000       0.00000000      -0.14537709
Si       7.67917964       1.91979491      16.07250000  F        3       0.00000000       0.00000000      -0.14537709
Si       0.00000000       5.75938473      16.07250000  F        3      -0.00000004       0.00000002      -0.14537709
Si       3.83958982       5.75938473      16.07250000  F        3      -0.00000000       0.00000002      -0.14537707
Si       7.67917964       5.75938473      16.07250000  F        3       0.00000000       0.00000002      -0.14537707
Si       0.00000000       0.00000000      17.43000000  F        2      -0.00000003      -0.00000002       0.52822354
Si       3.83958982       0.00000000      17.43000000  F        2      -0.00000000      -0.00000002       0.52822353
Si       7.67917964       0.00000000      17.43000000  F        2      -0.00000000      -0.00000002       0.52822352
Si       0.00000000       3.83958982      17.43000000  F        2      -0.00000003       0.00000000       0.52822356
Si       3.83958982       3.83958982      17.43000000  F        2      -0.00000000       0.00000000       0.52822354
Si       7.67917964       3.83958982      17.43000000  F        2      -0.00000000       0.00000000       0.52822354
Si       1.91979491       0.00000000      18.78750000  F        1      -0.00000000       0.00000000      -0.24903482
Si       5.75938473       0.00000000      18.78750000  F        1       0.00000000       0.00000000      -0.24903482
Si       9.59897455       0.00000000      18.78750000  F        1       0.00000004       0.00000000      -0.24903484
Si       1.91979491       3.83958982      18.78750000  F        1      -0.00000000      -0.00000000      -0.24903482
Si       5.75938473       3.83958982      18.78750000  F        1       0.00000000      -0.00000000      -0.24903482
Si       9.59897455       3.83958982      18.78750000  F        1       0.00000004      -0.00000000      -0.24903484
H        7.30377683       3.83958982      23.78750000  T        0      -0.00400540       0.00000000       0.00000000
H        8.05458245       3.83958982      23.78750000  T        0       0.00400540       0.00000000       0.00000000
38
Lattice="11.518769465528859 0.0 0.0 0.0 7.679179643685906 0.0 0.0 0.0 30.7875" Properties=species:S:1:pos:R:3:move_mask:L:1:tags:I:1:forces:R:3 surface=Si100 species=H2 site=bridge_Si_Si orientation=parallel height_A=4.0 substrate_atoms=36 calculation_kind="Rigid evaluated approach scan; not NEB" energy=-186.7759269505971 pbc="T T F"
Si       0.00000000       0.00000000      12.00000000  F        6      -0.00020684       0.00000000       0.24908252
Si       3.83958982       0.00000000      12.00000000  F        6       0.00020680       0.00000000       0.24908250
Si       7.67917964       0.00000000      12.00000000  F        6       0.00000000       0.00000000       0.24902661
Si       0.00000000       3.83958982      12.00000000  F        6      -0.00027961      -0.00000000       0.24955362
Si       3.83958982       3.83958982      12.00000000  F        6       0.00027958      -0.00000000       0.24955360
Si       7.67917964       3.83958982      12.00000000  F        6       0.00000000      -0.00000000       0.24973282
Si       1.91979491       0.00000000      13.35750000  F        5       0.00000000      -0.00000002      -0.52872375
Si       5.75938473       0.00000000      13.35750000  F        5      -0.00070261      -0.00000002      -0.52898315
Si       9.59897455       0.00000000      13.35750000  F        5       0.00070264      -0.00000002      -0.52898317
Si       1.91979491       3.83958982      13.35750000  F        5       0.00000000       0.00000000      -0.52807918
Si       5.75938473       3.83958982      13.35750000  F        5      -0.00004460       0.00000000      -0.52854027
Si       9.59897455       3.83958982      13.35750000  F        5       0.00004463       0.00000000      -0.52854029
Si       1.91979491       1.91979491      14.71500000  F        4      -0.00000000       0.00048027       0.14434745
Si       5.75938473       1.91979491      14.71500000  F        4      -0.00197440       0.00087587       0.14204913
Si       9.59897455       1.91979491      14.71500000  F        4       0.00197443       0.00087587       0.14204915
Si       1.91979491       5.75938473      14.71500000  F        4      -0.00000000      -0.00048025       0.14434744
Si       5.75938473       5.75938473      14.71500000  F        4      -0.00197440      -0.00087585       0.14204912
Si       9.59897455       5.75938473      14.71500000  F        4       0.00197443      -0.00087585       0.14204914
Si       0.00000000       1.91979491      16.07250000  F        3       0.00062365       0.00404947      -0.14748251
Si       3.83958982       1.91979491      16.07250000  F        3      -0.00062369       0.00404947      -0.14748249
Si       7.67917964       1.91979491      16.07250000  F        3       0.00000000      -0.01509877      -0.15829017
Si       0.00000000       5.75938473      16.07250000  F        3       0.00062365      -0.00404945      -0.14748250
Si       3.83958982       5.75938473      16.07250000  F        3      -0.00062369      -0.00404945      -0.14748248
Si       7.67917964       5.75938473      16.07250000  F        3       0.00000000       0.01509880      -0.15829016
Si       0.00000000       0.00000000      17.43000000  F        2       0.00203188      -0.00000002       0.53190080
Si       3.83958982       0.00000000      17.43000000  F        2      -0.00203192      -0.00000002       0.53190078
Si       7.67917964       0.00000000      17.43000000  F        2      -0.00000000      -0.00000002       0.53761993
Si       0.00000000       3.83958982      17.43000000  F        2      -0.03946626       0.00000000       0.54087667
Si       3.83958982       3.83958982      17.43000000  F        2       0.03946622       0.00000000       0.54087665
Si       7.67917964       3.83958982      17.43000000  F        2      -0.00000000       0.00000000       0.51932980
Si       1.91979491       0.00000000      18.78750000  F        1      -0.00000000       0.00000000      -0.25116815
Si       5.75938473       0.00000000      18.78750000  F        1       0.00448043       0.00000000      -0.23935244
Si       9.59897455       0.00000000      18.78750000  F        1      -0.00448039       0.00000000      -0.23935246
Si       1.91979491       3.83958982      18.78750000  F        1      -0.00000000      -0.00000000      -0.24853240
Si       5.75938473       3.83958982      18.78750000  F        1      -0.08462122      -0.00000000      -0.30190392
Si       9.59897455       3.83958982      18.78750000  F        1       0.08462126      -0.00000000      -0.30190393
H        7.30377683       3.83958982      22.78750000  T        0      -0.03500327      -0.00000000       0.05257285
H        8.05458245       3.83958982      22.78750000  T        0       0.03500327      -0.00000000       0.05257285
38
Lattice="11.518769465528859 0.0 0.0 0.0 7.679179643685906 0.0 0.0 0.0 30.7875" Properties=species:S:1:pos:R:3:move_mask:L:1:tags:I:1:forces:R:3 surface=Si100 species=H2 site=bridge_Si_Si orientation=parallel height_A=3.25 substrate_atoms=36 calculation_kind="Rigid evaluated approach scan; not NEB" energy=-186.75283003186397 pbc="T T F"
Si       0.00000000       0.00000000      12.00000000  F        6      -0.00058290       0.00000000       0.24896539
Si       3.83958982       0.00000000      12.00000000  F        6       0.00058286       0.00000000       0.24896537
Si       7.67917964       0.00000000      12.00000000  F        6       0.00000000       0.00000000       0.24945654
Si       0.00000000       3.83958982      12.00000000  F        6      -0.00046061      -0.00000000       0.24945243
Si       3.83958982       3.83958982      12.00000000  F        6       0.00046057      -0.00000000       0.24945241
Si       7.67917964       3.83958982      12.00000000  F        6       0.00000000      -0.00000000       0.25015309
Si       1.91979491       0.00000000      13.35750000  F        5       0.00000000      -0.00000002      -0.52736670
Si       5.75938473       0.00000000      13.35750000  F        5      -0.00133357      -0.00000002      -0.52902566
Si       9.59897455       0.00000000      13.35750000  F        5       0.00133360      -0.00000002      -0.52902568
Si       1.91979491       3.83958982      13.35750000  F        5       0.00000000       0.00000000      -0.52814094
Si       5.75938473       3.83958982      13.35750000  F        5       0.00070990       0.00000000      -0.52828159
Si       9.59897455       3.83958982      13.35750000  F        5      -0.00070987       0.00000000      -0.52828160
Si       1.91979491       1.91979491      14.71500000  F        4      -0.00000000       0.00003514       0.14594586
Si       5.75938473       1.91979491      14.71500000  F        4       0.00161637      -0.01106382       0.12439424
Si       9.59897455       1.91979491      14.71500000  F        4      -0.00161633      -0.01106382       0.12439426
Si       1.91979491       5.75938473      14.71500000  F        4      -0.00000000      -0.00003512       0.14594584
Si       5.75938473       5.75938473      14.71500000  F        4       0.00161637       0.01106384       0.12439422
Si       9.59897455       5.75938473      14.71500000  F        4      -0.00161633       0.01106384       0.12439424
Si       0.00000000       1.91979491      16.07250000  F        3       0.00853092      -0.00886159      -0.14853651
Si       3.83958982       1.91979491      16.07250000  F        3      -0.00853096      -0.00886159      -0.14853649
Si       7.67917964       1.91979491      16.07250000  F        3       0.00000000      -0.01779094      -0.15269287
Si       0.00000000       5.75938473      16.07250000  F        3       0.00853092       0.00886161      -0.14853649
Si       3.83958982       5.75938473      16.07250000  F        3      -0.00853096       0.00886161      -0.14853647
Si       7.67917964       5.75938473      16.07250000  F        3       0.00000000       0.01779097      -0.15269285
Si       0.00000000       0.00000000      17.43000000  F        2      -0.00063757      -0.00000002       0.53876065
Si       3.83958982       0.00000000      17.43000000  F        2       0.00063754      -0.00000002       0.53876063
Si       7.67917964       0.00000000      17.43000000  F        2      -0.00000000      -0.00000002       0.53880982
Si       0.00000000       3.83958982      17.43000000  F        2      -0.03239482       0.00000000       0.51976131
Si       3.83958982       3.83958982      17.43000000  F        2       0.03239479       0.00000000       0.51976129
Si       7.67917964       3.83958982      17.43000000  F        2      -0.00000000       0.00000000       0.34357146
Si       1.91979491       0.00000000      18.78750000  F        1      -0.00000000       0.00000000      -0.25214325
Si       5.75938473       0.00000000      18.78750000  F        1       0.00078633       0.00000000      -0.23387835
Si       9.59897455       0.00000000      18.78750000  F        1      -0.00078629       0.00000000      -0.23387837
Si       1.91979491       3.83958982      18.78750000  F        1      -0.00000000      -0.00000000      -0.22237722
Si       5.75938473       3.83958982      18.78750000  F        1      -0.01973889      -0.00000000      -0.20565199
Si       9.59897455       3.83958982      18.78750000  F        1       0.01973893      -0.00000000      -0.20565200
H        7.30377683       3.83958982      22.03750000  T        0       0.13438347      -0.00000000       0.06894798
H        8.05458245       3.83958982      22.03750000  T        0      -0.13438347      -0.00000000       0.06894798
38
Lattice="11.518769465528859 0.0 0.0 0.0 7.679179643685906 0.0 0.0 0.0 30.7875" Properties=species:S:1:pos:R:3:move_mask:L:1:tags:I:1:forces:R:3 surface=Si100 species=H2 site=bridge_Si_Si orientation=parallel height_A=2.75 substrate_atoms=36 calculation_kind="Rigid evaluated approach scan; not NEB" energy=-186.65698723674748 pbc="T T F"
Si       0.00000000       0.00000000      12.00000000  F        6      -0.00038207       0.00000000       0.24858055
Si       3.83958982       0.00000000      12.00000000  F        6       0.00038203       0.00000000       0.24858054
Si       7.67917964       0.00000000      12.00000000  F        6       0.00000000       0.00000000       0.25024530
Si       0.00000000       3.83958982      12.00000000  F        6      -0.00035044      -0.00000000       0.24953209
Si       3.83958982       3.83958982      12.00000000  F        6       0.00035040      -0.00000000       0.24953207
Si       7.67917964       3.83958982      12.00000000  F        6       0.00000000      -0.00000000       0.25140289
Si       1.91979491       0.00000000      13.35750000  F        5       0.00000000      -0.00000002      -0.52406761
Si       5.75938473       0.00000000      13.35750000  F        5      -0.00107067      -0.00000002      -0.52886042
Si       9.59897455       0.00000000      13.35750000  F        5       0.00107071      -0.00000002      -0.52886044
Si       1.91979491       3.83958982      13.35750000  F        5       0.00000000       0.00000000      -0.53103071
Si       5.75938473       3.83958982      13.35750000  F        5      -0.00355693       0.00000000      -0.53848403
Si       9.59897455       3.83958982      13.35750000  F        5       0.00355696       0.00000000      -0.53848405
Si       1.91979491       1.91979491      14.71500000  F        4      -0.00000000      -0.00024524       0.14569336
Si       5.75938473       1.91979491      14.71500000  F        4       0.00063599      -0.01755530       0.12615319
Si       9.59897455       1.91979491      14.71500000  F        4      -0.00063595      -0.01755530       0.12615321
Si       1.91979491       5.75938473      14.71500000  F        4      -0.00000000       0.00024527       0.14569335
Si       5.75938473       5.75938473      14.71500000  F        4       0.00063599       0.01755532       0.12615317
Si       9.59897455       5.75938473      14.71500000  F        4      -0.00063595       0.01755532       0.12615319
Si       0.00000000       1.91979491      16.07250000  F        3       0.00240312      -0.00981481      -0.15165650
Si       3.83958982       1.91979491      16.07250000  F        3      -0.00240315      -0.00981481      -0.15165648
Si       7.67917964       1.91979491      16.07250000  F        3       0.00000000      -0.04022143      -0.14914199
Si       0.00000000       5.75938473      16.07250000  F        3       0.00240312       0.00981484      -0.15165648
Si       3.83958982       5.75938473      16.07250000  F        3      -0.00240315       0.00981484      -0.15165646
Si       7.67917964       5.75938473      16.07250000  F        3       0.00000000       0.04022146      -0.14914197
Si       0.00000000       0.00000000      17.43000000  F        2       0.00011346      -0.00000002       0.53806271
Si       3.83958982       0.00000000      17.43000000  F        2      -0.00011349      -0.00000002       0.53806269
Si       7.67917964       0.00000000      17.43000000  F        2      -0.00000000      -0.00000002       0.52061444
Si       0.00000000       3.83958982      17.43000000  F        2       0.03512178       0.00000000       0.44918200
Si       3.83958982       3.83958982      17.43000000  F        2      -0.03512181       0.00000000       0.44918198
Si       7.67917964       3.83958982      17.43000000  F        2      -0.00000000       0.00000000       0.47712137
Si       1.91979491       0.00000000      18.78750000  F        1      -0.00000000       0.00000000      -0.25070913
Si       5.75938473       0.00000000      18.78750000  F        1      -0.00267751       0.00000000      -0.22793439
Si       9.59897455       0.00000000      18.78750000  F        1       0.00267755       0.00000000      -0.22793441
Si       1.91979491       3.83958982      18.78750000  F        1      -0.00000000      -0.00000000      -0.18084312
Si       5.75938473       3.83958982      18.78750000  F        1       0.03529648      -0.00000000      -0.23705515
Si       9.59897455       3.83958982      18.78750000  F        1      -0.03529644      -0.00000000      -0.23705517
H        7.30377683       3.83958982      21.53750000  T        0       0.31074709       0.00000000       0.09506521
H        8.05458245       3.83958982      21.53750000  T        0      -0.31074709       0.00000000       0.09506521
38
Lattice="11.518769465528859 0.0 0.0 0.0 7.679179643685906 0.0 0.0 0.0 30.7875" Properties=species:S:1:pos:R:3:move_mask:L:1:tags:I:1:forces:R:3 surface=Si100 species=H2 site=bridge_Si_Si orientation=parallel height_A=2.25 substrate_atoms=36 calculation_kind="Rigid evaluated approach scan; not NEB" energy=-186.51925934096093 pbc="T T F"
Si       0.00000000       0.00000000      12.00000000  F        6      -0.00070762       0.00000000       0.24732427
Si       3.83958982       0.00000000      12.00000000  F        6       0.00070758       0.00000000       0.24732426
Si       7.67917964       0.00000000      12.00000000  F        6       0.00000000       0.00000000       0.24873760
Si       0.00000000       3.83958982      12.00000000  F        6      -0.00106862      -0.00000000       0.25000954
Si       3.83958982       3.83958982      12.00000000  F        6       0.00106858      -0.00000000       0.25000952
Si       7.67917964       3.83958982      12.00000000  F        6       0.00000000      -0.00000000       0.25199368
Si       1.91979491       0.00000000      13.35750000  F        5       0.00000000      -0.00000002      -0.52223760
Si       5.75938473       0.00000000      13.35750000  F        5      -0.00264589      -0.00000002      -0.52899631
Si       9.59897455       0.00000000      13.35750000  F        5       0.00264592      -0.00000002      -0.52899633
Si       1.91979491       3.83958982      13.35750000  F        5       0.00000000       0.00000000      -0.53336541
Si       5.75938473       3.83958982      13.35750000  F        5      -0.01326848       0.00000000      -0.55385316
Si       9.59897455       3.83958982      13.35750000  F        5       0.01326851       0.00000000      -0.55385318
Si       1.91979491       1.91979491      14.71500000  F        4      -0.00000000       0.00645526       0.14621635
Si       5.75938473       1.91979491      14.71500000  F        4       0.00035626      -0.00663674       0.15320682
Si       9.59897455       1.91979491      14.71500000  F        4      -0.00035622      -0.00663674       0.15320684
Si       1.91979491       5.75938473      14.71500000  F        4      -0.00000000      -0.00645524       0.14621634
Si       5.75938473       5.75938473      14.71500000  F        4       0.00035626       0.00663677       0.15320681
Si       9.59897455       5.75938473      14.71500000  F        4      -0.00035622       0.00663677       0.15320683
Si       0.00000000       1.91979491      16.07250000  F        3      -0.01178581      -0.01192704      -0.15595631
Si       3.83958982       1.91979491      16.07250000  F        3       0.01178577      -0.01192704      -0.15595629
Si       7.67917964       1.91979491      16.07250000  F        3       0.00000000      -0.08924180      -0.16162556
Si       0.00000000       5.75938473      16.07250000  F        3      -0.01178581       0.01192706      -0.15595629
Si       3.83958982       5.75938473      16.07250000  F        3       0.01178577       0.01192706      -0.15595627
Si       7.67917964       5.75938473      16.07250000  F        3       0.00000000       0.08924182      -0.16162555
Si       0.00000000       0.00000000      17.43000000  F        2      -0.00550659      -0.00000002       0.55284223
Si       3.83958982       0.00000000      17.43000000  F        2       0.00550656      -0.00000002       0.55284222
Si       7.67917964       0.00000000      17.43000000  F        2      -0.00000000      -0.00000002       0.50135800
Si       0.00000000       3.83958982      17.43000000  F        2       0.17138186       0.00000000       0.29168105
Si       3.83958982       3.83958982      17.43000000  F        2      -0.17138189       0.00000000       0.29168103
Si       7.67917964       3.83958982      17.43000000  F        2      -0.00000000       0.00000000       0.67179895
Si       1.91979491       0.00000000      18.78750000  F        1      -0.00000000       0.00000000      -0.26002664
Si       5.75938473       0.00000000      18.78750000  F        1      -0.03046286       0.00000000      -0.28284512
Si       9.59897455       0.00000000      18.78750000  F        1       0.03046289       0.00000000      -0.28284514
Si       1.91979491       3.83958982      18.78750000  F        1      -0.00000000      -0.00000000      -0.13761309
Si       5.75938473       3.83958982      18.78750000  F        1       0.04460303      -0.00000000      -0.23894349
Si       9.59897455       3.83958982      18.78750000  F        1      -0.04460299      -0.00000000      -0.23894351
H        7.30377683       3.83958982      21.03750000  T        0       0.25573040       0.00000000       0.17336647
H        8.05458245       3.83958982      21.03750000  T        0      -0.25573040       0.00000000       0.17336647
38
Lattice="11.518769465528859 0.0 0.0 0.0 7.679179643685906 0.0 0.0 0.0 30.7875" Properties=species:S:1:pos:R:3:move_mask:L:1:tags:I:1:forces:R:3 surface=Si100 species=H2 site=bridge_Si_Si orientation=parallel height_A=1.9 substrate_atoms=36 calculation_kind="Rigid evaluated approach scan; not NEB" energy=-186.37150764392766 pbc="T T F"
Si       0.00000000       0.00000000      12.00000000  F        6      -0.00123062       0.00000000       0.24602303
Si       3.83958982       0.00000000      12.00000000  F        6       0.00123059       0.00000000       0.24602301
Si       7.67917964       0.00000000      12.00000000  F        6       0.00000000       0.00000000       0.24723639
Si       0.00000000       3.83958982      12.00000000  F        6      -0.00239257      -0.00000000       0.25057192
Si       3.83958982       3.83958982      12.00000000  F        6       0.00239253      -0.00000000       0.25057190
Si       7.67917964       3.83958982      12.00000000  F        6       0.00000000      -0.00000000       0.25333924
Si       1.91979491       0.00000000      13.35750000  F        5       0.00000000      -0.00000002      -0.52388866
Si       5.75938473       0.00000000      13.35750000  F        5      -0.00486096      -0.00000002      -0.52881884
Si       9.59897455       0.00000000      13.35750000  F        5       0.00486099      -0.00000002      -0.52881886
Si       1.91979491       3.83958982      13.35750000  F        5       0.00000000       0.00000000      -0.53450139
Si       5.75938473       3.83958982      13.35750000  F        5      -0.01026679       0.00000000      -0.54297679
Si       9.59897455       3.83958982      13.35750000  F        5       0.01026683       0.00000000      -0.54297681
Si       1.91979491       1.91979491      14.71500000  F        4      -0.00000000       0.01118196       0.14945807
Si       5.75938473       1.91979491      14.71500000  F        4      -0.00144093       0.00595847       0.16666862
Si       9.59897455       1.91979491      14.71500000  F        4       0.00144097       0.00595847       0.16666864
Si       1.91979491       5.75938473      14.71500000  F        4      -0.00000000      -0.01118194       0.14945805
Si       5.75938473       5.75938473      14.71500000  F        4      -0.00144093      -0.00595845       0.16666861
Si       9.59897455       5.75938473      14.71500000  F        4       0.00144097      -0.00595845       0.16666863
Si       0.00000000       1.91979491      16.07250000  F        3      -0.01715127      -0.00941282      -0.15481671
Si       3.83958982       1.91979491      16.07250000  F        3       0.01715123      -0.00941282      -0.15481669
Si       7.67917964       1.91979491      16.07250000  F        3       0.00000000      -0.10806211      -0.17448667
Si       0.00000000       5.75938473      16.07250000  F        3      -0.01715127       0.00941284      -0.15481670
Si       3.83958982       5.75938473      16.07250000  F        3       0.01715123       0.00941284      -0.15481668
Si       7.67917964       5.75938473      16.07250000  F        3       0.00000000       0.10806213      -0.17448665
Si       0.00000000       0.00000000      17.43000000  F        2      -0.00624652      -0.00000002       0.55714112
Si       3.83958982       0.00000000      17.43000000  F        2       0.00624648      -0.00000002       0.55714111
Si       7.67917964       0.00000000      17.43000000  F        2      -0.00000000      -0.00000002       0.48829797
Si       0.00000000       3.83958982      17.43000000  F        2       0.28022306       0.00000000       0.19224236
Si       3.83958982       3.83958982      17.43000000  F        2      -0.28022309       0.00000000       0.19224234
Si       7.67917964       3.83958982      17.43000000  F        2      -0.00000000       0.00000000       0.73207003
Si       1.91979491       0.00000000      18.78750000  F        1      -0.00000000       0.00000000      -0.27658961
Si       5.75938473       0.00000000      18.78750000  F        1      -0.06662402       0.00000000      -0.32090490
Si       9.59897455       0.00000000      18.78750000  F        1       0.06662405       0.00000000      -0.32090492
Si       1.91979491       3.83958982      18.78750000  F        1      -0.00000000      -0.00000000      -0.14395956
Si       5.75938473       3.83958982      18.78750000  F        1       0.01746815      -0.00000000      -0.26094888
Si       9.59897455       3.83958982      18.78750000  F        1      -0.01746811      -0.00000000      -0.26094890
H        7.30377683       3.83958982      20.68750000  T        0       0.08132789       0.00000000       0.28799359
H        8.05458245       3.83958982      20.68750000  T        0      -0.08132789       0.00000000       0.28799359
38
Lattice="11.518769465528859 0.0 0.0 0.0 7.679179643685906 0.0 0.0 0.0 30.7875" Properties=species:S:1:pos:R:3:move_mask:L:1:tags:I:1:forces:R:3 surface=Si100 species=H2 site=bridge_Si_Si orientation=parallel height_A=1.6 substrate_atoms=36 calculation_kind="Rigid evaluated approach scan; not NEB" energy=-186.1166762662217 pbc="T T F"
Si       0.00000000       0.00000000      12.00000000  F        6      -0.00136647       0.00000000       0.24405576
Si       3.83958982       0.00000000      12.00000000  F        6       0.00136643       0.00000000       0.24405574
Si       7.67917964       0.00000000      12.00000000  F        6       0.00000000       0.00000000       0.24799025
Si       0.00000000       3.83958982      12.00000000  F        6      -0.00346369      -0.00000000       0.25174723
Si       3.83958982       3.83958982      12.00000000  F        6       0.00346365      -0.00000000       0.25174722
Si       7.67917964       3.83958982      12.00000000  F        6       0.00000000      -0.00000000       0.25645810
Si       1.91979491       0.00000000      13.35750000  F        5       0.00000000      -0.00000002      -0.52558759
Si       5.75938473       0.00000000      13.35750000  F        5      -0.00466311      -0.00000002      -0.52810987
Si       9.59897455       0.00000000      13.35750000  F        5       0.00466314      -0.00000002      -0.52810989
Si       1.91979491       3.83958982      13.35750000  F        5       0.00000000       0.00000000      -0.53599685
Si       5.75938473       3.83958982      13.35750000  F        5      -0.00474437       0.00000000      -0.52893866
Si       9.59897455       3.83958982      13.35750000  F        5       0.00474440       0.00000000      -0.52893868
Si       1.91979491       1.91979491      14.71500000  F        4      -0.00000000       0.00936468       0.15041937
Si       5.75938473       1.91979491      14.71500000  F        4      -0.00715467       0.00950197       0.16465859
Si       9.59897455       1.91979491      14.71500000  F        4       0.00715471       0.00950197       0.16465861
Si       1.91979491       5.75938473      14.71500000  F        4      -0.00000000      -0.00936466       0.15041936
Si       5.75938473       5.75938473      14.71500000  F        4      -0.00715467      -0.00950195       0.16465857
Si       9.59897455       5.75938473      14.71500000  F        4       0.00715471      -0.00950195       0.16465859
Si       0.00000000       1.91979491      16.07250000  F        3      -0.01451678      -0.00471149      -0.15345637
Si       3.83958982       1.91979491      16.07250000  F        3       0.01451674      -0.00471149      -0.15345635
Si       7.67917964       1.91979491      16.07250000  F        3       0.00000000      -0.11721305      -0.22285906
Si       0.00000000       5.75938473      16.07250000  F        3      -0.01451678       0.00471151      -0.15345635
Si       3.83958982       5.75938473      16.07250000  F        3       0.01451674       0.00471151      -0.15345633
Si       7.67917964       5.75938473      16.07250000  F        3       0.00000000       0.11721307      -0.22285905
Si       0.00000000       0.00000000      17.43000000  F        2      -0.00098377      -0.00000002       0.54315176
Si       3.83958982       0.00000000      17.43000000  F        2       0.00098373      -0.00000002       0.54315174
Si       7.67917964       0.00000000      17.43000000  F        2      -0.00000000      -0.00000002       0.43410991
Si       0.00000000       3.83958982      17.43000000  F        2       0.30816224       0.00000000       0.22303531
Si       3.83958982       3.83958982      17.43000000  F        2      -0.30816227       0.00000000       0.22303529
Si       7.67917964       3.83958982      17.43000000  F        2      -0.00000000       0.00000000       0.58766020
Si       1.91979491       0.00000000      18.78750000  F        1      -0.00000000       0.00000000      -0.29055441
Si       5.75938473       0.00000000      18.78750000  F        1      -0.09584823       0.00000000      -0.31361855
Si       9.59897455       0.00000000      18.78750000  F        1       0.09584827       0.00000000      -0.31361857
Si       1.91979491       3.83958982      18.78750000  F        1      -0.00000000      -0.00000000      -0.19234463
Si       5.75938473       3.83958982      18.78750000  F        1      -0.08096178      -0.00000000      -0.41178719
Si       9.59897455       3.83958982      18.78750000  F        1       0.08096181      -0.00000000      -0.41178721
H        7.30377683       3.83958982      20.38750000  T        0      -0.38793909       0.00000000       0.57963201
H        8.05458245       3.83958982      20.38750000  T        0       0.38793909       0.00000000       0.57963201
38
Lattice="11.518769465528859 0.0 0.0 0.0 7.679179643685906 0.0 0.0 0.0 30.7875" Properties=species:S:1:pos:R:3:move_mask:L:1:tags:I:1:forces:R:3 surface=Si100 species=H2 site=bridge_Si_Si orientation=parallel height_A=1.3 substrate_atoms=36 calculation_kind="Rigid evaluated approach scan; not NEB" energy=-185.6675382953968 pbc="T T F"
Si       0.00000000       0.00000000      12.00000000  F        6      -0.00077469       0.00000000       0.24276945
Si       3.83958982       0.00000000      12.00000000  F        6       0.00077466       0.00000000       0.24276944
Si       7.67917964       0.00000000      12.00000000  F        6       0.00000000       0.00000000       0.25363746
Si       0.00000000       3.83958982      12.00000000  F        6      -0.00381744      -0.00000000       0.25406551
Si       3.83958982       3.83958982      12.00000000  F        6       0.00381741      -0.00000000       0.25406549
Si       7.67917964       3.83958982      12.00000000  F        6       0.00000000      -0.00000000       0.26128031
Si       1.91979491       0.00000000      13.35750000  F        5       0.00000000      -0.00000002      -0.52623950
Si       5.75938473       0.00000000      13.35750000  F        5      -0.00140577      -0.00000002      -0.53252505
Si       9.59897455       0.00000000      13.35750000  F        5       0.00140580      -0.00000002      -0.53252507
Si       1.91979491       3.83958982      13.35750000  F        5       0.00000000       0.00000000      -0.53630299
Si       5.75938473       3.83958982      13.35750000  F        5      -0.00920726       0.00000000      -0.53358294
Si       9.59897455       3.83958982      13.35750000  F        5       0.00920730       0.00000000      -0.53358296
Si       1.91979491       1.91979491      14.71500000  F        4      -0.00000000       0.00452923       0.14562152
Si       5.75938473       1.91979491      14.71500000  F        4      -0.01565821       0.00173300       0.15356220
Si       9.59897455       1.91979491      14.71500000  F        4       0.01565825       0.00173300       0.15356222
Si       1.91979491       5.75938473      14.71500000  F        4      -0.00000000      -0.00452921       0.14562150
Si       5.75938473       5.75938473      14.71500000  F        4      -0.01565821      -0.00173298       0.15356219
Si       9.59897455       5.75938473      14.71500000  F        4       0.01565825      -0.00173298       0.15356221
Si       0.00000000       1.91979491      16.07250000  F        3      -0.01040971      -0.00086698      -0.15060196
Si       3.83958982       1.91979491      16.07250000  F        3       0.01040967      -0.00086698      -0.15060194
Si       7.67917964       1.91979491      16.07250000  F        3       0.00000000      -0.07385018      -0.24967463
Si       0.00000000       5.75938473      16.07250000  F        3      -0.01040971       0.00086700      -0.15060194
Si       3.83958982       5.75938473      16.07250000  F        3       0.01040967       0.00086700      -0.15060192
Si       7.67917964       5.75938473      16.07250000  F        3       0.00000000       0.07385020      -0.24967462
Si       0.00000000       0.00000000      17.43000000  F        2       0.00075040      -0.00000002       0.52284533
Si       3.83958982       0.00000000      17.43000000  F        2      -0.00075043      -0.00000002       0.52284531
Si       7.67917964       0.00000000      17.43000000  F        2      -0.00000000      -0.00000002       0.28387892
Si       0.00000000       3.83958982      17.43000000  F        2       0.31627524       0.00000000       0.28210517
Si       3.83958982       3.83958982      17.43000000  F        2      -0.31627527       0.00000000       0.28210516
Si       7.67917964       3.83958982      17.43000000  F        2      -0.00000000       0.00000000       0.06957460
Si       1.91979491       0.00000000      18.78750000  F        1      -0.00000000       0.00000000      -0.29652826
Si       5.75938473       0.00000000      18.78750000  F        1      -0.12690355       0.00000000      -0.27362159
Si       9.59897455       0.00000000      18.78750000  F        1       0.12690359       0.00000000      -0.27362160
Si       1.91979491       3.83958982      18.78750000  F        1      -0.00000000      -0.00000000      -0.24673095
Si       5.75938473       3.83958982      18.78750000  F        1      -0.06293018      -0.00000000      -0.42659804
Si       9.59897455       3.83958982      18.78750000  F        1       0.06293021      -0.00000000      -0.42659805
H        7.30377683       3.83958982      20.08750000  T        0      -1.63857161       0.00000000       0.93139000
H        8.05458245       3.83958982      20.08750000  T        0       1.63857161       0.00000000       0.93139000
