38
Lattice="11.518769465528859 0.0 0.0 3.839589821842953 6.650364651656328 0.0 0.0 0.0 32.62128289467409" Properties=species:S:1:pos:R:3:move_mask:L:1:tags:I:1:forces:R:3 surface=Si111 species=HF site=hollow orientation=parallel height_A=1.9 substrate_atoms=36 calculation_kind="Rigid evaluated approach scan; not NEB" energy=-185.02513730495016 pbc="T T F"
Si       1.91979491       1.10839411      12.00000000  F        6       0.00023776       0.00753495       0.15804717
Si       5.75938473       1.10839411      12.00000000  F        6       0.00010688       0.00755788       0.15846268
Si       9.59897455       1.10839411      12.00000000  F        6       0.00009473       0.00765958       0.15807619
Si       3.83958982       4.43357643      12.00000000  F        6       0.00010457      -0.00742727       0.16358370
Si       7.67917964       4.43357643      12.00000000  F        6       0.00017471      -0.00747265       0.16341456
Si      11.51876947       4.43357643      12.00000000  F        6       0.00007943      -0.00748775       0.16345622
Si       1.91979491       1.10839411      14.35125897  F        5      -0.00054365      -0.02447365      -0.28690422
Si       5.75938473       1.10839411      14.35125897  F        5      -0.00062334      -0.02327251      -0.28944686
Si       9.59897455       1.10839411      14.35125897  F        5       0.00050780      -0.02515112      -0.28644599
Si       3.83958982       4.43357643      14.35125897  F        5      -0.00049632       0.02113561      -0.29646700
Si       7.67917964       4.43357643      14.35125897  F        5      -0.00122559       0.02094000      -0.29743226
Si      11.51876947       4.43357643      14.35125897  F        5       0.00081670       0.02079029      -0.29824121
Si      -0.00000000       2.21678822      15.13501196  F        4      -0.00287849      -0.02590244       0.56020728
Si       3.83958982       2.21678822      15.13501196  F        4      -0.00439115      -0.02396990       0.55970387
Si       7.67917964       2.21678822      15.13501196  F        4      -0.00563013      -0.02636050       0.56290197
Si       1.91979491       5.54197054      15.13501196  F        4      -0.00269040       0.00761887      -0.30848046
Si       5.75938473       5.54197054      15.13501196  F        4      -0.00593269       0.00611774      -0.31580625
Si       9.59897455       5.54197054      15.13501196  F        4      -0.00193078       0.00712535      -0.30428840
Si      -0.00328278       2.21136456      17.57863885  T        3      -0.00044526       0.00172725      -0.00001438
Si       3.83594575       2.21007100      17.57889898  T        3       0.00042599       0.00306209       0.00065632
Si       7.67588941       2.21058076      17.57917841  T        3       0.00048050       0.00251045       0.00015595
Si       1.91668081       5.54690127      17.45820592  T        3      -0.00011217       0.00115876      -0.00021629
Si       5.75506364       5.54588446      17.45741631  T        3       0.00124284       0.00289252       0.00040079
Si       9.59584925       5.54863082      17.45819957  T        3       0.00001925       0.00290967       0.00035558
Si      -0.00351113      -0.05539631      18.32043447  T        2      -0.00011628       0.00164096      -0.00088445
Si       3.83625119      -0.05709899      18.31691732  T        2       0.00069983       0.00351351       0.00202653
Si       7.67473865      -0.05632081      18.31979008  T        2       0.00058848       0.00254955      -0.00035135
Si       1.91617694       3.37137335      18.34768992  T        2      -0.00058277       0.00173080       0.00088615
Si       5.75527596       3.37078422      18.34753859  T        2       0.00083016       0.00308903       0.00048816
Si       9.59536598       3.37153239      18.34287624  T        2       0.00024504       0.00300311       0.00049668
Si      -0.00650469      -0.93098055      20.56833816  T        1      -0.00042307       0.00358912      -0.00057391
Si       3.83663342      -0.92834809      20.56193608  T        1       0.00134711       0.00343113       0.00300130
Si       7.66498522      -0.92966257      20.56567398  T        1       0.00056810       0.00465084      -0.00001753
Si       1.90951790       4.29409748      20.57867388  T        1      -0.00057645       0.00379497       0.00063155
Si       5.75609417       4.29334134      20.57881328  T        1      -0.00002105       0.00392577       0.00039500
Si       9.58966065       4.28418661      20.56469472  T        1       0.00165521       0.00395981       0.00118834
F        9.58326717       5.96379414      23.15474600  T        0       0.03292282       0.01476753       0.00091198
H        9.85312313       6.31016499      23.99818808  T        0      -0.01452833      -0.00286931       0.02612258
