38
Lattice="11.518769465528859 0.0 0.0 3.839589821842953 6.650364651656328 0.0 0.0 0.0 32.62128289467409" Properties=species:S:1:pos:R:3:move_mask:L:1:tags:I:1:forces:R:3 surface=Si111 species=HF site=hollow orientation=parallel height_A=1.9 substrate_atoms=36 calculation_kind="Rigid evaluated approach scan; not NEB" energy=-175.91751778579473 pbc="T T F"
Si       1.91979491       1.10839411      12.00000000  F        6      -0.00020097       0.00014964       0.17208772
Si       5.75938473       1.10839411      12.00000000  F        6       0.00002152       0.00022240       0.17301341
Si       9.59897455       1.10839411      12.00000000  F        6       0.00017942      -0.00021110       0.17164700
Si       3.83958982       4.43357643      12.00000000  F        6      -0.00027194       0.00012339       0.17403390
Si       7.67917964       4.43357643      12.00000000  F        6      -0.00014442      -0.00015147       0.17258779
Si      11.51876947       4.43357643      12.00000000  F        6       0.00041637      -0.00013288       0.17299018
Si       1.91979491       1.10839411      14.35125897  F        5       0.00854201      -0.00453336      -0.36997005
Si       5.75938473       1.10839411      14.35125897  F        5      -0.00127386      -0.00875318      -0.35191770
Si       9.59897455       1.10839411      14.35125897  F        5      -0.00829021       0.00318903      -0.35647893
Si       3.83958982       4.43357643      14.35125897  F        5       0.00145077      -0.00130712      -0.38062460
Si       7.67917964       4.43357643      14.35125897  F        5       0.00643108       0.00594437      -0.35225603
Si      11.51876947       4.43357643      14.35125897  F        5      -0.00770334       0.00595287      -0.35537838
Si      -0.00000000       2.21678822      15.13501196  F        4      -0.00615903       0.00538206      -0.12674617
Si       3.83958982       2.21678822      15.13501196  F        4      -0.00042928      -0.00584498      -0.12666147
Si       7.67917964       2.21678822      15.13501196  F        4       0.00703633      -0.00417513      -0.09606315
Si       1.91979491       5.54197054      15.13501196  F        4      -0.00642405       0.00209833      -0.12365430
Si       5.75938473       5.54197054      15.13501196  F        4       0.00569135       0.00260208      -0.12612096
Si       9.59897455       5.54197054      15.13501196  F        4       0.00128164      -0.00097257      -0.10085953
Si      -0.00000000       2.21678822      17.48627093  T        3       0.02194409      -0.04147279       0.11169045
Si       3.83958982       2.21678822      17.48627093  T        3       0.00273433      -0.03023801       0.16228904
Si       7.67917964       2.21678822      17.48627093  T        3      -0.00085565       0.01598107       0.09576101
Si       1.91979491       5.54197054      17.48627093  T        3       0.04641242       0.00518883       0.10574065
Si       5.75938473       5.54197054      17.48627093  T        3       0.01110740       0.02277115       0.14749079
Si       9.59897455       5.54197054      17.48627093  T        3      -0.04122774       0.01437180       0.00544863
Si       0.00000000       0.00000000      18.27002392  T        2      -0.06958029       0.04491297       0.55326465
Si       3.83958982       0.00000000      18.27002392  T        2      -0.09618774       0.09590011       0.42532115
Si       7.67917964       0.00000000      18.27002392  T        2       0.11091899       0.06828158       0.36466848
Si       1.91979491       3.32518233      18.27002392  T        2      -0.02613237       0.01216625       0.48011175
Si       5.75938473       3.32518233      18.27002392  T        2       0.03024216      -0.01986632       0.54744747
Si       9.59897455       3.32518233      18.27002392  T        2       0.01360433      -0.13144257       0.42888698
Si       0.00000000       0.00000000      20.62128289  T        1       0.06742686      -0.07375241      -0.32351068
Si       3.83958982       0.00000000      20.62128289  T        1       0.12169112      -0.06808935      -0.19418987
Si       7.67917964       0.00000000      20.62128289  T        1      -0.01058447      -0.19167690      -0.20974026
Si       1.91979491       3.32518233      20.62128289  T        1       0.10487403      -0.02222059      -0.29492568
Si       5.75938473       3.32518233      20.62128289  T        1      -0.06837900       0.12195213      -0.23466928
Si       9.59897455       3.32518233      20.62128289  T        1       0.03365080       0.06552647      -0.33587192
F        9.11835828       5.54197054      22.52128289  T        0       0.21071295      -0.22851784       0.20138168
H       10.07959082       5.54197054      22.52128289  T        0      -0.46252561       0.34064205      -0.20622378
38
Lattice="11.518769465528859 0.0 0.0 3.839589821842953 6.650364651656328 0.0 0.0 0.0 32.62128289467409" Properties=species:S:1:pos:R:3:move_mask:L:1:tags:I:1:forces:R:3 surface=Si111 species=HF site=hollow orientation=parallel height_A=1.9 substrate_atoms=36 calculation_kind="Rigid evaluated approach scan; not NEB" energy=-175.91978446980735 pbc="T T F"
Si       1.91979491       1.10839411      12.00000000  F        6      -0.00020285       0.00015241       0.17209343
Si       5.75938473       1.10839411      12.00000000  F        6       0.00002643       0.00022189       0.17302827
Si       9.59897455       1.10839411      12.00000000  F        6       0.00017567      -0.00020789       0.17163618
Si       3.83958982       4.43357643      12.00000000  F        6      -0.00027284       0.00012224       0.17405129
Si       7.67917964       4.43357643      12.00000000  F        6      -0.00014245      -0.00015514       0.17260681
Si      11.51876947       4.43357643      12.00000000  F        6       0.00041451      -0.00013310       0.17300168
Si       1.91979491       1.10839411      14.35125897  F        5       0.00856268      -0.00454738      -0.36995156
Si       5.75938473       1.10839411      14.35125897  F        5      -0.00128104      -0.00878706      -0.35187848
Si       9.59897455       1.10839411      14.35125897  F        5      -0.00830621       0.00319484      -0.35645872
Si       3.83958982       4.43357643      14.35125897  F        5       0.00146101      -0.00131462      -0.38060756
Si       7.67917964       4.43357643      14.35125897  F        5       0.00646009       0.00596767      -0.35222557
Si      11.51876947       4.43357643      14.35125897  F        5      -0.00773300       0.00597332      -0.35530318
Si      -0.00000000       2.21678822      15.13501196  F        4      -0.00612812       0.00530316      -0.12567892
Si       3.83958982       2.21678822      15.13501196  F        4      -0.00040313      -0.00586074      -0.12519838
Si       7.67917964       2.21678822      15.13501196  F        4       0.00699881      -0.00411520      -0.09509833
Si       1.91979491       5.54197054      15.13501196  F        4      -0.00633751       0.00211220      -0.12269639
Si       5.75938473       5.54197054      15.13501196  F        4       0.00567028       0.00262094      -0.12483133
Si       9.59897455       5.54197054      15.13501196  F        4       0.00121587      -0.00096706      -0.10080828
Si       0.00001975       2.21675089      17.48637145  T        3       0.02201934      -0.04116958       0.11144478
Si       3.83959228       2.21676101      17.48641699  T        3       0.00272127      -0.02884979       0.16151894
Si       7.67917887       2.21680260      17.48635711  T        3      -0.00102639       0.01613295       0.09559143
Si       1.91983668       5.54197521      17.48636610  T        3       0.04631245       0.00490824       0.10560437
Si       5.75939473       5.54199103      17.48640367  T        3       0.00999329       0.02244383       0.14736440
Si       9.59893745       5.54198347      17.48627583  T        3      -0.04067877       0.01405659       0.00758571
Si      -0.00006262       0.00004042      18.27052186  T        2      -0.06854093       0.04422949       0.54674836
Si       3.83950325       0.00008631      18.27040671  T        2      -0.09502058       0.09475704       0.42050479
Si       7.67927947       0.00006145      18.27035212  T        2       0.10955029       0.06735447       0.35947151
Si       1.91977139       3.32519328      18.27045602  T        2      -0.02571283       0.01199475       0.47419069
Si       5.75941195       3.32516445      18.27051662  T        2       0.02992566      -0.01957871       0.54119117
Si       9.59898679       3.32506403      18.27040992  T        2       0.01358630      -0.12976118       0.42226473
Si       0.00006068      -0.00006638      20.62099173  T        1       0.06767542      -0.07459207      -0.31800117
Si       3.83969934      -0.00006128      20.62110812  T        1       0.12173264      -0.06862623      -0.19012701
Si       7.67917011      -0.00017251      20.62109412  T        1      -0.01086556      -0.19242157      -0.20592524
Si       1.91988930       3.32516233      20.62101746  T        1       0.10527341      -0.02175455      -0.28995164
Si       5.75932319       3.32529209      20.62107169  T        1      -0.06916819       0.12296041      -0.22987955
Si       9.59900484       3.32524130      20.62098061  T        1       0.03367791       0.06659243      -0.33030038
F        9.11854792       5.54176487      22.52146413  T        0       0.18919535      -0.22809732       0.20036042
H       10.07917455       5.54227712      22.52109729  T        0      -0.44082826       0.33984034      -0.20533726
38
Lattice="11.518769465528859 0.0 0.0 3.839589821842953 6.650364651656328 0.0 0.0 0.0 32.62128289467409" Properties=species:S:1:pos:R:3:move_mask:L:1:tags:I:1:forces:R:3 surface=Si111 species=HF site=hollow orientation=parallel height_A=1.9 substrate_atoms=36 calculation_kind="Rigid evaluated approach scan; not NEB" energy=-175.9241759182425 pbc="T T F"
Si       1.91979491       1.10839411      12.00000000  F        6      -0.00020657       0.00015788       0.17210589
Si       5.75938473       1.10839411      12.00000000  F        6       0.00003619       0.00022075       0.17305880
Si       9.59897455       1.10839411      12.00000000  F        6       0.00016818      -0.00020155       0.17161572
Si       3.83958982       4.43357643      12.00000000  F        6      -0.00027465       0.00012000       0.17408699
Si       7.67917964       4.43357643      12.00000000  F        6      -0.00013844      -0.00016237       0.17264563
Si      11.51876947       4.43357643      12.00000000  F        6       0.00041077      -0.00013347       0.17302544
Si       1.91979491       1.10839411      14.35125897  F        5       0.00860269      -0.00457478      -0.36991212
Si       5.75938473       1.10839411      14.35125897  F        5      -0.00129492      -0.00885334      -0.35179850
Si       9.59897455       1.10839411      14.35125897  F        5      -0.00833740       0.00320598      -0.35641574
Si       3.83958982       4.43357643      14.35125897  F        5       0.00148147      -0.00132934      -0.38057016
Si       7.67917964       4.43357643      14.35125897  F        5       0.00651705       0.00601313      -0.35216270
Si      11.51876947       4.43357643      14.35125897  F        5      -0.00779136       0.00601366      -0.35515049
Si      -0.00000000       2.21678822      15.13501196  F        4      -0.00606578       0.00514528      -0.12354945
Si       3.83958982       2.21678822      15.13501196  F        4      -0.00035097      -0.00589077      -0.12228330
Si       7.67917964       2.21678822      15.13501196  F        4       0.00692329      -0.00399555      -0.09317392
Si       1.91979491       5.54197054      15.13501196  F        4      -0.00616429       0.00213967      -0.12078391
Si       5.75938473       5.54197054      15.13501196  F        4       0.00562695       0.00265820      -0.12225676
Si       9.59897455       5.54197054      15.13501196  F        4       0.00108495      -0.00095584      -0.10069023
Si       0.00005936       2.21667648      17.48657241  T        3       0.02216566      -0.04056361       0.11093507
Si       3.83959719       2.21670791      17.48670858  T        3       0.00269869      -0.02611448       0.15997246
Si       7.67917716       2.21683154      17.48652945  T        3      -0.00136432       0.01642825       0.09523895
Si       1.91992019       5.54198428      17.48655645  T        3       0.04610499       0.00435348       0.10531276
Si       5.75941363       5.54203173      17.48666924  T        3       0.00780644       0.02179550       0.14708818
Si       9.59886372       5.54200905      17.48628777  T        3      -0.03959384       0.01343897       0.01179820
Si      -0.00018694       0.00012065      18.27151207  T        2      -0.06649087       0.04287930       0.53374750
Si       3.83933113       0.00025794      18.27116812  T        2      -0.09270222       0.09248831       0.41088793
Si       7.67947792       0.00018354      18.27100390  T        2       0.10683472       0.06551583       0.34913334
Si       1.91972473       3.32521503      18.27131504  T        2      -0.02488815       0.01166166       0.46239304
Si       5.75946611       3.32512895      18.27149661  T        2       0.02930241      -0.01901067       0.52872497
Si       9.59901128       3.32482891      18.27117597  T        2       0.01355255      -0.12642374       0.40908522
Si       0.00018240      -0.00020007      20.62041441  T        1       0.06817906      -0.07628439      -0.30698806
Si       3.83991860      -0.00018447      20.62076233  T        1       0.12183546      -0.06971855      -0.18196691
Si       7.67915077      -0.00051854      20.62072007  T        1      -0.01145085      -0.19394711      -0.19828501
Si       1.92007862       3.32512276      20.62049110  T        1       0.10608002      -0.02081727      -0.28002680
Si       5.75919923       3.32551278      20.62065369  T        1      -0.07075287       0.12499105      -0.22031871
Si       9.59906548       3.32536040      20.62038108  T        1       0.03373669       0.06873406      -0.31918523
F        9.11890618       5.54135363      22.52182590  T        0       0.14725777      -0.22731209       0.19834868
H       10.07836285       5.54288997      22.52072667  T        0      -0.39853851       0.33832800      -0.20368676
38
Lattice="11.518769465528859 0.0 0.0 3.839589821842953 6.650364651656328 0.0 0.0 0.0 32.62128289467409" Properties=species:S:1:pos:R:3:move_mask:L:1:tags:I:1:forces:R:3 surface=Si111 species=HF site=hollow orientation=parallel height_A=1.9 substrate_atoms=36 calculation_kind="Rigid evaluated approach scan; not NEB" energy=-175.9304255901804 pbc="T T F"
Si       1.91979491       1.10839411      12.00000000  F        6      -0.00021201       0.00016585       0.17212715
Si       5.75938473       1.10839411      12.00000000  F        6       0.00005069       0.00021877       0.17310658
Si       9.59897455       1.10839411      12.00000000  F        6       0.00015700      -0.00019222       0.17158788
Si       3.83958982       4.43357643      12.00000000  F        6      -0.00027743       0.00011676       0.17414275
Si       7.67917964       4.43357643      12.00000000  F        6      -0.00013226      -0.00017297       0.17270580
Si      11.51876947       4.43357643      12.00000000  F        6       0.00040504      -0.00013382       0.17306294
Si       1.91979491       1.10839411      14.35125897  F        5       0.00865939      -0.00461426      -0.36984688
Si       5.75938473       1.10839411      14.35125897  F        5      -0.00131446      -0.00894902      -0.35167460
Si       9.59897455       1.10839411      14.35125897  F        5      -0.00838221       0.00322148      -0.35634476
Si       3.83958982       4.43357643      14.35125897  F        5       0.00151207      -0.00135078      -0.38050593
Si       7.67917964       4.43357643      14.35125897  F        5       0.00659976       0.00607839      -0.35206365
Si      11.51876947       4.43357643      14.35125897  F        5      -0.00787649       0.00607281      -0.35491569
Si      -0.00000000       2.21678822      15.13501196  F        4      -0.00597079       0.00490807      -0.12036544
Si       3.83958982       2.21678822      15.13501196  F        4      -0.00027302      -0.00593195      -0.11793570
Si       7.67917964       2.21678822      15.13501196  F        4       0.00680865      -0.00381654      -0.09029833
Si       1.91979491       5.54197054      15.13501196  F        4      -0.00590397       0.00218018      -0.11792114
Si       5.75938473       5.54197054      15.13501196  F        4       0.00555880       0.00271293      -0.11840337
Si       9.59897455       5.54197054      15.13501196  F        4       0.00089011      -0.00093841      -0.10047124
Si       0.00011910       2.21656541      17.48687389  T        3       0.02237462      -0.03965542       0.11012204
Si       3.83960455       2.21663173      17.48714494  T        3       0.00267390      -0.02211566       0.15763485
Si       7.67917414       2.21687545      17.48678810  T        3      -0.00186240       0.01684968       0.09467463
Si       1.92004548       5.54199717      17.48684226  T        3       0.04577439       0.00353740       0.10482534
Si       5.75943913       5.54209205      17.48706817  T        3       0.00463088       0.02083873       0.14661242
Si       9.59875432       5.54204668      17.48631134  T        3      -0.03799901       0.01254484       0.01795914
Si      -0.00037111       0.00023948      18.27298356  T        2      -0.06348736       0.04089558       0.51432883
Si       3.83907544       0.00051295      18.27230012  T        2      -0.08926513       0.08912940       0.39650163
Si       7.67977269       0.00036465      18.27197008  T        2       0.10281518       0.06279587       0.33376554
Si       1.91965568       3.32524728      18.27259088  T        2      -0.02368732       0.01118741       0.44481039
Si       5.75954672       3.32507633      18.27295344  T        2       0.02839159      -0.01817593       0.51014535
Si       9.59904806       3.32447986      18.27231017  T        2       0.01350839      -0.12147954       0.38948331
Si       0.00036606      -0.00040333      20.61956106  T        1       0.06895246      -0.07886019      -0.29048677
Si       3.84024840      -0.00037114      20.62025328  T        1       0.12204099      -0.07140888      -0.16963778
Si       7.67912091      -0.00104083      20.62016785  T        1      -0.01238917      -0.19633263      -0.18679528
Si       1.92036434       3.32506452      20.61971293  T        1       0.10731206      -0.01939581      -0.26520047
Si       5.75901074       3.32584729      20.62003797  T        1      -0.07314881       0.12807794      -0.20602756
Si       9.59915674       3.32554232      20.61949448  T        1       0.03383740       0.07197323      -0.30258785
F        9.11938870       5.54073637      22.52236713  T        0       0.08738283      -0.22625939       0.19539993
H       10.07719902       5.54380937      22.52017166  T        0      -0.33815439       0.33627812      -0.20151409
38
Lattice="11.518769465528859 0.0 0.0 3.839589821842953 6.650364651656328 0.0 0.0 0.0 32.62128289467409" Properties=species:S:1:pos:R:3:move_mask:L:1:tags:I:1:forces:R:3 surface=Si111 species=HF site=hollow orientation=parallel height_A=1.9 substrate_atoms=36 calculation_kind="Rigid evaluated approach scan; not NEB" energy=-175.93817591321422 pbc="T T F"
Si       1.91979491       1.10839411      12.00000000  F        6      -0.00021901       0.00017608       0.17216013
Si       5.75938473       1.10839411      12.00000000  F        6       0.00006977       0.00021557       0.17317387
Si       9.59897455       1.10839411      12.00000000  F        6       0.00014216      -0.00018009       0.17155592
Si       3.83958982       4.43357643      12.00000000  F        6      -0.00028121       0.00011269       0.17422104
Si       7.67917964       4.43357643      12.00000000  F        6      -0.00012369      -0.00018661       0.17278946
Si      11.51876947       4.43357643      12.00000000  F        6       0.00039721      -0.00013390       0.17311625
Si       1.91979491       1.10839411      14.35125897  F        5       0.00872882      -0.00466380      -0.36974883
Si       5.75938473       1.10839411      14.35125897  F        5      -0.00133800      -0.00906957      -0.35150222
Si       9.59897455       1.10839411      14.35125897  F        5      -0.00843843       0.00323984      -0.35623797
Si       3.83958982       4.43357643      14.35125897  F        5       0.00155272      -0.00137820      -0.38040558
Si       7.67917964       4.43357643      14.35125897  F        5       0.00670489       0.00615991      -0.35192294
Si      11.51876947       4.43357643      14.35125897  F        5      -0.00798543       0.00614924      -0.35459192
Si      -0.00000000       2.21678822      15.13501196  F        4      -0.00584109       0.00459084      -0.11613559
Si       3.83958982       2.21678822      15.13501196  F        4      -0.00016956      -0.00597936      -0.11218135
Si       7.67917964       2.21678822      15.13501196  F        4       0.00665298      -0.00357872      -0.08648167
Si       1.91979491       5.54197054      15.13501196  F        4      -0.00555585       0.00223290      -0.11411159
Si       5.75938473       5.54197054      15.13501196  F        4       0.00546185       0.00278368      -0.11327623
Si       9.59897455       5.54197054      15.13501196  F        4       0.00063319      -0.00091386      -0.10009578
Si       0.00019950       2.21641826      17.48727627  T        3       0.02263358      -0.03844559       0.10894369
Si       3.83961435       2.21653685      17.48772525  T        3       0.00265802      -0.01698019       0.15448146
Si       7.67916920       2.21693502      17.48713356  T        3      -0.00250998       0.01737087       0.09385196
Si       1.92021271       5.54201299      17.48722424  T        3       0.04529665       0.00247949       0.10407851
Si       5.75946760       5.54217114      17.48760169  T        3       0.00059367       0.01959234       0.14585906
Si       9.59861064       5.54209548      17.48635392  T        3      -0.03593311       0.01141316       0.02587236
Si      -0.00061242       0.00039509      18.27491999  T        2      -0.05961582       0.03832738       0.48860535
Si       3.83873908       0.00084854      18.27379078  T        2      -0.08476037       0.08473567       0.37739965
Si       7.68016033       0.00060237      18.27323684  T        2       0.09755555       0.05923898       0.31354005
Si       1.91956534       3.32528962      18.27426849  T        2      -0.02215367       0.01060301       0.42158992
Si       5.75965305       3.32500734      18.27487170  T        2       0.02722097      -0.01709395       0.48560904
Si       9.59909723       3.32402114      18.27379447  T        2       0.01346260      -0.11500151       0.36367604
Si       0.00061342      -0.00068012      20.61844734  T        1       0.07001992      -0.08237326      -0.26853389
Si       3.84069045      -0.00062413      20.61959325  T        1       0.12241195      -0.07376890      -0.15303901
Si       7.67907929      -0.00174454      20.61944854  T        1      -0.01375603      -0.19970477      -0.17142154
Si       1.92074919       3.32498902      20.61869696  T        1       0.10900038      -0.01746662      -0.24555655
Si       5.75875404       3.32630077      20.61923862  T        1      -0.07638428       0.13228040      -0.18707860
Si       9.59927915       3.32579170      20.61833644  T        1       0.03399719       0.07634488      -0.28061826
F        9.11992697       5.53991158      22.52308678  T        0       0.01377519      -0.22505056       0.19157658
H       10.07574915       5.54503703      22.51943233  T        0      -0.26390372       0.33392253      -0.19916082
38
Lattice="11.518769465528859 0.0 0.0 3.839589821842953 6.650364651656328 0.0 0.0 0.0 32.62128289467409" Properties=species:S:1:pos:R:3:move_mask:L:1:tags:I:1:forces:R:3 surface=Si111 species=HF site=hollow orientation=parallel height_A=1.9 substrate_atoms=36 calculation_kind="Rigid evaluated approach scan; not NEB" energy=-175.9470239687437 pbc="T T F"
Si       1.91979491       1.10839411      12.00000000  F        6      -0.00022738       0.00018819       0.17220837
Si       5.75938473       1.10839411      12.00000000  F        6       0.00009321       0.00021064       0.17326337
Si       9.59897455       1.10839411      12.00000000  F        6       0.00012375      -0.00016547       0.17152382
Si       3.83958982       4.43357643      12.00000000  F        6      -0.00028611       0.00010805       0.17432474
Si       7.67917964       4.43357643      12.00000000  F        6      -0.00011242      -0.00020285       0.17289911
Si      11.51876947       4.43357643      12.00000000  F        6       0.00038706      -0.00013337       0.17318774
Si       1.91979491       1.10839411      14.35125897  F        5       0.00880582      -0.00472070      -0.36960917
Si       5.75938473       1.10839411      14.35125897  F        5      -0.00136329      -0.00920895      -0.35127556
Si       9.59897455       1.10839411      14.35125897  F        5      -0.00850324       0.00325906      -0.35608523
Si       3.83958982       4.43357643      14.35125897  F        5       0.00160326      -0.00141068      -0.38025756
Si       7.67917964       4.43357643      14.35125897  F        5       0.00682790       0.00625292      -0.35173367
Si      11.51876947       4.43357643      14.35125897  F        5      -0.00811414       0.00624097      -0.35417039
Si      -0.00000000       2.21678822      15.13501196  F        4      -0.00567373       0.00419260      -0.11086921
Si       3.83958982       2.21678822      15.13501196  F        4      -0.00004093      -0.00602620      -0.10505176
Si       7.67917964       2.21678822      15.13501196  F        4       0.00645351      -0.00328294      -0.08173530
Si       1.91979491       5.54197054      15.13501196  F        4      -0.00511907       0.00229671      -0.10935744
Si       5.75938473       5.54197054      15.13501196  F        4       0.00533063       0.00286838      -0.10687836
Si       9.59897455       5.54197054      15.13501196  F        4       0.00031669      -0.00088074      -0.09948446
Si       0.00030133       2.21623574      17.48778030  T        3       0.02292583      -0.03693513       0.10731433
Si       3.83962664       2.21642935      17.48844874  T        3       0.00266563      -0.01087877       0.15047732
Si       7.67916149       2.21701125      17.48756671  T        3      -0.00329249       0.01795641       0.09270535
Si       1.92042221       5.54203045      17.48770358  T        3       0.04463976       0.00120623       0.10298458
Si       5.75949398       5.54226784      17.48827182  T        3      -0.00413555       0.01808158       0.14472045
Si       9.59843453       5.54215426      17.48642594  T        3      -0.03344739       0.01009552       0.03526689
Si      -0.00090724       0.00058506      18.27729915  T        2      -0.05498930       0.03523913       0.45675934
Si       3.83832596       0.00126093      18.27562392  T        2      -0.07926429       0.07938683       0.35367367
Si       7.68063627       0.00089348      18.27478530  T        2       0.09114222       0.05490421       0.28870242
Si       1.91945518       3.32534153      18.27632744  T        2      -0.02034430       0.00994965       0.39295199
Si       5.75978421       3.32492298      18.27723060  T        2       0.02582601      -0.01578908       0.45535297
Si       9.59915902       3.32345851      18.27560400  T        2       0.01342767      -0.10708786       0.33198658
Si       0.00092724      -0.00103651      20.61709525  T        1       0.07141678      -0.08690596      -0.24121033
Si       3.84124773      -0.00094789      20.61879990  T        1       0.12302910      -0.07690296      -0.13206682
Si       7.67902392      -0.00263799      20.61857791  T        1      -0.01565319      -0.20424021      -0.15213476
Si       1.92123753       3.32489832      20.61746278  T        1       0.11119066      -0.01499197      -0.22123040
Si       5.75842353       3.32688119      20.61827556  T        1      -0.08050284       0.13768868      -0.16359419
Si       9.59943359       3.32611557      20.61692871  T        1       0.03424138       0.08189734      -0.25346337
F        9.12042935       5.53887615      22.52398399  T        0      -0.06734307      -0.22376855       0.18692918
H       10.07410055       5.54657683      22.51850755  T        0      -0.18203414       0.33150928      -0.19702425
38
Lattice="11.518769465528859 0.0 0.0 3.839589821842953 6.650364651656328 0.0 0.0 0.0 32.62128289467409" Properties=species:S:1:pos:R:3:move_mask:L:1:tags:I:1:forces:R:3 surface=Si111 species=HF site=hollow orientation=parallel height_A=1.9 substrate_atoms=36 calculation_kind="Rigid evaluated approach scan; not NEB" energy=-175.95657064937058 pbc="T T F"
Si       1.91979491       1.10839411      12.00000000  F        6      -0.00023688       0.00020169       0.17227578
Si       5.75938473       1.10839411      12.00000000  F        6       0.00012075       0.00020330       0.17337796
Si       9.59897455       1.10839411      12.00000000  F        6       0.00010188      -0.00014871       0.17149608
Si       3.83958982       4.43357643      12.00000000  F        6      -0.00029224       0.00010317       0.17445678
Si       7.67917964       4.43357643      12.00000000  F        6      -0.00009802      -0.00022113       0.17303729
Si      11.51876947       4.43357643      12.00000000  F        6       0.00037434      -0.00013180       0.17327984
Si       1.91979491       1.10839411      14.35125897  F        5       0.00888426      -0.00478157      -0.36941786
Si       5.75938473       1.10839411      14.35125897  F        5      -0.00138751      -0.00935963      -0.35098806
Si       9.59897455       1.10839411      14.35125897  F        5      -0.00857337       0.00327667      -0.35587451
Si       3.83958982       4.43357643      14.35125897  F        5       0.00166343      -0.00144718      -0.38004891
Si       7.67917964       4.43357643      14.35125897  F        5       0.00696301       0.00635159      -0.35148797
Si      11.51876947       4.43357643      14.35125897  F        5      -0.00825748       0.00634559      -0.35364110
Si      -0.00000000       2.21678822      15.13501196  F        4      -0.00546477       0.00371227      -0.10457767
Si       3.83958982       2.21678822      15.13501196  F        4       0.00011253      -0.00606376      -0.09658572
Si       7.67917964       2.21678822      15.13501196  F        4       0.00620656      -0.00293051      -0.07607283
Si       1.91979491       5.54197054      15.13501196  F        4      -0.00459294       0.00237019      -0.10366070
Si       5.75938473       5.54197054      15.13501196  F        4       0.00515843       0.00296431      -0.09921186
Si       9.59897455       5.54197054      15.13501196  F        4      -0.00005605      -0.00083693      -0.09853203
Si       0.00042567       2.21601882      17.48838693  T        3       0.02323090      -0.03512676       0.10512528
Si       3.83964149       2.21631708      17.48931441  T        3       0.00271401      -0.00402634       0.14557831
Si       7.67914985       2.21710547      17.48808871  T        3      -0.00419099       0.01856225       0.09114951
Si       1.92067441       5.54204789      17.48828181  T        3       0.04376489      -0.00024806       0.10143217
Si       5.75951184       5.54238065      17.48908127  T        3      -0.00934595       0.01633841       0.14305948
Si       9.59822834       5.54222156      17.48654104  T        3      -0.03060519       0.00865529       0.04578976
Si      -0.00125098       0.00080627      18.28009159  T        2      -0.04974779       0.03171036       0.41908124
Si       3.83784115       0.00174526      18.27777797  T        2      -0.07288182       0.07319022       0.32549491
Si       7.68119456       0.00123376      18.27659051  T        2       0.08368765       0.04986713       0.25959762
Si       1.91932704       3.32540244      18.27874071  T        2      -0.01832900       0.00927738       0.35921993
Si       5.75993907       3.32482455      18.28000280  T        2       0.02424864      -0.01428981       0.41972657
Si       9.59923378       3.32279947      18.27770589  T        2       0.01341928      -0.09786637       0.29488330
Si       0.00131149      -0.00148116      20.61553447  T        1       0.07319045      -0.09257539      -0.20867971
Si       3.84192469      -0.00134892      20.61789760  T        1       0.12398370      -0.08094806      -0.10666398
Si       7.67895176      -0.00373327      20.61757744  T        1      -0.01820632      -0.21016470      -0.12894474
Si       1.92183556       3.32479532      20.61603660  T        1       0.11394509      -0.01191560      -0.19243698
Si       5.75801130       3.32759987      20.61717556  T        1      -0.08556592       0.14442861      -0.13577591
Si       9.59962141       3.32652382      20.61530040  T        1       0.03460427       0.08869331      -0.22143072
F        9.12078549       5.53762524      22.52505797  T        0      -0.14768663      -0.22241232       0.18146912
H       10.07235728       5.54843528      22.51739434  T        0      -0.10085519       0.32924292      -0.19549969
38
Lattice="11.518769465528859 0.0 0.0 3.839589821842953 6.650364651656328 0.0 0.0 0.0 32.62128289467409" Properties=species:S:1:pos:R:3:move_mask:L:1:tags:I:1:forces:R:3 surface=Si111 species=HF site=hollow orientation=parallel height_A=1.9 substrate_atoms=36 calculation_kind="Rigid evaluated approach scan; not NEB" energy=-175.96646077360367 pbc="T T F"
Si       1.91979491       1.10839411      12.00000000  F        6      -0.00024722       0.00021594       0.17236617
Si       5.75938473       1.10839411      12.00000000  F        6       0.00015202       0.00019271       0.17352031
Si       9.59897455       1.10839411      12.00000000  F        6       0.00007672      -0.00013027       0.17147730
Si       3.83958982       4.43357643      12.00000000  F        6      -0.00029977       0.00009850       0.17461964
Si       7.67917964       4.43357643      12.00000000  F        6      -0.00007999      -0.00024073       0.17320612
Si      11.51876947       4.43357643      12.00000000  F        6       0.00035876      -0.00012869       0.17339453
Si       1.91979491       1.10839411      14.35125897  F        5       0.00895741      -0.00484242      -0.36916459
Si       5.75938473       1.10839411      14.35125897  F        5      -0.00140750      -0.00951273      -0.35063312
Si       9.59897455       1.10839411      14.35125897  F        5      -0.00864528       0.00328996      -0.35559286
Si       3.83958982       4.43357643      14.35125897  F        5       0.00173284      -0.00148661      -0.37976675
Si       7.67917964       4.43357643      14.35125897  F        5       0.00710324       0.00644913      -0.35117757
Si      11.51876947       4.43357643      14.35125897  F        5      -0.00840920       0.00646016      -0.35299386
Si      -0.00000000       2.21678822      15.13501196  F        4      -0.00520946       0.00314907      -0.09727809
Si       3.83958982       2.21678822      15.13501196  F        4       0.00029039      -0.00608157      -0.08683310
Si       7.67917964       2.21678822      15.13501196  F        4       0.00590767      -0.00252350      -0.06951281
Si       1.91979491       5.54197054      15.13501196  F        4      -0.00397754       0.00245155      -0.09702662
Si       5.75938473       5.54197054      15.13501196  F        4       0.00493768       0.00306803      -0.09028166
Si       9.59897455       5.54197054      15.13501196  F        4      -0.00048083      -0.00077945      -0.09710677
Si       0.00057381       2.21576880      17.48909687  T        3       0.02352510      -0.03302716       0.10224846
Si       3.83965909       2.21620976      17.49032060  T        3       0.00282181       0.00331934       0.13973447
Si       7.67913284       2.21721921      17.48870069  T        3      -0.00518177       0.01913676       0.08908077
Si       1.92096965       5.54206320      17.48896043  T        3       0.04262883      -0.00184024       0.09928911
Si       5.75951333       5.54250766      17.49003293  T        3      -0.01478956       0.01440191       0.14071229
Si       9.59799503       5.54229563      17.48671606  T        3      -0.02748120       0.00716585       0.05699922
Si      -0.00163795       0.00105483      18.28325849  T        2      -0.04405659       0.02783534       0.37602495
Si       3.83729114       0.00229532      18.28022434  T        2      -0.06574984       0.06628376       0.29317594
Si       7.68182756       0.00161779      18.27862014  T        2       0.07533557       0.04422289       0.22670979
Si       1.91918312       3.32547173      18.28147299  T        2      -0.01618806       0.00864236       0.32086163
Si       5.76011627       3.32471368      18.28315250  T        2       0.02253600      -0.01262788       0.37923526
Si       9.59932199       3.32205367      18.28005757  T        2       0.01345468      -0.08750098       0.25303232
Si       0.00177149      -0.00202575      20.61380426  T        1       0.07540090      -0.09954002      -0.17124319
Si       3.84272734      -0.00183612      20.61691915  T        1       0.12536486      -0.08606766      -0.07689799
Si       7.67885843      -0.00504685      20.61647588  T        1      -0.02156041      -0.21774694      -0.10195502
Si       1.92255152       3.32468403      20.61445287  T        1       0.11734327      -0.00815728      -0.15951021
Si       5.75750682       3.32847197      20.61597378  T        1      -0.09165522       0.15266441      -0.10394536
Si       9.59984442       3.32702959      20.61348952  T        1       0.03512880       0.09681391      -0.18500527
F        9.12087564       5.53615249      22.52630762  T        0      -0.21742983      -0.22083966       0.17514050
H       10.07063102       5.55062146      22.51608751  T        0      -0.03020729       0.32721220      -0.19490395
38
Lattice="11.518769465528859 0.0 0.0 3.839589821842953 6.650364651656328 0.0 0.0 0.0 32.62128289467409" Properties=species:S:1:pos:R:3:move_mask:L:1:tags:I:1:forces:R:3 surface=Si111 species=HF site=hollow orientation=parallel height_A=1.9 substrate_atoms=36 calculation_kind="Rigid evaluated approach scan; not NEB" energy=-175.97744278948974 pbc="T T F"
Si       1.91979491       1.10839411      12.00000000  F        6      -0.00025927       0.00023169       0.17249661
Si       5.75938473       1.10839411      12.00000000  F        6       0.00019039       0.00017612       0.17371229
Si       9.59897455       1.10839411      12.00000000  F        6       0.00004542      -0.00010858       0.17147197
Si       3.83958982       4.43357643      12.00000000  F        6      -0.00030991       0.00009424       0.17483726
Si       7.67917964       4.43357643      12.00000000  F        6      -0.00005517      -0.00026295       0.17342987
Si      11.51876947       4.43357643      12.00000000  F        6       0.00033784      -0.00012282       0.17354891
Si       1.91979491       1.10839411      14.35125897  F        5       0.00902429      -0.00490459      -0.36880129
Si       5.75938473       1.10839411      14.35125897  F        5      -0.00142104      -0.00967319      -0.35015551
Si       9.59897455       1.10839411      14.35125897  F        5      -0.00872254       0.00329644      -0.35518424
Si       3.83958982       4.43357643      14.35125897  F        5       0.00181971      -0.00153245      -0.37935600
Si       7.67917964       4.43357643      14.35125897  F        5       0.00725489       0.00654718      -0.35074971
Si      11.51876947       4.43357643      14.35125897  F        5      -0.00857830       0.00659430      -0.35213079
Si      -0.00000000       2.21678822      15.13501196  F        4      -0.00486723       0.00243050      -0.08807183
Si       3.83958982       2.21678822      15.13501196  F        4       0.00051472      -0.00606468      -0.07463622
Si       7.67917964       2.21678822      15.13501196  F        4       0.00551125      -0.00201375      -0.06125131
Si       1.91979491       5.54197054      15.13501196  F        4      -0.00319531       0.00254811      -0.08862139
Si       5.75938473       5.54197054      15.13501196  F        4       0.00462845       0.00318690      -0.07895971
Si       9.59897455       5.54197054      15.13501196  F        4      -0.00100486      -0.00069550      -0.09480255
Si       0.00076689       2.21545611      17.49000149  T        3       0.02380729      -0.03038353       0.09810738
Si       3.83968209       2.21611006      17.49159247  T        3       0.00303061       0.01167006       0.13211933
Si       7.67910578       2.21736958      17.48948234  T        3      -0.00635072       0.01966925       0.08606227
Si       1.92134607       5.54207472      17.48982821  T        3       0.04101846      -0.00369888       0.09606439
Si       5.75948562       5.54266183      17.49125275  T        3      -0.02075675       0.01209053       0.13710789
Si       9.59770982       5.54238310      17.48700180  T        3      -0.02379839       0.00555553       0.06957276
Si      -0.00210798       0.00135583      18.28713578  T        2      -0.03746037       0.02327542       0.32295703
Si       3.83661687       0.00297069      18.28322480  T        2      -0.05719692       0.05802238       0.25324174
Si       7.68260289       0.00208526      18.28107685  T        2       0.06527016       0.03741626       0.18673294
Si       1.91900869       3.32555738      18.28481114  T        2      -0.01377711       0.00805054       0.27383763
Si       5.76033616       3.32457899      18.28701909  T        2       0.02054500      -0.01064250       0.32963269
Si       9.59943587       3.32114266      18.28288506  T        2       0.01356252      -0.07495570       0.20230908
Si       0.00237568      -0.00276133      20.61175343  T        1       0.07843548      -0.10898181      -0.12472933
Si       3.84376937      -0.00248828      20.61579874  T        1       0.12746655      -0.09317776      -0.03926247
Si       7.67872348      -0.00677700      20.61518414  T        1      -0.02638072      -0.22839832      -0.06801717
Si       1.92349189       3.32455775      20.61257020  T        1       0.12195931      -0.00308325      -0.11887587
Si       5.75682652       3.32963662      20.61457889  T        1      -0.09969925       0.16373982      -0.06465186
Si       9.60013452       3.32772136      20.61133167  T        1       0.03595345       0.10745461      -0.14046272
F        9.12053581       5.53425866      22.52789040  T        0      -0.27065900      -0.21847635       0.16697203
H       10.06886241       5.55343149      22.51440912  T        0       0.02411708       0.32512673      -0.19549410
38
Lattice="11.518769465528859 0.0 0.0 3.839589821842953 6.650364651656328 0.0 0.0 0.0 32.62128289467409" Properties=species:S:1:pos:R:3:move_mask:L:1:tags:I:1:forces:R:3 surface=Si111 species=HF site=hollow orientation=parallel height_A=1.9 substrate_atoms=36 calculation_kind="Rigid evaluated approach scan; not NEB" energy=-175.9892485659089 pbc="T T F"
Si       1.91979491       1.10839411      12.00000000  F        6      -0.00027287       0.00024783       0.17268064
Si       5.75938473       1.10839411      12.00000000  F        6       0.00023649       0.00015047       0.17396752
Si       9.59897455       1.10839411      12.00000000  F        6       0.00000722      -0.00008397       0.17148984
Si       3.83958982       4.43357643      12.00000000  F        6      -0.00032356       0.00009154       0.17512301
Si       7.67917964       4.43357643      12.00000000  F        6      -0.00002108      -0.00028671       0.17372175
Si      11.51876947       4.43357643      12.00000000  F        6       0.00030983      -0.00011263       0.17375247
Si       1.91979491       1.10839411      14.35125897  F        5       0.00907309      -0.00496093      -0.36828817
Si       5.75938473       1.10839411      14.35125897  F        5      -0.00142239      -0.00982495      -0.34951933
Si       9.59897455       1.10839411      14.35125897  F        5      -0.00879998       0.00329053      -0.35460048
Si       3.83958982       4.43357643      14.35125897  F        5       0.00192703      -0.00158475      -0.37877090
Si       7.67917964       4.43357643      14.35125897  F        5       0.00740607       0.00663359      -0.35016413
Si      11.51876947       4.43357643      14.35125897  F        5      -0.00875573       0.00674531      -0.35099067
Si      -0.00000000       2.21678822      15.13501196  F        4      -0.00440970       0.00152429      -0.07660644
Si       3.83958982       2.21678822      15.13501196  F        4       0.00079495      -0.00598528      -0.05959305
Si       7.67917964       2.21678822      15.13501196  F        4       0.00498727      -0.00138474      -0.05097414
Si       1.91979491       5.54197054      15.13501196  F        4      -0.00221421       0.00265906      -0.07809591
Si       5.75938473       5.54197054      15.13501196  F        4       0.00419965       0.00331672      -0.06476188
Si       9.59897455       5.54197054      15.13501196  F        4      -0.00164110      -0.00057140      -0.09114547
Si       0.00101743       2.21507067      17.49114192  T        3       0.02402870      -0.02710903       0.09218622
Si       3.83971242       2.21604026      17.49318143  T        3       0.00338740       0.02072569       0.12226274
Si       7.67906317       2.21756751      17.49047095  T        3      -0.00768236       0.02005208       0.08168013
Si       1.92182109       5.54207694      17.49092704  T        3       0.03875818      -0.00578109       0.09126732
Si       5.75940656       5.54284467      17.49280251  T        3      -0.02688306       0.00940681       0.13164857
Si       9.59736800       5.54248359      17.48745794  T        3      -0.01958073       0.00393485       0.08283094
Si      -0.00266695       0.00171200      18.29178129  T        2      -0.03009032       0.01807527       0.25906749
Si       3.83580644       0.00378427      18.28682801  T        2      -0.04724073       0.04842276       0.20520644
Si       7.68353356       0.00264156      18.28397585  T        2       0.05346371       0.02942185       0.13947976
Si       1.91880157       3.32566228      18.28880023  T        2      -0.01118464       0.00760034       0.21754362
Si       5.76060517       3.32441905      18.29167059  T        2       0.01830261      -0.00832532       0.27030370
Si       9.59958245       3.32005345      18.28619025  T        2       0.01377365      -0.06015796       0.14258496
Si       0.00316945      -0.00376125      20.60941082  T        1       0.08261576      -0.12187488      -0.06820923
Si       3.84511895      -0.00336625      20.61459070  T        1       0.13050802      -0.10299831       0.00708482
Si       7.67852415      -0.00905945      20.61373483  T        1      -0.03326239      -0.24331007      -0.02634965
Si       1.92472703       3.32442494      20.61040880  T        1       0.12824869       0.00383617      -0.06983935
Si       5.75590445       3.33119789      20.61303571  T        1      -0.11034726       0.17867525      -0.01724400
Si       9.60051141       3.32867406      20.60884388  T        1       0.03722917       0.12142649      -0.08749353
F        9.11952626       5.53183864      22.52987412  T        0      -0.29072836      -0.21445239       0.15625579
H       10.06716949       5.55702466      22.51225975  T        0       0.04560297       0.32256751      -0.19749138
38
Lattice="11.518769465528859 0.0 0.0 3.839589821842953 6.650364651656328 0.0 0.0 0.0 32.62128289467409" Properties=species:S:1:pos:R:3:move_mask:L:1:tags:I:1:forces:R:3 surface=Si111 species=HF site=hollow orientation=parallel height_A=1.9 substrate_atoms=36 calculation_kind="Rigid evaluated approach scan; not NEB" energy=-176.00148258840233 pbc="T T F"
Si       1.91979491       1.10839411      12.00000000  F        6      -0.00028763       0.00026228       0.17293198
Si       5.75938473       1.10839411      12.00000000  F        6       0.00029049       0.00011138       0.17429941
Si       9.59897455       1.10839411      12.00000000  F        6      -0.00003823      -0.00005737       0.17154154
Si       3.83958982       4.43357643      12.00000000  F        6      -0.00034188       0.00009235       0.17548821
Si       7.67917964       4.43357643      12.00000000  F        6       0.00002558      -0.00030992       0.17409361
Si      11.51876947       4.43357643      12.00000000  F        6       0.00027253      -0.00009594       0.17401244
Si       1.91979491       1.10839411      14.35125897  F        5       0.00909073      -0.00500095      -0.36758212
Si       5.75938473       1.10839411      14.35125897  F        5      -0.00140530      -0.00994319      -0.34868633
Si       9.59897455       1.10839411      14.35125897  F        5      -0.00887126       0.00326647      -0.35378597
Si       3.83958982       4.43357643      14.35125897  F        5       0.00205782      -0.00164463      -0.37796638
Si       7.67917964       4.43357643      14.35125897  F        5       0.00753742       0.00669117      -0.34937335
Si      11.51876947       4.43357643      14.35125897  F        5      -0.00892608       0.00690637      -0.34950629
Si      -0.00000000       2.21678822      15.13501196  F        4      -0.00380088       0.00039784      -0.06252874
Si       3.83958982       2.21678822      15.13501196  F        4       0.00114194      -0.00580496      -0.04131927
Si       7.67917964       2.21678822      15.13501196  F        4       0.00429822      -0.00062211      -0.03835788
Si       1.91979491       5.54197054      15.13501196  F        4      -0.00100436       0.00278137      -0.06508797
Si       5.75938473       5.54197054      15.13501196  F        4       0.00361566       0.00344944      -0.04716812
Si       9.59897455       5.54197054      15.13501196  F        4      -0.00240143      -0.00038544      -0.08545044
Si       0.00134126       2.21460336      17.49256210  T        3       0.02411703      -0.02314022       0.08381961
Si       3.83975311       2.21603590      17.49514081  T        3       0.00394238       0.02993075       0.10961124
Si       7.67899684       2.21782668      17.49170760  T        3      -0.00913293       0.02012950       0.07538068
Si       1.92241376       5.54206105      17.49230307  T        3       0.03563645      -0.00798130       0.08424680
Si       5.75924395       5.54305554      17.49475239  T        3      -0.03258144       0.00639397       0.12352634
Si       9.59696754       5.54259563      17.48816988  T        3      -0.01491186       0.00247410       0.09550608
Si      -0.00331577       0.00212199      18.29720174  T        2      -0.02221838       0.01236447       0.18456570
Si       3.83485441       0.00474312      18.29104564  T        2      -0.03607402       0.03765172       0.14961084
Si       7.68462437       0.00328565      18.28728895  T        2       0.04007535       0.02033135       0.08574994
Si       1.91856104       3.32579016      18.29343935  T        2      -0.00855258       0.00741520       0.15223988
Si       5.76092939       3.32423429      18.29713216  T        2       0.01586539      -0.00568426       0.20153898
Si       9.59977101       3.31878437      18.28991610  T        2       0.01410705      -0.04325221       0.07498574
Si       0.00421572      -0.00513498      20.60687292  T        1       0.08840125      -0.13968467      -0.00161508
Si       3.84686665      -0.00455988      20.61341429  T        1       0.13466045      -0.11644172       0.06193622
Si       7.67822224      -0.01208595      20.61221433  T        1      -0.04299816      -0.26407733       0.02303702
Si       1.92635410       3.32430517      20.60804561  T        1       0.13685967       0.01342562      -0.01240882
Si       5.75464406       3.33330645      20.61145059  T        1      -0.12452744       0.19891960       0.03820193
Si       9.60100193       3.32999954      20.60610155  T        1       0.03916198       0.13993921      -0.02687024
F        9.11761424       5.52876601      22.53233162  T        0      -0.26288028      -0.20738524       0.14205242
H       10.06563259       5.56159980      22.50950877  T        0       0.01979677       0.31857728      -0.20066962
38
Lattice="11.518769465528859 0.0 0.0 3.839589821842953 6.650364651656328 0.0 0.0 0.0 32.62128289467409" Properties=species:S:1:pos:R:3:move_mask:L:1:tags:I:1:forces:R:3 surface=Si111 species=HF site=hollow orientation=parallel height_A=1.9 substrate_atoms=36 calculation_kind="Rigid evaluated approach scan; not NEB" energy=-176.0137360685355 pbc="T T F"
Si       1.91979491       1.10839411      12.00000000  F        6      -0.00030297       0.00027169       0.17325964
Si       5.75938473       1.10839411      12.00000000  F        6       0.00035168       0.00005300       0.17471657
Si       9.59897455       1.10839411      12.00000000  F        6      -0.00009052      -0.00003065       0.17163499
Si       3.83958982       4.43357643      12.00000000  F        6      -0.00036632       0.00009974       0.17593577
Si       7.67917964       4.43357643      12.00000000  F        6       0.00008892      -0.00032901       0.17455053
Si      11.51876947       4.43357643      12.00000000  F        6       0.00022327      -0.00006994       0.17432845
Si       1.91979491       1.10839411      14.35125897  F        5       0.00906841      -0.00501091      -0.36665081
Si       5.75938473       1.10839411      14.35125897  F        5      -0.00136500      -0.00999406      -0.34762739
Si       9.59897455       1.10839411      14.35125897  F        5      -0.00893187       0.00322131      -0.35268946
Si       3.83958982       4.43357643      14.35125897  F        5       0.00221486      -0.00171656      -0.37691898
Si       7.67917964       4.43357643      14.35125897  F        5       0.00762105       0.00669869      -0.34833149
Si      11.51876947       4.43357643      14.35125897  F        5      -0.00906689       0.00706489      -0.34761875
Si      -0.00000000       2.21678822      15.13501196  F        4      -0.00299936      -0.00097400      -0.04555775
Si       3.83958982       2.21678822      15.13501196  F        4       0.00156780      -0.00547755      -0.01953149
Si       7.67917964       2.21678822      15.13501196  F        4       0.00340167       0.00028094      -0.02312362
Si       1.91979491       5.54197054      15.13501196  F        4       0.00045164       0.00290944      -0.04928893
Si       5.75938473       5.54197054      15.13501196  F        4       0.00284430       0.00357276      -0.02569724
Si       9.59897455       5.54197054      15.13501196  F        4      -0.00329551      -0.00010388      -0.07679590
Si       0.00175746       2.21404847      17.49430137  T        3       0.02397600      -0.01847794       0.07224227
Si       3.83980899       2.21614893      17.49751677  T        3       0.00473226       0.03842263       0.09359226
Si       7.67889514       2.21816302      17.49323149  T        3      -0.01061941       0.01970334       0.06649641
Si       1.92314217       5.54201397      17.49400016  T        3       0.03143522      -0.01010229       0.07422406
Si       5.75895468       5.54329006      17.49717348  T        3      -0.03703291       0.00315647       0.11175182
Si       9.59651130       5.54271661      17.48925149  T        3      -0.00995641       0.00140133       0.10557198
Si      -0.00404734       0.00257771      18.30330935  T        2      -0.01427779       0.00637672       0.10168293
Si       3.83376735       0.00584314      18.29582148  T        2      -0.02414828       0.02608437       0.08894866
Si       7.68586497       0.00400511      18.29091596  T        2       0.02555349       0.01041129       0.02810720
Si       1.91828860       3.32594625      18.29864415  T        2      -0.00606438       0.00762158       0.07983633
Si       5.76131363       3.32402848      18.30334717  T        2       0.01331606      -0.00274149       0.12533999
Si       9.60001362       3.31735425      18.29391087  T        2       0.01454245      -0.02472953       0.00278902
Si       0.00560156      -0.00704715      20.60434578  T        1       0.09643962      -0.16462716       0.07329910
Si       3.84913057      -0.00620202      20.61248864  T        1       0.13994700      -0.13461253       0.12291464
Si       7.67775376      -0.01612749      20.61079440  T        1      -0.05658064      -0.29274000       0.07843656
Si       1.92850684       3.32423885      20.60564967  T        1       0.14870590       0.02698331       0.05198251
Si       5.75290390       3.33618076      20.61002593  T        1      -0.14356945       0.22652111       0.10013241
Si       9.60164270       3.33186478      20.60327234  T        1       0.04201905       0.16483283       0.03870085
F        9.11468436       5.52490094      22.53532955  T        0      -0.18475702      -0.19573986       0.12354038
H       10.06418366       5.56739325      22.50598950  T        0      -0.05507595       0.31178995      -0.20418353
38
Lattice="11.518769465528859 0.0 0.0 3.839589821842953 6.650364651656328 0.0 0.0 0.0 32.62128289467409" Properties=species:S:1:pos:R:3:move_mask:L:1:tags:I:1:forces:R:3 surface=Si111 species=HF site=hollow orientation=parallel height_A=1.9 substrate_atoms=36 calculation_kind="Rigid evaluated approach scan; not NEB" energy=-176.02610573581205 pbc="T T F"
Si       1.91979491       1.10839411      12.00000000  F        6      -0.00031815       0.00027142       0.17365902
Si       5.75938473       1.10839411      12.00000000  F        6       0.00041797      -0.00003128       0.17521433
Si       9.59897455       1.10839411      12.00000000  F        6      -0.00014782      -0.00000681       0.17176884
Si       3.83958982       4.43357643      12.00000000  F        6      -0.00039840       0.00011778       0.17644988
Si       7.67917964       4.43357643      12.00000000  F        6       0.00017315      -0.00033898       0.17508173
Si      11.51876947       4.43357643      12.00000000  F        6       0.00015956      -0.00003161       0.17468442
Si       1.91979491       1.10839411      14.35125897  F        5       0.00901030      -0.00497566      -0.36550198
Si       5.75938473       1.10839411      14.35125897  F        5      -0.00130070      -0.00993886      -0.34634685
Si       9.59897455       1.10839411      14.35125897  F        5      -0.00898460       0.00315976      -0.35129123
Si       3.83958982       4.43357643      14.35125897  F        5       0.00240001      -0.00181111      -0.37566177
Si       7.67917964       4.43357643      14.35125897  F        5       0.00762308       0.00663452      -0.34701809
Si      11.51876947       4.43357643      14.35125897  F        5      -0.00915069       0.00720198      -0.34531061
Si      -0.00000000       2.21678822      15.13501196  F        4      -0.00197004      -0.00259200      -0.02567194
Si       3.83958982       2.21678822      15.13501196  F        4       0.00208356      -0.00496254       0.00574409
Si       7.67917964       2.21678822      15.13501196  F        4       0.00226287       0.00131174      -0.00519108
Si       1.91979491       5.54197054      15.13501196  F        4       0.00213784       0.00303682      -0.03062497
Si       5.75938473       5.54197054      15.13501196  F        4       0.00187570       0.00367244      -0.00013943
Si       9.59897455       5.54197054      15.13501196  F        4      -0.00432634       0.00032052      -0.06416919
Si       0.00228504       2.21340907      17.49637345  T        3       0.02349641      -0.01325108       0.05682481
Si       3.83988700       2.21644357      17.50032321  T        3       0.00574927       0.04507802       0.07385214
Si       7.67874365       2.21859093      17.49506216  T        3      -0.01201092       0.01857554       0.05443478
Si       1.92401556       5.54191923      17.49603971  T        3       0.02601515      -0.01184298       0.06049926
Si       5.75849138       5.54353823      17.50011094  T        3      -0.03929465      -0.00011897       0.09540291
Si       9.59601042       5.54284355      17.49082774  T        3      -0.00498094       0.00096773       0.11035087
Si      -0.00484249       0.00306108      18.30986468  T        2      -0.00683357       0.00043941       0.01592425
Si       3.83257191       0.00706066      18.30099217  T        2      -0.01224123       0.01434417       0.02861955
Si       7.68721975       0.00476989      18.29465575  T        2       0.01072091       0.00014352      -0.02834820
Si       1.91798894       3.32613761      18.30419815  T        2      -0.00389704       0.00830383       0.00487230
Si       5.76175885       3.32381084      18.31012151  T        2       0.01074294       0.00046968       0.04641932
Si       9.60032383       3.31581493      18.29789623  T        2       0.01498649      -0.00555300      -0.06774235
Si       0.00743698      -0.00972937      20.60218064  T        1       0.10756391      -0.19981763       0.15168533
Si       3.85204548      -0.00847338      20.61215126  T        1       0.14612581      -0.15873119       0.18425670
Si       7.67701955      -0.02153471      20.60975457  T        1      -0.07506595      -0.33156830       0.13537749
Si       1.93135274       3.32430090      20.60351387  T        1       0.16496834       0.04641352       0.11951197
Si       5.75049260       3.34011325      20.60908430  T        1      -0.16920749       0.26413922       0.16453259
Si       9.60247915       3.33450131      20.60064272  T        1       0.04611640       0.19865552       0.10368946
F        9.11089472       5.52012930      22.53889649  T        0      -0.07710112      -0.17891620       0.10092060
H       10.06248169       5.57463281      22.50152166  T        0      -0.15740002       0.30123105      -0.20675895
38
Lattice="11.518769465528859 0.0 0.0 3.839589821842953 6.650364651656328 0.0 0.0 0.0 32.62128289467409" Properties=species:S:1:pos:R:3:move_mask:L:1:tags:I:1:forces:R:3 surface=Si111 species=HF site=hollow orientation=parallel height_A=1.9 substrate_atoms=36 calculation_kind="Rigid evaluated approach scan; not NEB" energy=-176.0401290744343 pbc="T T F"
Si       1.91979491       1.10839411      12.00000000  F        6      -0.00033262       0.00025673       0.17410433
Si       5.75938473       1.10839411      12.00000000  F        6       0.00048590      -0.00014661       0.17576766
Si       9.59897455       1.10839411      12.00000000  F        6      -0.00020677       0.00001042       0.17192666
Si       3.83958982       4.43357643      12.00000000  F        6      -0.00043927       0.00015062       0.17698905
Si       7.67917964       4.43357643      12.00000000  F        6       0.00028103      -0.00033452       0.17565417
Si      11.51876947       4.43357643      12.00000000  F        6       0.00008009       0.00002126       0.17504420
Si       1.91979491       1.10839411      14.35125897  F        5       0.00893889      -0.00488240      -0.36421292
Si       5.75938473       1.10839411      14.35125897  F        5      -0.00121513      -0.00974491      -0.34490681
Si       9.59897455       1.10839411      14.35125897  F        5      -0.00904557       0.00309711      -0.34963164
Si       3.83958982       4.43357643      14.35125897  F        5       0.00261355      -0.00194553      -0.37430884
Si       7.67917964       4.43357643      14.35125897  F        5       0.00751203       0.00648235      -0.34546898
Si      11.51876947       4.43357643      14.35125897  F        5      -0.00915207       0.00729700      -0.34264054
Si      -0.00000000       2.21678822      15.13501196  F        4      -0.00070391      -0.00441764      -0.00331227
Si       3.83958982       2.21678822      15.13501196  F        4       0.00269552      -0.00424961       0.03395820
Si       7.67917964       2.21678822      15.13501196  F        4       0.00087548       0.00242569       0.01514115
Si       1.91979491       5.54197054      15.13501196  F        4       0.00398648       0.00316306      -0.00946571
Si       5.75938473       5.54197054      15.13501196  F        4       0.00074379       0.00373983       0.02914917
Si       9.59897455       5.54197054      15.13501196  F        4      -0.00548473       0.00094322      -0.04686071
Si       0.00293620       2.21270155      17.49874077  T        3       0.02257985      -0.00774335       0.03748082
Si       3.83999548       2.21697863      17.50351284  T        3       0.00691633       0.04877542       0.05062078
Si       7.67852844       2.21911649      17.49717636  T        3      -0.01314186       0.01663236       0.03904942
Si       1.92502446       5.54176142      17.49839435  T        3       0.01942507      -0.01285417       0.04283680
Si       5.75781946       5.54378461      17.50354656  T        3      -0.03858720      -0.00317569       0.07411715
Si       9.59548514       5.54297510      17.49298862  T        3      -0.00033629       0.00136885       0.10726280
Si      -0.00567062       0.00354459      18.31647520  T        2      -0.00042758      -0.00512573      -0.06387283
Si       3.83131632       0.00834950      18.30629254  T        2      -0.00134942       0.00320745      -0.02355477
Si       7.68862579       0.00553191      18.29822625  T        2      -0.00335066      -0.00987269      -0.07644581
Si       1.91766976       3.32637263      18.30975269  T        2      -0.00212785       0.00945812      -0.06542998
Si       5.76225965       3.32359672      18.31711359  T        2       0.00818745       0.00392038      -0.02776261
Si       9.60071299       3.31425292      18.30149989  T        2       0.01527472       0.01295491      -0.12800920
Si       0.00984089      -0.01347099      20.60083907  T        1       0.12268974      -0.24908564       0.22534899
Si       3.85573073      -0.01158565      20.61280374  T        1       0.15270139      -0.19005016       0.23721097
Si       7.67588610      -0.02869542      20.60944564  T        1      -0.09933724      -0.38258021       0.18679572
Si       1.93507036       3.32461161      20.60202895  T        1       0.18697500       0.07415033       0.18374876
Si       5.74718483       3.34544438      20.60902951  T        1      -0.20334215       0.31473772       0.22473375
Si       9.60355910       3.33819122      20.59858138  T        1       0.05178300       0.24433467       0.16011120
F        9.10670900       5.51442000      22.54298830  T        0       0.02085554      -0.15836276       0.07626936
H       10.05994332       5.58345471      22.49596542  T        0      -0.24702052       0.28744413      -0.20743748
38
Lattice="11.518769465528859 0.0 0.0 3.839589821842953 6.650364651656328 0.0 0.0 0.0 32.62128289467409" Properties=species:S:1:pos:R:3:move_mask:L:1:tags:I:1:forces:R:3 surface=Si111 species=HF site=hollow orientation=parallel height_A=1.9 substrate_atoms=36 calculation_kind="Rigid evaluated approach scan; not NEB" energy=-176.05944710084614 pbc="T T F"
Si       1.91979491       1.10839411      12.00000000  F        6      -0.00034631       0.00022382       0.17455181
Si       5.75938473       1.10839411      12.00000000  F        6       0.00055184      -0.00029606       0.17633482
Si       9.59897455       1.10839411      12.00000000  F        6      -0.00026347       0.00001735       0.17207824
Si       3.83958982       4.43357643      12.00000000  F        6      -0.00048971       0.00020171       0.17749119
Si       7.67917964       4.43357643      12.00000000  F        6       0.00041391      -0.00031144       0.17621729
Si      11.51876947       4.43357643      12.00000000  F        6      -0.00001532       0.00008993       0.17535659
Si       1.91979491       1.10839411      14.35125897  F        5       0.00889081      -0.00472103      -0.36292804
Si       5.75938473       1.10839411      14.35125897  F        5      -0.00110842      -0.00939029      -0.34342117
Si       9.59897455       1.10839411      14.35125897  F        5      -0.00914722       0.00305720      -0.34780011
Si       3.83958982       4.43357643      14.35125897  F        5       0.00285482      -0.00214276      -0.37304366
Si       7.67917964       4.43357643      14.35125897  F        5       0.00726384       0.00623054      -0.34378069
Si      11.51876947       4.43357643      14.35125897  F        5      -0.00905213       0.00733389      -0.33973090
Si      -0.00000000       2.21678822      15.13501196  F        4       0.00077963      -0.00638700       0.02071290
Si       3.83958982       2.21678822      15.13501196  F        4       0.00340786      -0.00337144       0.06418109
Si       7.67917964       2.21678822      15.13501196  F        4      -0.00073683       0.00354653       0.03727630
Si       1.91979491       5.54197054      15.13501196  F        4       0.00588706       0.00330419       0.01345012
Si       5.75938473       5.54197054      15.13501196  F        4      -0.00047419       0.00378138       0.06133442
Si       9.59897455       5.54197054      15.13501196  F        4      -0.00675402       0.00182913      -0.02464125
Si       0.00371704       2.21195128      17.50131876  T        3       0.02113711      -0.00232190       0.01478465
Si       3.84014401       2.21779691      17.50698701  T        3       0.00810118       0.04860572       0.02476682
Si       7.67823717       2.21973741      17.49951130  T        3      -0.01383541       0.01387506       0.02080505
Si       1.92614332       5.54152902      17.50099101  T        3       0.01188982      -0.01281626       0.02158761
Si       5.75692437       5.54401155      17.50740320  T        3      -0.03445296      -0.00573426       0.04825762
Si       9.59495976       5.54311418      17.49576881  T        3       0.00358457       0.00270964       0.09449704
Si      -0.00649831       0.00399641      18.32268881  T        2       0.00461314      -0.01015984      -0.12708418
Si       3.83005731       0.00965250      18.31143634  T        2       0.00758480      -0.00661662      -0.05932305
Si       7.69000723       0.00623350      18.30133715  T        2      -0.01566665      -0.01916018      -0.10856186
Si       1.91733928       3.32666210      18.31490497  T        2      -0.00064364       0.01100167      -0.12232064
Si       5.76280652       3.32340628      18.32391848  T        2       0.00556358       0.00765703      -0.08822612
Si       9.60119006       3.31277221      18.30434241  T        2       0.01522423       0.02948644      -0.16896775
Si       0.01295343      -0.01865533      20.60081958  T        1       0.14285754      -0.31731012       0.28405122
Si       3.86029548      -0.01579778      20.61484052  T        1       0.15913863      -0.23023337       0.27229201
Si       7.67417601      -0.03806704      20.61022975  T        1      -0.13025127      -0.44775504       0.22482274
Si       1.93986771       3.32535467      20.60162343  T        1       0.21634530       0.11336140       0.23656417
Si       5.74270020       3.35259634      20.61028862  T        1      -0.24812567       0.38179690       0.27235779
Si       9.60493790       3.34329626      20.59746333  T        1       0.05938587       0.30519417       0.19914212
F        9.10266011       5.50780532      22.54751137  T        0       0.07303631      -0.13734221       0.05330832
H       10.05597002       5.59392545      22.48921638  T        0      -0.28714860       0.27276613      -0.20639250
38
Lattice="11.518769465528859 0.0 0.0 3.839589821842953 6.650364651656328 0.0 0.0 0.0 32.62128289467409" Properties=species:S:1:pos:R:3:move_mask:L:1:tags:I:1:forces:R:3 surface=Si111 species=HF site=hollow orientation=parallel height_A=1.9 substrate_atoms=36 calculation_kind="Rigid evaluated approach scan; not NEB" energy=-176.08980282893108 pbc="T T F"
Si       1.91979491       1.10839411      12.00000000  F        6      -0.00035988       0.00017010       0.17494808
Si       5.75938473       1.10839411      12.00000000  F        6       0.00061307      -0.00048161       0.17686514
Si       9.59897455       1.10839411      12.00000000  F        6      -0.00031449       0.00001081       0.17218575
Si       3.83958982       4.43357643      12.00000000  F        6      -0.00055059       0.00027379       0.17788162
Si       7.67917964       4.43357643      12.00000000  F        6       0.00057302      -0.00026710       0.17671121
Si      11.51876947       4.43357643      12.00000000  F        6      -0.00012675       0.00017528       0.17556208
Si       1.91979491       1.10839411      14.35125897  F        5       0.00890613      -0.00448036      -0.36182993
Si       5.75938473       1.10839411      14.35125897  F        5      -0.00097105      -0.00885538      -0.34202961
Si       9.59897455       1.10839411      14.35125897  F        5      -0.00933520       0.00306838      -0.34589396
Si       3.83958982       4.43357643      14.35125897  F        5       0.00312312      -0.00242965      -0.37208245
Si       7.67917964       4.43357643      14.35125897  F        5       0.00685724       0.00586368      -0.34208938
Si      11.51876947       4.43357643      14.35125897  F        5      -0.00883498       0.00730143      -0.33672758
Si      -0.00000000       2.21678822      15.13501196  F        4       0.00244202      -0.00843508       0.04537870
Si       3.83958982       2.21678822      15.13501196  F        4       0.00422855      -0.00240806       0.09529858
Si       7.67917964       2.21678822      15.13501196  F        4      -0.00253177       0.00456651       0.06046460
Si       1.91979491       5.54197054      15.13501196  F        4       0.00770041       0.00350528       0.03714471
Si       5.75938473       5.54197054      15.13501196  F        4      -0.00166626       0.00382797       0.09530061
Si       9.59897455       5.54197054      15.13501196  F        4      -0.00811717       0.00306561       0.00229721
Si       0.00463272       2.21118788      17.50398593  T        3       0.01904223       0.00264377      -0.01007946
Si       3.84034460       2.21892772      17.51061271  T        3       0.00913786       0.04381076      -0.00228694
Si       7.67785708       2.22044656      17.50197500  T        3      -0.01388866       0.01038316       0.00081729
Si       1.92733631       5.54121426      17.50372084  T        3       0.00372171      -0.01145667      -0.00237855
Si       5.75580854       5.54420080      17.51156244  T        3      -0.02665297      -0.00750396       0.01879174
Si       9.59445890       5.54327045      17.49915360  T        3       0.00632887       0.00503821       0.07109606
Si      -0.00729404       0.00438132      18.32806415  T        2       0.00825185      -0.01476986      -0.16256513
Si       3.82885058       0.01090938      18.31618317  T        2       0.01384237      -0.01461961      -0.07151045
Si       7.69128378       0.00680931      18.30373753  T        2      -0.02548812      -0.02750138      -0.11765530
Si       1.91700546       3.32702204      18.31925250  T        2       0.00092959       0.01280112      -0.15632471
Si       5.76338802       3.32326588      18.33013513  T        2       0.00257479       0.01189396      -0.12537187
Si       9.60176446       3.31148609      18.30608410  T        2       0.01467284       0.04292953      -0.18232757
Si       0.01698275      -0.02588037      20.60263867  T        1       0.16945444      -0.41169980       0.31665992
Si       3.86587872      -0.02148947      20.61863458  T        1       0.16502123      -0.28206838       0.28100047
Si       7.67162718      -0.05031307      20.61246705  T        1      -0.16908887      -0.52982545       0.24224517
Si       1.94605325       3.32682958      20.60275011  T        1       0.25550284       0.16876321       0.26881337
Si       5.73662090       3.36220141      20.61330739  T        1      -0.30649432       0.47019992       0.29804018
Si       9.60669759       3.35036378      20.59763706  T        1       0.06939002       0.38561313       0.21219546
F        9.09909417       5.50031841      22.55236804  T        0       0.06116762      -0.11972248       0.03665713
H       10.05014818       5.60613522      22.48114852  T        0      -0.25906073       0.26061921      -0.20520216
38
Lattice="11.518769465528859 0.0 0.0 3.839589821842953 6.650364651656328 0.0 0.0 0.0 32.62128289467409" Properties=species:S:1:pos:R:3:move_mask:L:1:tags:I:1:forces:R:3 surface=Si111 species=HF site=hollow orientation=parallel height_A=1.9 substrate_atoms=36 calculation_kind="Rigid evaluated approach scan; not NEB" energy=-176.13912269552452 pbc="T T F"
Si       1.91979491       1.10839411      12.00000000  F        6      -0.00037462       0.00009474       0.17523953
Si       5.75938473       1.10839411      12.00000000  F        6       0.00066866      -0.00070394       0.17730617
Si       9.59897455       1.10839411      12.00000000  F        6      -0.00035775      -0.00001121       0.17221198
Si       3.83958982       4.43357643      12.00000000  F        6      -0.00062272       0.00036836       0.17808241
Si       7.67917964       4.43357643      12.00000000  F        6       0.00075975      -0.00020142       0.17707439
Si      11.51876947       4.43357643      12.00000000  F        6      -0.00025470       0.00027801       0.17560063
Si       1.91979491       1.10839411      14.35125897  F        5       0.00900650      -0.00414308      -0.36108210
Si       5.75938473       1.10839411      14.35125897  F        5      -0.00077685      -0.00810766      -0.34085412
Si       9.59897455       1.10839411      14.35125897  F        5      -0.00965369       0.00315496      -0.34395926
Si       3.83958982       4.43357643      14.35125897  F        5       0.00341840      -0.00283042      -0.37159188
Si       7.67917964       4.43357643      14.35125897  F        5       0.00626593       0.00535060      -0.34053230
Si      11.51876947       4.43357643      14.35125897  F        5      -0.00848102       0.00718929      -0.33375135
Si      -0.00000000       2.21678822      15.13501196  F        4       0.00422935      -0.01051873       0.06942839
Si       3.83958982       2.21678822      15.13501196  F        4       0.00517274      -0.00150024       0.12600027
Si       7.67917964       2.21678822      15.13501196  F        4      -0.00445568       0.00534046       0.08380648
Si       1.91979491       5.54197054      15.13501196  F        4       0.00926721       0.00385866       0.06035363
Si       5.75938473       5.54197054      15.13501196  F        4      -0.00269096       0.00394795       0.12960732
Si       9.59897455       5.54197054      15.13501196  F        4      -0.00955719       0.00477314       0.03319696
Si       0.00568780       2.21044516      17.50657457  T        3       0.01606797       0.00685560      -0.03510228
Si       3.84061244       2.22038071      17.51421605  T        3       0.00984243       0.03372058      -0.02843738
Si       7.67737490       2.22123141      17.50444104  T        3      -0.01303807       0.00628532      -0.01883210
Si       1.92855502       5.54081527      17.50642898  T        3      -0.00474824      -0.00856984      -0.02752927
Si       5.75449735       5.54433430      17.51585436  T        3      -0.01507100      -0.00816344      -0.01263610
Si       9.59400559       5.54346373      17.50305891  T        3       0.00733890       0.00836161       0.03720715
Si      -0.00802758       0.00465647      18.33222962  T        2       0.01078701      -0.01941331      -0.16051863
Si       3.82774799       0.01205629      18.32039421  T        2       0.01706052      -0.02059915      -0.05569614
Si       7.69236998       0.00718094      18.30526451  T        2      -0.03245475      -0.03497427      -0.09848112
Si       1.91667902       3.32747608      18.32243784  T        2       0.00330276       0.01467845      -0.15841784
Si       5.76398769       3.32321362      18.33541560  T        2      -0.00137619       0.01707900      -0.13030506
Si       9.60244647       3.31051927      18.30647528  T        2       0.01350815       0.05238775      -0.16212419
Si       0.02225875      -0.03613813      20.60679599  T        1       0.20430917      -0.54328996       0.31283039
Si       3.87267353      -0.02925785      20.62450029  T        1       0.17017981      -0.35018247       0.25757362
Si       7.66783215      -0.06645756      20.61649184  T        1      -0.21784853      -0.63256221       0.23403239
Si       1.95411835       3.32954989      20.60586235  T        1       0.30825463       0.24768904       0.27133722
Si       5.72828490       3.37526811      20.61852496  T        1      -0.38254150       0.58687956       0.29256333
Si       9.60896762       3.36027140      20.59937923  T        1       0.08230923       0.49152271       0.19224616
F        9.09598579       5.49195766      22.55748842  T        0      -0.00700861      -0.10758083       0.03058916
H       10.04241992       5.62025334      22.47157577  T        0      -0.17043702       0.25353642      -0.20643644
38
Lattice="11.518769465528859 0.0 0.0 3.839589821842953 6.650364651656328 0.0 0.0 0.0 32.62128289467409" Properties=species:S:1:pos:R:3:move_mask:L:1:tags:I:1:forces:R:3 surface=Si111 species=HF site=hollow orientation=parallel height_A=1.9 substrate_atoms=36 calculation_kind="Rigid evaluated approach scan; not NEB" energy=-176.21926032660372 pbc="T T F"
Si       1.91979491       1.10839411      12.00000000  F        6      -0.00039242       0.00000001       0.17538421
Si       5.75938473       1.10839411      12.00000000  F        6       0.00072058      -0.00096085       0.17761174
Si       9.59897455       1.10839411      12.00000000  F        6      -0.00039387      -0.00004800       0.17212980
Si       3.83958982       4.43357643      12.00000000  F        6      -0.00070604       0.00048405       0.17802748
Si       7.67917964       4.43357643      12.00000000  F        6       0.00097498      -0.00011874       0.17725346
Si      11.51876947       4.43357643      12.00000000  F        6      -0.00040039       0.00039804       0.17542314
Si       1.91979491       1.10839411      14.35125897  F        5       0.00915367      -0.00367973      -0.36072196
Si       5.75938473       1.10839411      14.35125897  F        5      -0.00047469      -0.00707935      -0.33991683
Si       9.59897455       1.10839411      14.35125897  F        5      -0.01011186       0.00331885      -0.34189680
Si       3.83958982       4.43357643      14.35125897  F        5       0.00374316      -0.00335229      -0.37152999
Si       7.67917964       4.43357643      14.35125897  F        5       0.00544852       0.00462859      -0.33917585
Si      11.51876947       4.43357643      14.35125897  F        5      -0.00795873       0.00698245      -0.33082286
Si      -0.00000000       2.21678822      15.13501196  F        4       0.00607718      -0.01265071       0.09134462
Si       3.83958982       2.21678822      15.13501196  F        4       0.00626688      -0.00086569       0.15473674
Si       7.67917964       2.21678822      15.13501196  F        4      -0.00645684       0.00568602       0.10624705
Si       1.91979491       5.54197054      15.13501196  F        4       0.01042801       0.00452747       0.08142983
Si       5.75938473       5.54197054      15.13501196  F        4      -0.00339235       0.00426040       0.16234796
Si       9.59897455       5.54197054      15.13501196  F        4      -0.01105383       0.00710559       0.06637134
Si       0.00688102       2.20976198      17.50885903  T        3       0.01185026       0.01018543      -0.05694258
Si       3.84096509       2.22212400      17.51757223  T        3       0.01004603       0.01787144      -0.05067593
Si       7.67678043       2.22207011      17.50674336  T        3      -0.01097488       0.00175544      -0.03446791
Si       1.92973216       5.54034252      17.50889823  T        3      -0.01323552      -0.00410163      -0.05132761
Si       5.75305675       5.54439728      17.52003514  T        3       0.00026717      -0.00735686      -0.04349357
Si       9.59361583       5.54372908      17.50728340  T        3       0.00596456       0.01260043      -0.00520535
Si      -0.00866767       0.00476396      18.33500783  T        2       0.01291463      -0.02499133      -0.11650128
Si       3.82679317       0.01302489      18.32412256  T        2       0.01746332      -0.02484243      -0.01281744
Si       7.69317558       0.00725057      18.30594088  T        2      -0.03687595      -0.04195926      -0.04982677
Si       1.91638124       3.32805657      18.32425452  T        2       0.00757188       0.01639868      -0.12295693
Si       5.76457518       3.32330877      18.33956900  T        2      -0.00728276       0.02391736      -0.09797215
Si       9.60324472       3.31000501      18.30546718  T        2       0.01171634       0.05724441      -0.10776446
Si       0.02929531      -0.05107933      20.61365094  T        1       0.24928423      -0.72792032       0.26656543
Si       3.88093363      -0.04004443      20.63258593  T        1       0.17506289      -0.44176247       0.20164757
Si       7.66215900      -0.08805302      20.62253430  T        1      -0.27899089      -0.75962352       0.19959102
Si       1.96483967       3.33440637      20.61131464  T        1       0.38024579       0.36115400       0.23750460
Si       5.71665174       3.39339305      20.62626471  T        1      -0.48120738       0.74040036       0.24961693
Si       9.61194685       3.37441591      20.60277957  T        1       0.09836293       0.63006068       0.13638417
F        9.09281844       5.48267260      22.56287028  T        0      -0.08938782      -0.09643884       0.03646484
H       10.03322460       5.63655253      22.46022620  T        0      -0.06426678       0.24877230      -0.21206568
38
Lattice="11.518769465528859 0.0 0.0 3.839589821842953 6.650364651656328 0.0 0.0 0.0 32.62128289467409" Properties=species:S:1:pos:R:3:move_mask:L:1:tags:I:1:forces:R:3 surface=Si111 species=HF site=hollow orientation=parallel height_A=1.9 substrate_atoms=36 calculation_kind="Rigid evaluated approach scan; not NEB" energy=-176.35142868553447 pbc="T T F"
Si       1.91979491       1.10839411      12.00000000  F        6      -0.00041554      -0.00010718       0.17535944
Si       5.75938473       1.10839411      12.00000000  F        6       0.00077514      -0.00124433       0.17774664
Si       9.59897455       1.10839411      12.00000000  F        6      -0.00042767      -0.00009334       0.17192580
Si       3.83958982       4.43357643      12.00000000  F        6      -0.00079782       0.00061461       0.17767900
Si       7.67917964       4.43357643      12.00000000  F        6       0.00121741      -0.00003062       0.17721004
Si      11.51876947       4.43357643      12.00000000  F        6      -0.00056610       0.00053304       0.17500223
Si       1.91979491       1.10839411      14.35125897  F        5       0.00919334      -0.00304614      -0.36050837
Si       5.75938473       1.10839411      14.35125897  F        5       0.00001419      -0.00563957      -0.33901808
Si       9.59897455       1.10839411      14.35125897  F        5      -0.01062891       0.00351365      -0.33933109
Si       3.83958982       4.43357643      14.35125897  F        5       0.00410723      -0.00396245      -0.37143139
Si       7.67917964       4.43357643      14.35125897  F        5       0.00433837       0.00358784      -0.33790523
Si      11.51876947       4.43357643      14.35125897  F        5      -0.00721945       0.00665293      -0.32776636
Si      -0.00000000       2.21678822      15.13501196  F        4       0.00792199      -0.01494225       0.10950112
Si       3.83958982       2.21678822      15.13501196  F        4       0.00756077      -0.00080731       0.17984788
Si       7.67917964       2.21678822      15.13501196  F        4      -0.00851687       0.00540387       0.12675436
Si       1.91979491       5.54197054      15.13501196  F        4       0.01105987       0.00576775       0.09837705
Si       5.75938473       5.54197054      15.13501196  F        4      -0.00363072       0.00493702       0.19110853
Si       9.59897455       5.54197054      15.13501196  F        4      -0.01258110       0.01023211       0.09884571
Si       0.00819504       2.20918172      17.51056724  T        3       0.00601275       0.01273172      -0.07018822
Si       3.84141980       2.22404942      17.52041626  T        3       0.00965596      -0.00358700      -0.06498828
Si       7.67607436       2.22292706      17.50869735  T        3      -0.00754559      -0.00295121      -0.03999969
Si       1.93077569       5.53982794      17.51084827  T        3      -0.02156937       0.00168012      -0.06989551
Si       5.75161810       5.54438568      17.52377704  T        3       0.01901151      -0.00476913      -0.07032359
Si       9.59328636       5.54412234      17.51145730  T        3       0.00164754       0.01746434      -0.05143400
Si      -0.00917712       0.00461807      18.33660608  T        2       0.01573159      -0.03285795      -0.03708644
Si       3.82601494       0.01374206      18.32772286  T        2       0.01622404      -0.02840162       0.04845671
Si       7.69360765       0.00689475      18.30611232  T        2      -0.04026808      -0.04911766       0.02308578
Si       1.91616009       3.32880365      18.32482528  T        2       0.01512664       0.01758599      -0.05232282
Si       5.76508913       3.32364651      18.34273105  T        2      -0.01658637       0.03332490      -0.03196125
Si       9.60416219       3.31007098      18.30336576  T        2       0.00944186       0.05733117      -0.02774205
Si       0.03886343      -0.07340989      20.62321259  T        1       0.30438569      -0.98427444       0.18110497
Si       3.89097327      -0.05531637      20.64272061  T        1       0.18155957      -0.56658549       0.12040684
Si       7.65365375      -0.11736277      20.63060388  T        1      -0.35354504      -0.90981506       0.14422886
Si       1.97942250       3.34292771      20.61917821  T        1       0.47864044       0.52404018       0.16725910
Si       5.70013278       3.41903556      20.63653977  T        1      -0.60605663       0.93740900       0.16995406
Si       9.61592509       3.39495699      20.60756471  T        1       0.11639030       0.80684019       0.04908808
F        9.08874299       5.47240477      22.56862471  T        0      -0.11950925      -0.07089518       0.05044971
H       10.02337281       5.65538288      22.44672025  T        0      -0.01015170       0.23347747      -0.22148953
38
Lattice="11.518769465528859 0.0 0.0 3.839589821842953 6.650364651656328 0.0 0.0 0.0 32.62128289467409" Properties=species:S:1:pos:R:3:move_mask:L:1:tags:I:1:forces:R:3 surface=Si111 species=HF site=hollow orientation=parallel height_A=1.9 substrate_atoms=36 calculation_kind="Rigid evaluated approach scan; not NEB" energy=-176.538925775228 pbc="T T F"
Si       1.91979491       1.10839411      12.00000000  F        6      -0.00044222      -0.00019789       0.17518214
Si       5.75938473       1.10839411      12.00000000  F        6       0.00083285      -0.00149117       0.17769139
Si       9.59897455       1.10839411      12.00000000  F        6      -0.00046167      -0.00012661       0.17164291
Si       3.83958982       4.43357643      12.00000000  F        6      -0.00087594       0.00072701       0.17713350
Si       7.67917964       4.43357643      12.00000000  F        6       0.00143974       0.00003044       0.17696223
Si      11.51876947       4.43357643      12.00000000  F        6      -0.00072536       0.00065342       0.17443803
Si       1.91979491       1.10839411      14.35125897  F        5       0.00888880      -0.00233397      -0.35995161
Si       5.75938473       1.10839411      14.35125897  F        5       0.00065410      -0.00391063      -0.33788780
Si       9.59897455       1.10839411      14.35125897  F        5      -0.01093172       0.00361668      -0.33614242
Si       3.83958982       4.43357643      14.35125897  F        5       0.00446849      -0.00447100      -0.37045827
Si       7.67917964       4.43357643      14.35125897  F        5       0.00308316       0.00231661      -0.33657818
Si      11.51876947       4.43357643      14.35125897  F        5      -0.00636844       0.00622674      -0.32472527
Si      -0.00000000       2.21678822      15.13501196  F        4       0.00942110      -0.01719179       0.12060642
Si       3.83958982       2.21678822      15.13501196  F        4       0.00889778      -0.00157745       0.19685076
Si       7.67917964       2.21678822      15.13501196  F        4      -0.01033969       0.00447881       0.14206920
Si       1.91979491       5.54197054      15.13501196  F        4       0.01108662       0.00759699       0.10746180
Si       5.75938473       5.54197054      15.13501196  F        4      -0.00334768       0.00598694       0.20973658
Si       9.59897455       5.54197054      15.13501196  F        4      -0.01387431       0.01366274       0.12207093
Si       0.00936601       2.20881923      17.51130579  T        3      -0.00014681       0.01426374      -0.06717462
Si       3.84190111       2.22564068      17.52216702  T        3       0.00890289      -0.02519523      -0.06625412
Si       7.67540180       2.22362167      17.50994692  T        3      -0.00402078      -0.00670394      -0.02859081
Si       1.93144095       5.53940991      17.51179415  T        3      -0.02833480       0.00696517      -0.07668804
Si       5.75059321       5.54432797      17.52623304  T        3       0.03675354      -0.00101118      -0.08619487
Si       9.59302445       5.54463017      17.51446819  T        3      -0.00452766       0.02150218      -0.08724611
Si      -0.00944965       0.00416465      18.33758427  T        2       0.01955911      -0.04260171       0.04199527
Si       3.82552020       0.01406285      18.33125256  T        2       0.01571227      -0.03242703       0.10202181
Si       7.69356826       0.00610054      18.30648916  T        2      -0.04463813      -0.05594821       0.09448299
Si       1.91612516       3.32961175      18.32478199  T        2       0.02511934       0.01763921       0.02483600
Si       5.76535686       3.32426677      18.34508240  T        2      -0.02858832       0.04398998       0.03877375
Si       9.60503247       3.31070273      18.30131098  T        2       0.00741103       0.05383448       0.04487989
Si       0.05000821      -0.10217183      20.63311333  T        1       0.35487272      -1.27367611       0.08863450
Si       3.90128256      -0.07391613      20.65249583  T        1       0.19200038      -0.70934760       0.04168489
Si       7.64291337      -0.15127522      20.63887308  T        1      -0.42433220      -1.04550312       0.08745884
Si       1.99655628       3.35539463      20.62750469  T        1       0.59014326       0.71796115       0.08560450
Si       5.68008252       3.45012580      20.64693143  T        1      -0.73198295       1.14209887       0.07964281
Si       9.62045673       3.42042387      20.61210214  T        1       0.12965378       0.98769868      -0.03921957
F        9.08409786       5.46301445      22.57399503  T        0      -0.07281697      -0.02473802       0.06641332
H       10.01494440       5.67364342      22.43308018  T        0      -0.04214528       0.19720284      -0.23116278
38
Lattice="11.518769465528859 0.0 0.0 3.839589821842953 6.650364651656328 0.0 0.0 0.0 32.62128289467409" Properties=species:S:1:pos:R:3:move_mask:L:1:tags:I:1:forces:R:3 surface=Si111 species=HF site=hollow orientation=parallel height_A=1.9 substrate_atoms=36 calculation_kind="Rigid evaluated approach scan; not NEB" energy=-176.7638160764167 pbc="T T F"
Si       1.91979491       1.10839411      12.00000000  F        6      -0.00046989      -0.00025436       0.17491487
Si       5.75938473       1.10839411      12.00000000  F        6       0.00089102      -0.00165749       0.17750635
Si       9.59897455       1.10839411      12.00000000  F        6      -0.00049529      -0.00013356       0.17134638
Si       3.83958982       4.43357643      12.00000000  F        6      -0.00092514       0.00080040       0.17656336
Si       7.67917964       4.43357643      12.00000000  F        6       0.00160545       0.00004686       0.17660984
Si      11.51876947       4.43357643      12.00000000  F        6      -0.00085540       0.00073573       0.17388190
Si       1.91979491       1.10839411      14.35125897  F        5       0.00820334      -0.00169285      -0.35879650
Si       5.75938473       1.10839411      14.35125897  F        5       0.00131134      -0.00215692      -0.33642583
Si       9.59897455       1.10839411      14.35125897  F        5      -0.01086085       0.00356448      -0.33252611
Si       3.83958982       4.43357643      14.35125897  F        5       0.00479107      -0.00473624      -0.36828448
Si       7.67917964       4.43357643      14.35125897  F        5       0.00189826       0.00102812      -0.33507248
Si      11.51876947       4.43357643      14.35125897  F        5      -0.00556828       0.00576660      -0.32184952
Si      -0.00000000       2.21678822      15.13501196  F        4       0.01041669      -0.01919317       0.12557297
Si       3.83958982       2.21678822      15.13501196  F        4       0.01011854      -0.00299847       0.20585258
Si       7.67917964       2.21678822      15.13501196  F        4      -0.01177133       0.00320529       0.15232523
Si       1.91979491       5.54197054      15.13501196  F        4       0.01069960       0.00973319       0.10936820
Si       5.75938473       5.54197054      15.13501196  F        4      -0.00273417       0.00720386       0.21764086
Si       9.59897455       5.54197054      15.13501196  F        4      -0.01479732       0.01677138       0.13307323
Si       0.01021118       2.20867965      17.51126298  T        3      -0.00467675       0.01458768      -0.04857443
Si       3.84232545       2.22657462      17.52286377  T        3       0.00825854      -0.04161248      -0.05636252
Si       7.67488113       2.22406621      17.51060473  T        3      -0.00220218      -0.00888904      -0.00263818
Si       1.93167858       5.53916753      17.51181952  T        3      -0.03287263       0.01024715      -0.07189976
Si       5.75016789       5.54427758      17.52726839  T        3       0.04977070       0.00261502      -0.09083524
Si       9.59279626       5.54518184      17.51589562  T        3      -0.01034896       0.02373577      -0.10580486
Si      -0.00947873       0.00347117      18.33865186  T        2       0.02343168      -0.05228612       0.09023634
Si       3.82529747       0.01401635      18.33467981  T        2       0.01729834      -0.03733148       0.13109792
Si       7.69315658       0.00504615      18.30757267  T        2      -0.05057458      -0.06200959       0.14340803
Si       1.91631555       3.33034730      18.32496390  T        2       0.03465754       0.01653141       0.07953147
Si       5.76530496       3.32509276      18.34711493  T        2      -0.04076663       0.05358485       0.08643363
Si       9.60572517       3.31162155      18.30021098  T        2       0.00619720       0.04958858       0.08570262
Si       0.06111064      -0.13389637      20.64103092  T        1       0.38643894      -1.53539267       0.01975596
Si       3.91038284      -0.09345040      20.65991964  T        1       0.20693013      -0.84493986      -0.01522557
Si       7.63150698      -0.18476398      20.64560123  T        1      -0.47422228      -1.13370772       0.04299072
Si       2.01400754       3.37056976      20.63425832  T        1       0.69390511       0.90756726       0.02060778
Si       5.65930544       3.48240378      20.65512669  T        1      -0.83220571       1.31171783       0.00712117
Si       9.62484544       3.44731155      20.61504531  T        1       0.13295421       1.13343009      -0.10157686
F        9.08011504       5.45601434      22.57844707  T        0      -0.01348829       0.02479418       0.08474462
H       10.00849016       5.68853587      22.42123608  T        0      -0.09994202       0.15173629      -0.24041371
38
Lattice="11.518769465528859 0.0 0.0 3.839589821842953 6.650364651656328 0.0 0.0 0.0 32.62128289467409" Properties=species:S:1:pos:R:3:move_mask:L:1:tags:I:1:forces:R:3 surface=Si111 species=HF site=hollow orientation=parallel height_A=1.9 substrate_atoms=36 calculation_kind="Rigid evaluated approach scan; not NEB" energy=-177.02205658798889 pbc="T T F"
Si       1.91979491       1.10839411      12.00000000  F        6      -0.00049955      -0.00028112       0.17458412
Si       5.75938473       1.10839411      12.00000000  F        6       0.00094991      -0.00175076       0.17724736
Si       9.59897455       1.10839411      12.00000000  F        6      -0.00052746      -0.00011361       0.17105601
Si       3.83958982       4.43357643      12.00000000  F        6      -0.00094850       0.00084037       0.17603068
Si       7.67917964       4.43357643      12.00000000  F        6       0.00172018       0.00002263       0.17620986
Si      11.51876947       4.43357643      12.00000000  F        6      -0.00095893       0.00078006       0.17337530
Si       1.91979491       1.10839411      14.35125897  F        5       0.00720817      -0.00116730      -0.35703712
Si       5.75938473       1.10839411      14.35125897  F        5       0.00193634      -0.00043999      -0.33463753
Si       9.59897455       1.10839411      14.35125897  F        5      -0.01044738       0.00336414      -0.32846777
Si       3.83958982       4.43357643      14.35125897  F        5       0.00507830      -0.00475483      -0.36502357
Si       7.67917964       4.43357643      14.35125897  F        5       0.00080923      -0.00021630      -0.33330415
Si      11.51876947       4.43357643      14.35125897  F        5      -0.00483877       0.00529370      -0.31901648
Si      -0.00000000       2.21678822      15.13501196  F        4       0.01103840      -0.02100278       0.12766749
Si       3.83958982       2.21678822      15.13501196  F        4       0.01124089      -0.00484174       0.21025674
Si       7.67917964       2.21678822      15.13501196  F        4      -0.01293115       0.00175002       0.16036129
Si       1.91979491       5.54197054      15.13501196  F        4       0.01007983       0.01204020       0.10717577
Si       5.75938473       5.54197054      15.13501196  F        4      -0.00195914       0.00847545       0.21848426
Si       9.59897455       5.54197054      15.13501196  F        4      -0.01543540       0.01949676       0.13505866
Si       0.01078440       2.20868732      17.51087234  T        3      -0.00696904       0.01372262      -0.01880259
Si       3.84269183       2.22693807      17.52294736  T        3       0.00792442      -0.05254620      -0.03958511
Si       7.67449034       2.22432009      17.51105830  T        3      -0.00268945      -0.00987957       0.03262221
Si       1.93160597       5.53906912      17.51130514  T        3      -0.03586011       0.01153698      -0.05982045
Si       5.75023069       5.54426070      17.52734013  T        3       0.05832802       0.00552657      -0.08875037
Si       9.59255548       5.54575445      17.51613845  T        3      -0.01487320       0.02444728      -0.11102438
Si      -0.00932607       0.00258507      18.34008818  T        2       0.02665659      -0.06112355       0.10617591
Si       3.82526543       0.01370635      18.33811595  T        2       0.02075055      -0.04297351       0.13802250
Si       7.69248583       0.00382843      18.30941432  T        2      -0.05752939      -0.06805043       0.16967379
Si       1.91670922       3.33099880      18.32568391  T        2       0.04228809       0.01459549       0.10781230
Si       5.76496564       3.32608379      18.34921707  T        2      -0.05202341       0.06158680       0.10784718
Si       9.60626929       3.31264973      18.30005471  T        2       0.00579750       0.04647102       0.09616265
Si       0.07195854      -0.16808770      20.64687181  T        1       0.39848147      -1.75175665      -0.02267126
Si       3.91846094      -0.11375929      20.66514625  T        1       0.22628675      -0.96744155      -0.05294529
Si       7.61979016      -0.21724850      20.65075877  T        1      -0.50191620      -1.17283564       0.00930438
Si       2.03169940       3.38820738      20.63926837  T        1       0.78432238       1.08046569      -0.02275835
Si       5.63819703       3.51533618      20.66107368  T        1      -0.90479042       1.43990053      -0.04281112
Si       9.62898685       3.47504635      20.61640963  T        1       0.12647546       1.23666772      -0.13642614
F        9.07715057       5.45116336      22.58227689  T        0       0.01797361       0.06513049       0.10837312
H       10.00310774       5.70037097      22.41093649  T        0      -0.14014859       0.10906101      -0.25041992
38
Lattice="11.518769465528859 0.0 0.0 3.839589821842953 6.650364651656328 0.0 0.0 0.0 32.62128289467409" Properties=species:S:1:pos:R:3:move_mask:L:1:tags:I:1:forces:R:3 surface=Si111 species=HF site=hollow orientation=parallel height_A=1.9 substrate_atoms=36 calculation_kind="Rigid evaluated approach scan; not NEB" energy=-177.3064969661154 pbc="T T F"
Si       1.91979491       1.10839411      12.00000000  F        6      -0.00053161      -0.00028408       0.17420331
Si       5.75938473       1.10839411      12.00000000  F        6       0.00100721      -0.00178100       0.17695093
Si       9.59897455       1.10839411      12.00000000  F        6      -0.00055532      -0.00006887       0.17078698
Si       3.83958982       4.43357643      12.00000000  F        6      -0.00095088       0.00085371       0.17556523
Si       7.67917964       4.43357643      12.00000000  F        6       0.00179161      -0.00003556       0.17579394
Si      11.51876947       4.43357643      12.00000000  F        6      -0.00103875       0.00078787       0.17293265
Si       1.91979491       1.10839411      14.35125897  F        5       0.00599752      -0.00077921      -0.35476166
Si       5.75938473       1.10839411      14.35125897  F        5       0.00250097       0.00119052      -0.33262549
Si       9.59897455       1.10839411      14.35125897  F        5      -0.00976493       0.00302901      -0.32400347
Si       3.83958982       4.43357643      14.35125897  F        5       0.00531694      -0.00454629      -0.36095997
Si       7.67917964       4.43357643      14.35125897  F        5      -0.00018730      -0.00136732      -0.33132414
Si      11.51876947       4.43357643      14.35125897  F        5      -0.00416071       0.00483007      -0.31620298
Si      -0.00000000       2.21678822      15.13501196  F        4       0.01140001      -0.02264571       0.12923876
Si       3.83958982       2.21678822      15.13501196  F        4       0.01226905      -0.00691397       0.21250412
Si       7.67917964       2.21678822      15.13501196  F        4      -0.01390124       0.00019355       0.16816975
Si       1.91979491       5.54197054      15.13501196  F        4       0.00932606       0.01439453       0.10318008
Si       5.75938473       5.54197054      15.13501196  F        4      -0.00112556       0.00972337       0.21505301
Si       9.59897455       5.54197054      15.13501196  F        4      -0.01585253       0.02185550       0.13104312
Si       0.01115368       2.20878204      17.51046765  T        3      -0.00700483       0.01185624       0.01749087
Si       3.84300830       2.22685949      17.52275060  T        3       0.00785809      -0.05877093      -0.01946117
Si       7.67419023       2.22443950      17.51159830  T        3      -0.00532285      -0.01022202       0.07189840
Si       1.93132044       5.53907291      17.51054442  T        3      -0.03795932       0.01117311      -0.04453581
Si       5.75065512       5.54428441      17.52681532  T        3       0.06326582       0.00751341      -0.08378001
Si       9.59228469       5.54632743      17.51559265  T        3      -0.01775591       0.02415749      -0.10750512
Si      -0.00904245       0.00154705      18.34181687  T        2       0.02898114      -0.06885173       0.09602849
Si       3.82537709       0.01320292      18.34149790  T        2       0.02529052      -0.04887177       0.12818744
Si       7.69162690       0.00250557      18.31184877  T        2      -0.06454837      -0.07488439       0.17716883
Si       1.91726872       3.33156481      18.32690519  T        2       0.04749411       0.01236156       0.11318591
Si       5.76438219       3.32720071      18.35143817  T        2      -0.06169896       0.06805904       0.10700973
Si       9.60670048       3.31369530      18.30056655  T        2       0.00596451       0.04570340       0.08342568
Si       0.08239326      -0.20419835      20.65094876  T        1       0.39618871      -1.91539087      -0.04219090
Si       3.92577359      -0.13473345      20.66858222  T        1       0.24915718      -1.07297176      -0.07636639
Si       7.60805490      -0.24836297      20.65454928  T        1      -0.51013878      -1.16874328      -0.01645272
Si       2.04959098       3.40798405      20.64274387  T        1       0.85783606       1.22572555      -0.04617390
Si       5.61705174       3.54850992      20.66509650  T        1      -0.95403299       1.52968502      -0.07138513
Si       9.63280382       3.50314049      20.61650985  T        1       0.11271413       1.29741773      -0.14787579
F        9.07512340       5.44807823      22.58575089  T        0       0.01614699       0.09180781       0.13710564
H        9.99830438       5.70963904      22.40186041  T        0      -0.15397581       0.07481029      -0.26131823
38
Lattice="11.518769465528859 0.0 0.0 3.839589821842953 6.650364651656328 0.0 0.0 0.0 32.62128289467409" Properties=species:S:1:pos:R:3:move_mask:L:1:tags:I:1:forces:R:3 surface=Si111 species=HF site=hollow orientation=parallel height_A=1.9 substrate_atoms=36 calculation_kind="Rigid evaluated approach scan; not NEB" energy=-177.60940762717436 pbc="T T F"
Si       1.91979491       1.10839411      12.00000000  F        6      -0.00056557      -0.00026822       0.17378069
Si       5.75938473       1.10839411      12.00000000  F        6       0.00105984      -0.00175729       0.17663635
Si       9.59897455       1.10839411      12.00000000  F        6      -0.00057632      -0.00000167       0.17054878
Si       3.83958982       4.43357643      12.00000000  F        6      -0.00093678       0.00084566       0.17517898
Si       7.67917964       4.43357643      12.00000000  F        6       0.00182714      -0.00012132       0.17537480
Si      11.51876947       4.43357643      12.00000000  F        6      -0.00109775       0.00076097       0.17255418
Si       1.91979491       1.10839411      14.35125897  F        5       0.00465539      -0.00053016      -0.35207632
Si       5.75938473       1.10839411      14.35125897  F        5       0.00298522       0.00269519      -0.33052048
Si       9.59897455       1.10839411      14.35125897  F        5      -0.00888266       0.00256645      -0.31919484
Si       3.83958982       4.43357643      14.35125897  F        5       0.00548166      -0.00414035      -0.35640338
Si       7.67917964       4.43357643      14.35125897  F        5      -0.00111011      -0.00238119      -0.32924837
Si      11.51876947       4.43357643      14.35125897  F        5      -0.00349123       0.00439135      -0.31343838
Si      -0.00000000       2.21678822      15.13501196  F        4       0.01158657      -0.02413702       0.13174739
Si       3.83958982       2.21678822      15.13501196  F        4       0.01320446      -0.00908540       0.21414717
Si       7.67917964       2.21678822      15.13501196  F        4      -0.01474072      -0.00143710       0.17696303
Si       1.91979491       5.54197054      15.13501196  F        4       0.00847907       0.01670107       0.09883058
Si       5.75938473       5.54197054      15.13501196  F        4      -0.00027257       0.01090631       0.20915613
Si       9.59897455       5.54197054      15.13501196  F        4      -0.01609374       0.02390637       0.12332411
Si       0.01138341       2.20892030      17.51027293  T        3      -0.00515179       0.00943344       0.05602872
Si       3.84328571       2.22646043      17.52249342  T        3       0.00782072      -0.06142235       0.00135532
Si       7.67393953       2.22446755      17.51241154  T        3      -0.00943000      -0.01051377       0.11068099
Si       1.93089077       5.53914061      17.50972855  T        3      -0.03968316       0.00955770      -0.02926071
Si       5.75133356       5.54434543      17.52594417  T        3       0.06548327       0.00864693      -0.07861634
Si       9.59198322       5.54688741      17.51456827  T        3      -0.01904307       0.02334713      -0.09908006
Si      -0.00866634       0.00038681      18.34364081  T        2       0.03057109      -0.07576935       0.06822978
Si       3.82560581       0.01255027      18.34471940  T        2       0.03007521      -0.05456429       0.10697010
Si       7.69062283       0.00110169      18.31466102  T        2      -0.07084666      -0.08296104       0.17070130
Si       1.91795443       3.33205114      18.32845725  T        2       0.05065051       0.01055886       0.10168076
Si       5.76359640       3.32841412      18.35368651  T        2      -0.06955757       0.07344036       0.09015331
Si       9.60705090       3.31472656      18.30142615  T        2       0.00626406       0.04800464       0.05588467
Si       0.09233686      -0.24177239      20.65368915  T        1       0.38819161      -2.02993621      -0.04407362
Si       3.93257648      -0.15632781      20.67065463  T        1       0.27407635      -1.15996179      -0.08985751
Si       7.59649678      -0.27793963      20.65722947  T        1      -0.50417778      -1.13338701      -0.03661564
Si       2.06767783       3.42958910      20.64502068  T        1       0.91395599       1.33626208      -0.05370448
Si       5.59602320       3.58169199      20.66762761  T        1      -0.98849541       1.59087169      -0.08202143
Si       9.63625397       3.53125307      20.61572396  T        1       0.09538315       1.32381728      -0.14192329
F        9.07373272       5.44635246      22.58909162  T        0      -0.00935771       0.10599744       0.16890627
H        9.99389213       5.71686080      22.39369547  T        0      -0.14824068       0.04966465      -0.27279855
38
Lattice="11.518769465528859 0.0 0.0 3.839589821842953 6.650364651656328 0.0 0.0 0.0 32.62128289467409" Properties=species:S:1:pos:R:3:move_mask:L:1:tags:I:1:forces:R:3 surface=Si111 species=HF site=hollow orientation=parallel height_A=1.9 substrate_atoms=36 calculation_kind="Rigid evaluated approach scan; not NEB" energy=-177.92447186465267 pbc="T T F"
Si       1.91979491       1.10839411      12.00000000  F        6      -0.00060018      -0.00023681       0.17332306
Si       5.75938473       1.10839411      12.00000000  F        6       0.00110527      -0.00168684       0.17630760
Si       9.59897455       1.10839411      12.00000000  F        6      -0.00058940       0.00008664       0.17034233
Si       3.83958982       4.43357643      12.00000000  F        6      -0.00090963       0.00081917       0.17487102
Si       7.67917964       4.43357643      12.00000000  F        6       0.00183355      -0.00023008       0.17495173
Si      11.51876947       4.43357643      12.00000000  F        6      -0.00113925       0.00070141       0.17223355
Si       1.91979491       1.10839411      14.35125897  F        5       0.00324692      -0.00040474      -0.34907663
Si       5.75938473       1.10839411      14.35125897  F        5       0.00336716       0.00403909      -0.32844305
Si       9.59897455       1.10839411      14.35125897  F        5      -0.00784664       0.00197830      -0.31411840
Si       3.83958982       4.43357643      14.35125897  F        5       0.00554025      -0.00357285      -0.35162428
Si       7.67917964       4.43357643      14.35125897  F        5      -0.00197886      -0.00321533      -0.32720704
Si      11.51876947       4.43357643      14.35125897  F        5      -0.00278118       0.00398295      -0.31076888
Si      -0.00000000       2.21678822      15.13501196  F        4       0.01166195      -0.02549138       0.13601827
Si       3.83958982       2.21678822      15.13501196  F        4       0.01405201      -0.01128493       0.21609348
Si       7.67917964       2.21678822      15.13501196  F        4      -0.01550359      -0.00313369       0.18740210
Si       1.91979491       5.54197054      15.13501196  F        4       0.00754261       0.01888917       0.09492378
Si       5.75938473       5.54197054      15.13501196  F        4       0.00060953       0.01201047       0.20183947
Si       9.59897455       5.54197054      15.13501196  F        4      -0.01619045       0.02571933       0.11349140
Si       0.01152696       2.20907307      17.51042480  T        3      -0.00197098       0.00711043       0.09305553
Si       3.84353342       2.22583843      17.52230934  T        3       0.00746803      -0.06162976       0.02092704
Si       7.67370317       2.22443274      17.51360238  T        3      -0.01408688      -0.01130642       0.14550813
Si       1.93036112       5.53924156      17.50896689  T        3      -0.04137049       0.00707061      -0.01622627
Si       5.75218482       5.54443659      17.52488005  T        3       0.06571303       0.00914635      -0.07485124
Si       9.59165819       5.54742746      17.51328184  T        3      -0.01897005       0.02233937      -0.08856344
Si      -0.00822478      -0.00087721      18.34535848  T        2       0.03179636      -0.08256083       0.03143916
Si       3.82593516       0.01177599      18.34768150  T        2       0.03449751      -0.05968616       0.07885771
Si       7.68950101      -0.00038160      18.31765626  T        2      -0.07598361      -0.09209121       0.15483065
Si       1.91873256       3.33246871      18.33014985  T        2       0.05266406       0.00992812       0.07951834
Si       5.76264373       3.32970535      18.35583587  T        2      -0.07569864       0.07831926       0.06389226
Si       9.60734466       3.31574764      18.30236131  T        2       0.00627198       0.05357968       0.02141784
Si       0.10178700      -0.28046330      20.65549371  T        1       0.38200363      -2.10598354      -0.03407303
Si       3.93908677      -0.17852871      20.67172001  T        1       0.29933744      -1.22864347      -0.09679217
Si       7.58523182      -0.30593594      20.65902875  T        1      -0.49016277      -1.08215059      -0.05267224
Si       2.08596773       3.45273148      20.64642948  T        1       0.95548874       1.41034514      -0.04978238
Si       5.57515099       3.61479189      20.66907560  T        1      -1.01704590       1.63419284      -0.07914951
Si       9.63932477       3.55916893      20.61438803  T        1       0.07793981       1.32979443      -0.12493464
F        9.07264897       5.44563034      22.59247035  T        0      -0.04631387       0.11113568       0.20147938
H        9.98982597       5.72249431      22.38617905  T        0      -0.13299747       0.03212019      -0.28444063
38
Lattice="11.518769465528859 0.0 0.0 3.839589821842953 6.650364651656328 0.0 0.0 0.0 32.62128289467409" Properties=species:S:1:pos:R:3:move_mask:L:1:tags:I:1:forces:R:3 surface=Si111 species=HF site=hollow orientation=parallel height_A=1.9 substrate_atoms=36 calculation_kind="Rigid evaluated approach scan; not NEB" energy=-178.24750634376974 pbc="T T F"
Si       1.91979491       1.10839411      12.00000000  F        6      -0.00063423      -0.00019098       0.17283927
Si       5.75938473       1.10839411      12.00000000  F        6       0.00114272      -0.00157538       0.17595690
Si       9.59897455       1.10839411      12.00000000  F        6      -0.00059513       0.00019582       0.17015966
Si       3.83958982       4.43357643      12.00000000  F        6      -0.00087223       0.00077522       0.17462896
Si       7.67917964       4.43357643      12.00000000  F        6       0.00181778      -0.00035980       0.17451774
Si      11.51876947       4.43357643      12.00000000  F        6      -0.00116739       0.00061162       0.17196275
Si       1.91979491       1.10839411      14.35125897  F        5       0.00182607      -0.00037126      -0.34583747
Si       5.75938473       1.10839411      14.35125897  F        5       0.00362205       0.00518771      -0.32647999
Si       9.59897455       1.10839411      14.35125897  F        5      -0.00668753       0.00127047      -0.30886194
Si       3.83958982       4.43357643      14.35125897  F        5       0.00545886      -0.00288912      -0.34682128
Si       7.67917964       4.43357643      14.35125897  F        5      -0.00280369      -0.00383062      -0.32530540
Si      11.51876947       4.43357643      14.35125897  F        5      -0.00198822       0.00359920      -0.30822591
Si      -0.00000000       2.21678822      15.13501196  F        4       0.01169074      -0.02672415       0.14248124
Si       3.83958982       2.21678822      15.13501196  F        4       0.01481038      -0.01348424       0.21881520
Si       7.67917964       2.21678822      15.13501196  F        4      -0.01624620      -0.00488170       0.19978283
Si       1.91979491       5.54197054      15.13501196  F        4       0.00649906       0.02089785       0.09181713
Si       5.75938473       5.54197054      15.13501196  F        4       0.00156123       0.01304350       0.19365211
Si       9.59897455       5.54197054      15.13501196  F        4      -0.01616704       0.02735315       0.10260152
Si       0.01162571       2.20922330      17.51099572  T        3       0.00189774       0.00559615       0.12543520
Si       3.84375710       2.22506654      17.52227293  T        3       0.00648352      -0.06037721       0.03788108
Si       7.67345560       2.22435102      17.51521510  T        3      -0.01834570      -0.01302148       0.17401562
Si       1.92975829       5.53935247      17.50831212  T        3      -0.04317671       0.00411637      -0.00671238
Si       5.75314988       5.54455028      17.52370945  T        3       0.06446863       0.00925288      -0.07312002
Si       9.59131972       5.54794483      17.51187611  T        3      -0.01782389       0.02130656      -0.07796316
Si      -0.00773541      -0.00223658      18.34680980  T        2       0.03299911      -0.09003311      -0.00601322
Si       3.82635301       0.01089863      18.35030511  T        2       0.03836684      -0.06393207       0.04740346
Si       7.68828127      -0.00195329      18.32067737  T        2      -0.07985746      -0.10146431       0.13355536
Si       1.91957840       3.33283273      18.33181797  T        2       0.05450579       0.01093931       0.05221160
Si       5.76155314       3.33106447      18.35777233  T        2      -0.08046993       0.08324774       0.03498820
Si       9.60759726       3.31678146      18.30317256  T        2       0.00579688       0.06202856      -0.01323448
Si       0.11079664      -0.32000795      20.65668945  T        1       0.37974292      -2.15568088      -0.01863245
Si       3.94547094      -0.20131866      20.67205002  T        1       0.32346359      -1.28047423      -0.09975263
Si       7.57432134      -0.33238435      20.66012932  T        1      -0.47350330      -1.03049557      -0.06535609
Si       2.10446486       3.47712328      20.64724934  T        1       0.98799770       1.45222664      -0.03848475
Si       5.55440190       3.64780110      20.66978106  T        1      -1.04506351       1.66605872      -0.06827720
Si       9.64202597       3.58677074      20.61276660  T        1       0.06241497       1.33085987      -0.10299942
F        9.07160346       5.44562987      22.59600979  T        0      -0.08463945       0.11099312       0.23309672
H        9.98610315       5.72690622      22.37910809  T        0      -0.11652498       0.02022564      -0.29572478
38
Lattice="11.518769465528859 0.0 0.0 3.839589821842953 6.650364651656328 0.0 0.0 0.0 32.62128289467409" Properties=species:S:1:pos:R:3:move_mask:L:1:tags:I:1:forces:R:3 surface=Si111 species=HF site=hollow orientation=parallel height_A=1.9 substrate_atoms=36 calculation_kind="Rigid evaluated approach scan; not NEB" energy=-178.57618302339753 pbc="T T F"
Si       1.91979491       1.10839411      12.00000000  F        6      -0.00066749      -0.00012914       0.17234193
Si       5.75938473       1.10839411      12.00000000  F        6       0.00117376      -0.00142810       0.17556880
Si       9.59897455       1.10839411      12.00000000  F        6      -0.00059540       0.00032635       0.16998557
Si       3.83958982       4.43357643      12.00000000  F        6      -0.00082781       0.00071338       0.17442860
Si       7.67917964       4.43357643      12.00000000  F        6       0.00178797      -0.00051094       0.17406607
Si      11.51876947       4.43357643      12.00000000  F        6      -0.00118697       0.00049451       0.17173405
Si       1.91979491       1.10839411      14.35125897  F        5       0.00045008      -0.00038545      -0.34241425
Si       5.75938473       1.10839411      14.35125897  F        5       0.00372878       0.00610493      -0.32467400
Si       9.59897455       1.10839411      14.35125897  F        5      -0.00544324       0.00046604      -0.30352949
Si       3.83958982       4.43357643      14.35125897  F        5       0.00521039      -0.00214839      -0.34210296
Si       7.67917964       4.43357643      14.35125897  F        5      -0.00358018      -0.00419675      -0.32359576
Si      11.51876947       4.43357643      14.35125897  F        5      -0.00108764       0.00322694      -0.30580960
Si      -0.00000000       2.21678822      15.13501196  F        4       0.01176353      -0.02784941       0.15133129
Si       3.83958982       2.21678822      15.13501196  F        4       0.01545164      -0.01568146       0.22249621
Si       7.67917964       2.21678822      15.13501196  F        4      -0.01702384      -0.00664833       0.21414737
Si       1.91979491       5.54197054      15.13501196  F        4       0.00532255       0.02266105       0.08959547
Si       5.75938473       5.54197054      15.13501196  F        4       0.00263655       0.01403479       0.18487943
Si       9.59897455       5.54197054      15.13501196  F        4      -0.01604814       0.02884293       0.09133943
Si       0.01171006       2.20936407      17.51200953  T        3       0.00581418       0.00540730       0.15086853
Si       3.84395820       2.22419791      17.52241918  T        3       0.00474013      -0.05841126       0.05137859
Si       7.67318168       2.22422858      17.51724999  T        3      -0.02145959      -0.01586668       0.19491585
Si       1.92909819       5.53945632      17.50777987  T        3      -0.04502751       0.00120569      -0.00109112
Si       5.75418524       5.54467988      17.52247692  T        3       0.06204093       0.00910983      -0.07319724
Si       9.59097860       5.54843896      17.51044128  T        3      -0.01586738       0.02031977      -0.06873919
Si      -0.00720898      -0.00369141      18.34789353  T        2       0.03432778      -0.09879789      -0.03674679
Si       3.82684936       0.00993289      18.35253208  T        2       0.04191229      -0.06705579       0.01538387
Si       7.68698015      -0.00362325      18.32360476  T        2      -0.08264412      -0.10992049       0.11018351
Si       1.92047668       3.33316178      18.33333537  T        2       0.05685048       0.01360176       0.02420161
Si       5.76034810       3.33248792      18.35941603  T        2      -0.08439781       0.08862966       0.01021739
Si       9.60781734       3.31785826      18.30373294  T        2       0.00497338       0.07235233      -0.04288607
Si       0.11944153      -0.36019917      20.65751946  T        1       0.37685851      -2.18860795      -0.00481094
Si       3.95184662      -0.22465654      20.67184418  T        1       0.34572297      -1.31770349      -0.10078368
Si       7.56378987      -0.35737462      20.66067166  T        1      -0.45780898      -0.99042271      -0.07487044
Si       2.12317097       3.50247732      20.64770024  T        1       1.01812311       1.47098299      -0.02335318
Si       5.53370899       3.68073699      20.67000741  T        1      -1.07254853       1.68642778      -0.05593768
Si       9.64438135       3.61402498      20.61105150  T        1       0.04891199       1.33969387      -0.08142001
F        9.07041377       5.44613973      22.59979168  T        0      -0.11770823       0.10876298       0.26291311
H        9.98271669       5.73037767      22.37233400  T        0      -0.10387814       0.01239931      -0.30601428
38
Lattice="11.518769465528859 0.0 0.0 3.839589821842953 6.650364651656328 0.0 0.0 0.0 32.62128289467409" Properties=species:S:1:pos:R:3:move_mask:L:1:tags:I:1:forces:R:3 surface=Si111 species=HF site=hollow orientation=parallel height_A=1.9 substrate_atoms=36 calculation_kind="Rigid evaluated approach scan; not NEB" energy=-178.90923836013022 pbc="T T F"
Si       1.91979491       1.10839411      12.00000000  F        6      -0.00070116      -0.00004693       0.17184367
Si       5.75938473       1.10839411      12.00000000  F        6       0.00120212      -0.00125058       0.17512330
Si       9.59897455       1.10839411      12.00000000  F        6      -0.00059258       0.00047851       0.16979950
Si       3.83958982       4.43357643      12.00000000  F        6      -0.00078104       0.00063245       0.17423290
Si       7.67917964       4.43357643      12.00000000  F        6       0.00175370      -0.00068563       0.17359228
Si      11.51876947       4.43357643      12.00000000  F        6      -0.00120281       0.00035343       0.17153830
Si       1.91979491       1.10839411      14.35125897  F        5      -0.00081301      -0.00040482      -0.33885490
Si       5.75938473       1.10839411      14.35125897  F        5       0.00367892       0.00675415      -0.32302903
Si       9.59897455       1.10839411      14.35125897  F        5      -0.00417617      -0.00038846      -0.29824828
Si       3.83958982       4.43357643      14.35125897  F        5       0.00478797      -0.00141957      -0.33748776
Si       7.67917964       4.43357643      14.35125897  F        5      -0.00429113      -0.00429652      -0.32206763
Si      11.51876947       4.43357643      14.35125897  F        5      -0.00008315       0.00285570      -0.30350242
Si      -0.00000000       2.21678822      15.13501196  F        4       0.01200640      -0.02888323       0.16261572
Si       3.83958982       2.21678822      15.13501196  F        4       0.01591343      -0.01788670       0.22715293
Si       7.67917964       2.21678822      15.13501196  F        4      -0.01788527      -0.00838376       0.23036025
Si       1.91979491       5.54197054      15.13501196  F        4       0.00399309       0.02411025       0.08820078
Si       5.75938473       5.54197054      15.13501196  F        4       0.00388492       0.01503394       0.17574460
Si       9.59897455       5.54197054      15.13501196  F        4      -0.01586345       0.03020041       0.08012744
Si       0.01180072       2.20949668      17.51345160  T        3       0.00922791       0.00659892       0.16818864
Si       3.84413466       2.22327061      17.52275606  T        3       0.00242707      -0.05612535       0.06113731
Si       7.67287604       2.22406466      17.51967500  T        3      -0.02309794      -0.01975321       0.20792220
Si       1.92839073       5.53954205      17.50736266  T        3      -0.04657948      -0.00103525       0.00101285
Si       5.75525753       5.54481994      17.52120328  T        3       0.05850506       0.00868702      -0.07416660
Si       9.59064521       5.54891030      17.50903026  T        3      -0.01332498       0.01938016      -0.06196019
Si      -0.00665166      -0.00524870      18.34857349  T        2       0.03570133      -0.10897569      -0.05554805
Si       3.82741637       0.00889273      18.35432482  T        2       0.04553287      -0.06898621      -0.01503965
Si       7.68561225      -0.00539565      18.32635276  T        2      -0.08466390      -0.11635620       0.08718688
Si       1.92142015       3.33347595      18.33461658  T        2       0.05998418       0.01752600      -0.00123136
Si       5.75904703       3.33397665      18.36073427  T        2      -0.08807937       0.09467531      -0.00460171
Si       9.60800953       3.31900753      18.30398061  T        2       0.00413898       0.08320592      -0.06431983
Si       0.12778061      -0.40086806      20.65814174  T        1       0.36486872      -2.20935841       0.00095881
Si       3.95829171      -0.24847559      20.67124616  T        1       0.36646106      -1.34304027      -0.10156156
Si       7.55363655      -0.38105022      20.66076619  T        1      -0.44457614      -0.96793250      -0.08116359
Si       2.14209717       3.52852573      20.64794807  T        1       1.05081440       1.47699837      -0.00742261
Si       5.51300632       3.71359837      20.66993944  T        1      -1.09493500       1.69037088      -0.04863820
Si       9.64641948       3.64097472      20.60936812  T        1       0.03602633       1.36298769      -0.06421342
F        9.06897967       5.44700808      22.60386639  T        0      -0.14227178       0.10667164       0.29092484
H        9.97964038       5.73312183      22.36575294  T        0      -0.09699011       0.00768856      -0.31460639
38
Lattice="11.518769465528859 0.0 0.0 3.839589821842953 6.650364651656328 0.0 0.0 0.0 32.62128289467409" Properties=species:S:1:pos:R:3:move_mask:L:1:tags:I:1:forces:R:3 surface=Si111 species=HF site=hollow orientation=parallel height_A=1.9 substrate_atoms=36 calculation_kind="Rigid evaluated approach scan; not NEB" energy=-179.24554309755868 pbc="T T F"
Si       1.91979491       1.10839411      12.00000000  F        6      -0.00073723       0.00006120       0.17134698
Si       5.75938473       1.10839411      12.00000000  F        6       0.00123230      -0.00104923       0.17459817
Si       9.59897455       1.10839411      12.00000000  F        6      -0.00058896       0.00065132       0.16957723
Si       3.83958982       4.43357643      12.00000000  F        6      -0.00073791       0.00053139       0.17399271
Si       7.67917964       4.43357643      12.00000000  F        6       0.00172478      -0.00088575       0.17309016
Si      11.51876947       4.43357643      12.00000000  F        6      -0.00121859       0.00019221       0.17136099
Si       1.91979491       1.10839411      14.35125897  F        5      -0.00189402      -0.00041138      -0.33522034
Si       5.75938473       1.10839411      14.35125897  F        5       0.00348209       0.00710376      -0.32153155
Si       9.59897455       1.10839411      14.35125897  F        5      -0.00296823      -0.00123333      -0.29316594
Si       3.83958982       4.43357643      14.35125897  F        5       0.00421799      -0.00076494      -0.33293240
Si       7.67917964       4.43357643      14.35125897  F        5      -0.00491450      -0.00412673      -0.32066350
Si      11.51876947       4.43357643      14.35125897  F        5       0.00098619       0.00249266      -0.30131022
Si      -0.00000000       2.21678822      15.13501196  F        4       0.01255527      -0.02985611       0.17626490
Si       3.83958982       2.21678822      15.13501196  F        4       0.01612839      -0.02010843       0.23274102
Si       7.67917964       2.21678822      15.13501196  F        4      -0.01887313      -0.01003245       0.24818347
Si       1.91979491       5.54197054      15.13501196  F        4       0.00251271       0.02520602       0.08752947
Si       5.75938473       5.54197054      15.13501196  F        4       0.00532901       0.01609518       0.16655951
Si       9.59897455       5.54197054      15.13501196  F        4      -0.01564429       0.03142564       0.06919130
Si       0.01190998       2.20962788      17.51527843  T        3       0.01179988       0.00859338       0.17755655
Si       3.84428288       2.22231177      17.52327347  T        3       0.00004388      -0.05350437       0.06736354
Si       7.67254093       2.22385436      17.52243622  T        3      -0.02348678      -0.02423582       0.21360375
Si       1.92764361       5.53960487      17.50704023  T        3      -0.04729403      -0.00200045       0.00033818
Si       5.75633976       5.54496564      17.51989845  T        3       0.05379796       0.00783219      -0.07487811
Si       9.59032892       5.54935972      17.50766852  T        3      -0.01042267       0.01842187      -0.05833400
Si      -0.00606722      -0.00692003      18.34887533  T        2       0.03695609      -0.12011580      -0.06056822
Si       3.82804919       0.00779217      18.35566591  T        2       0.04936779      -0.07001417      -0.04223674
Si       7.68419007      -0.00726602      18.32886586  T        2      -0.08616677      -0.12009189       0.06614273
Si       1.92240767       3.33379463      18.33561450  T        2       0.06396808       0.02223141      -0.02180996
Si       5.75766299       3.33553498      18.36174721  T        2      -0.09197749       0.10138070      -0.00628573
Si       9.60817716       3.32025251      18.30390763  T        2       0.00356044       0.09333951      -0.07647975
Si       0.13582303      -0.44187408      20.65863289  T        1       0.33595062      -2.21558533      -0.00518215
Si       3.96485798      -0.27269565      20.67035658  T        1       0.38706659      -1.35924144      -0.10349143
Si       7.54384307      -0.40360154      20.66050342  T        1      -0.43352868      -0.96288402      -0.08420439
Si       2.16127419       3.55504692      20.64811128  T        1       1.08657783       1.47726243       0.00674238
Si       5.49225546       3.74633864      20.66968442  T        1      -1.10551915       1.67107028      -0.05089804
Si       9.64816457       3.66772848      20.60778380  T        1       0.02190174       1.40068010      -0.05379424
F        9.06726662       5.44813049      22.60826352  T        0      -0.15769658       0.10587705       0.31763186
H        9.97682956       5.73530207      22.35929538  T        0      -0.09549061       0.00569335      -0.32082820
38
Lattice="11.518769465528859 0.0 0.0 3.839589821842953 6.650364651656328 0.0 0.0 0.0 32.62128289467409" Properties=species:S:1:pos:R:3:move_mask:L:1:tags:I:1:forces:R:3 surface=Si111 species=HF site=hollow orientation=parallel height_A=1.9 substrate_atoms=36 calculation_kind="Rigid evaluated approach scan; not NEB" energy=-179.58327327604067 pbc="T T F"
Si       1.91979491       1.10839411      12.00000000  F        6      -0.00077669       0.00019881       0.17083525
Si       5.75938473       1.10839411      12.00000000  F        6       0.00126742      -0.00083081       0.17397302
Si       9.59897455       1.10839411      12.00000000  F        6      -0.00058636       0.00084187       0.16929496
Si       3.83958982       4.43357643      12.00000000  F        6      -0.00070385       0.00041028       0.17365498
Si       7.67917964       4.43357643      12.00000000  F        6       0.00170816      -0.00111047       0.17254726
Si      11.51876947       4.43357643      12.00000000  F        6      -0.00123589       0.00001512       0.17118038
Si       1.91979491       1.10839411      14.35125897  F        5      -0.00274170      -0.00042755      -0.33160818
Si       5.75938473       1.10839411      14.35125897  F        5       0.00316361       0.00713385      -0.32018215
Si       9.59897455       1.10839411      14.35125897  F        5      -0.00189764      -0.00201948      -0.28843425
Si       3.83958982       4.43357643      14.35125897  F        5       0.00356015      -0.00022069      -0.32839732
Si       7.67917964       4.43357643      14.35125897  F        5      -0.00543237      -0.00369596      -0.31932024
Si      11.51876947       4.43357643      14.35125897  F        5       0.00205141       0.00217399      -0.29929935
Si      -0.00000000       2.21678822      15.13501196  F        4       0.01349775      -0.03082402       0.19207708
Si       3.83958982       2.21678822      15.13501196  F        4       0.01608483      -0.02233927       0.23921001
Si       7.67917964       2.21678822      15.13501196  F        4      -0.02002912      -0.01154661       0.26734089
Si       1.91979491       5.54197054      15.13501196  F        4       0.00091654       0.02598232       0.08746471
Si       5.75938473       5.54197054      15.13501196  F        4       0.00694314       0.01724471       0.15773487
Si       9.59897455       5.54197054      15.13501196  F        4      -0.01540989       0.03252098       0.05860318
Si       0.01204331       2.20976577      17.51742898  T        3       0.01352060       0.01027398       0.18035928
Si       3.84440014       2.22134116      17.52395061  T        3      -0.00177976      -0.05026604       0.07055686
Si       7.67218262       2.22359168      17.52546851  T        3      -0.02337940      -0.02853260       0.21317443
Si       1.92686498       5.53964652      17.50678688  T        3      -0.04667644      -0.00134698      -0.00245329
Si       5.75740901       5.54511194      17.51856936  T        3       0.04793760       0.00645969      -0.07461793
Si       9.59003753       5.54978813      17.50636039  T        3      -0.00743971       0.01731539      -0.05815853
Si      -0.00545829      -0.00871889      18.34887243  T        2       0.03813484      -0.13151176      -0.05318012
Si       3.82874579       0.00664383      18.35655700  T        2       0.05298869      -0.07087612      -0.06513660
Si       7.68272330      -0.00922200      18.33111461  T        2      -0.08716079      -0.12103344       0.04789916
Si       1.92344262       3.33413495      18.33631590  T        2       0.06883744       0.02746871      -0.03603389
Si       5.75620320       3.33716991      18.36252232  T        2      -0.09620858       0.10855018       0.00463730
Si       9.60832377       3.32160788      18.30354525  T        2       0.00323257       0.10194180      -0.08012454
Si       0.14351465      -0.48309428      20.65900022  T        1       0.28630538      -2.19787206      -0.02353414
Si       3.97158718      -0.29724388      20.66924151  T        1       0.40955230      -1.36856809      -0.10775084
Si       7.53437944      -0.42525231      20.65996035  T        1      -0.42322398      -0.97119765      -0.08420641
Si       2.18075230       3.58188316      20.64826708  T        1       1.12058300       1.47255234       0.01715564
Si       5.47145864       3.77885980      20.66928016  T        1      -1.09779617       1.62190956      -0.06365835
Si       9.64963036       3.69444330      20.60631794  T        1       0.00487984       1.44821957      -0.05100603
F        9.06528508       5.44943900      22.61300258  T        0      -0.16489819       0.10655017       0.34356080
H        9.97422871       5.73704703      22.35291597  T        0      -0.09778877       0.00645629      -0.32415789
38
Lattice="11.518769465528859 0.0 0.0 3.839589821842953 6.650364651656328 0.0 0.0 0.0 32.62128289467409" Properties=species:S:1:pos:R:3:move_mask:L:1:tags:I:1:forces:R:3 surface=Si111 species=HF site=hollow orientation=parallel height_A=1.9 substrate_atoms=36 calculation_kind="Rigid evaluated approach scan; not NEB" energy=-179.91953430274515 pbc="T T F"
Si       1.91979491       1.10839411      12.00000000  F        6      -0.00081809       0.00036448       0.17027951
Si       5.75938473       1.10839411      12.00000000  F        6       0.00130737      -0.00060091       0.17323882
Si       9.59897455       1.10839411      12.00000000  F        6      -0.00058596       0.00104576       0.16893982
Si       3.83958982       4.43357643      12.00000000  F        6      -0.00068104       0.00027081       0.17318264
Si       7.67917964       4.43357643      12.00000000  F        6       0.00170484      -0.00135491       0.17195005
Si      11.51876947       4.43357643      12.00000000  F        6      -0.00125366      -0.00017386       0.17097294
Si       1.91979491       1.10839411      14.35125897  F        5      -0.00333463      -0.00051105      -0.32815843
Si       5.75938473       1.10839411      14.35125897  F        5       0.00275568       0.00684174      -0.31901636
Si       9.59897455       1.10839411      14.35125897  F        5      -0.00101663      -0.00272652      -0.28417922
Si       3.83958982       4.43357643      14.35125897  F        5       0.00288979       0.00021241      -0.32392517
Si       7.67917964       4.43357643      14.35125897  F        5      -0.00583905      -0.00302203      -0.31801447
Si      11.51876947       4.43357643      14.35125897  F        5       0.00303693       0.00195797      -0.29758559
Si      -0.00000000       2.21678822      15.13501196  F        4       0.01482142      -0.03186028       0.20967945
Si       3.83958982       2.21678822      15.13501196  F        4       0.01586827      -0.02454453       0.24646631
Si       7.67917964       2.21678822      15.13501196  F        4      -0.02139147      -0.01289525       0.28752976
Si       1.91979491       5.54197054      15.13501196  F        4      -0.00073129       0.02655992       0.08782499
Si       5.75938473       5.54197054      15.13501196  F        4       0.00864375       0.01844913       0.14958620
Si       9.59897455       5.54197054      15.13501196  F        4      -0.01515227       0.03349591       0.04831954
Si       0.01220165       2.20991522      17.51983755  T        3       0.01470917       0.01039228       0.17874032
Si       3.84448670       2.22037413      17.52476206  T        3      -0.00251624      -0.04616414       0.07132124
Si       7.67180704       2.22327241      17.52870604  T        3      -0.02380868      -0.03169106       0.20823315
Si       1.92606473       5.53967451      17.50657558  T        3      -0.04454214       0.00083012      -0.00690382
Si       5.75844564       5.54525340      17.51722286  T        3       0.04126506       0.00470990      -0.07349199
Si       9.58977672       5.55019618      17.50509405  T        3      -0.00469942       0.01588508      -0.06129546
Si      -0.00482617      -0.01065896      18.34866511  T        2       0.03970722      -0.14277559      -0.03614487
Si       3.82950502       0.00545575      18.35701579  T        2       0.05554756      -0.07259000      -0.08323166
Si       7.68121876      -0.01124685      18.33309077  T        2      -0.08743914      -0.11959996       0.03289692
Si       1.92453251       3.33451197      18.33673577  T        2       0.07461972       0.03328019      -0.04307288
Si       5.75466934       3.33889088      18.36315770  T        2      -0.10054485       0.11593267       0.02461363
Si       9.60845303       3.32308065      18.30294766  T        2       0.00292317       0.10868684      -0.07696740
Si       0.15074603      -0.52440600      20.65920214  T        1       0.21764829      -2.14554227      -0.05192251
Si       3.97852697      -0.32207658      20.66793777  T        1       0.43595685      -1.37246272      -0.11526015
Si       7.52520851      -0.44624479      20.65920307  T        1      -0.41177246      -0.98739424      -0.08175595
Si       2.20058980       3.60893950      20.64845733  T        1       1.14469433       1.45900732       0.02255257
Si       5.45065842       3.81102090      20.66871270  T        1      -1.06791950       1.53948497      -0.08460598
Si       9.65081691       3.72130911      20.60495351  T        1      -0.01666049       1.50026020      -0.05549492
F        9.06307075       5.45089220      22.61810248  T        0      -0.16537456       0.10812111       0.36887394
H        9.97177971       5.73846206      22.34658405  T        0      -0.10201789       0.01012051      -0.32417496
38
Lattice="11.518769465528859 0.0 0.0 3.839589821842953 6.650364651656328 0.0 0.0 0.0 32.62128289467409" Properties=species:S:1:pos:R:3:move_mask:L:1:tags:I:1:forces:R:3 surface=Si111 species=HF site=hollow orientation=parallel height_A=1.9 substrate_atoms=36 calculation_kind="Rigid evaluated approach scan; not NEB" energy=-180.25071293472172 pbc="T T F"
Si       1.91979491       1.10839411      12.00000000  F        6      -0.00085784       0.00055241       0.16966535
Si       5.75938473       1.10839411      12.00000000  F        6       0.00134882      -0.00036217       0.17241044
Si       9.59897455       1.10839411      12.00000000  F        6      -0.00058808       0.00125918       0.16852521
Si       3.83958982       4.43357643      12.00000000  F        6      -0.00066740       0.00011517       0.17257986
Si       7.67917964       4.43357643      12.00000000  F        6       0.00170956      -0.00161169       0.17130159
Si      11.51876947       4.43357643      12.00000000  F        6      -0.00126890      -0.00037272       0.17072555
Si       1.91979491       1.10839411      14.35125897  F        5      -0.00368250      -0.00072710      -0.32500481
Si       5.75938473       1.10839411      14.35125897  F        5       0.00228954       0.00625059      -0.31808266
Si       9.59897455       1.10839411      14.35125897  F        5      -0.00034028      -0.00335931      -0.28045455
Si       3.83958982       4.43357643      14.35125897  F        5       0.00227102       0.00056485      -0.31966372
Si       7.67917964       4.43357643      14.35125897  F        5      -0.00615090      -0.00213485      -0.31677247
Si      11.51876947       4.43357643      14.35125897  F        5       0.00389659       0.00189198      -0.29626214
Si      -0.00000000       2.21678822      15.13501196  F        4       0.01641784      -0.03302151       0.22851243
Si       3.83958982       2.21678822      15.13501196  F        4       0.01562831      -0.02666150       0.25428694
Si       7.67917964       2.21678822      15.13501196  F        4      -0.02297530      -0.01406736       0.30836824
Si       1.91979491       5.54197054      15.13501196  F        4      -0.00235840       0.02709428       0.08830380
Si       5.75938473       5.54197054      15.13501196  F        4       0.01030091       0.01961392       0.14207420
Si       9.59897455       5.54197054      15.13501196  F        4      -0.01483657       0.03436130       0.03822209
Si       0.01238421       2.21007439      17.52244518  T        3       0.01580049       0.00806450       0.17488268
Si       3.84454677       2.21942349      17.52568234  T        3      -0.00182473      -0.04113505       0.07030735
Si       7.67141571       2.22289667      17.53209064  T        3      -0.02569958      -0.03289582       0.20043577
Si       1.92525420       5.53970012      17.50637985  T        3      -0.04105098       0.00405801      -0.01252485
Si       5.75943377       5.54538477      17.51586453  T        3       0.03441505       0.00287853      -0.07219145
Si       9.58954949       5.55058379      17.50384601  T        3      -0.00245628       0.01392054      -0.06725347
Si      -0.00416890      -0.01275486      18.34836255  T        2       0.04241457      -0.15409524      -0.01170593
Si       3.83032400       0.00422809      18.35707126  T        2       0.05635075      -0.07611439      -0.09632743
Si       7.67968098      -0.01332368      18.33480226  T        2      -0.08679504      -0.11651074       0.02143943
Si       1.92568892       3.33494009      18.33691105  T        2       0.08125480       0.03980932      -0.04261964
Si       5.75305870       3.34070974      18.36376080  T        2      -0.10467049       0.12337897       0.04902962
Si       9.60856788       3.32467285      18.30217796  T        2       0.00236636       0.11361899      -0.06880276
Si       0.15737486      -0.56566966      20.65916901  T        1       0.13550970      -2.05320712      -0.08784181
Si       3.98574288      -0.34719178      20.66645666  T        1       0.46781819      -1.37182492      -0.12654334
Si       7.51629102      -0.46682586      20.65828706  T        1      -0.39764226      -1.00573057      -0.07778089
Si       2.22083473       3.63616687      20.64869504  T        1       1.15112453       1.43254343       0.02229854
Si       5.42992886       3.84265241      20.66793846  T        1      -1.01548060       1.42512927      -0.11007505
Si       9.65170755       3.74853860      20.60364848  T        1      -0.04435886       1.55241617      -0.06623612
F        9.06066948       5.45246654      22.62358777  T        0      -0.16055104       0.10972322       0.39317449
H        9.96942827       5.73963702      22.34027710  T        0      -0.10666099       0.01658743      -0.32040049
38
Lattice="11.518769465528859 0.0 0.0 3.839589821842953 6.650364651656328 0.0 0.0 0.0 32.62128289467409" Properties=species:S:1:pos:R:3:move_mask:L:1:tags:I:1:forces:R:3 surface=Si111 species=HF site=hollow orientation=parallel height_A=1.9 substrate_atoms=36 calculation_kind="Rigid evaluated approach scan; not NEB" energy=-180.5728796407097 pbc="T T F"
Si       1.91979491       1.10839411      12.00000000  F        6      -0.00089229       0.00075679       0.16901753
Si       5.75938473       1.10839411      12.00000000  F        6       0.00138706      -0.00011370       0.17153153
Si       9.59897455       1.10839411      12.00000000  F        6      -0.00059186       0.00148135       0.16809729
Si       3.83958982       4.43357643      12.00000000  F        6      -0.00065839      -0.00005603       0.17190373
Si       7.67917964       4.43357643      12.00000000  F        6       0.00171426      -0.00187440       0.17063583
Si      11.51876947       4.43357643      12.00000000  F        6      -0.00127826      -0.00058308       0.17044291
Si       1.91979491       1.10839411      14.35125897  F        5      -0.00382642      -0.00111213      -0.32218136
Si       5.75938473       1.10839411      14.35125897  F        5       0.00179371       0.00542134      -0.31738108
Si       9.59897455       1.10839411      14.35125897  F        5       0.00015748      -0.00392944      -0.27719459
Si       3.83958982       4.43357643      14.35125897  F        5       0.00173477       0.00088826      -0.31579560
Si       7.67917964       4.43357643      14.35125897  F        5      -0.00641211      -0.00108785      -0.31563504
Si      11.51876947       4.43357643      14.35125897  F        5       0.00464125       0.00197196      -0.29531626
Si      -0.00000000       2.21678822      15.13501196  F        4       0.01814672      -0.03430384       0.24789331
Si       3.83958982       2.21678822      15.13501196  F        4       0.01548227      -0.02861605       0.26230861
Si       7.67917964       2.21678822      15.13501196  F        4      -0.02474415      -0.01507358       0.32935661
Si       1.91979491       5.54197054      15.13501196  F        4      -0.00390650       0.02767998       0.08851625
Si       5.75938473       5.54197054      15.13501196  F        4       0.01176915       0.02061773       0.13474602
Si       9.59897455       5.54197054      15.13501196  F        4      -0.01442324       0.03511960       0.02815437
Si       0.01259072       2.21023328      17.52520656  T        3       0.01705574       0.00305316       0.17034451
Si       3.84458869       2.21850063      17.52668872  T        3       0.00047900      -0.03530465       0.06808016
Si       7.67100333       2.22247025      17.53557640  T        3      -0.02951463      -0.03176908       0.19113608
Si       1.92444520       5.53973591      17.50617480  T        3      -0.03648880       0.00771775      -0.01863663
Si       5.76036211       5.54550190      17.51449617  T        3       0.02799962       0.00124379      -0.07155338
Si       9.58935624       5.55094950      17.50258533  T        3      -0.00076158       0.01119372      -0.07535765
Si      -0.00347905      -0.01502450      18.34807397  T        2       0.04664764      -0.16573000       0.01881494
Si       3.83119656       0.00295109      18.35675921  T        2       0.05539892      -0.08200676      -0.10416647
Si       7.67811307      -0.01543856      18.33626873  T        2      -0.08524006      -0.11245597       0.01384603
Si       1.92692722       3.33543458      18.33689515  T        2       0.08860739       0.04710725      -0.03458728
Si       5.75136549       3.34264103      18.36443126  T        2      -0.10840123       0.13068449       0.07407887
Si       9.60866973       3.32638427      18.30129920  T        2       0.00131602       0.11716065      -0.05713059
Si       0.16324916      -0.60671964      20.65881662  T        1       0.04172101      -1.91514992      -0.12951305
Si       3.99332452      -0.37262957      20.66478736  T        1       0.50571185      -1.36757489      -0.14153066
Si       7.50759047      -0.48723235      20.65725644  T        1      -0.38002238      -1.02038573      -0.07339202
Si       2.24150766       3.66354142      20.64897032  T        1       1.13497614       1.39154142       0.01612267
Si       5.40936589       3.87356865      20.66690305  T        1      -0.93781428       1.27692220      -0.13689967
Si       9.65226494       3.77635914      20.60234539  T        1      -0.07944028       1.60023294      -0.08204061
F        9.05812845       5.45414906      22.62949026  T        0      -0.15144306       0.11070254       0.41551306
H        9.96712733       5.74065070      22.33397842  T        0      -0.11088048       0.02563016      -0.31222835
38
Lattice="11.518769465528859 0.0 0.0 3.839589821842953 6.650364651656328 0.0 0.0 0.0 32.62128289467409" Properties=species:S:1:pos:R:3:move_mask:L:1:tags:I:1:forces:R:3 surface=Si111 species=HF site=hollow orientation=parallel height_A=1.9 substrate_atoms=36 calculation_kind="Rigid evaluated approach scan; not NEB" energy=-180.88127933860346 pbc="T T F"
Si       1.91979491       1.10839411      12.00000000  F        6      -0.00091986       0.00097619       0.16839159
Si       5.75938473       1.10839411      12.00000000  F        6       0.00141859       0.00014802       0.17066096
Si       9.59897455       1.10839411      12.00000000  F        6      -0.00059561       0.00171548       0.16771880
Si       3.83958982       4.43357643      12.00000000  F        6      -0.00065017      -0.00024517       0.17124530
Si       7.67917964       4.43357643      12.00000000  F        6       0.00171269      -0.00214070       0.17000711
Si      11.51876947       4.43357643      12.00000000  F        6      -0.00127957      -0.00080997       0.17013901
Si       1.91979491       1.10839411      14.35125897  F        5      -0.00383835      -0.00165166      -0.31957545
Si       5.75938473       1.10839411      14.35125897  F        5       0.00129429       0.00446028      -0.31682728
Si       9.59897455       1.10839411      14.35125897  F        5       0.00054143      -0.00444112      -0.27421108
Si       3.83958982       4.43357643      14.35125897  F        5       0.00127490       0.00123485      -0.31242954
Si       7.67917964       4.43357643      14.35125897  F        5      -0.00668398       0.00003309      -0.31461355
Si      11.51876947       4.43357643      14.35125897  F        5       0.00533256       0.00213203      -0.29460764
Si      -0.00000000       2.21678822      15.13501196  F        4       0.01990954      -0.03562511       0.26717915
Si       3.83958982       2.21678822      15.13501196  F        4       0.01544524      -0.03033888       0.27015168
Si       7.67917964       2.21678822      15.13501196  F        4      -0.02660296      -0.01594700       0.34995764
Si       1.91979491       5.54197054      15.13501196  F        4      -0.00533382       0.02829938       0.08813961
Si       5.75938473       5.54197054      15.13501196  F        4       0.01292665       0.02136446       0.12695820
Si       9.59897455       5.54197054      15.13501196  F        4      -0.01389848       0.03575851       0.01794095
Si       0.01282249       2.21037447      17.52809294  T        3       0.01848751      -0.00421032       0.16581981
Si       3.84462474       2.21761576      17.52776278  T        3       0.00432737      -0.02917306       0.06476301
Si       7.67055724       2.22200437      17.53913182  T        3      -0.03507550      -0.02844311       0.18115571
Si       1.92364906       5.53979365      17.50593839  T        3      -0.03105952       0.01117448      -0.02446681
Si       5.76122452       5.54560228      17.51311329  T        3       0.02245336       0.00003869      -0.07251192
Si       9.58919540       5.55128985      17.50127647  T        3       0.00052471       0.00753311      -0.08491788
Si      -0.00274288      -0.01749174      18.34790738  T        2       0.05175776      -0.17716096       0.05429227
Si       3.83211441       0.00160437      18.35611983  T        2       0.05347160      -0.09018693      -0.10645400
Si       7.67651654      -0.01758276      18.33751899  T        2      -0.08282850      -0.10798576       0.01035306
Si       1.92826664       3.33601269      18.33675457  T        2       0.09646072       0.05505492      -0.01894433
Si       5.74958107       3.34470234      18.36525276  T        2      -0.11156492       0.13713391       0.09774807
Si       9.60875787       3.32821589      18.30036988  T        2      -0.00036239       0.11973378      -0.04298529
Si       0.16820670      -0.64735166      20.65805076  T        1      -0.07282489      -1.71376688      -0.17535853
Si       4.00138959      -0.39847521      20.66290029  T        1       0.54884171      -1.36052221      -0.15947986
Si       7.49907401      -0.50768313      20.65614297  T        1      -0.35842673      -1.02579388      -0.06962125
Si       2.26259896       3.69105923      20.64925490  T        1       1.09438299       1.33598829       0.00396426
Si       5.38909171       3.90355989      20.66555143  T        1      -0.82314526       1.08003347      -0.16336739
Si       9.65242773       3.80501137      20.60097721  T        1      -0.12244804       1.63771387      -0.10199715
F        9.05549196       5.45593323      22.63584953  T        0      -0.13845762       0.11092413       0.43468345
H        9.96483680       5.74157417      22.32767613  T        0      -0.11456746       0.03699179      -0.29890069
38
Lattice="11.518769465528859 0.0 0.0 3.839589821842953 6.650364651656328 0.0 0.0 0.0 32.62128289467409" Properties=species:S:1:pos:R:3:move_mask:L:1:tags:I:1:forces:R:3 surface=Si111 species=HF site=hollow orientation=parallel height_A=1.9 substrate_atoms=36 calculation_kind="Rigid evaluated approach scan; not NEB" energy=-181.16953891481407 pbc="T T F"
Si       1.91979491       1.10839411      12.00000000  F        6      -0.00094147       0.00121406       0.16783632
Si       5.75938473       1.10839411      12.00000000  F        6       0.00144268       0.00042734       0.16984682
Si       9.59897455       1.10839411      12.00000000  F        6      -0.00059780       0.00196753       0.16743819
Si       3.83958982       4.43357643      12.00000000  F        6      -0.00064125      -0.00045673       0.17068859
Si       7.67917964       4.43357643      12.00000000  F        6       0.00170266      -0.00241278       0.16945899
Si      11.51876947       4.43357643      12.00000000  F        6      -0.00127230      -0.00105995       0.16981993
Si       1.91979491       1.10839411      14.35125897  F        5      -0.00380561      -0.00229410      -0.31698879
Si       5.75938473       1.10839411      14.35125897  F        5       0.00081704       0.00349863      -0.31628625
Si       9.59897455       1.10839411      14.35125897  F        5       0.00089172      -0.00489731      -0.27126189
Si       3.83958982       4.43357643      14.35125897  F        5       0.00086537       0.00164133      -0.30954460
Si       7.67917964       4.43357643      14.35125897  F        5      -0.00701866       0.00111977      -0.31367969
Si      11.51876947       4.43357643      14.35125897  F        5       0.00604360       0.00228747      -0.29394769
Si      -0.00000000       2.21678822      15.13501196  F        4       0.02167341      -0.03686570       0.28596693
Si       3.83958982       2.21678822      15.13501196  F        4       0.01545531      -0.03177496       0.27758921
Si       7.67917964       2.21678822      15.13501196  F        4      -0.02843388      -0.01673660       0.36975980
Si       1.91979491       5.54197054      15.13501196  F        4      -0.00659999       0.02886773       0.08702932
Si       5.75938473       5.54197054      15.13501196  F        4       0.01368683       0.02180930       0.11815852
Si       9.59897455       5.54197054      15.13501196  F        4      -0.01327576       0.03626483       0.00735017
Si       0.01308266       2.21047542      17.53109341  T        3       0.02001232      -0.01279356       0.16142778
Si       3.84467060       2.21677645      17.52889067  T        3       0.00923805      -0.02340670       0.06016778
Si       7.67005839       2.22151383      17.54274189  T        3      -0.04161461      -0.02342161       0.17081631
Si       1.92287603       5.53988288      17.50565216  T        3      -0.02541412       0.01402794      -0.02986083
Si       5.76202029       5.54568532      17.51170154  T        3       0.01822530      -0.00043094      -0.07623875
Si       9.58906451       5.55159896      17.49987973  T        3       0.00162198       0.00286358      -0.09529010
Si      -0.00194242      -0.02018820      18.34797165  T        2       0.05596868      -0.18672418       0.09280284
Si       3.83307131       0.00015675      18.35519594  T        2       0.05169801      -0.09979492      -0.10338509
Si       7.67488995      -0.01975522      18.33859010  T        2      -0.07938723      -0.10345700       0.01095454
Si       1.92973156       3.33669487      18.33656803  T        2       0.10442308       0.06334751       0.00405238
Si       5.74769246       3.34691469      18.36629468  T        2      -0.11370719       0.14117274       0.11934926
Si       9.60882931       3.33017386      18.29944251  T        2      -0.00259671       0.12132490      -0.02685582
Si       0.17203048      -0.68728258      20.65676622  T        1      -0.22455906      -1.42307984      -0.22297467
Si       4.01009137      -0.42488029      20.66074876  T        1       0.59481087      -1.35023724      -0.17916227
Si       7.49070740      -0.52838792      20.65496447  T        1      -0.33218361      -1.01696936      -0.06718309
Si       2.28408780       3.71875418      20.64950467  T        1       1.02926408       1.26552191      -0.01397274
Si       5.36928623       3.93234605      20.66382767  T        1      -0.65296430       0.81133440      -0.18820869
Si       9.65210691       3.83476511      20.59946796  T        1      -0.17325197       1.65690439      -0.12580807
F        9.05279963       5.45781925      22.64271799  T        0      -0.12144488       0.11072870       0.44969513
H        9.96251901       5.74247441      22.32135957  T        0      -0.11813060       0.05048942      -0.27955977
38
Lattice="11.518769465528859 0.0 0.0 3.839589821842953 6.650364651656328 0.0 0.0 0.0 32.62128289467409" Properties=species:S:1:pos:R:3:move_mask:L:1:tags:I:1:forces:R:3 surface=Si111 species=HF site=hollow orientation=parallel height_A=1.9 substrate_atoms=36 calculation_kind="Rigid evaluated approach scan; not NEB" energy=-181.43015536947212 pbc="T T F"
Si       1.91979491       1.10839411      12.00000000  F        6      -0.00095952       0.00147602       0.16736423
Si       5.75938473       1.10839411      12.00000000  F        6       0.00146133       0.00072825       0.16910560
Si       9.59897455       1.10839411      12.00000000  F        6      -0.00059797       0.00224426       0.16726895
Si       3.83958982       4.43357643      12.00000000  F        6      -0.00063232      -0.00069516       0.17027502
Si       7.67917964       4.43357643      12.00000000  F        6       0.00168526      -0.00269595       0.16900005
Si      11.51876947       4.43357643      12.00000000  F        6      -0.00125705      -0.00133915       0.16947812
Si       1.91979491       1.10839411      14.35125897  F        5      -0.00380129      -0.00298775      -0.31425544
Si       5.75938473       1.10839411      14.35125897  F        5       0.00038460       0.00264546      -0.31565002
Si       9.59897455       1.10839411      14.35125897  F        5       0.00127239      -0.00531293      -0.26815731
Si       3.83958982       4.43357643      14.35125897  F        5       0.00048300       0.00212599      -0.30700984
Si       7.67917964       4.43357643      14.35125897  F        5      -0.00743601       0.00207363      -0.31278784
Si      11.51876947       4.43357643      14.35125897  F        5       0.00681309       0.00239241      -0.29320512
Si      -0.00000000       2.21678822      15.13501196  F        4       0.02345584      -0.03795533       0.30418180
Si       3.83958982       2.21678822      15.13501196  F        4       0.01545897      -0.03288549       0.28462823
Si       7.67917964       2.21678822      15.13501196  F        4      -0.03016449      -0.01748337       0.38860273
Si       1.91979491       5.54197054      15.13501196  F        4      -0.00764179       0.02932225       0.08519087
Si       5.75938473       5.54197054      15.13501196  F        4       0.01398193       0.02194903       0.10800034
Si       9.59897455       5.54197054      15.13501196  F        4      -0.01257520       0.03662975      -0.00395454
Si       0.01337634       2.21051105      17.53421610  T        3       0.02157937      -0.02159923       0.15726334
Si       3.84474413       2.21598582      17.53006254  T        3       0.01437070      -0.01885748       0.05395109
Si       7.66948293       2.22101463      17.54640982  T        3      -0.04808036      -0.01729142       0.16016996
Si       1.92213314       5.54001091      17.50529917  T        3      -0.02053841       0.01610081      -0.03514861
Si       5.76275480       5.54575308      17.51023119  T        3       0.01586380       0.00015740      -0.08356268
Si       9.58896130       5.55186821      17.49834934  T        3       0.00272050      -0.00275850      -0.10588262
Si      -0.00106019      -0.02315320      18.34837895  T        2       0.05706226      -0.19191044       0.13039361
Si       3.83406800      -0.00143331      18.35402991  T        2       0.05092052      -0.10929708      -0.09606380
Si       7.67322807      -0.02196502      18.33952702  T        2      -0.07450337      -0.09903444       0.01525510
Si       1.93135372       3.33750636      18.33642757  T        2       0.11192928       0.07153887       0.03341417
Si       5.74568082       3.34930155      18.36762021  T        2      -0.11399694       0.14065787       0.13768152
Si       9.60887913       3.33227249      18.29856514  T        2      -0.00526329       0.12173837      -0.00886289
Si       0.17437062      -0.72607684      20.65484312  T        1      -0.42654457      -1.02455748      -0.26768709
Si       4.01963014      -0.45209282      20.65826799  T        1       0.63939892      -1.33391456      -0.19919901
Si       7.48244936      -0.54956665      20.65372357  T        1      -0.30050791      -0.98959789      -0.06635173
Si       2.30596864       3.74672193      20.64966019  T        1       0.94050493       1.17889130      -0.03708406
Si       5.35024599       3.95949530      20.66166996  T        1      -0.41176856       0.45438378      -0.20909996
Si       9.65117869       3.86594469      20.59772726  T        1      -0.23083856       1.64832891      -0.15398473
F        9.05008680       5.45981737      22.65017168  T        0      -0.10019563       0.11068875       0.45998868
H        9.96013184       5.74341917      22.31501536  T        0      -0.12204343       0.06610054      -0.25326609
38
Lattice="11.518769465528859 0.0 0.0 3.839589821842953 6.650364651656328 0.0 0.0 0.0 32.62128289467409" Properties=species:S:1:pos:R:3:move_mask:L:1:tags:I:1:forces:R:3 surface=Si111 species=HF site=hollow orientation=parallel height_A=1.9 substrate_atoms=36 calculation_kind="Rigid evaluated approach scan; not NEB" energy=-181.65675963660675 pbc="T T F"
Si       1.91979491       1.10839411      12.00000000  F        6      -0.00097658       0.00176743       0.16695514
Si       5.75938473       1.10839411      12.00000000  F        6       0.00147782       0.00105377       0.16842016
Si       9.59897455       1.10839411      12.00000000  F        6      -0.00059679       0.00255224       0.16719455
Si       3.83958982       4.43357643      12.00000000  F        6      -0.00062523      -0.00096360       0.16999406
Si       7.67917964       4.43357643      12.00000000  F        6       0.00166343      -0.00299674       0.16860415
Si      11.51876947       4.43357643      12.00000000  F        6      -0.00123497      -0.00165252       0.16910483
Si       1.91979491       1.10839411      14.35125897  F        5      -0.00386092      -0.00370612      -0.31132194
Si       5.75938473       1.10839411      14.35125897  F        5       0.00001040       0.00194680      -0.31488934
Si       9.59897455       1.10839411      14.35125897  F        5       0.00171352      -0.00571955      -0.26484104
Si       3.83958982       4.43357643      14.35125897  F        5       0.00012128       0.00268906      -0.30464041
Si       7.67917964       4.43357643      14.35125897  F        5      -0.00792363       0.00284151      -0.31189015
Si      11.51876947       4.43357643      14.35125897  F        5       0.00763003       0.00246402      -0.29235501
Si      -0.00000000       2.21678822      15.13501196  F        4       0.02530513      -0.03893544       0.32201900
Si       3.83958982       2.21678822      15.13501196  F        4       0.01546618      -0.03365307       0.29146252
Si       7.67917964       2.21678822      15.13501196  F        4      -0.03182585      -0.01819517       0.40661497
Si       1.91979491       5.54197054      15.13501196  F        4      -0.00837846       0.02966692       0.08265306
Si       5.75938473       5.54197054      15.13501196  F        4       0.01376500       0.02180809       0.09628732
Si       9.59897455       5.54197054      15.13501196  F        4      -0.01180821       0.03684782      -0.01642448
Si       0.01371113       2.21045546      17.53748903  T        3       0.02317856      -0.02961886       0.15378156
Si       3.84486358       2.21524042      17.53127067  T        3       0.01885042      -0.01627800       0.04604847
Si       7.66880390       2.22052260      17.55015667  T        3      -0.05358962      -0.01045536       0.14920578
Si       1.92142154       5.54018344      17.50486019  T        3      -0.01725639       0.01741033      -0.04058623
Si       5.76344071       5.54581117      17.50865230  T        3       0.01557757       0.00182510      -0.09356622
Si       9.58888458       5.55208558      17.49663086  T        3       0.00392217      -0.00909092      -0.11619593
Si      -0.00008533      -0.02643004      18.34924238  T        2       0.05342125      -0.19011544       0.16079357
Si       3.83511553      -0.00321596      18.35265942  T        2       0.05127326      -0.11703406      -0.08630580
Si       7.67152274      -0.02423246      18.34038217  T        2      -0.06789380      -0.09472165       0.02231173
Si       1.93317404       3.33847873      18.33644120  T        2       0.11845889       0.07928068       0.06690124
Si       5.74352200       3.35188449      18.36929127  T        2      -0.11139636       0.13363774       0.14940950
Si       9.60890047       3.33453584      18.29778588  T        2      -0.00827140       0.12081841       0.01115436
Si       0.17466060      -0.76304615      20.65214880  T        1      -0.68110159      -0.52111518      -0.30289115
Si       4.03025955      -0.48046937      20.65537284  T        1       0.67605808      -1.30612854      -0.21831156
Si       7.47425240      -0.57145844      20.65240763  T        1      -0.26283510      -0.94049487      -0.06700387
Si       2.32826081       3.77512308      20.64964474  T        1       0.83094240       1.07563931      -0.06424540
Si       5.33246329       3.98432403      20.65900943  T        1      -0.09505705       0.01138595      -0.22191591
Si       9.64947445       3.89893455      20.59563935  T        1      -0.29276804       1.60187569      -0.18779775
F        9.04738816       5.46195159      22.65832010  T        0      -0.07503242       0.11146457       0.46515564
H        9.95762258       5.74448295      22.30862908  T        0      -0.12640298       0.08389967      -0.21888942
38
Lattice="11.518769465528859 0.0 0.0 3.839589821842953 6.650364651656328 0.0 0.0 0.0 32.62128289467409" Properties=species:S:1:pos:R:3:move_mask:L:1:tags:I:1:forces:R:3 surface=Si111 species=HF site=hollow orientation=parallel height_A=1.9 substrate_atoms=36 calculation_kind="Rigid evaluated approach scan; not NEB" energy=-181.84781365249216 pbc="T T F"
Si       1.91979491       1.10839411      12.00000000  F        6      -0.00099463       0.00209214       0.16658081
Si       5.75938473       1.10839411      12.00000000  F        6       0.00149508       0.00140615       0.16775424
Si       9.59897455       1.10839411      12.00000000  F        6      -0.00059529       0.00289749       0.16718794
Si       3.83958982       4.43357643      12.00000000  F        6      -0.00062185      -0.00126379       0.16979853
Si       7.67917964       4.43357643      12.00000000  F        6       0.00164076      -0.00332164       0.16822808
Si      11.51876947       4.43357643      12.00000000  F        6      -0.00120783      -0.00200402       0.16870826
Si       1.91979491       1.10839411      14.35125897  F        5      -0.00397232      -0.00444362      -0.30824771
Si       5.75938473       1.10839411      14.35125897  F        5      -0.00031125       0.00137743      -0.31405250
Si       9.59897455       1.10839411      14.35125897  F        5       0.00221246      -0.00615295      -0.26140441
Si       3.83958982       4.43357643      14.35125897  F        5      -0.00021586       0.00330974      -0.30226756
Si       7.67917964       4.43357643      14.35125897  F        5      -0.00845240       0.00343526      -0.31092862
Si      11.51876947       4.43357643      14.35125897  F        5       0.00845363       0.00255639      -0.29144483
Si      -0.00000000       2.21678822      15.13501196  F        4       0.02728093      -0.03993116       0.33982719
Si       3.83958982       2.21678822      15.13501196  F        4       0.01553058      -0.03409610       0.29835094
Si       7.67917964       2.21678822      15.13501196  F        4      -0.03354157      -0.01884199       0.42417490
Si       1.91979491       5.54197054      15.13501196  F        4      -0.00875411       0.02993926       0.07937918
Si       5.75938473       5.54197054      15.13501196  F        4       0.01305474       0.02144141       0.08292747
Si       9.59897455       5.54197054      15.13501196  F        4      -0.01097893       0.03691146      -0.03057572
Si       0.01409705       2.21028367      17.54095762  T        3       0.02478546      -0.03626337       0.15144781
Si       3.84504549       2.21452880      17.53250623  T        3       0.02205582      -0.01585403       0.03706407
Si       7.66799365       2.22005407      17.55401533  T        3      -0.05766487      -0.00308747       0.13784806
Si       1.92073503       5.54040517      17.50431154  T        3      -0.01566285       0.01808838      -0.04587749
Si       5.76409803       5.54586895      17.50689803  T        3       0.01675057       0.00413605      -0.10284144
Si       9.58883473       5.55223527      17.49466149  T        3       0.00521234      -0.01564216      -0.12591190
Si       0.00097964      -0.03005385      18.35065989  T        2       0.04483964      -0.17928471       0.17724726
Si       3.83623426      -0.00524425      18.35111543  T        2       0.05231048      -0.12203748      -0.07596645
Si       7.66976660      -0.02658606      18.34121376  T        2      -0.05968764      -0.09039948       0.03067896
Si       1.93524080       3.33964964      18.33673258  T        2       0.12372944       0.08633608       0.10101402
Si       5.74119248       3.35467314      18.37135852  T        2      -0.10485996       0.11898635       0.14940507
Si       9.60888432       3.33699498      18.29715969  T        2      -0.01178586       0.11840341       0.03378370
Si       0.17206436      -0.79714365      20.64855661  T        1      -0.97132323       0.04875120      -0.32283797
Si       4.04226258      -0.51042872      20.65196074  T        1       0.69540690      -1.25924160      -0.23539297
Si       7.46607659      -0.59429067      20.65099141  T        1      -0.21892215      -0.86788368      -0.06852467
Si       2.35098086       3.80414036      20.64936290  T        1       0.70653899       0.95839554      -0.09351790
Si       5.31671231       4.00580892      20.65578484  T        1       0.27954409      -0.48280959      -0.22191805
Si       9.64677941       3.93411311      20.59305174  T        1      -0.35359719       1.50623088      -0.22926960
F        9.04474455       5.46426015      22.66729958  T        0      -0.04693267       0.11389861       0.46451648
H        9.95492778       5.74575208      22.30220029  T        0      -0.13075946       0.10396560      -0.17494317
38
Lattice="11.518769465528859 0.0 0.0 3.839589821842953 6.650364651656328 0.0 0.0 0.0 32.62128289467409" Properties=species:S:1:pos:R:3:move_mask:L:1:tags:I:1:forces:R:3 surface=Si111 species=HF site=hollow orientation=parallel height_A=1.9 substrate_atoms=36 calculation_kind="Rigid evaluated approach scan; not NEB" energy=-182.01020811317434 pbc="T T F"
Si       1.91979491       1.10839411      12.00000000  F        6      -0.00101493       0.00245166       0.16622360
Si       5.75938473       1.10839411      12.00000000  F        6       0.00151461       0.00178693       0.16707115
Si       9.59897455       1.10839411      12.00000000  F        6      -0.00059397       0.00328436       0.16722450
Si       3.83958982       4.43357643      12.00000000  F        6      -0.00062248      -0.00159621       0.16962705
Si       7.67917964       4.43357643      12.00000000  F        6       0.00162044      -0.00367595       0.16783045
Si      11.51876947       4.43357643      12.00000000  F        6      -0.00117857      -0.00239562       0.16831945
Si       1.91979491       1.10839411      14.35125897  F        5      -0.00408617      -0.00520250      -0.30516819
Si       5.75938473       1.10839411      14.35125897  F        5      -0.00061152       0.00085456      -0.31323619
Si       9.59897455       1.10839411      14.35125897  F        5       0.00274859      -0.00664847      -0.25804223
Si       3.83958982       4.43357643      14.35125897  F        5      -0.00053198       0.00395611      -0.29980702
Si       7.67917964       4.43357643      14.35125897  F        5      -0.00899057       0.00393451      -0.30984260
Si      11.51876947       4.43357643      14.35125897  F        5       0.00924721       0.00272330      -0.29053669
Si      -0.00000000       2.21678822      15.13501196  F        4       0.02942328      -0.04105885       0.35799500
Si       3.83958982       2.21678822      15.13501196  F        4       0.01568793      -0.03428215       0.30550396
Si       7.67917964       2.21678822      15.13501196  F        4      -0.03544401      -0.01936765       0.44177798
Si       1.91979491       5.54197054      15.13501196  F        4      -0.00879163       0.03015956       0.07525940
Si       5.75938473       5.54197054      15.13501196  F        4       0.01198553       0.02094368       0.06804437
Si       9.59897455       5.54197054      15.13501196  F        4      -0.01009614       0.03680026      -0.04687610
Si       0.01454461       2.20997483      17.54467027  T        3       0.02628123      -0.04109028       0.15049020
Si       3.84530152       2.21383322      17.53375538  T        3       0.02373083      -0.01703397       0.02829145
Si       7.66702956       2.21962804      17.55801241  T        3      -0.06016546       0.00479723       0.12597742
Si       1.92006239       5.54067903      17.50362905  T        3      -0.01495373       0.01823829      -0.05009697
Si       5.76474969       5.54593781      17.50490629  T        3       0.01807101       0.00638445      -0.10657446
Si       9.58881348       5.55229914      17.49238008  T        3       0.00645298      -0.02159267      -0.13494730
Si       0.00211233      -0.03402415      18.35267833  T        2       0.03231558      -0.15865143       0.17486921
Si       3.83744677      -0.00756070      18.34942564  T        2       0.05355437      -0.12462934      -0.06602479
Si       7.66796070      -0.02905154      18.34207940  T        2      -0.05040683      -0.08589398       0.03874500
Si       1.93759849       3.34105591      18.33742805  T        2       0.12780842       0.09240156       0.13201181
Si       5.73868538       3.35764597      18.37382820  T        2      -0.09334222       0.09641244       0.13266176
Si       9.60881890       3.33967508      18.29675500  T        2      -0.01607889       0.11453683       0.05989267
Si       0.16555785      -0.82696028      20.64399046  T        1      -1.24633979       0.60134249      -0.32548299
Si       4.05585454      -0.54228386      20.64793311  T        1       0.68608571      -1.18456755      -0.24975492
Si       7.45792530      -0.61816888      20.64944648  T        1      -0.16946564      -0.77291205      -0.06993478
Si       2.37405929       3.83385877      20.64870839  T        1       0.57277709       0.83036671      -0.12173148
Si       5.30405551       4.02263223      20.65198089  T        1       0.65907166      -0.94781823      -0.20612500
Si       9.64286971       3.97163770      20.58977683  T        1      -0.40415942       1.35179850      -0.28100954
F        9.04221251       5.46678806      22.67722567  T        0      -0.01697712       0.11910403       0.45696388
H        9.95198646       5.74732146      22.29577861  T        0      -0.13452541       0.12613947      -0.11958906
38
Lattice="11.518769465528859 0.0 0.0 3.839589821842953 6.650364651656328 0.0 0.0 0.0 32.62128289467409" Properties=species:S:1:pos:R:3:move_mask:L:1:tags:I:1:forces:R:3 surface=Si111 species=HF site=hollow orientation=parallel height_A=1.9 substrate_atoms=36 calculation_kind="Rigid evaluated approach scan; not NEB" energy=-182.15774393197972 pbc="T T F"
Si       1.91979491       1.10839411      12.00000000  F        6      -0.00103762       0.00284307       0.16588271
Si       5.75938473       1.10839411      12.00000000  F        6       0.00153620       0.00219594       0.16635190
Si       9.59897455       1.10839411      12.00000000  F        6      -0.00059281       0.00371281       0.16728683
Si       3.83958982       4.43357643      12.00000000  F        6      -0.00062414      -0.00195954       0.16943128
Si       7.67917964       4.43357643      12.00000000  F        6       0.00160400      -0.00406181       0.16738839
Si      11.51876947       4.43357643      12.00000000  F        6      -0.00115184      -0.00282442       0.16798438
Si       1.91979491       1.10839411      14.35125897  F        5      -0.00415031      -0.00599162      -0.30224868
Si       5.75938473       1.10839411      14.35125897  F        5      -0.00093847       0.00026687      -0.31254344
Si       9.59897455       1.10839411      14.35125897  F        5       0.00330598      -0.00725319      -0.25497763
Si       3.83958982       4.43357643      14.35125897  F        5      -0.00083649       0.00461109      -0.29729456
Si       7.67917964       4.43357643      14.35125897  F        5      -0.00951508       0.00446833      -0.30860786
Si      11.51876947       4.43357643      14.35125897  F        5       0.00999237       0.00300509      -0.28969399
Si      -0.00000000       2.21678822      15.13501196  F        4       0.03170758      -0.04235800       0.37681041
Si       3.83958982       2.21678822      15.13501196  F        4       0.01592634      -0.03430804       0.31298072
Si       7.67917964       2.21678822      15.13501196  F        4      -0.03757479      -0.01970531       0.45979685
Si       1.91979491       5.54197054      15.13501196  F        4      -0.00858098       0.03031668       0.07013596
Si       5.75938473       5.54197054      15.13501196  F        4       0.01077527       0.02042361       0.05207041
Si       9.59897455       5.54197054      15.13501196  F        4      -0.00918412       0.03646326      -0.06566702
Si       0.01506086       2.20951716      17.54865442  T        3       0.02750516      -0.04355357       0.15069181
Si       3.84563528       2.21313610      17.53499715  T        3       0.02392479      -0.01890083       0.02125288
Si       7.66590179       2.21926836      17.56214254  T        3      -0.06108754       0.01309511       0.11345348
Si       1.91939496       5.54100446      17.50279752  T        3      -0.01387204       0.01782717      -0.05218090
Si       5.76541214       5.54602758      17.50265472  T        3       0.01796132       0.00774120      -0.10057516
Si       9.58882299       5.55226082      17.48974418  T        3       0.00742832      -0.02578719      -0.14339890
Si       0.00326777      -0.03827471      18.35525553  T        2       0.01760073      -0.12850697       0.15174940
Si       3.83876741      -0.01018234      18.34762320  T        2       0.05496191      -0.12627347      -0.05619226
Si       7.66612346      -0.03163528      18.34302451  T        2      -0.04086456      -0.08088163       0.04515380
Si       1.94027106       3.34272144      18.33863314  T        2       0.13088545       0.09721546       0.15708717
Si       5.73603153       3.36072975      18.37662232  T        2      -0.07575169       0.06611397       0.09595731
Si       9.60868936       3.34257725      18.29665784  T        2      -0.02133805       0.10926675       0.08956876
Si       0.15423378      -0.85095988      20.63847003  T        1      -1.42316078       1.03416348      -0.31164595
Si       4.07103761      -0.57599720      20.64322875  T        1       0.63747287      -1.07486145      -0.26115304
Si       7.44988906      -0.64293172      20.64775626  T        1      -0.11337340      -0.65734074      -0.06996668
Si       2.39722279       3.86409674      20.64758535  T        1       0.42702805       0.68668137      -0.14577247
Si       5.29565226       4.03348457      20.64766929  T        1       0.96278114      -1.27493723      -0.17435496
Si       9.63758853       4.01115859      20.58560731  T        1      -0.43556565       1.13136793      -0.34461995
F        9.03987380       5.46957435      22.68811895  T        0       0.01424497       0.12823315       0.44144358
H        9.94876244       5.74928187      22.28950908  T        0      -0.13744210       0.14949268      -0.05158456
38
Lattice="11.518769465528859 0.0 0.0 3.839589821842953 6.650364651656328 0.0 0.0 0.0 32.62128289467409" Properties=species:S:1:pos:R:3:move_mask:L:1:tags:I:1:forces:R:3 surface=Si111 species=HF site=hollow orientation=parallel height_A=1.9 substrate_atoms=36 calculation_kind="Rigid evaluated approach scan; not NEB" energy=-182.30143811927886 pbc="T T F"
Si       1.91979491       1.10839411      12.00000000  F        6      -0.00106109       0.00325730       0.16557618
Si       5.75938473       1.10839411      12.00000000  F        6       0.00155869       0.00263159       0.16560888
Si       9.59897455       1.10839411      12.00000000  F        6      -0.00059231       0.00417786       0.16736978
Si       3.83958982       4.43357643      12.00000000  F        6      -0.00061853      -0.00235063       0.16920302
Si       7.67917964       4.43357643      12.00000000  F        6       0.00158945      -0.00447772       0.16691199
Si      11.51876947       4.43357643      12.00000000  F        6      -0.00113401      -0.00328134       0.16775568
Si       1.91979491       1.10839411      14.35125897  F        5      -0.00414939      -0.00681479      -0.29961157
Si       5.75938473       1.10839411      14.35125897  F        5      -0.00133811      -0.00049269      -0.31203993
Si       9.59897455       1.10839411      14.35125897  F        5       0.00389210      -0.00802918      -0.25236394
Si       3.83958982       4.43357643      14.35125897  F        5      -0.00112801       0.00528713      -0.29484632
Si       7.67917964       4.43357643      14.35125897  F        5      -0.01000848       0.00516810      -0.30727887
Si      11.51876947       4.43357643      14.35125897  F        5       0.01067450       0.00343015      -0.28899295
Si      -0.00000000       2.21678822      15.13501196  F        4       0.03402723      -0.04378772       0.39635926
Si       3.83958982       2.21678822      15.13501196  F        4       0.01619198      -0.03424536       0.32061453
Si       7.67917964       2.21678822      15.13501196  F        4      -0.03983617      -0.01979137       0.47825924
Si       1.91979491       5.54197054      15.13501196  F        4      -0.00820274       0.03037865       0.06383494
Si       5.75938473       5.54197054      15.13501196  F        4       0.00960347       0.01995781       0.03557953
Si       9.59897455       5.54197054      15.13501196  F        4      -0.00827099       0.03581187      -0.08726341
Si       0.01564792       2.20891070      17.55290863  T        3       0.02829561      -0.04289657       0.15119910
Si       3.84604237       2.21242522      17.53620771  T        3       0.02288418      -0.02078967       0.01692698
Si       7.66461487       2.21900411      17.56636075  T        3      -0.06033167       0.02121897       0.10000558
Si       1.91873331       5.54137671      17.50181660  T        3      -0.01146630       0.01684797      -0.05172519
Si       5.76608765       5.54614294      17.50018136  T        3       0.01538403       0.00754793      -0.08314981
Si       9.58886487       5.55211070      17.48673349  T        3       0.00798460      -0.02697286      -0.15125580
Si       0.00438441      -0.04266862      18.35825098  T        2       0.00249083      -0.08991612       0.10853699
Si       3.84020006      -0.01310338      18.34575234  T        2       0.05690079      -0.12849146      -0.04573711
Si       7.66429013      -0.03431857      18.34407589  T        2      -0.03188662      -0.07485232       0.04915242
Si       1.94325851       3.34465343      18.34042029  T        2       0.13252750       0.10029274       0.17503006
Si       5.73330829       3.36379585      18.37956220  T        2      -0.05132194       0.02871261       0.03826005
Si       9.60847728       3.34567389      18.29697252  T        2      -0.02746917       0.10190824       0.12005931
Si       0.13767782      -0.86787225      20.63211389  T        1      -1.41876483       1.27782316      -0.28226589
Si       4.08753348      -0.61109709      20.63783207  T        1       0.54198676      -0.92644605      -0.26922892
Si       7.44216330      -0.66811996      20.64592437  T        1      -0.04829569      -0.52450291      -0.06695822
Si       2.41994122       3.89433363      20.64592266  T        1       0.25808601       0.51184408      -0.16376480
Si       5.29242602       4.03750948      20.64301482  T        1       1.11593207      -1.37743144      -0.12798468
Si       9.63089116       4.05172757      20.58031639  T        1      -0.44129293       0.84548765      -0.41767268
F        9.03783742       5.47265203      22.69988270  T        0       0.04667693       0.14190631       0.41813252
H        9.94525032       5.75171328      22.28364718  T        0      -0.13951777       0.17188009       0.02776402
38
Lattice="11.518769465528859 0.0 0.0 3.839589821842953 6.650364651656328 0.0 0.0 0.0 32.62128289467409" Properties=species:S:1:pos:R:3:move_mask:L:1:tags:I:1:forces:R:3 surface=Si111 species=HF site=hollow orientation=parallel height_A=1.9 substrate_atoms=36 calculation_kind="Rigid evaluated approach scan; not NEB" energy=-182.43847533852932 pbc="T T F"
Si       1.91979491       1.10839411      12.00000000  F        6      -0.00108131       0.00367967       0.16533629
Si       5.75938473       1.10839411      12.00000000  F        6       0.00158052       0.00309547       0.16488837
Si       9.59897455       1.10839411      12.00000000  F        6      -0.00059445       0.00467186       0.16748380
Si       3.83958982       4.43357643      12.00000000  F        6      -0.00059140      -0.00276581       0.16898156
Si       7.67917964       4.43357643      12.00000000  F        6       0.00156805      -0.00492139       0.16644934
Si      11.51876947       4.43357643      12.00000000  F        6      -0.00113061      -0.00375409       0.16768714
Si       1.91979491       1.10839411      14.35125897  F        5      -0.00410489      -0.00765773      -0.29728120
Si       5.75938473       1.10839411      14.35125897  F        5      -0.00182645      -0.00150959      -0.31172174
Si       9.59897455       1.10839411      14.35125897  F        5       0.00451600      -0.00903110      -0.25021745
Si       3.83958982       4.43357643      14.35125897  F        5      -0.00138686       0.00601250      -0.29258699
Si       7.67917964       4.43357643      14.35125897  F        5      -0.01044151       0.00611722      -0.30599142
Si      11.51876947       4.43357643      14.35125897  F        5       0.01125909       0.00402784      -0.28852818
Si      -0.00000000       2.21678822      15.13501196  F        4       0.03624793      -0.04524918       0.41659265
Si       3.83958982       2.21678822      15.13501196  F        4       0.01639098      -0.03411334       0.32806547
Si       7.67917964       2.21678822      15.13501196  F        4      -0.04202420      -0.01959811       0.49683109
Si       1.91979491       5.54197054      15.13501196  F        4      -0.00768598       0.03029842       0.05619676
Si       5.75938473       5.54197054      15.13501196  F        4       0.00852142       0.01957619       0.01899214
Si       9.59897455       5.54197054      15.13501196  F        4      -0.00737562       0.03473877      -0.11217875
Si       0.01630597       2.20816717      17.55742623  T        3       0.02859374      -0.03813355       0.15049643
Si       3.84651391       2.21169120      17.53737151  T        3       0.02083315      -0.02268500       0.01524404
Si       7.66318021       2.21886624      17.57060736  T        3      -0.05747145       0.02801388       0.08504922
Si       1.91808690       5.54178887      17.50069632  T        3      -0.00759250       0.01545659      -0.04924465
Si       5.76676477       5.54628152      17.49757704  T        3       0.01024245       0.00554592      -0.05563325
Si       9.58893963       5.55185038      17.48333005  T        3       0.00827805      -0.02430762      -0.15807369
Si       0.00539673      -0.04702564      18.36144155  T        2      -0.01170116      -0.04470482       0.04813212
Si       3.84174930      -0.01632032      18.34386244  T        2       0.05942655      -0.13142631      -0.03444077
Si       7.66249845      -0.03707232      18.34524732  T        2      -0.02407990      -0.06740849       0.05046078
Si       1.94655380       3.34685252      18.34283809  T        2       0.13175788       0.10026812       0.18594410
Si       5.73062846       3.36667751      18.38237528  T        2      -0.02044304      -0.01420405      -0.03866908
Si       9.60815912       3.34892424      18.29781439  T        2      -0.03399041       0.09028606       0.14443382
Si       0.11622475      -0.87706997      20.62510140  T        1      -1.19459222       1.32995861      -0.23757263
Si       4.10484410      -0.64687300      20.63174021  T        1       0.39346734      -0.73639491      -0.27344374
Si       7.43501444      -0.69313894      20.64397044  T        1       0.02816471      -0.37900832      -0.05916146
Si       2.44150446       3.92381807      20.64366893  T        1       0.05715852       0.28950999      -0.17500424
Si       5.29473856       4.03469326      20.63824677  T        1       1.08608280      -1.23581861      -0.06884236
Si       9.62283130       4.09202723      20.57362710  T        1      -0.41553701       0.50173129      -0.49111926
F        9.03623012       5.47607192      22.71237493  T        0       0.08034117       0.15974334       0.38906993
H        9.94145224       5.75469376      22.27852336  T        0      -0.14077937       0.18996027       0.11337584
38
Lattice="11.518769465528859 0.0 0.0 3.839589821842953 6.650364651656328 0.0 0.0 0.0 32.62128289467409" Properties=species:S:1:pos:R:3:move_mask:L:1:tags:I:1:forces:R:3 surface=Si111 species=HF site=hollow orientation=parallel height_A=1.9 substrate_atoms=36 calculation_kind="Rigid evaluated approach scan; not NEB" energy=-182.5513545924046 pbc="T T F"
Si       1.91979491       1.10839411      12.00000000  F        6      -0.00109157       0.00409331       0.16519360
Si       5.75938473       1.10839411      12.00000000  F        6       0.00159979       0.00359957       0.16424857
Si       9.59897455       1.10839411      12.00000000  F        6      -0.00060269       0.00518861       0.16764713
Si       3.83958982       4.43357643      12.00000000  F        6      -0.00052309      -0.00320388       0.16883329
Si       7.67917964       4.43357643      12.00000000  F        6       0.00152244      -0.00539555       0.16606725
Si      11.51876947       4.43357643      12.00000000  F        6      -0.00114399      -0.00423231       0.16782260
Si       1.91979491       1.10839411      14.35125897  F        5      -0.00402652      -0.00849440      -0.29518060
Si       5.75938473       1.10839411      14.35125897  F        5      -0.00238890      -0.00284687      -0.31151524
Si       9.59897455       1.10839411      14.35125897  F        5       0.00514568      -0.01028990      -0.24842606
Si       3.83958982       4.43357643      14.35125897  F        5      -0.00159174       0.00681038      -0.29059864
Si       7.67917964       4.43357643      14.35125897  F        5      -0.01076575       0.00734513      -0.30490146
Si      11.51876947       4.43357643      14.35125897  F        5       0.01170160       0.00483895      -0.28838897
Si      -0.00000000       2.21678822      15.13501196  F        4       0.03829899      -0.04659431       0.43761949
Si       3.83958982       2.21678822      15.13501196  F        4       0.01638222      -0.03390460       0.33502470
Si       7.67917964       2.21678822      15.13501196  F        4      -0.04390778      -0.01916451       0.51510278
Si       1.91979491       5.54197054      15.13501196  F        4      -0.00703410       0.03000575       0.04707725
Si       5.75938473       5.54197054      15.13501196  F        4       0.00747345       0.01929169       0.00243960
Si       9.59897455       5.54197054      15.13501196  F        4      -0.00650790       0.03316014      -0.14138715
Si       0.01704169       2.20730644      17.56224563  T        3       0.02864831      -0.02807584       0.14660546
Si       3.84704284       2.21091708      17.53849419  T        3       0.01771068      -0.02519448       0.01519438
Si       7.66160082       2.21888392      17.57485259  T        3      -0.05161207       0.03168367       0.06737619
Si       1.91746774       5.54223729      17.49944095  T        3      -0.00291388       0.01387616      -0.04555229
Si       5.76742490       5.54643405      17.49495601  T        3       0.00308882       0.00187039      -0.02166530
Si       9.58904863       5.55149367      17.47947342  T        3       0.00901169      -0.01786190      -0.16268277
Si       0.00624716      -0.05116623      18.36455143  T        2      -0.02400097       0.00448719      -0.02531704
Si       3.84344154      -0.01987474      18.34199037  T        2       0.06163853      -0.13321960      -0.02259506
Si       7.66076699      -0.03988712      18.34655479  T        2      -0.01733894      -0.05801503       0.04903039
Si       1.95018030       3.34933498      18.34594996  T        2       0.12709082       0.09544791       0.18923236
Si       5.72811739       3.36919486      18.38470739  T        2       0.01473972      -0.05968758      -0.12932013
Si       9.60770151       3.35230082      18.29930057  T        2      -0.04008235       0.07089684       0.15286582
Si       0.09091365      -0.87861412      20.61760041  T        1      -0.77989487       1.24666105      -0.17790290
Si       4.12238547      -0.68273784      20.62488515  T        1       0.18424171      -0.49862483      -0.27261395
Si       7.42873361      -0.71753308      20.64191594  T        1       0.11715675      -0.22610217      -0.04550370
Si       2.46116748       3.95177215      20.64075975  T        1      -0.17045593       0.01646136      -0.17856929
Si       5.30230396       4.02591874      20.63361492  T        1       0.89617256      -0.90367554       0.00042637
Si       9.61349007       4.13077090      20.56513541  T        1      -0.34926411       0.10849569      -0.55018850
F        9.03519193       5.47995176      22.72556484  T        0       0.11455777       0.18028123       0.35716585
H        9.93732841       5.75833148      22.27449254  T        0      -0.14103437       0.20008828       0.19733596
38
Lattice="11.518769465528859 0.0 0.0 3.839589821842953 6.650364651656328 0.0 0.0 0.0 32.62128289467409" Properties=species:S:1:pos:R:3:move_mask:L:1:tags:I:1:forces:R:3 surface=Si111 species=HF site=hollow orientation=parallel height_A=1.9 substrate_atoms=36 calculation_kind="Rigid evaluated approach scan; not NEB" energy=-182.6190564352439 pbc="T T F"
Si       1.91979491       1.10839411      12.00000000  F        6      -0.00108272       0.00448237       0.16515823
Si       5.75938473       1.10839411      12.00000000  F        6       0.00161406       0.00417236       0.16372359
Si       9.59897455       1.10839411      12.00000000  F        6      -0.00062152       0.00572741       0.16786791
Si       3.83958982       4.43357643      12.00000000  F        6      -0.00038758      -0.00366949       0.16882110
Si       7.67917964       4.43357643      12.00000000  F        6       0.00142700      -0.00591406       0.16581653
Si      11.51876947       4.43357643      12.00000000  F        6      -0.00117509      -0.00471076       0.16818378
Si       1.91979491       1.10839411      14.35125897  F        5      -0.00385305      -0.00931289      -0.29319941
Si       5.75938473       1.10839411      14.35125897  F        5      -0.00301444      -0.00457613      -0.31133354
Si       9.59897455       1.10839411      14.35125897  F        5       0.00568163      -0.01184052      -0.24683701
Si       3.83958982       4.43357643      14.35125897  F        5      -0.00175482       0.00769899      -0.28892910
Si       7.67917964       4.43357643      14.35125897  F        5      -0.01091293       0.00888038      -0.30412627
Si      11.51876947       4.43357643      14.35125897  F        5       0.01198288       0.00593053      -0.28865072
Si      -0.00000000       2.21678822      15.13501196  F        4       0.04023341      -0.04760395       0.46012478
Si       3.83958982       2.21678822      15.13501196  F        4       0.01595640      -0.03365602       0.34144633
Si       7.67917964       2.21678822      15.13501196  F        4      -0.04527553      -0.01860606       0.53300768
Si       1.91979491       5.54197054      15.13501196  F        4      -0.00627405       0.02938558       0.03627452
Si       5.75938473       5.54197054      15.13501196  F        4       0.00639378       0.01915606      -0.01410238
Si       9.59897455       5.54197054      15.13501196  F        4      -0.00568439       0.03105565      -0.17669551
Si       0.01788141       2.20635564      17.56750782  T        3       0.02914125      -0.01136621       0.13714993
Si       3.84762978       2.21006227      17.53960991  T        3       0.01301129      -0.02929430       0.01533345
Si       7.65985559       2.21908413      17.57912910  T        3      -0.04127675       0.02979165       0.04503367
Si       1.91688418       5.54272828      17.49802747  T        3       0.00152545       0.01218342      -0.04075991
Si       5.76804698       5.54658450      17.49243146  T        3      -0.00546613      -0.00322401       0.01391555
Si       9.58920073       5.55106346      17.47499894  T        3       0.01150772      -0.00885461      -0.16249366
Si       0.00688604      -0.05492954      18.36725047  T        2      -0.03350505       0.05509352      -0.10783716
Si       3.84534827      -0.02390150      18.34014585  T        2       0.06176326      -0.13062194      -0.01070230
Si       7.65908168      -0.04280015      18.34803616  T        2      -0.01061091      -0.04585765       0.04445235
Si       1.95423741       3.35216131      18.34989705  T        2       0.11650213       0.08386868       0.18159125
Si       5.72590492       3.37115199      18.38609053  T        2       0.05040328      -0.10349611      -0.22374414
Si       9.60704990       3.35580280      18.30154863  T        2      -0.04463233       0.03994934       0.13498242
Si       0.06321935      -0.87278591      20.60970230  T        1      -0.26108426       1.10118935      -0.10370744
Si       4.13950914      -0.71845689      20.61702804  T        1      -0.09634403      -0.20322539      -0.26440956
Si       7.42366605      -0.74117143      20.63977139  T        1       0.21730576      -0.07199280      -0.02587402
Si       2.47817254       3.97745074      20.63706008  T        1      -0.40069572      -0.28699691      -0.17194831
Si       5.31443317       4.01263938      20.62937843  T        1       0.60894916      -0.47541951       0.07497023
Si       9.60291243       4.16685849      20.55416816  T        1      -0.22773579      -0.32883692      -0.57780940
F        9.03490723       5.48454970      22.73971060  T        0       0.14701183       0.20102143       0.32467827
H        9.93273516       5.76282288      22.27194987  T        0      -0.13902319       0.19948950       0.27062826
38
Lattice="11.518769465528859 0.0 0.0 3.839589821842953 6.650364651656328 0.0 0.0 0.0 32.62128289467409" Properties=species:S:1:pos:R:3:move_mask:L:1:tags:I:1:forces:R:3 surface=Si111 species=HF site=hollow orientation=parallel height_A=1.9 substrate_atoms=36 calculation_kind="Rigid evaluated approach scan; not NEB" energy=-182.63023063779886 pbc="T T F"
Si       1.91979491       1.10839411      12.00000000  F        6      -0.00104456       0.00483277       0.16521378
Si       5.75938473       1.10839411      12.00000000  F        6       0.00162064       0.00486043       0.16330332
Si       9.59897455       1.10839411      12.00000000  F        6      -0.00065566       0.00629459       0.16812880
Si       3.83958982       4.43357643      12.00000000  F        6      -0.00015135      -0.00417291       0.16898812
Si       7.67917964       4.43357643      12.00000000  F        6       0.00125019      -0.00650504       0.16570877
Si      11.51876947       4.43357643      12.00000000  F        6      -0.00122731      -0.00518949       0.16876731
Si       1.91979491       1.10839411      14.35125897  F        5      -0.00342122      -0.01013904      -0.29129656
Si       5.75938473       1.10839411      14.35125897  F        5      -0.00372606      -0.00681874      -0.31116088
Si       9.59897455       1.10839411      14.35125897  F        5       0.00594941      -0.01376780      -0.24536260
Si       3.83958982       4.43357643      14.35125897  F        5      -0.00195060       0.00870038      -0.28763841
Si       7.67917964       4.43357643      14.35125897  F        5      -0.01079137       0.01081289      -0.30372856
Si      11.51876947       4.43357643      14.35125897  F        5       0.01213163       0.00741649      -0.28939741
Si      -0.00000000       2.21678822      15.13501196  F        4       0.04224950      -0.04794406       0.48560173
Si       3.83958982       2.21678822      15.13501196  F        4       0.01481037      -0.03353018       0.34765014
Si       7.67917964       2.21678822      15.13501196  F        4      -0.04594295      -0.01813123       0.55101238
Si       1.91979491       5.54197054      15.13501196  F        4      -0.00550603       0.02825026       0.02344290
Si       5.75938473       5.54197054      15.13501196  F        4       0.00530617       0.01929391      -0.03056829
Si       9.59897455       5.54197054      15.13501196  F        4      -0.00492756       0.02850770      -0.22107192
Si       0.01888485       2.20536808      17.57348354  T        3       0.03106404       0.01321578       0.11902109
Si       3.84828060       2.20904336      17.54078247  T        3       0.00586105      -0.03599974       0.01418922
Si       7.65790264       2.21948032      17.58352912  T        3      -0.02442459       0.01951650       0.01554401
Si       1.91633646       5.54328163      17.49639539  T        3       0.00481333       0.01009809      -0.03372819
Si       5.76860447       5.54670627      17.49011224  T        3      -0.01502665      -0.00962487       0.04562327
Si       9.58942528       5.55059112      17.46960257  T        3       0.01749477       0.00027395      -0.15236405
Si       0.00726696      -0.05815077      18.36909131  T        2      -0.03916502       0.10507648      -0.19593942
Si       3.84759646      -0.02865065      18.33830798  T        2       0.05763440      -0.12004907      -0.00015435
Si       7.65739672      -0.04590162      18.34975855  T        2      -0.00217176      -0.03012606       0.03574565
Si       1.95891858       3.35544098      18.35492018  T        2       0.09740598       0.06321713       0.15639779
Si       5.72413491       3.37231299      18.38587634  T        2       0.08131756      -0.13996784      -0.30636905
Si       9.60611997       3.35942703      18.30462635  T        2      -0.04616935      -0.00546885       0.08104690
Si       0.03493506      -0.85964549      20.60143498  T        1       0.24384833       0.94256320      -0.01515854
Si       4.15522661      -0.75401963      20.60769586  T        1      -0.46071489       0.15939701      -0.24439958
Si       7.42031171      -0.76427693      20.63754230  T        1       0.32343425       0.07474232      -0.00075427
Si       2.49168556       4.00004144      20.63233989  T        1      -0.59211645      -0.57052953      -0.15089453
Si       5.33021887       3.99667093      20.62584115  T        1       0.30235323      -0.04964331       0.14546717
Si       9.59122994       4.19911829      20.53970787  T        1      -0.03141739      -0.80505010      -0.55782155
F        9.03564492       5.49032887      22.75547216  T        0       0.17397680       0.21863987       0.29265691
H        9.92738642       5.76848962      22.27137702  T        0      -0.13197089       0.18694811       0.32429889
38
Lattice="11.518769465528859 0.0 0.0 3.839589821842953 6.650364651656328 0.0 0.0 0.0 32.62128289467409" Properties=species:S:1:pos:R:3:move_mask:L:1:tags:I:1:forces:R:3 surface=Si111 species=HF site=hollow orientation=parallel height_A=1.9 substrate_atoms=36 calculation_kind="Rigid evaluated approach scan; not NEB" energy=-182.73006005748522 pbc="T T F"
Si       1.91979491       1.10839411      12.00000000  F        6      -0.00089538       0.00453650       0.16485011
Si       5.75938473       1.10839411      12.00000000  F        6       0.00154850       0.00563837       0.16268340
Si       9.59897455       1.10839411      12.00000000  F        6      -0.00069969       0.00643980       0.16745378
Si       3.83958982       4.43357643      12.00000000  F        6       0.00054646      -0.00435696       0.16894056
Si       7.67917964       4.43357643      12.00000000  F        6       0.00070936      -0.00697501       0.16501274
Si      11.51876947       4.43357643      12.00000000  F        6      -0.00141388      -0.00517015       0.16894756
Si       1.91979491       1.10839411      14.35125897  F        5      -0.00084614      -0.01053584      -0.29374521
Si       5.75938473       1.10839411      14.35125897  F        5      -0.00457175      -0.01089558      -0.31387865
Si       9.59897455       1.10839411      14.35125897  F        5       0.00351433      -0.01638916      -0.24770649
Si       3.83958982       4.43357643      14.35125897  F        5      -0.00337039       0.00953438      -0.28903933
Si       7.67917964       4.43357643      14.35125897  F        5      -0.00869222       0.01378198      -0.30554768
Si      11.51876947       4.43357643      14.35125897  F        5       0.01198343       0.01001163      -0.29263512
Si      -0.00000000       2.21678822      15.13501196  F        4       0.04539237      -0.04347638       0.52412734
Si       3.83958982       2.21678822      15.13501196  F        4       0.00891607      -0.03745296       0.35657909
Si       7.67917964       2.21678822      15.13501196  F        4      -0.04244839      -0.02131831       0.56538189
Si       1.91979491       5.54197054      15.13501196  F        4      -0.00729869       0.02547413       0.01397376
Si       5.75938473       5.54197054      15.13501196  F        4       0.00701915       0.02343232      -0.01880697
Si       9.59897455       5.54197054      15.13501196  F        4      -0.00458136       0.02974997      -0.27500904
Si       0.02017091       2.20591522      17.57841104  T        3       0.03724723       0.05768533       0.05082104
Si       3.84852325       2.20755296      17.54136991  T        3      -0.01086707      -0.05278293       0.01003891
Si       7.65689146       2.22028831      17.58417265  T        3       0.02571317      -0.02758499      -0.02339178
Si       1.91653573       5.54369969      17.49499904  T        3       0.00389479       0.00766928      -0.00310919
Si       5.76798237       5.54630780      17.49200105  T        3      -0.02224022      -0.01929345       0.00936171
Si       9.59014956       5.55060246      17.46329468  T        3       0.03498326      -0.02727084      -0.04049293
Si       0.00564553      -0.05380058      18.36097938  T        2      -0.01927721       0.08457344      -0.17937478
Si       3.84998254      -0.03362070      18.33830159  T        2       0.02315681      -0.06392995      -0.07695333
Si       7.65730681      -0.04714885      18.35123842  T        2       0.00644659      -0.00902157      -0.00918219
Si       1.96295121       3.35805818      18.36139507  T        2       0.03426676      -0.00490043      -0.00349147
Si       5.72750147       3.36651830      18.37319261  T        2       0.03244596      -0.06199172      -0.14453033
Si       9.60420855       3.35920062      18.30798171  T        2      -0.02522827      -0.06052271      -0.16546845
Si       0.04503042      -0.82062321      20.60080741  T        1       0.00757450       0.18085755       0.02963606
Si       4.13615294      -0.74742057      20.59757768  T        1      -0.28877869      -0.13281264      -0.18448671
Si       7.43370194      -0.76118259      20.63751107  T        1       0.19573245      -0.13507495       0.01077234
Si       2.46717184       3.97642142      20.62609283  T        1      -0.15742446       0.04790726      -0.04168724
Si       5.34273635       3.99461569      20.63186351  T        1       0.14770469       0.16979166       0.02997753
Si       9.58992925       4.16578908      20.51661397  T        1      -0.08926119      -0.26259891      -0.19133894
F        9.04284759       5.49938059      22.76758821  T        0       0.06498363       0.16790229       0.31610095
H        9.92192281       5.77622930      22.28480305  T        0      -0.00588448       0.16936956       0.18521703
38
Lattice="11.518769465528859 0.0 0.0 3.839589821842953 6.650364651656328 0.0 0.0 0.0 32.62128289467409" Properties=species:S:1:pos:R:3:move_mask:L:1:tags:I:1:forces:R:3 surface=Si111 species=HF site=hollow orientation=parallel height_A=1.9 substrate_atoms=36 calculation_kind="Rigid evaluated approach scan; not NEB" energy=-182.75822812024472 pbc="T T F"
Si       1.91979491       1.10839411      12.00000000  F        6      -0.00086024       0.00420208       0.16477538
Si       5.75938473       1.10839411      12.00000000  F        6       0.00142962       0.00634113       0.16236962
Si       9.59897455       1.10839411      12.00000000  F        6      -0.00064848       0.00662215       0.16679834
Si       3.83958982       4.43357643      12.00000000  F        6       0.00114542      -0.00431285       0.16949552
Si       7.67917964       4.43357643      12.00000000  F        6       0.00028244      -0.00740531       0.16461303
Si      11.51876947       4.43357643      12.00000000  F        6      -0.00166014      -0.00525374       0.16925378
Si       1.91979491       1.10839411      14.35125897  F        5       0.00207970      -0.01111816      -0.29611899
Si       5.75938473       1.10839411      14.35125897  F        5      -0.00526349      -0.01436428      -0.31626012
Si       9.59897455       1.10839411      14.35125897  F        5       0.00097177      -0.01911181      -0.24994224
Si       3.83958982       4.43357643      14.35125897  F        5      -0.00457846       0.00962111      -0.29077886
Si       7.67917964       4.43357643      14.35125897  F        5      -0.00725361       0.01688745      -0.30678400
Si      11.51876947       4.43357643      14.35125897  F        5       0.01220611       0.01318168      -0.29721581
Si      -0.00000000       2.21678822      15.13501196  F        4       0.05153081      -0.03688147       0.56083542
Si       3.83958982       2.21678822      15.13501196  F        4       0.00261920      -0.04226194       0.36345506
Si       7.67917964       2.21678822      15.13501196  F        4      -0.03965885      -0.02775266       0.57026012
Si       1.91979491       5.54197054      15.13501196  F        4      -0.01022736       0.02238456       0.00374258
Si       5.75938473       5.54197054      15.13501196  F        4       0.00857588       0.02560114      -0.01166741
Si       9.59897455       5.54197054      15.13501196  F        4      -0.00246662       0.03197262      -0.32842087
Si       0.02244413       2.20846541      17.58364392  T        3       0.03871824       0.08290730      -0.04550330
Si       3.84827506       2.20455464      17.54214436  T        3      -0.01922019      -0.06232853      -0.00810069
Si       7.65718514       2.21978731      17.58371984  T        3       0.05312798      -0.07369324      -0.07105722
Si       1.91681696       5.54427071      17.49394342  T        3      -0.00149607       0.00069459       0.00539502
Si       5.76672296       5.54531012      17.49362404  T        3      -0.02334150      -0.02610075      -0.04530030
Si       9.59195977       5.54957822      17.45752532  T        3       0.04488650      -0.04709436       0.05189014
Si       0.00382696      -0.04767839      18.34874326  T        2       0.00521811       0.04277266      -0.09676044
Si       3.85246153      -0.03937818      18.33538557  T        2      -0.01284498      -0.01619006      -0.14515971
Si       7.65749034      -0.04832800      18.35188507  T        2       0.01492771      -0.00005501      -0.03118524
Si       1.96695661       3.35963082      18.36561234  T        2      -0.01137475      -0.04584288      -0.12884694
Si       5.73099056       3.36028022      18.35920390  T        2      -0.01956668       0.01641846       0.02728353
Si       9.60197002       3.35675850      18.30397468  T        2      -0.00009326      -0.09219028      -0.35412095
Si       0.05209838      -0.78756759      20.60150722  T        1      -0.10125609      -0.26143063       0.01989249
Si       4.11241391      -0.74801308      20.58380047  T        1      -0.18902974      -0.38688419      -0.10541766
Si       7.45010259      -0.76421493      20.63789769  T        1       0.11076392      -0.32517792       0.01164972
Si       2.44474869       3.96236785      20.62031915  T        1       0.05170301       0.42764828       0.06579917
Si       5.35673349       3.99965962      20.63704319  T        1       0.08781623       0.32724104      -0.08558918
Si       9.58567812       4.13346477      20.49386131  T        1      -0.11681070       0.20965130       0.16531348
F        9.05014465       5.51181392      22.78768740  T        0       0.05106159       0.14643465       0.27275777
H        9.91803008       5.78783680      22.30082987  T        0       0.02858695       0.11486786       0.09864975
38
Lattice="11.518769465528859 0.0 0.0 3.839589821842953 6.650364651656328 0.0 0.0 0.0 32.62128289467409" Properties=species:S:1:pos:R:3:move_mask:L:1:tags:I:1:forces:R:3 surface=Si111 species=HF site=hollow orientation=parallel height_A=1.9 substrate_atoms=36 calculation_kind="Rigid evaluated approach scan; not NEB" energy=-182.81083363359792 pbc="T T F"
Si       1.91979491       1.10839411      12.00000000  F        6      -0.00112741       0.00424432       0.16471347
Si       5.75938473       1.10839411      12.00000000  F        6       0.00131153       0.00577304       0.16261204
Si       9.59897455       1.10839411      12.00000000  F        6      -0.00043821       0.00677868       0.16636589
Si       3.83958982       4.43357643      12.00000000  F        6       0.00056661      -0.00367807       0.16958834
Si       7.67917964       4.43357643      12.00000000  F        6       0.00091783      -0.00707479       0.16449676
Si      11.51876947       4.43357643      12.00000000  F        6      -0.00183727      -0.00554831       0.16851471
Si       1.91979491       1.10839411      14.35125897  F        5       0.00183666      -0.01164961      -0.29725118
Si       5.75938473       1.10839411      14.35125897  F        5      -0.00399371      -0.01186756      -0.31667779
Si       9.59897455       1.10839411      14.35125897  F        5       0.00113935      -0.01798627      -0.24976625
Si       3.83958982       4.43357643      14.35125897  F        5      -0.00329113       0.00747135      -0.29190567
Si       7.67917964       4.43357643      14.35125897  F        5      -0.00919430       0.01571107      -0.30428761
Si      11.51876947       4.43357643      14.35125897  F        5       0.01255498       0.01367908      -0.30015072
Si      -0.00000000       2.21678822      15.13501196  F        4       0.05958324      -0.03463170       0.54398546
Si       3.83958982       2.21678822      15.13501196  F        4       0.00446766      -0.04436111       0.35754780
Si       7.67917964       2.21678822      15.13501196  F        4      -0.04459070      -0.03653327       0.54248358
Si       1.91979491       5.54197054      15.13501196  F        4      -0.01311353       0.02418234       0.00314211
Si       5.75938473       5.54197054      15.13501196  F        4       0.00684126       0.01964909      -0.03499362
Si       9.59897455       5.54197054      15.13501196  F        4       0.00295564       0.03505506      -0.30349428
Si       0.02486402       2.21364712      17.58079997  T        3       0.03071467       0.00278706      -0.06763707
Si       3.84707380       2.20065911      17.54163806  T        3       0.01001443      -0.01858951      -0.01772808
Si       7.66050564       2.21518148      17.57927876  T        3      -0.03534897      -0.03890770      -0.05415628
Si       1.91672345       5.54431412      17.49428061  T        3       0.00385587      -0.00292283      -0.03130829
Si       5.76526412       5.54367882      17.49079277  T        3      -0.02064047      -0.01620132      -0.05401473
Si       9.59476517       5.54663482      17.46076845  T        3       0.02481749      -0.01526137      -0.04139944
Si       0.00415309      -0.04500509      18.34269573  T        2       0.00385254       0.02128924      -0.00662828
Si       3.85165872      -0.04039006      18.32631309  T        2       0.00252748      -0.08617455      -0.05574855
Si       7.65842332      -0.04833144      18.34993599  T        2       0.01376074      -0.04476705       0.02303725
Si       1.96624569       3.35676564      18.35755941  T        2       0.03977125       0.03481369       0.02607029
Si       5.72976765       3.36130637      18.36090912  T        2       0.00670608      -0.02533497      -0.02169109
Si       9.60196419       3.35099661      18.28184212  T        2       0.00033495       0.03424907       0.02705298
Si       0.04576987      -0.80390701      20.60275050  T        1      -0.04390922       0.09064312      -0.06797202
Si       4.10059955      -0.77219335      20.57721187  T        1      -0.37177790      -0.26277120      -0.12416702
Si       7.45702534      -0.78453855      20.63862580  T        1       0.20947742      -0.26810964       0.00818717
Si       2.44798013       3.98909587      20.62443160  T        1      -0.21767164       0.20233349      -0.04377341
Si       5.36222200       4.02011218      20.63169387  T        1       0.28182960       0.22474955      -0.05762678
Si       9.57837745       4.14656797      20.50419340  T        1      -0.05333265      -0.05804124      -0.15079405
F        9.05333600       5.52096608      22.80473476  T        0       0.12523309       0.17286374       0.22528536
H        9.91981676       5.79501604      22.30699548  T        0      -0.02480325       0.09413908       0.14008898
38
Lattice="11.518769465528859 0.0 0.0 3.839589821842953 6.650364651656328 0.0 0.0 0.0 32.62128289467409" Properties=species:S:1:pos:R:3:move_mask:L:1:tags:I:1:forces:R:3 surface=Si111 species=HF site=hollow orientation=parallel height_A=1.9 substrate_atoms=36 calculation_kind="Rigid evaluated approach scan; not NEB" energy=-182.87453204853458 pbc="T T F"
Si       1.91979491       1.10839411      12.00000000  F        6      -0.00105850       0.00428523       0.16481030
Si       5.75938473       1.10839411      12.00000000  F        6       0.00106242       0.00546119       0.16280598
Si       9.59897455       1.10839411      12.00000000  F        6      -0.00037742       0.00695338       0.16622640
Si       3.83958982       4.43357643      12.00000000  F        6       0.00023717      -0.00339690       0.16927622
Si       7.67917964       4.43357643      12.00000000  F        6       0.00126012      -0.00669170       0.16424686
Si      11.51876947       4.43357643      12.00000000  F        6      -0.00194483      -0.00572234       0.16802145
Si       1.91979491       1.10839411      14.35125897  F        5       0.00099731      -0.01166593      -0.29849127
Si       5.75938473       1.10839411      14.35125897  F        5      -0.00282960      -0.01080017      -0.31781436
Si       9.59897455       1.10839411      14.35125897  F        5       0.00143206      -0.01683432      -0.25023463
Si       3.83958982       4.43357643      14.35125897  F        5      -0.00225171       0.00628066      -0.29311913
Si       7.67917964       4.43357643      14.35125897  F        5      -0.01037308       0.01438547      -0.30174317
Si      11.51876947       4.43357643      14.35125897  F        5       0.01260780       0.01355765      -0.30348121
Si      -0.00000000       2.21678822      15.13501196  F        4       0.06679926      -0.03237894       0.51257084
Si       3.83958982       2.21678822      15.13501196  F        4       0.00607575      -0.04565691       0.34648445
Si       7.67917964       2.21678822      15.13501196  F        4      -0.04956483      -0.04515581       0.50690249
Si       1.91979491       5.54197054      15.13501196  F        4      -0.01462431       0.02431127      -0.01038494
Si       5.75938473       5.54197054      15.13501196  F        4       0.00272032       0.01405016      -0.07416750
Si       9.59897455       5.54197054      15.13501196  F        4       0.00949278       0.03589881      -0.30438797
Si       0.02807275       2.21724699      17.57539091  T        3       0.01413253      -0.03452470      -0.04118387
Si       3.84679291       2.19709615      17.54037976  T        3       0.02254464       0.00089927      -0.00358129
Si       7.66088388       2.21008968      17.57350488  T        3      -0.05648860      -0.00312372      -0.00845940
Si       1.91686136       5.54419127      17.49287945  T        3       0.01589072       0.00476121      -0.04514111
Si       5.76321941       5.54174967      17.48609965  T        3      -0.02367557      -0.01598670      -0.04481145
Si       9.59792469       5.54387958      17.46078088  T        3       0.01127460       0.01054626      -0.08023318
Si       0.00457063      -0.04211691      18.33831905  T        2       0.00169935       0.01333451       0.01023150
Si       3.85125467      -0.04554024      18.31736833  T        2       0.00371895      -0.10633730      -0.00493052
Si       7.65976009      -0.05065870      18.34983280  T        2       0.01357862      -0.06729049       0.04905762
Si       1.96783717       3.35666320      18.35354373  T        2       0.05707360       0.06288947       0.09189118
Si       5.72930049       3.36067483      18.36091963  T        2       0.01816345      -0.04482052      -0.06566444
Si       9.60197770       3.34893335      18.26848928  T        2      -0.00520628       0.05128527       0.17347519
Si       0.03926965      -0.81009447      20.60004939  T        1       0.03100015       0.30427949      -0.09475963
Si       4.07341357      -0.80196357      20.56637003  T        1      -0.57111802      -0.23662610      -0.12023653
Si       7.47252057      -0.81201444      20.63953650  T        1       0.33579048      -0.27110190       0.00727874
Si       2.43883007       4.01742609      20.62490038  T        1      -0.50190201       0.07520325      -0.09283669
Si       5.38051850       4.04542215      20.62513414  T        1       0.48965643       0.22145222      -0.03437223
Si       9.57073959       4.15229073      20.50325129  T        1      -0.00582004      -0.16457541      -0.24218014
F        9.06196794       5.53604634      22.82780199  T        0       0.13933603       0.17957310       0.19352884
H        9.91971996       5.80469221      22.31838217  T        0      -0.00930974       0.07328198       0.14540660
38
Lattice="11.518769465528859 0.0 0.0 3.839589821842953 6.650364651656328 0.0 0.0 0.0 32.62128289467409" Properties=species:S:1:pos:R:3:move_mask:L:1:tags:I:1:forces:R:3 surface=Si111 species=HF site=hollow orientation=parallel height_A=1.9 substrate_atoms=36 calculation_kind="Rigid evaluated approach scan; not NEB" energy=-182.9741974932341 pbc="T T F"
Si       1.91979491       1.10839411      12.00000000  F        6      -0.00076110       0.00430514       0.16469793
Si       5.75938473       1.10839411      12.00000000  F        6       0.00081251       0.00554088       0.16273241
Si       9.59897455       1.10839411      12.00000000  F        6      -0.00045657       0.00709477       0.16600759
Si       3.83958982       4.43357643      12.00000000  F        6       0.00026339      -0.00350744       0.16859320
Si       7.67917964       4.43357643      12.00000000  F        6       0.00120149      -0.00650533       0.16377486
Si      11.51876947       4.43357643      12.00000000  F        6      -0.00195660      -0.00576072       0.16778086
Si       1.91979491       1.10839411      14.35125897  F        5       0.00024281      -0.01147818      -0.29960044
Si       5.75938473       1.10839411      14.35125897  F        5      -0.00216195      -0.01181732      -0.31924365
Si       9.59897455       1.10839411      14.35125897  F        5       0.00148262      -0.01673770      -0.25183084
Si       3.83958982       4.43357643      14.35125897  F        5      -0.00189262       0.00642883      -0.29441500
Si       7.67917964       4.43357643      14.35125897  F        5      -0.01004755       0.01419116      -0.30041721
Si      11.51876947       4.43357643      14.35125897  F        5       0.01210479       0.01366817      -0.30590460
Si      -0.00000000       2.21678822      15.13501196  F        4       0.07063412      -0.03105133       0.48880443
Si       3.83958982       2.21678822      15.13501196  F        4       0.00666331      -0.04638232       0.33996319
Si       7.67917964       2.21678822      15.13501196  F        4      -0.05225630      -0.05066675       0.48645521
Si       1.91979491       5.54197054      15.13501196  F        4      -0.01455053       0.02339361      -0.02947651
Si       5.75938473       5.54197054      15.13501196  F        4      -0.00164135       0.01078727      -0.11001030
Si       9.59897455       5.54197054      15.13501196  F        4       0.01437761       0.03551665      -0.32691389
Si       0.03039873       2.21815493      17.57088361  T        3       0.00354178      -0.02329893       0.00228378
Si       3.84739251       2.19507379      17.53953386  T        3       0.01496351      -0.00776986       0.02096406
Si       7.65919391       2.20705062      17.56989265  T        3      -0.02452235       0.00818446       0.03070466
Si       1.91747751       5.54428130      17.49054757  T        3       0.02465855       0.01430022      -0.03485408
Si       5.76124175       5.54009828      17.48188230  T        3      -0.02794700      -0.01933302      -0.03176140
Si       9.60012579       5.54264840      17.45807818  T        3       0.00705582       0.01112835      -0.05430266
Si       0.00486859      -0.04000256      18.33614306  T        2       0.00252074       0.01791898      -0.02968932
Si       3.85114750      -0.05209894      18.31204843  T        2      -0.00969309      -0.07917356      -0.00772787
Si       7.66098886      -0.05427223      18.35143025  T        2       0.01743377      -0.05874737       0.03731735
Si       1.97068172       3.35872826      18.35433376  T        2       0.03540685       0.03816943       0.05874815
Si       5.72964482       3.35879719      18.35870788  T        2       0.01481862      -0.03742629      -0.07778414
Si       9.60180964       3.34947678      18.26665536  T        2      -0.00759124       0.00738002       0.11950766
Si       0.03657168      -0.80338231      20.59529271  T        1       0.04695020       0.22668861      -0.06315626
Si       4.03846150      -0.82710714      20.55606275  T        1      -0.71014200      -0.33497796      -0.09633023
Si       7.49278910      -0.83700059      20.64030702  T        1       0.46619400      -0.34382214       0.00758603
Si       2.41660683       4.03628802      20.62203493  T        1      -0.67863387       0.17503667      -0.07714223
Si       5.40759771       4.06748353      20.62019395  T        1       0.65318573       0.33908548      -0.03030362
Si       9.56614260       4.15002931      20.49452895  T        1      -0.00574069      -0.09987751      -0.15517141
F        9.07164712       5.55079960      22.84762815  T        0       0.13002626       0.17672166       0.16491477
H        9.91934975       5.81274205      22.32985348  T        0       0.02545635       0.05279337       0.14519953
38
Lattice="11.518769465528859 0.0 0.0 3.839589821842953 6.650364651656328 0.0 0.0 0.0 32.62128289467409" Properties=species:S:1:pos:R:3:move_mask:L:1:tags:I:1:forces:R:3 surface=Si111 species=HF site=hollow orientation=parallel height_A=1.9 substrate_atoms=36 calculation_kind="Rigid evaluated approach scan; not NEB" energy=-183.10214506468577 pbc="T T F"
Si       1.91979491       1.10839411      12.00000000  F        6      -0.00047854       0.00432063       0.16438610
Si       5.75938473       1.10839411      12.00000000  F        6       0.00061556       0.00576207       0.16257625
Si       9.59897455       1.10839411      12.00000000  F        6      -0.00054777       0.00719886       0.16563953
Si       3.83958982       4.43357643      12.00000000  F        6       0.00039329      -0.00369640       0.16791996
Si       7.67917964       4.43357643      12.00000000  F        6       0.00100873      -0.00645846       0.16333260
Si      11.51876947       4.43357643      12.00000000  F        6      -0.00192066      -0.00577846       0.16773579
Si       1.91979491       1.10839411      14.35125897  F        5      -0.00013099      -0.01146701      -0.30039092
Si       5.75938473       1.10839411      14.35125897  F        5      -0.00177972      -0.01361627      -0.32021974
Si       9.59897455       1.10839411      14.35125897  F        5       0.00132469      -0.01742225      -0.25392515
Si       3.83958982       4.43357643      14.35125897  F        5      -0.00183888       0.00698728      -0.29574959
Si       7.67917964       4.43357643      14.35125897  F        5      -0.00904192       0.01488823      -0.29990619
Si      11.51876947       4.43357643      14.35125897  F        5       0.01132122       0.01435974      -0.30759141
Si      -0.00000000       2.21678822      15.13501196  F        4       0.07273726      -0.03008180       0.47680653
Si       3.83958982       2.21678822      15.13501196  F        4       0.00680879      -0.04726263       0.33956398
Si       7.67917964       2.21678822      15.13501196  F        4      -0.05354463      -0.05457289       0.47984372
Si       1.91979491       5.54197054      15.13501196  F        4      -0.01404247       0.02241528      -0.04714308
Si       5.75938473       5.54197054      15.13501196  F        4      -0.00525735       0.00852425      -0.13791799
Si       9.59897455       5.54197054      15.13501196  F        4       0.01785129       0.03516881      -0.35096011
Si       0.03185311       2.21815630      17.56827518  T        3      -0.00093014      -0.00165969       0.03180254
Si       3.84808984       2.19370162      17.53951554  T        3       0.00182206      -0.02254780       0.03972663
Si       7.65763356       2.20544435      17.56846476  T        3       0.01126807       0.00282077       0.04974528
Si       1.91840708       5.54466258      17.48837120  T        3       0.02746356       0.01883782      -0.02322897
Si       5.75943299       5.53867978      17.47866383  T        3      -0.02911957      -0.01972577      -0.02832264
Si       9.60158709       5.54217694      17.45523663  T        3       0.00492389      -0.00016530      -0.01100866
Si       0.00510232      -0.03834321      18.33417723  T        2       0.00512677       0.02316381      -0.06928366
Si       3.85086181      -0.05778753      18.30873057  T        2      -0.02629524      -0.04832217      -0.02297811
Si       7.66211429      -0.05775347      18.35322959  T        2       0.02433113      -0.04215467       0.01520120
Si       1.97317342       3.36082319      18.35614820  T        2       0.00484825       0.00637783       0.00204254
Si       5.73018812       3.35682994      18.35561735  T        2       0.00793375      -0.02061676      -0.06654418
Si       9.60153624       3.34996693      18.26831497  T        2      -0.00546974      -0.03102479       0.02717321
Si       0.03605630      -0.79421821      20.59103546  T        1       0.03008323       0.05819112      -0.02289075
Si       4.00153282      -0.84963686      20.54776753  T        1      -0.80606797      -0.46701464      -0.07147384
Si       7.51545181      -0.85964031      20.64093596  T        1       0.60144376      -0.44393170       0.00463501
Si       2.38791547       4.05143938      20.61857322  T        1      -0.83712527       0.36122876      -0.04366249
Si       5.43857180       4.08828797      20.61658221  T        1       0.81163766       0.48692849      -0.03930429
Si       9.56329709       4.14640249      20.48581920  T        1      -0.02438867       0.00067672      -0.03790534
F        9.08034472       5.56356412      22.86311648  T        0       0.12051114       0.17390463       0.13655121
H        9.91971533       5.81870559      22.33995723  T        0       0.05452544       0.03576435       0.15572504
38
Lattice="11.518769465528859 0.0 0.0 3.839589821842953 6.650364651656328 0.0 0.0 0.0 32.62128289467409" Properties=species:S:1:pos:R:3:move_mask:L:1:tags:I:1:forces:R:3 surface=Si111 species=HF site=hollow orientation=parallel height_A=1.9 substrate_atoms=36 calculation_kind="Rigid evaluated approach scan; not NEB" energy=-183.25699818214855 pbc="T T F"
Si       1.91979491       1.10839411      12.00000000  F        6      -0.00028601       0.00434668       0.16393448
Si       5.75938473       1.10839411      12.00000000  F        6       0.00046625       0.00598762       0.16241190
Si       9.59897455       1.10839411      12.00000000  F        6      -0.00059884       0.00727156       0.16513653
Si       3.83958982       4.43357643      12.00000000  F        6       0.00049411      -0.00383373       0.16735804
Si       7.67917964       4.43357643      12.00000000  F        6       0.00082245      -0.00647118       0.16297800
Si      11.51876947       4.43357643      12.00000000  F        6      -0.00186035      -0.00582107       0.16779049
Si       1.91979491       1.10839411      14.35125897  F        5      -0.00013741      -0.01166825      -0.30087453
Si       5.75938473       1.10839411      14.35125897  F        5      -0.00157352      -0.01544065      -0.32049330
Si       9.59897455       1.10839411      14.35125897  F        5       0.00106591      -0.01850004      -0.25609351
Si       3.83958982       4.43357643      14.35125897  F        5      -0.00182091       0.00745652      -0.29696659
Si       7.67917964       4.43357643      14.35125897  F        5      -0.00790932       0.01601116      -0.29969403
Si      11.51876947       4.43357643      14.35125897  F        5       0.01045763       0.01547632      -0.30879662
Si      -0.00000000       2.21678822      15.13501196  F        4       0.07422481      -0.02915260       0.47374067
Si       3.83958982       2.21678822      15.13501196  F        4       0.00692455      -0.04846292       0.34367199
Si       7.67917964       2.21678822      15.13501196  F        4      -0.05430077      -0.05793445       0.48146897
Si       1.91979491       5.54197054      15.13501196  F        4      -0.01363259       0.02159068      -0.06175041
Si       5.75938473       5.54197054      15.13501196  F        4      -0.00803147       0.00639877      -0.15963720
Si       9.59897455       5.54197054      15.13501196  F        4       0.02042361       0.03515214      -0.36800252
Si       0.03275511       2.21812941      17.56716134  T        3      -0.00261863       0.01472987       0.04302634
Si       3.84856024       2.19245891      17.54016827  T        3      -0.00962724      -0.03396883       0.05072833
Si       7.65683757       2.20447815      17.56839575  T        3       0.03524364      -0.00900055       0.05247779
Si       1.91945276       5.54521813      17.48660973  T        3       0.02630416       0.01858374      -0.01949032
Si       5.75780494       5.53745502      17.47615974  T        3      -0.02743777      -0.01679727      -0.03503600
Si       9.60259134       5.54187674      17.45325986  T        3       0.00236839      -0.01196252       0.02611203
Si       0.00533551      -0.03690901      18.33177849  T        2       0.00779843       0.02457606      -0.08963112
Si       3.85024187      -0.06218440      18.30625315  T        2      -0.04119584      -0.03039187      -0.03126429
Si       7.66323116      -0.06065463      18.35461895  T        2       0.03282832      -0.02936610      -0.00437733
Si       1.97482647       3.36225149      18.35732706  T        2      -0.02249912      -0.01515610      -0.04498367
Si       5.73066354       3.35524409      18.35255485  T        2       0.00326786      -0.00356030      -0.04390658
Si       9.60127229       3.34975737      18.26981638  T        2      -0.00088764      -0.04847359      -0.03849979
Si       0.03623419      -0.78746366      20.58796685  T        1       0.01117027      -0.09667670       0.00534759
Si       3.96475632      -0.87165976      20.54133905  T        1      -0.85720972      -0.57756490      -0.05335784
Si       7.53980648      -0.88134663      20.64141025  T        1       0.72956300      -0.54451748      -0.00239901
Si       2.35581645       4.06703848      20.61565916  T        1      -1.01657001       0.54452527      -0.01364612
Si       5.47168477       4.10955540      20.61364639  T        1       0.95985704       0.61602895      -0.05448655
Si       9.56109409       4.14412569      20.47969052  T        1      -0.04518095       0.07998483       0.05047323
F        9.08784706       5.57452504      22.87517120  T        0       0.11235023       0.17293855       0.11251711
H        9.92085772       5.82306593      22.34893550  T        0       0.07774741       0.02366241       0.17421385
38
Lattice="11.518769465528859 0.0 0.0 3.839589821842953 6.650364651656328 0.0 0.0 0.0 32.62128289467409" Properties=species:S:1:pos:R:3:move_mask:L:1:tags:I:1:forces:R:3 surface=Si111 species=HF site=hollow orientation=parallel height_A=1.9 substrate_atoms=36 calculation_kind="Rigid evaluated approach scan; not NEB" energy=-183.43720556974185 pbc="T T F"
Si       1.91979491       1.10839411      12.00000000  F        6      -0.00018115       0.00439625       0.16337999
Si       5.75938473       1.10839411      12.00000000  F        6       0.00035142       0.00617273       0.16223657
Si       9.59897455       1.10839411      12.00000000  F        6      -0.00060480       0.00732284       0.16452296
Si       3.83958982       4.43357643      12.00000000  F        6       0.00052147      -0.00390226       0.16687625
Si       7.67917964       4.43357643      12.00000000  F        6       0.00069257      -0.00650536       0.16267135
Si      11.51876947       4.43357643      12.00000000  F        6      -0.00178461      -0.00589569       0.16785542
Si       1.91979491       1.10839411      14.35125897  F        5       0.00014319      -0.01200044      -0.30110274
Si       5.75938473       1.10839411      14.35125897  F        5      -0.00151859      -0.01699719      -0.32009345
Si       9.59897455       1.10839411      14.35125897  F        5       0.00078412      -0.01970431      -0.25811300
Si       3.83958982       4.43357643      14.35125897  F        5      -0.00172381       0.00767686      -0.29789777
Si       7.67917964       4.43357643      14.35125897  F        5      -0.00689943       0.01724653      -0.29940430
Si      11.51876947       4.43357643      14.35125897  F        5       0.00962237       0.01676328      -0.30962415
Si      -0.00000000       2.21678822      15.13501196  F        4       0.07550867      -0.02818744       0.47630475
Si       3.83958982       2.21678822      15.13501196  F        4       0.00715016      -0.04988150       0.35065557
Si       7.67917964       2.21678822      15.13501196  F        4      -0.05493279      -0.06111110       0.48717605
Si       1.91979491       5.54197054      15.13501196  F        4      -0.01343066       0.02085641      -0.07362188
Si       5.75938473       5.54197054      15.13501196  F        4      -0.01009058       0.00414448      -0.17743054
Si       9.59897455       5.54197054      15.13501196  F        4       0.02236930       0.03539929      -0.37639976
Si       0.03332039       2.21829979      17.56697181  T        3      -0.00377066       0.02278375       0.04053703
Si       3.84874947       2.19119992      17.54124979  T        3      -0.01704518      -0.04001941       0.05698569
Si       7.65675957       2.20372177      17.56902054  T        3       0.04643140      -0.02117290       0.04578982
Si       1.92048301       5.54582437      17.48519142  T        3       0.02378751       0.01545298      -0.02463140
Si       5.75637362       5.53642738      17.47404982  T        3      -0.02446080      -0.01202350      -0.04815509
Si       9.60328822       5.54152460      17.45228136  T        3      -0.00063890      -0.01929607       0.05034958
Si       0.00558995      -0.03564294      18.32904084  T        2       0.00965943       0.02185778      -0.09125902
Si       3.84930393      -0.06549140      18.30420912  T        2      -0.05334881      -0.02650265      -0.02817527
Si       7.66439204      -0.06295567      18.35548526  T        2       0.04183468      -0.02374125      -0.01747187
Si       1.97563624       3.36300592      18.35753475  T        2      -0.04455496      -0.02459325      -0.07462366
Si       5.73102089       3.35414591      18.34996090  T        2       0.00343688       0.01089311      -0.01761955
Si       9.60108574       3.34899884      18.27032103  T        2       0.00450062      -0.04828853      -0.06561824
Si       0.03649501      -0.78421542      20.58599825  T        1       0.00137696      -0.21685178       0.01844572
Si       3.92939017      -0.89365902      20.53639000  T        1      -0.84754183      -0.63999880      -0.04329196
Si       7.56529590      -0.90271343      20.64169443  T        1       0.82497481      -0.62601942      -0.01314141
Si       2.32151877       4.08435143      20.61355045  T        1      -1.19302147       0.69116219       0.00658679
Si       5.50593078       4.13154471      20.61100133  T        1       1.06414505       0.70257342      -0.07164608
Si       9.55905438       4.14363647      20.47626729  T        1      -0.06313357       0.12777864       0.09842055
F        9.09426277       5.58401079      22.88461090  T        0       0.10477632       0.17389458       0.09455622
H        9.92260955       5.82626269      22.35712148  T        0       0.09661566       0.01631770       0.19597081
38
Lattice="11.518769465528859 0.0 0.0 3.839589821842953 6.650364651656328 0.0 0.0 0.0 32.62128289467409" Properties=species:S:1:pos:R:3:move_mask:L:1:tags:I:1:forces:R:3 surface=Si111 species=HF site=hollow orientation=parallel height_A=1.9 substrate_atoms=36 calculation_kind="Rigid evaluated approach scan; not NEB" energy=-183.63437476611938 pbc="T T F"
Si       1.91979491       1.10839411      12.00000000  F        6      -0.00013788       0.00448071       0.16274906
Si       5.75938473       1.10839411      12.00000000  F        6       0.00025974       0.00631611       0.16203646
Si       9.59897455       1.10839411      12.00000000  F        6      -0.00057856       0.00736799       0.16383714
Si       3.83958982       4.43357643      12.00000000  F        6       0.00047263      -0.00392756       0.16642275
Si       7.67917964       4.43357643      12.00000000  F        6       0.00062762      -0.00655088       0.16237331
Si      11.51876947       4.43357643      12.00000000  F        6      -0.00169856      -0.00600043       0.16787247
Si       1.91979491       1.10839411      14.35125897  F        5       0.00059994      -0.01239024      -0.30110755
Si       5.75938473       1.10839411      14.35125897  F        5      -0.00157824      -0.01823952      -0.31917254
Si       9.59897455       1.10839411      14.35125897  F        5       0.00052366      -0.02087246      -0.25987022
Si       3.83958982       4.43357643      14.35125897  F        5      -0.00152062       0.00767281      -0.29844902
Si       7.67917964       4.43357643      14.35125897  F        5      -0.00610677       0.01843503      -0.29882489
Si      11.51876947       4.43357643      14.35125897  F        5       0.00887216       0.01801848      -0.31006839
Si      -0.00000000       2.21678822      15.13501196  F        4       0.07664077      -0.02719796       0.48179522
Si       3.83958982       2.21678822      15.13501196  F        4       0.00748810      -0.05134337       0.35938662
Si       7.67917964       2.21678822      15.13501196  F        4      -0.05554139      -0.06416792       0.49438719
Si       1.91979491       5.54197054      15.13501196  F        4      -0.01337019       0.02011780      -0.08373909
Si       5.75938473       5.54197054      15.13501196  F        4      -0.01161981       0.00174464      -0.19334753
Si       9.59897455       5.54197054      15.13501196  F        4       0.02385082       0.03573944      -0.37739506
Si       0.03367390       2.21865217      17.56725689  T        3      -0.00555792       0.02366999       0.02984162
Si       3.84870561       2.18991498      17.54258595  T        3      -0.02022636      -0.04128117       0.06206088
Si       7.65718262       2.20297930      17.56992469  T        3       0.04785473      -0.03075572       0.03535431
Si       1.92144240       5.54640388      17.48395407  T        3       0.02186345       0.01111157      -0.03676298
Si       5.75512901       5.53559071      17.47209079  T        3      -0.02149348      -0.00687030      -0.06380505
Si       9.60376524       5.54108193      17.45211980  T        3      -0.00368966      -0.02120407       0.06250559
Si       0.00586579      -0.03453975      18.32620322  T        2       0.01055087       0.01599745      -0.08064519
Si       3.84810479      -0.06805860      18.30250116  T        2      -0.06285278      -0.03265882      -0.01505252
Si       7.66562755      -0.06479642      18.35590687  T        2       0.05048962      -0.02500950      -0.02304647
Si       1.97574028       3.36327670      18.35691195  T        2      -0.06214575      -0.02462845      -0.08802571
Si       5.73130418       3.35349581      18.34797981  T        2       0.00966045       0.02295406       0.00827592
Si       9.60100254       3.34797621      18.26999686  T        2       0.00960068      -0.03785709      -0.06266076
Si       0.03669016      -0.78418998      20.58482176  T        1       0.00130184      -0.30755214       0.01997138
Si       3.89613826      -0.91550230      20.53251079  T        1      -0.77007560      -0.64538098      -0.04066733
Si       7.59146214      -0.92397418      20.64175657  T        1       0.85907457      -0.67145302      -0.02736107
Si       2.28545776       4.10346857      20.61215484  T        1      -1.32004865       0.78671755       0.01627072
Si       5.54063146       4.15402417      20.60842953  T        1       1.09538994       0.73559276      -0.08841439
Si       9.55699014       4.14461018      20.47490331  T        1      -0.07591850       0.14999549       0.11326038
F        9.09979162       5.59238036      22.89213315  T        0       0.09774714       0.17641940       0.08211733
H        9.92481813       5.82864872      22.36481599  T        0       0.11129196       0.01299031       0.21789742
38
Lattice="11.518769465528859 0.0 0.0 3.839589821842953 6.650364651656328 0.0 0.0 0.0 32.62128289467409" Properties=species:S:1:pos:R:3:move_mask:L:1:tags:I:1:forces:R:3 surface=Si111 species=HF site=hollow orientation=parallel height_A=1.9 substrate_atoms=36 calculation_kind="Rigid evaluated approach scan; not NEB" energy=-183.83526945609782 pbc="T T F"
Si       1.91979491       1.10839411      12.00000000  F        6      -0.00012960       0.00461069       0.16206827
Si       5.75938473       1.10839411      12.00000000  F        6       0.00018147       0.00642938       0.16181802
Si       9.59897455       1.10839411      12.00000000  F        6      -0.00053374       0.00742557       0.16312084
Si       3.83958982       4.43357643      12.00000000  F        6       0.00035908      -0.00394380       0.16596716
Si       7.67917964       4.43357643      12.00000000  F        6       0.00062321      -0.00660786       0.16208298
Si      11.51876947       4.43357643      12.00000000  F        6      -0.00160744      -0.00613681       0.16780594
Si       1.91979491       1.10839411      14.35125897  F        5       0.00112282      -0.01282301      -0.30092928
Si       5.75938473       1.10839411      14.35125897  F        5      -0.00167378      -0.01920632      -0.31790487
Si       9.59897455       1.10839411      14.35125897  F        5       0.00028730      -0.02191657      -0.26131318
Si       3.83958982       4.43357643      14.35125897  F        5      -0.00120806       0.00754735      -0.29861576
Si       7.67917964       4.43357643      14.35125897  F        5      -0.00557532       0.01949967      -0.29791552
Si      11.51876947       4.43357643      14.35125897  F        5       0.00823404       0.01913906      -0.31005677
Si      -0.00000000       2.21678822      15.13501196  F        4       0.07750563      -0.02622835       0.48834123
Si       3.83958982       2.21678822      15.13501196  F        4       0.00790768      -0.05268662       0.36919102
Si       7.67917964       2.21678822      15.13501196  F        4      -0.05605974      -0.06707620       0.50164206
Si       1.91979491       5.54197054      15.13501196  F        4      -0.01335946       0.01934059      -0.09322113
Si       5.75938473       5.54197054      15.13501196  F        4      -0.01275805      -0.00075039      -0.20915506
Si       9.59897455       5.54197054      15.13501196  F        4       0.02496705       0.03601145      -0.37261530
Si       0.03387406       2.21912011      17.56773371  T        3      -0.00851541       0.01928240       0.01488322
Si       3.84848857       2.18862246      17.54410581  T        3      -0.01958174      -0.03852995       0.06867216
Si       7.65792302       2.20216902      17.57089213  T        3       0.04243904      -0.03665453       0.02470124
Si       1.92232513       5.54691783      17.48273688  T        3       0.02154218       0.00655107      -0.05326613
Si       5.75404697       5.53493296      17.47011223  T        3      -0.01939368      -0.00239394      -0.07900457
Si       9.60407034       5.54057249      17.45257935  T        3      -0.00649161      -0.01833145       0.06515421
Si       0.00615878      -0.03360872      18.32344552  T        2       0.01057068       0.00767332      -0.06357027
Si       3.84667502      -0.07018317      18.30114901  T        2      -0.06940374      -0.04479203       0.00514767
Si       7.66696956      -0.06633442      18.35599471  T        2       0.05807480      -0.03194921      -0.02069050
Si       1.97524314       3.36324282      18.35566046  T        2      -0.07620865      -0.01731258      -0.08661544
Si       5.73159428       3.35324471      18.34664793  T        2       0.02239445       0.03322754       0.03106110
Si       9.60103164       3.34690156      18.26919067  T        2       0.01355228      -0.02302642      -0.04070233
Si       0.03684081      -0.78699804      20.58416916  T        1       0.00662275      -0.37448358       0.01421458
Si       3.86543036      -0.93695645      20.52938021  T        1      -0.63359549      -0.59590020      -0.04479896
Si       7.61795219      -0.94525390      20.64154931  T        1       0.81214066      -0.66812254      -0.04509431
Si       2.24769972       4.12428404      20.61131252  T        1      -1.35798573       0.82237358       0.01499484
Si       5.57535832       4.17675941      20.60578934  T        1       1.04261972       0.71284245      -0.10313129
Si       9.55482550       4.14668051      20.47497470  T        1      -0.08049823       0.15389295       0.10512947
F        9.10461910       5.59994962      22.89823368  T        0       0.09157589       0.17987507       0.07431183
H        9.92741040       5.83046379      22.37228664  T        0       0.12185876       0.01315023       0.23829284
38
Lattice="11.518769465528859 0.0 0.0 3.839589821842953 6.650364651656328 0.0 0.0 0.0 32.62128289467409" Properties=species:S:1:pos:R:3:move_mask:L:1:tags:I:1:forces:R:3 surface=Si111 species=HF site=hollow orientation=parallel height_A=1.9 substrate_atoms=36 calculation_kind="Rigid evaluated approach scan; not NEB" energy=-184.0246990025137 pbc="T T F"
Si       1.91979491       1.10839411      12.00000000  F        6      -0.00013005       0.00479649       0.16138012
Si       5.75938473       1.10839411      12.00000000  F        6       0.00010489       0.00652919       0.16161706
Si       9.59897455       1.10839411      12.00000000  F        6      -0.00048147       0.00751436       0.16241614
Si       3.83958982       4.43357643      12.00000000  F        6       0.00019804      -0.00398701       0.16550942
Si       7.67917964       4.43357643      12.00000000  F        6       0.00066983      -0.00667875       0.16183894
Si      11.51876947       4.43357643      12.00000000  F        6      -0.00151679      -0.00630925       0.16764331
Si       1.91979491       1.10839411      14.35125897  F        5       0.00163649      -0.01332755      -0.30062770
Si       5.75938473       1.10839411      14.35125897  F        5      -0.00171881      -0.01993951      -0.31643891
Si       9.59897455       1.10839411      14.35125897  F        5       0.00003873      -0.02280494      -0.26243308
Si       3.83958982       4.43357643      14.35125897  F        5      -0.00077662       0.00741978      -0.29846871
Si       7.67917964       4.43357643      14.35125897  F        5      -0.00532628       0.02039619      -0.29674391
Si      11.51876947       4.43357643      14.35125897  F        5       0.00770871       0.02010308      -0.30953195
Si      -0.00000000       2.21678822      15.13501196  F        4       0.07794726      -0.02531487       0.49452251
Si       3.83958982       2.21678822      15.13501196  F        4       0.00835984      -0.05377619       0.37957336
Si       7.67917964       2.21678822      15.13501196  F        4      -0.05634610      -0.06978109       0.50797832
Si       1.91979491       5.54197054      15.13501196  F        4      -0.01332271       0.01853111      -0.10333618
Si       5.75938473       5.54197054      15.13501196  F        4      -0.01360227      -0.00329093      -0.22644916
Si       9.59897455       5.54197054      15.13501196  F        4       0.02579226       0.03608264      -0.36374495
Si       0.03394785       2.21962952      17.56821182  T        3      -0.01267510       0.01185965      -0.00132133
Si       3.84816084       2.18734204      17.54581233  T        3      -0.01609667      -0.03241750       0.07841613
Si       7.65883160       2.20125886      17.57181494  T        3       0.03310552      -0.03931530       0.01568976
Si       1.92315858       5.54735157      17.48138509  T        3       0.02293178       0.00219048      -0.07077088
Si       5.75308563       5.53442936      17.46798003  T        3      -0.01864823       0.00073589      -0.09152040
Si       9.60423859       5.54004078      17.45347697  T        3      -0.00874629      -0.01212658       0.06130870
Si       0.00646481      -0.03285904      18.32087384  T        2       0.00980278      -0.00284717      -0.04411596
Si       3.84502838      -0.07212845      18.30020030  T        2      -0.07242956      -0.05876425       0.02887981
Si       7.66845436      -0.06773855      18.35588135  T        2       0.06407139      -0.04281762      -0.01075453
Si       1.97422290       3.36306910      18.35399677  T        2      -0.08795888      -0.00385162      -0.07171958
Si       5.73199985       3.35334598      18.34593687  T        2       0.04084384       0.04174039       0.04875541
Si       9.60116951       3.34591443      18.26824872  T        2       0.01584272      -0.00799672      -0.01001352
Si       0.03700838      -0.79227964      20.58381212  T        1       0.01073720      -0.42005999       0.00505721
Si       3.83743251      -0.95783460      20.52669608  T        1      -0.44925977      -0.49602535      -0.05425488
Si       7.64438756      -0.96662486      20.64100943  T        1       0.68199448      -0.61204774      -0.06670509
Si       2.20829686       4.14664018      20.61082286  T        1      -1.28834131       0.79599496       0.00252103
Si       5.60982396       4.19958371      20.60296386  T        1       0.90462748       0.63412236      -0.11453417
Si       9.55254381       4.14952391      20.47593094  T        1      -0.07445239       0.14556612       0.08391141
F        9.10895151       5.60705461      22.90335255  T        0       0.08557826       0.18327383       0.07057667
H        9.93036170       5.83190977      22.37982143  T        0       0.12983780       0.01662339       0.25588958
38
Lattice="11.518769465528859 0.0 0.0 3.839589821842953 6.650364651656328 0.0 0.0 0.0 32.62128289467409" Properties=species:S:1:pos:R:3:move_mask:L:1:tags:I:1:forces:R:3 surface=Si111 species=HF site=hollow orientation=parallel height_A=1.9 substrate_atoms=36 calculation_kind="Rigid evaluated approach scan; not NEB" energy=-184.18766185489244 pbc="T T F"
Si       1.91979491       1.10839411      12.00000000  F        6      -0.00011838       0.00505129       0.16073834
Si       5.75938473       1.10839411      12.00000000  F        6       0.00001724       0.00663077       0.16149385
Si       9.59897455       1.10839411      12.00000000  F        6      -0.00042684       0.00765018       0.16176253
Si       3.83958982       4.43357643      12.00000000  F        6       0.00000268      -0.00408922       0.16507928
Si       7.67917964       4.43357643      12.00000000  F        6       0.00076146      -0.00676611       0.16170499
Si      11.51876947       4.43357643      12.00000000  F        6      -0.00143156      -0.00652494       0.16739875
Si       1.91979491       1.10839411      14.35125897  F        5       0.00211688      -0.01397013      -0.30026588
Si       5.75938473       1.10839411      14.35125897  F        5      -0.00166541      -0.02043735      -0.31483351
Si       9.59897455       1.10839411      14.35125897  F        5      -0.00026507      -0.02355069      -0.26328898
Si       3.83958982       4.43357643      14.35125897  F        5      -0.00020464       0.00739481      -0.29813819
Si       7.67917964       4.43357643      14.35125897  F        5      -0.00537099       0.02109682      -0.29539681
Si      11.51876947       4.43357643      14.35125897  F        5       0.00727886       0.02094321      -0.30852827
Si      -0.00000000       2.21678822      15.13501196  F        4       0.07781721      -0.02447252       0.49921066
Si       3.83958982       2.21678822      15.13501196  F        4       0.00878116      -0.05451878       0.39028165
Si       7.67917964       2.21678822      15.13501196  F        4      -0.05624803      -0.07220648       0.51267785
Si       1.91979491       5.54197054      15.13501196  F        4      -0.01319651       0.01770408      -0.11550472
Si       5.75938473       5.54197054      15.13501196  F        4      -0.01418403      -0.00584575      -0.24663711
Si       9.59897455       5.54197054      15.13501196  F        4       0.02634267       0.03585067      -0.35205911
Si       0.03389622       2.22011882      17.56856507  T        3      -0.01765171       0.00331578      -0.01650106
Si       3.84777399       2.18608997      17.54778073  T        3      -0.01123708      -0.02332078       0.09139697
Si       7.65980603       2.20023037      17.57265201  T        3       0.02266463      -0.04010605       0.00901377
Si       1.92398915       5.54770090      17.47975219  T        3       0.02547796      -0.00196707      -0.08557277
Si       5.75219401       5.53405168      17.46557557  T        3      -0.01933086       0.00230598      -0.09956994
Si       9.60429243       5.53953220      17.45468308  T        3      -0.00999485      -0.00414298       0.05332150
Si       0.00678156      -0.03231173      18.31853777  T        2       0.00813897      -0.01556253      -0.02433796
Si       3.84315658      -0.07411164      18.29972281  T        2      -0.07112845      -0.07080249       0.05244493
Si       7.67013164      -0.06917344      18.35570339  T        2       0.06797260      -0.05566861       0.00544661
Si       1.97269648       3.36290388      18.35211802  T        2      -0.09862269       0.01493983      -0.04489587
Si       5.73265666       3.35377842      18.34580973  T        2       0.06272074       0.04757750       0.06021623
Si       9.60140946       3.34509379      18.26744537  T        2       0.01631829       0.00467789       0.02199314
Si       0.03722751      -0.79988128      20.58358296  T        1       0.00746650      -0.44304882      -0.00476219
Si       3.81226385      -0.97797333      20.52418799  T        1      -0.21635551      -0.34294012      -0.06667544
Si       7.67034577      -0.98812674      20.64003012  T        1       0.48318075      -0.50725423      -0.09230692
Si       2.16729197       4.17045868      20.61047101  T        1      -1.11587634       0.71147225      -0.02084993
Si       5.64379910       4.22238146      20.59983498  T        1       0.67849590       0.49353940      -0.12074086
Si       9.55017064       4.15293056      20.47737411  T        1      -0.05710873       0.12832427       0.05685048
F        9.11298280       5.61403115      22.90785576  T        0       0.07723931       0.18546546       0.07082428
H        9.93371675       5.83315365      22.38774366  T        0       0.13762387       0.02325547       0.26900969
38
Lattice="11.518769465528859 0.0 0.0 3.839589821842953 6.650364651656328 0.0 0.0 0.0 32.62128289467409" Properties=species:S:1:pos:R:3:move_mask:L:1:tags:I:1:forces:R:3 surface=Si111 species=HF site=hollow orientation=parallel height_A=1.9 substrate_atoms=36 calculation_kind="Rigid evaluated approach scan; not NEB" energy=-184.3102235801306 pbc="T T F"
Si       1.91979491       1.10839411      12.00000000  F        6      -0.00008178       0.00539364       0.16019540
Si       5.75938473       1.10839411      12.00000000  F        6      -0.00009285       0.00674574       0.16151794
Si       9.59897455       1.10839411      12.00000000  F        6      -0.00036892       0.00784683       0.16120121
Si       3.83958982       4.43357643      12.00000000  F        6      -0.00022117      -0.00427759       0.16472716
Si       7.67917964       4.43357643      12.00000000  F        6       0.00089938      -0.00687327       0.16174592
Si      11.51876947       4.43357643      12.00000000  F        6      -0.00135675      -0.00679421       0.16711910
Si       1.91979491       1.10839411      14.35125897  F        5       0.00254561      -0.01483572      -0.29986576
Si       5.75938473       1.10839411      14.35125897  F        5      -0.00150472      -0.02066408      -0.31304177
Si       9.59897455       1.10839411      14.35125897  F        5      -0.00062823      -0.02419392      -0.26402152
Si       3.83958982       4.43357643      14.35125897  F        5       0.00051511       0.00757772      -0.29778606
Si       7.67917964       4.43357643      14.35125897  F        5      -0.00570627       0.02158027      -0.29391904
Si      11.51876947       4.43357643      14.35125897  F        5       0.00692887       0.02169955      -0.30719411
Si      -0.00000000       2.21678822      15.13501196  F        4       0.07697067      -0.02370037       0.50130898
Si       3.83958982       2.21678822      15.13501196  F        4       0.00911031      -0.05488566       0.40154066
Si       7.67917964       2.21678822      15.13501196  F        4      -0.05565034      -0.07424972       0.51518040
Si       1.91979491       5.54197054      15.13501196  F        4      -0.01290766       0.01684960      -0.13141323
Si       5.75938473       5.54197054      15.13501196  F        4      -0.01447516      -0.00839580      -0.27112362
Si       9.59897455       5.54197054      15.13501196  F        4       0.02656274       0.03523242      -0.33832820
Si       0.03369547       2.22053772      17.56869653  T        3      -0.02286024      -0.00526299      -0.02890274
Si       3.84736484       2.18488381      17.55017221  T        3      -0.00677131      -0.01157824       0.10614878
Si       7.66078559       2.19905002      17.57339886  T        3       0.01381801      -0.04047145       0.00491333
Si       1.92487982       5.54796074      17.47768007  T        3       0.02832356      -0.00604788      -0.09418057
Si       5.75131045       5.53377237      17.46276356  T        3      -0.02094791       0.00242003      -0.10099896
Si       9.60424477       5.53909050      17.45612417  T        3      -0.00965363       0.00426259       0.04266640
Si       0.00710695      -0.03201755      18.31646086  T        2       0.00538435      -0.03042513      -0.00486381
Si       3.84102527      -0.07632852      18.29981785  T        2      -0.06473575      -0.07716775       0.07165742
Si       7.67207979      -0.07081761      18.35561124  T        2       0.06892696      -0.06806283       0.02520226
Si       1.97059090       3.36290775      18.35021855  T        2      -0.10874731       0.03738083      -0.00889166
Si       5.73374622       3.35455264      18.34625354  T        2       0.08436060       0.04913530       0.06490066
Si       9.60174782       3.34448388      18.26700588  T        2       0.01484793       0.01346833       0.05029397
Si       0.03746924      -0.80993196      20.58335773  T        1      -0.00718732      -0.44004046      -0.01358262
Si       3.79030229      -0.99708255      20.52159126  T        1       0.07609266      -0.12831609      -0.07883070
Si       7.69534925      -1.00980619      20.63841652  T        1       0.22966681      -0.35517010      -0.12063729
Si       2.12460452       4.19582724      20.61000270  T        1      -0.85108105       0.56934648      -0.05372133
Si       5.67694168       4.24496676      20.59625564  T        1       0.35865029       0.28130018      -0.11907960
Si       9.54776771       4.15679928      20.47903555  T        1      -0.02954675       0.10293350       0.02861261
F        9.11688575       5.62125424      22.91207574  T        0       0.06303373       0.18531561       0.07534505
H        9.93762861       5.83435269      22.39647433  T        0       0.14788753       0.03292461       0.27610538
38
Lattice="11.518769465528859 0.0 0.0 3.839589821842953 6.650364651656328 0.0 0.0 0.0 32.62128289467409" Properties=species:S:1:pos:R:3:move_mask:L:1:tags:I:1:forces:R:3 surface=Si111 species=HF site=hollow orientation=parallel height_A=1.9 substrate_atoms=36 calculation_kind="Rigid evaluated approach scan; not NEB" energy=-184.38017603870796 pbc="T T F"
Si       1.91979491       1.10839411      12.00000000  F        6      -0.00001464       0.00585290       0.15978539
Si       5.75938473       1.10839411      12.00000000  F        6      -0.00023445       0.00688303       0.16174493
Si       9.59897455       1.10839411      12.00000000  F        6      -0.00030240       0.00812221       0.16076796
Si       3.83958982       4.43357643      12.00000000  F        6      -0.00047580      -0.00457990       0.16450463
Si       7.67917964       4.43357643      12.00000000  F        6       0.00109523      -0.00700674       0.16199592
Si      11.51876947       4.43357643      12.00000000  F        6      -0.00129932      -0.00713340       0.16687742
Si       1.91979491       1.10839411      14.35125897  F        5       0.00282744      -0.01600364      -0.29934806
Si       5.75938473       1.10839411      14.35125897  F        5      -0.00121469      -0.02060450      -0.31092372
Si       9.59897455       1.10839411      14.35125897  F        5      -0.00098481      -0.02479316      -0.26483496
Si       3.83958982       4.43357643      14.35125897  F        5       0.00133450       0.00811176      -0.29754694
Si       7.67917964       4.43357643      14.35125897  F        5      -0.00630956       0.02183065      -0.29227868
Si      11.51876947       4.43357643      14.35125897  F        5       0.00667824       0.02237981      -0.30573228
Si      -0.00000000       2.21678822      15.13501196  F        4       0.07522898      -0.02300897       0.49953653
Si       3.83958982       2.21678822      15.13501196  F        4       0.00932965      -0.05495187       0.41464974
Si       7.67917964       2.21678822      15.13501196  F        4      -0.05449925      -0.07581380       0.51524197
Si       1.91979491       5.54197054      15.13501196  F        4      -0.01235679       0.01591120      -0.15339055
Si       5.75938473       5.54197054      15.13501196  F        4      -0.01442378      -0.01090536      -0.30175406
Si       9.59897455       5.54197054      15.13501196  F        4       0.02635055       0.03416880      -0.32272703
Si       0.03328442       2.22083206      17.56849903  T        3      -0.02795736      -0.01381728      -0.03678479
Si       3.84695065       2.18375195      17.55330128  T        3      -0.00417124       0.00234305       0.11967856
Si       7.66175177       2.19763242      17.57407571  T        3       0.00898003      -0.04102464       0.00378399
Si       1.92592596       5.54811371      17.47494537  T        3       0.03043632      -0.00991465      -0.09354291
Si       5.75034870       5.53356453      17.45933758  T        3      -0.02212927       0.00100347      -0.09160692
Si       9.60410224       5.53876645      17.45778318  T        3      -0.00729162       0.01192051       0.02976910
Si       0.00743635      -0.03209516      18.31467222  T        2       0.00174308      -0.04694109       0.01436579
Si       3.83855429      -0.07900331      18.30065955  T        2      -0.05247676      -0.07353943       0.08061006
Si       7.67444218      -0.07291659      18.35580225  T        2       0.06510178      -0.07623038       0.04384288
Si       1.96767328       3.36330860      18.34853546  T        2      -0.11698525       0.05957945       0.03181008
Si       5.73555475       3.35572276      18.34731504  T        2       0.10083992       0.04434883       0.06131753
Si       9.60218873       3.34411708      18.26717331  T        2       0.01063785       0.01708927       0.07095144
Si       0.03759494      -0.82301795      20.58302490  T        1      -0.03515584      -0.40568107      -0.02091496
Si       3.77274541      -1.01442832      20.51858112  T        1       0.42758286       0.14736890      -0.08638411
Si       7.71870239      -1.03171445      20.63578388  T        1      -0.08708701      -0.14163075      -0.14788463
Si       2.07985246       4.22309887      20.60903962  T        1      -0.48613433       0.35406036      -0.09282452
Si       5.70847349       4.26684683      20.59199562  T        1      -0.04627224      -0.00313333      -0.10636661
Si       9.54544387       4.16112956      20.48072934  T        1       0.00672742       0.06851324       0.00217270
F        9.12082024       5.62926604      22.91640631  T        0       0.04109285       0.18184929       0.08447874
H        9.94247314       5.83570566      22.40671264  T        0       0.16178972       0.04537724       0.27696037
38
Lattice="11.518769465528859 0.0 0.0 3.839589821842953 6.650364651656328 0.0 0.0 0.0 32.62128289467409" Properties=species:S:1:pos:R:3:move_mask:L:1:tags:I:1:forces:R:3 surface=Si111 species=HF site=hollow orientation=parallel height_A=1.9 substrate_atoms=36 calculation_kind="Rigid evaluated approach scan; not NEB" energy=-184.39107710820562 pbc="T T F"
Si       1.91979491       1.10839411      12.00000000  F        6       0.00008626       0.00647669       0.15949718
Si       5.75938473       1.10839411      12.00000000  F        6      -0.00041675       0.00705226       0.16218293
Si       9.59897455       1.10839411      12.00000000  F        6      -0.00021972       0.00850531       0.16046206
Si       3.83958982       4.43357643      12.00000000  F        6      -0.00077161      -0.00503438       0.16442813
Si       7.67917964       4.43357643      12.00000000  F        6       0.00137296      -0.00717870       0.16241824
Si      11.51876947       4.43357643      12.00000000  F        6      -0.00126986      -0.00756787       0.16674383
Si       1.91979491       1.10839411      14.35125897  F        5       0.00270033      -0.01755125      -0.29852675
Si       5.75938473       1.10839411      14.35125897  F        5      -0.00067165      -0.02036805      -0.30832535
Si       9.59897455       1.10839411      14.35125897  F        5      -0.00119258      -0.02545426      -0.26601337
Si       3.83958982       4.43357643      14.35125897  F        5       0.00211399       0.00923341      -0.29748123
Si       7.67917964       4.43357643      14.35125897  F        5      -0.00713949       0.02186548      -0.29036805
Si      11.51876947       4.43357643      14.35125897  F        5       0.00661911       0.02296250      -0.30431452
Si      -0.00000000       2.21678822      15.13501196  F        4       0.07237279      -0.02245464       0.49246053
Si       3.83958982       2.21678822      15.13501196  F        4       0.00947738      -0.05491519       0.43305536
Si       7.67917964       2.21678822      15.13501196  F        4      -0.05278049      -0.07695390       0.51343179
Si       1.91979491       5.54197054      15.13501196  F        4      -0.01143334       0.01477547      -0.18505926
Si       5.75938473       5.54197054      15.13501196  F        4      -0.01403348      -0.01326807      -0.34122610
Si       9.59897455       5.54197054      15.13501196  F        4       0.02564532       0.03266751      -0.30473957
Si       0.03253111       2.22091334      17.56782091  T        3      -0.03328140      -0.02308103      -0.03741929
Si       3.84651653       2.18275169      17.55777464  T        3      -0.00383766       0.01797088       0.12706116
Si       7.66275427       2.19578445      17.57474407  T        3       0.00989357      -0.04097583       0.00653073
Si       1.92729187       5.54811894      17.47118546  T        3       0.03035560      -0.01281574      -0.08030988
Si       5.74917221       5.53338862      17.45497359  T        3      -0.01992186      -0.00270815      -0.06341143
Si       9.60387355       5.53863239      17.45969887  T        3      -0.00300726       0.01747767       0.01358964
Si       0.00776028      -0.03280148      18.31323592  T        2      -0.00155560      -0.06355052       0.03324881
Si       3.83559083      -0.08243776      18.30251840  T        2      -0.03304886      -0.05430353       0.06976174
Si       7.67747756      -0.07586248      18.35657001  T        2       0.05284146      -0.07381983       0.05351825
Si       1.96342919       3.36448076      18.34743158  T        2      -0.11868180       0.07411697       0.07015801
Si       5.73856902       3.35739008      18.34911309  T        2       0.10523720       0.03079386       0.04489872
Si       9.60273477       3.34401403      18.26828661  T        2       0.00192691       0.01394711       0.07965886
Si       0.03723356      -0.84044196      20.58243825  T        1      -0.07735918      -0.33186908      -0.02786729
Si       3.76252702      -1.02824820      20.51466700  T        1       0.78148893       0.44593403      -0.08173819
Si       7.73881575      -1.05360715      20.63138125  T        1      -0.50007547       0.16223956      -0.16710206
Si       2.03246729       4.25275786      20.60690473  T        1       0.01000678       0.03379516      -0.13102907
Si       5.73659645       4.28675379      20.58667136  T        1      -0.47360828      -0.32384830      -0.07996803
Si       9.54341618       4.16600538      20.48230310  T        1       0.05084993       0.02358715      -0.01991754
F        9.12496393       5.63903304      22.92149855  T        0       0.01492831       0.17438748       0.09729968
H        9.94908074       5.83755363      22.41979743  T        0       0.17638950       0.05992982       0.27441137
38
Lattice="11.518769465528859 0.0 0.0 3.839589821842953 6.650364651656328 0.0 0.0 0.0 32.62128289467409" Properties=species:S:1:pos:R:3:move_mask:L:1:tags:I:1:forces:R:3 surface=Si111 species=HF site=hollow orientation=parallel height_A=1.9 substrate_atoms=36 calculation_kind="Rigid evaluated approach scan; not NEB" energy=-184.44780494967242 pbc="T T F"
Si       1.91979491       1.10839411      12.00000000  F        6       0.00020612       0.00696852       0.15915794
Si       5.75938473       1.10839411      12.00000000  F        6      -0.00054805       0.00713686       0.16216271
Si       9.59897455       1.10839411      12.00000000  F        6      -0.00017670       0.00883084       0.15989802
Si       3.83958982       4.43357643      12.00000000  F        6      -0.00092096      -0.00548111       0.16406960
Si       7.67917964       4.43357643      12.00000000  F        6       0.00166033      -0.00729263       0.16223008
Si      11.51876947       4.43357643      12.00000000  F        6      -0.00136618      -0.00781149       0.16619985
Si       1.91979491       1.10839411      14.35125897  F        5       0.00049396      -0.01940840      -0.29803496
Si       5.75938473       1.10839411      14.35125897  F        5       0.00064118      -0.02112687      -0.30806506
Si       9.59897455       1.10839411      14.35125897  F        5      -0.00034507      -0.02624725      -0.26830066
Si       3.83958982       4.43357643      14.35125897  F        5       0.00217956       0.01148719      -0.29702442
Si       7.67917964       4.43357643      14.35125897  F        5      -0.00806123       0.02205084      -0.28950046
Si      11.51876947       4.43357643      14.35125897  F        5       0.00735863       0.02282524      -0.30408346
Si      -0.00000000       2.21678822      15.13501196  F        4       0.07041312      -0.02360239       0.48261116
Si       3.83958982       2.21678822      15.13501196  F        4       0.00871136      -0.05527618       0.47315087
Si       7.67917964       2.21678822      15.13501196  F        4      -0.05209171      -0.07897433       0.51944883
Si       1.91979491       5.54197054      15.13501196  F        4      -0.01008524       0.01425083      -0.21810122
Si       5.75938473       5.54197054      15.13501196  F        4      -0.01415496      -0.01182373      -0.36883483
Si       9.59897455       5.54197054      15.13501196  F        4       0.02510113       0.03315617      -0.29558974
Si       0.03089906       2.21978149      17.56598594  T        3      -0.03419441      -0.02332427       0.00523272
Si       3.84632834       2.18363295      17.56400546  T        3      -0.00983561       0.02387775       0.08891608
Si       7.66323943       2.19377508      17.57506433  T        3       0.02753490      -0.03530402       0.02521124
Si       1.92878045       5.54749049      17.46724723  T        3       0.01405085      -0.00795593      -0.02690089
Si       5.74819528       5.53325581      17.45186403  T        3       0.00250169      -0.01102534       0.01072693
Si       9.60372608       5.53948946      17.46036527  T        3       0.00144194       0.00618406      -0.00494051
Si       0.00768400      -0.03591786      18.31486637  T        2      -0.00017602      -0.04934798       0.01996910
Si       3.83397019      -0.08510070      18.30593937  T        2      -0.00586173       0.01076736      -0.03315746
Si       7.68006880      -0.07948245      18.35919443  T        2       0.01796930      -0.01809035      -0.03027018
Si       1.95760928       3.36811531      18.35087199  T        2      -0.06703638       0.01699158       0.00217419
Si       5.74372964       3.35890015      18.35131483  T        2       0.03785787      -0.00403460      -0.02524688
Si       9.60282926       3.34469797      18.27219292  T        2      -0.00869155      -0.01135278       0.02636597
Si       0.03344002      -0.85671614      20.58107170  T        1      -0.08990243      -0.19843543      -0.04147815
Si       3.80084963      -1.00638052      20.51065872  T        1       0.16084776       0.08112513       0.01075567
Si       7.71429308      -1.04565126      20.62318690  T        1      -0.24810233       0.06751224      -0.09456750
Si       2.03295800       4.25441510      20.60047933  T        1      -0.20178124       0.07136270      -0.07345264
Si       5.71337167       4.27087294      20.58274989  T        1       0.12506294      -0.00354973      -0.03559314
Si       9.54590975       4.16716204      20.48132638  T        1       0.06149726      -0.00868274       0.00481033
F        9.12569598       5.64758464      22.92626992  T        0       0.05350103       0.16776448       0.08981229
H        9.95773052       5.84049247      22.43325400  T        0       0.13430087       0.05585573       0.28023858
38
Lattice="11.518769465528859 0.0 0.0 3.839589821842953 6.650364651656328 0.0 0.0 0.0 32.62128289467409" Properties=species:S:1:pos:R:3:move_mask:L:1:tags:I:1:forces:R:3 surface=Si111 species=HF site=hollow orientation=parallel height_A=1.9 substrate_atoms=36 calculation_kind="Rigid evaluated approach scan; not NEB" energy=-184.46524112670184 pbc="T T F"
Si       1.91979491       1.10839411      12.00000000  F        6       0.00047577       0.00756868       0.15893236
Si       5.75938473       1.10839411      12.00000000  F        6      -0.00072667       0.00739597       0.16218411
Si       9.59897455       1.10839411      12.00000000  F        6      -0.00024821       0.00928155       0.15925421
Si       3.83958982       4.43357643      12.00000000  F        6      -0.00094842      -0.00616634       0.16400420
Si       7.67917964       4.43357643      12.00000000  F        6       0.00184114      -0.00744388       0.16263022
Si      11.51876947       4.43357643      12.00000000  F        6      -0.00146436      -0.00808013       0.16578174
Si       1.91979491       1.10839411      14.35125897  F        5      -0.00245976      -0.02187776      -0.29662436
Si       5.75938473       1.10839411      14.35125897  F        5       0.00234175      -0.02259191      -0.30631581
Si       9.59897455       1.10839411      14.35125897  F        5       0.00093925      -0.02757446      -0.27221059
Si       3.83958982       4.43357643      14.35125897  F        5       0.00205175       0.01490419      -0.29770181
Si       7.67917964       4.43357643      14.35125897  F        5      -0.00843676       0.02227703      -0.28846972
Si      11.51876947       4.43357643      14.35125897  F        5       0.00771044       0.02290007      -0.30363626
Si      -0.00000000       2.21678822      15.13501196  F        4       0.06600483      -0.02680757       0.47500046
Si       3.83958982       2.21678822      15.13501196  F        4       0.00686587      -0.05323602       0.53077936
Si       7.67917964       2.21678822      15.13501196  F        4      -0.04862437      -0.08207384       0.53112722
Si       1.91979491       5.54197054      15.13501196  F        4      -0.00708368       0.01340408      -0.25858352
Si       5.75938473       5.54197054      15.13501196  F        4      -0.01508703      -0.01057566      -0.38736071
Si       9.59897455       5.54197054      15.13501196  F        4       0.02453012       0.03232973      -0.29134728
Si       0.02770895       2.21759026      17.56476808  T        3      -0.02659156      -0.02851531       0.04192353
Si       3.84564091       2.18564913      17.57392680  T        3      -0.02158572       0.02855308       0.01159566
Si       7.66512981       2.19021601      17.57669373  T        3       0.03215318      -0.02152302       0.01919192
Si       1.93076068       5.54654470      17.46256539  T        3      -0.00862408      -0.00593572       0.03017635
Si       5.74753148       5.53254918      17.44990105  T        3       0.02326999      -0.01437895       0.05863564
Si       9.60368360       5.54052624      17.46064269  T        3       0.00473979      -0.01568313      -0.02683174
Si       0.00761202      -0.04114454      18.31728368  T        2      -0.00325017      -0.02572395       0.00245028
Si       3.83232601      -0.08669597      18.30694068  T        2       0.02585062       0.06463730      -0.09987939
Si       7.68316391      -0.08342601      18.35970047  T        2      -0.02423895       0.03712254      -0.10994464
Si       1.94921083       3.37201119      18.35380539  T        2      -0.01794047      -0.04298212      -0.06348056
Si       5.75000607       3.35991712      18.35174740  T        2      -0.01346959      -0.03834092      -0.06804699
Si       9.60243521       3.34464196      18.27681962  T        2      -0.01314872      -0.02422692      -0.02928215
Si       0.02545975      -0.88079626      20.57770383  T        1      -0.06156450      -0.04488168      -0.04103680
Si       3.84093474      -0.98408514      20.50796185  T        1      -0.27385633      -0.14732383       0.07943058
Si       7.68076908      -1.03547900      20.61135219  T        1       0.04313038      -0.00520469      -0.01835137
Si       2.02241612       4.25964163      20.59123740  T        1      -0.38570929       0.07257287      -0.00831418
Si       5.70114817       4.25768418      20.57761035  T        1       0.48743363       0.18290121       0.01604689
Si       9.55128565       4.16763771      20.48078796  T        1       0.03815361      -0.04644842       0.03111301
F        9.12919666       5.66368151      22.93504553  T        0       0.05612287       0.14648982       0.10162510
H        9.97209286       5.84592679      22.45946485  T        0       0.11144363       0.06525812       0.26553503
38
Lattice="11.518769465528859 0.0 0.0 3.839589821842953 6.650364651656328 0.0 0.0 0.0 32.62128289467409" Properties=species:S:1:pos:R:3:move_mask:L:1:tags:I:1:forces:R:3 surface=Si111 species=HF site=hollow orientation=parallel height_A=1.9 substrate_atoms=36 calculation_kind="Rigid evaluated approach scan; not NEB" energy=-184.4735276943807 pbc="T T F"
Si       1.91979491       1.10839411      12.00000000  F        6       0.00048924       0.00753553       0.15891785
Si       5.75938473       1.10839411      12.00000000  F        6      -0.00071017       0.00742730       0.16205328
Si       9.59897455       1.10839411      12.00000000  F        6      -0.00028141       0.00926791       0.15923317
Si       3.83958982       4.43357643      12.00000000  F        6      -0.00090324      -0.00616046       0.16406798
Si       7.67917964       4.43357643      12.00000000  F        6       0.00177554      -0.00743230       0.16266115
Si      11.51876947       4.43357643      12.00000000  F        6      -0.00144159      -0.00804871       0.16577790
Si       1.91979491       1.10839411      14.35125897  F        5      -0.00238957      -0.02187693      -0.29657501
Si       5.75938473       1.10839411      14.35125897  F        5       0.00221274      -0.02278219      -0.30606626
Si       9.59897455       1.10839411      14.35125897  F        5       0.00099889      -0.02766089      -0.27263549
Si       3.83958982       4.43357643      14.35125897  F        5       0.00196808       0.01497020      -0.29804786
Si       7.67917964       4.43357643      14.35125897  F        5      -0.00812427       0.02230128      -0.28855377
Si      11.51876947       4.43357643      14.35125897  F        5       0.00750516       0.02300982      -0.30355042
Si      -0.00000000       2.21678822      15.13501196  F        4       0.06546591      -0.02766472       0.47824188
Si       3.83958982       2.21678822      15.13501196  F        4       0.00664228      -0.05250827       0.53168345
Si       7.67917964       2.21678822      15.13501196  F        4      -0.04803010      -0.08223056       0.53271497
Si       1.91979491       5.54197054      15.13501196  F        4      -0.00667296       0.01337957      -0.25561774
Si       5.75938473       5.54197054      15.13501196  F        4      -0.01537988      -0.01077862      -0.38070356
Si       9.59897455       5.54197054      15.13501196  F        4       0.02457006       0.03185824      -0.29490569
Si       0.02738295       2.21724068      17.56528204  T        3      -0.02494794      -0.02960813       0.03330539
Si       3.84537628       2.18599917      17.57406896  T        3      -0.01997069       0.02739222       0.00714055
Si       7.66552399       2.18995215      17.57692901  T        3       0.02620017      -0.01834865       0.01027522
Si       1.93065495       5.54647193      17.46293534  T        3      -0.00810046      -0.00709093       0.02148111
Si       5.74781676       5.53237290      17.45061990  T        3       0.02022204      -0.01212947       0.04333185
Si       9.60374171       5.54033397      17.46031375  T        3       0.00277644      -0.01584224      -0.02476293
Si       0.00757218      -0.04145990      18.31731372  T        2      -0.00340987      -0.02599520       0.00181334
Si       3.83264292      -0.08590355      18.30571621  T        2       0.02386684       0.05140344      -0.07648000
Si       7.68286675      -0.08297090      18.35835261  T        2      -0.02161732       0.02883636      -0.09605943
Si       1.94899089       3.37148426      18.35302715  T        2      -0.02504276      -0.03578565      -0.05284674
Si       5.74984094       3.35944708      18.35091318  T        2      -0.00273186      -0.03247444      -0.05356229
Si       9.60227401       3.34434495      18.27646064  T        2      -0.01100782      -0.01783272      -0.02211736
Si       0.02470500      -0.88134649      20.57720074  T        1      -0.05353187      -0.06264645      -0.03469746
Si       3.83757740      -0.98589125      20.50893562  T        1      -0.21652013      -0.11844337       0.06179540
Si       7.68129784      -1.03554281      20.61112721  T        1       0.01827480       0.00853394      -0.02804306
Si       2.01768752       4.26053134      20.59113547  T        1      -0.34164393       0.06256389      -0.01365094
Si       5.70712386       4.25992646      20.57780708  T        1       0.41531026       0.15969369       0.00865073
Si       9.55175340       4.16706827      20.48116939  T        1       0.02961473      -0.03654098       0.02957533
F        9.12988469       5.66547740      22.93629140  T        0       0.05114703       0.14440846       0.10299154
H        9.97345910       5.84672682      22.46272017  T        0       0.11341760       0.06730002       0.26316394
38
Lattice="11.518769465528859 0.0 0.0 3.839589821842953 6.650364651656328 0.0 0.0 0.0 32.62128289467409" Properties=species:S:1:pos:R:3:move_mask:L:1:tags:I:1:forces:R:3 surface=Si111 species=HF site=hollow orientation=parallel height_A=1.9 substrate_atoms=36 calculation_kind="Rigid evaluated approach scan; not NEB" energy=-184.48616480737215 pbc="T T F"
Si       1.91979491       1.10839411      12.00000000  F        6       0.00051479       0.00748040       0.15891128
Si       5.75938473       1.10839411      12.00000000  F        6      -0.00067865       0.00748440       0.16182317
Si       9.59897455       1.10839411      12.00000000  F        6      -0.00034232       0.00924625       0.15919860
Si       3.83958982       4.43357643      12.00000000  F        6      -0.00082373      -0.00615370       0.16420073
Si       7.67917964       4.43357643      12.00000000  F        6       0.00166157      -0.00741219       0.16272832
Si      11.51876947       4.43357643      12.00000000  F        6      -0.00140083      -0.00799101       0.16576151
Si       1.91979491       1.10839411      14.35125897  F        5      -0.00223745      -0.02188058      -0.29649000
Si       5.75938473       1.10839411      14.35125897  F        5       0.00195478      -0.02309601      -0.30556709
Si       9.59897455       1.10839411      14.35125897  F        5       0.00109484      -0.02780502      -0.27343423
Si       3.83958982       4.43357643      14.35125897  F        5       0.00183920       0.01508249      -0.29869637
Si       7.67917964       4.43357643      14.35125897  F        5      -0.00758408       0.02233331      -0.28874790
Si      11.51876947       4.43357643      14.35125897  F        5       0.00713561       0.02319110      -0.30338057
Si      -0.00000000       2.21678822      15.13501196  F        4       0.06439156      -0.02931277       0.48395356
Si       3.83958982       2.21678822      15.13501196  F        4       0.00620338      -0.05110305       0.53288606
Si       7.67917964       2.21678822      15.13501196  F        4      -0.04691510      -0.08246772       0.53506318
Si       1.91979491       5.54197054      15.13501196  F        4      -0.00592251       0.01328686      -0.25065350
Si       5.75938473       5.54197054      15.13501196  F        4      -0.01584957      -0.01116164      -0.36934879
Si       9.59897455       5.54197054      15.13501196  F        4       0.02457145       0.03093337      -0.30169277
Si       0.02674884       2.21652171      17.56619944  T        3      -0.02220859      -0.03112644       0.01773087
Si       3.84486538       2.18668830      17.57429442  T        3      -0.01671670       0.02489663       0.00003729
Si       7.66623656       2.18946409      17.57728109  T        3       0.01592480      -0.01274390      -0.00546822
Si       1.93044917       5.54630960      17.46356165  T        3      -0.00730856      -0.00915033       0.00619930
Si       5.74834967       5.53204860      17.45185862  T        3       0.01493991      -0.00810922       0.01682107
Si       9.60383192       5.53994458      17.45967952  T        3      -0.00068612      -0.01573371      -0.02087434
Si       0.00748975      -0.04209874      18.31736552  T        2      -0.00376984      -0.02687996       0.00103721
Si       3.83325409      -0.08448837      18.30356973  T        2       0.01987616       0.02841060      -0.03585849
Si       7.68230409      -0.08216750      18.35582767  T        2      -0.01686584       0.01422333      -0.07129408
Si       1.94845095       3.37052130      18.35160502  T        2      -0.03737366      -0.02287636      -0.03371314
Si       5.74965501       3.35858055      18.34943089  T        2       0.01590214      -0.02154860      -0.02763804
Si       9.60197860       3.34383411      18.27583550  T        2      -0.00722945      -0.00702405      -0.00921670
Si       0.02329466      -0.88269723      20.57627410  T        1      -0.03955343      -0.09227576      -0.02340864
Si       3.83159884      -0.98913430      20.51065594  T        1      -0.10708687      -0.06134722       0.03115556
Si       7.68202329      -1.03548369      20.61054176  T        1      -0.02705232       0.03398784      -0.04513793
Si       2.00876605       4.26218649      20.59085731  T        1      -0.25989299       0.04272926      -0.02313438
Si       5.71817374       4.26412539      20.57810227  T        1       0.27849417       0.11121959      -0.00442096
Si       9.55257881       4.16605675      20.48191658  T        1       0.01454059      -0.01872425       0.02678322
F        9.13120243       5.66906585      22.93881921  T        0       0.04334724       0.14063008       0.10431470
H        9.97623763       5.84836594      22.46924391  T        0       0.11510642       0.07078798       0.25957050
38
Lattice="11.518769465528859 0.0 0.0 3.839589821842953 6.650364651656328 0.0 0.0 0.0 32.62128289467409" Properties=species:S:1:pos:R:3:move_mask:L:1:tags:I:1:forces:R:3 surface=Si111 species=HF site=hollow orientation=parallel height_A=1.9 substrate_atoms=36 calculation_kind="Rigid evaluated approach scan; not NEB" energy=-184.497798748369 pbc="T T F"
Si       1.91979491       1.10839411      12.00000000  F        6       0.00054816       0.00742462       0.15894220
Si       5.75938473       1.10839411      12.00000000  F        6      -0.00063391       0.00755487       0.16154053
Si       9.59897455       1.10839411      12.00000000  F        6      -0.00041968       0.00922709       0.15915443
Si       3.83958982       4.43357643      12.00000000  F        6      -0.00073165      -0.00615385       0.16440009
Si       7.67917964       4.43357643      12.00000000  F        6       0.00153301      -0.00738842       0.16282623
Si      11.51876947       4.43357643      12.00000000  F        6      -0.00135074      -0.00791690       0.16570380
Si       1.91979491       1.10839411      14.35125897  F        5      -0.00198814      -0.02190842      -0.29639910
Si       5.75938473       1.10839411      14.35125897  F        5       0.00157308      -0.02341029      -0.30483051
Si       9.59897455       1.10839411      14.35125897  F        5       0.00118623      -0.02795550      -0.27452820
Si       3.83958982       4.43357643      14.35125897  F        5       0.00173729       0.01520907      -0.29955024
Si       7.67917964       4.43357643      14.35125897  F        5      -0.00697809       0.02234331      -0.28909655
Si      11.51876947       4.43357643      14.35125897  F        5       0.00667938       0.02337398      -0.30312779
Si      -0.00000000       2.21678822      15.13501196  F        4       0.06278843      -0.03164580       0.49070614
Si       3.83958982       2.21678822      15.13501196  F        4       0.00557489      -0.04913592       0.53343327
Si       7.67917964       2.21678822      15.13501196  F        4      -0.04543881      -0.08264991       0.53666299
Si       1.91979491       5.54197054      15.13501196  F        4      -0.00496659       0.01304311      -0.24557493
Si       5.75938473       5.54197054      15.13501196  F        4      -0.01628206      -0.01167466      -0.35695199
Si       9.59897455       5.54197054      15.13501196  F        4       0.02438569       0.02959738      -0.31107689
Si       0.02583018       2.21538693      17.56730292  T        3      -0.01942707      -0.03183615      -0.00143646
Si       3.84414364       2.18769860      17.57449791  T        3      -0.01179294       0.02084961      -0.00627362
Si       7.66712739       2.18882516      17.57751228  T        3       0.00446456      -0.00609521      -0.02381061
Si       1.93014946       5.54602013      17.46422247  T        3      -0.00673147      -0.01160114      -0.01163192
Si       5.74906338       5.53162968      17.45323704  T        3       0.00900824      -0.00325323      -0.01301294
Si       9.60390236       5.53934760      17.45878165  T        3      -0.00480658      -0.01458158      -0.01567507
Si       0.00735650      -0.04309485      18.31742839  T        2      -0.00437308      -0.02893129       0.00093634
Si       3.83411556      -0.08276956      18.30107605  T        2       0.01400949       0.00219353       0.01046814
Si       7.68153344      -0.08122158      18.35243818  T        2      -0.01095720      -0.00278242      -0.04158640
Si       1.94737941       3.36929620      18.34979688  T        2      -0.05107546      -0.00734612      -0.01049985
Si       5.74973684       3.35746304      18.34766380  T        2       0.03659103      -0.00740816       0.00334712
Si       9.60159946       3.34326429      18.27512847  T        2      -0.00287977       0.00443165       0.00665033
Si       0.02140562      -0.88535871      20.57507336  T        1      -0.02350158      -0.12345132      -0.00994399
Si       3.82454028      -0.99301425      20.51269239  T        1       0.03930495       0.01902491      -0.00398976
Si       7.68225233      -1.03489795      20.60930761  T        1      -0.08279415       0.06612075      -0.06520504
Si       1.99666465       4.26434562      20.59024449  T        1      -0.15414890       0.01486893      -0.03421948
Si       5.73248217       4.26964706      20.57829868  T        1       0.09603842       0.03804773      -0.01963925
Si       9.55354950       4.16485301      20.48300870  T        1      -0.00323539       0.00336139       0.02319193
F        9.13306756       5.67449888      22.94272867  T        0       0.03609269       0.13560570       0.10355762
H        9.98054182       5.85095028      22.47918231  T        0       0.11299770       0.07484867       0.25653944
38
Lattice="11.518769465528859 0.0 0.0 3.839589821842953 6.650364651656328 0.0 0.0 0.0 32.62128289467409" Properties=species:S:1:pos:R:3:move_mask:L:1:tags:I:1:forces:R:3 surface=Si111 species=HF site=hollow orientation=parallel height_A=1.9 substrate_atoms=36 calculation_kind="Rigid evaluated approach scan; not NEB" energy=-184.50586202954642 pbc="T T F"
Si       1.91979491       1.10839411      12.00000000  F        6       0.00057990       0.00739697       0.15902176
Si       5.75938473       1.10839411      12.00000000  F        6      -0.00057762       0.00761774       0.16124537
Si       9.59897455       1.10839411      12.00000000  F        6      -0.00049556       0.00922347       0.15908730
Si       3.83958982       4.43357643      12.00000000  F        6      -0.00065886      -0.00616768       0.16463337
Si       7.67917964       4.43357643      12.00000000  F        6       0.00143722      -0.00736558       0.16291445
Si      11.51876947       4.43357643      12.00000000  F        6      -0.00130240      -0.00784060       0.16554646
Si       1.91979491       1.10839411      14.35125897  F        5      -0.00165500      -0.02200220      -0.29635056
Si       5.75938473       1.10839411      14.35125897  F        5       0.00110120      -0.02357388      -0.30392405
Si       9.59897455       1.10839411      14.35125897  F        5       0.00123171      -0.02804996      -0.27583595
Si       3.83958982       4.43357643      14.35125897  F        5       0.00174770       0.01532442      -0.30043722
Si       7.67917964       4.43357643      14.35125897  F        5      -0.00652197       0.02229305      -0.28964148
Si      11.51876947       4.43357643      14.35125897  F        5       0.00624610       0.02346721      -0.30279558
Si      -0.00000000       2.21678822      15.13501196  F        4       0.06068849      -0.03451984       0.49656047
Si       3.83958982       2.21678822      15.13501196  F        4       0.00483179      -0.04683858       0.53258514
Si       7.67917964       2.21678822      15.13501196  F        4      -0.04386936      -0.08261340       0.53567605
Si       1.91979491       5.54197054      15.13501196  F        4      -0.00399251       0.01254770      -0.24301791
Si       5.75938473       5.54197054      15.13501196  F        4      -0.01641026      -0.01222397      -0.34825516
Si       9.59897455       5.54197054      15.13501196  F        4       0.02382569       0.02794720      -0.32203361
Si       0.02464972       2.21378608      17.56826990  T        3      -0.01795972      -0.03034083      -0.01897606
Si       3.84327940       2.18898743      17.57456685  T        3      -0.00534849       0.01535623      -0.00745724
Si       7.66801041       2.18813917      17.57728690  T        3      -0.00402061      -0.00019730      -0.03840161
Si       1.92975717       5.54554842      17.46460545  T        3      -0.00695935      -0.01367186      -0.02639801
Si       5.74986971       5.53119342      17.45424072  T        3       0.00460905       0.00107856      -0.03526593
Si       9.60387826       5.53854488      17.45768821  T        3      -0.00851455      -0.01158618      -0.01002526
Si       0.00715696      -0.04451803      18.31750202  T        2      -0.00516773      -0.03247853       0.00217324
Si       3.83514592      -0.08118271      18.29902230  T        2       0.00695878      -0.01846235       0.04699569
Si       7.68064038      -0.08042091      18.34863058  T        2      -0.00534601      -0.01636335      -0.01567168
Si       1.94548524       3.36805988      18.34797841  T        2      -0.06034744       0.00594880       0.00986869
Si       5.75047659       3.35632242      18.34613434  T        2       0.05069111       0.00662277       0.02930885
Si       9.60120581       3.34283213      18.27461320  T        2       0.00036989       0.01163030       0.02145135
Si       0.01927765      -0.89000138      20.57381167  T        1      -0.01061496      -0.14365017       0.00165762
Si       3.81890308      -0.99615987      20.51445256  T        1       0.18598802       0.10475075      -0.03231974
Si       7.68095127      -1.03316711      20.60700987  T        1      -0.13102267       0.09514308      -0.08191730
Si       1.98296723       4.26655952      20.58907001  T        1      -0.04781068      -0.01507747      -0.04280300
Si       5.74710805       4.27530918      20.57811793  T        1      -0.09019944      -0.04632682      -0.03169298
Si       9.55436423       4.16383083      20.48441379  T        1      -0.01822472       0.02471137       0.01928593
F        9.13540323       5.68185720      22.94813237  T        0       0.03168683       0.12932210       0.09985864
H        9.98647264       5.85463875      22.49279696  T        0       0.10502644       0.07896883       0.25534998
38
Lattice="11.518769465528859 0.0 0.0 3.839589821842953 6.650364651656328 0.0 0.0 0.0 32.62128289467409" Properties=species:S:1:pos:R:3:move_mask:L:1:tags:I:1:forces:R:3 surface=Si111 species=HF site=hollow orientation=parallel height_A=1.9 substrate_atoms=36 calculation_kind="Rigid evaluated approach scan; not NEB" energy=-184.5131497732078 pbc="T T F"
Si       1.91979491       1.10839411      12.00000000  F        6       0.00059937       0.00741783       0.15912527
Si       5.75938473       1.10839411      12.00000000  F        6      -0.00051404       0.00765169       0.16095906
Si       9.59897455       1.10839411      12.00000000  F        6      -0.00055157       0.00924187       0.15897555
Si       3.83958982       4.43357643      12.00000000  F        6      -0.00063192      -0.00619616       0.16483500
Si       7.67917964       4.43357643      12.00000000  F        6       0.00141036      -0.00734470       0.16293199
Si      11.51876947       4.43357643      12.00000000  F        6      -0.00126414      -0.00777562       0.16524468
Si       1.91979491       1.10839411      14.35125897  F        5      -0.00132547      -0.02219649      -0.29637996
Si       5.75938473       1.10839411      14.35125897  F        5       0.00063367      -0.02350344      -0.30300889
Si       9.59897455       1.10839411      14.35125897  F        5       0.00122656      -0.02804904      -0.27727087
Si       3.83958982       4.43357643      14.35125897  F        5       0.00189944       0.01543896      -0.30114998
Si       7.67917964       4.43357643      14.35125897  F        5      -0.00636509       0.02215413      -0.29037313
Si      11.51876947       4.43357643      14.35125897  F        5       0.00593471       0.02340429      -0.30241102
Si      -0.00000000       2.21678822      15.13501196  F        4       0.05821948      -0.03768761       0.49981465
Si       3.83958982       2.21678822      15.13501196  F        4       0.00412242      -0.04457149       0.53070265
Si       7.67917964       2.21678822      15.13501196  F        4      -0.04250114      -0.08225413       0.53113424
Si       1.91979491       5.54197054      15.13501196  F        4      -0.00317547       0.01176975      -0.24500344
Si       5.75938473       5.54197054      15.13501196  F        4      -0.01607743      -0.01267852      -0.34644844
Si       9.59897455       5.54197054      15.13501196  F        4       0.02280517       0.02617015      -0.33310828
Si       0.02325833       2.21178953      17.56879258  T        3      -0.01849631      -0.02639016      -0.02957501
Si       3.84240361       2.19042867      17.57449230  T        3       0.00172926       0.00932597      -0.00155566
Si       7.66873147       2.18751816      17.57638062  T        3      -0.00682428       0.00364017      -0.04357366
Si       1.92927664       5.54487344      17.46446657  T        3      -0.00822453      -0.01469982      -0.03340155
Si       5.75067983       5.53082055      17.45449802  T        3       0.00330459       0.00366220      -0.04152212
Si       9.60370060       5.53761019      17.45652047  T        3      -0.01097218      -0.00691679      -0.00501217
Si       0.00688272      -0.04639383      18.31760809  T        2      -0.00595905      -0.03672318       0.00446220
Si       3.83620072      -0.08009273      18.29803480  T        2       0.00029160      -0.02674207       0.06144959
Si       7.67973870      -0.08000005      18.34491667  T        2      -0.00145268      -0.02147877      -0.00149710
Si       1.94267503       3.36705617      18.34652257  T        2      -0.06032511       0.01235704       0.02071404
Si       5.75207094       3.35541719      18.34529472  T        2       0.05136473       0.01654093       0.04065466
Si       9.60085830       3.34265624      18.27454241  T        2       0.00105521       0.01159489       0.03133763
Si       0.01716803      -0.89681118      20.57270651  T        1      -0.00521496      -0.14433487       0.00790533
Si       3.81723657      -0.99707209      20.51544467  T        1       0.27867549       0.16432073      -0.04460872
Si       7.67738022      -1.02986651      20.60344133  T        1      -0.15208655       0.10949562      -0.08973459
Si       1.96976375       4.26827583      20.58722891  T        1       0.03181451      -0.03770806      -0.04498787
Si       5.75861906       4.27955647      20.57737469  T        1      -0.22049545      -0.11212254      -0.03586600
Si       9.55476364       4.16336354      20.48603166  T        1      -0.02534119       0.04041899       0.01543463
F        9.13808577       5.69084864      22.95482493  T        0       0.02873513       0.12131716       0.09513019
H        9.99373426       5.85940493      22.50972770  T        0       0.09397682       0.08345106       0.25567708
38
Lattice="11.518769465528859 0.0 0.0 3.839589821842953 6.650364651656328 0.0 0.0 0.0 32.62128289467409" Properties=species:S:1:pos:R:3:move_mask:L:1:tags:I:1:forces:R:3 surface=Si111 species=HF site=hollow orientation=parallel height_A=1.9 substrate_atoms=36 calculation_kind="Rigid evaluated approach scan; not NEB" energy=-184.52400564214557 pbc="T T F"
Si       1.91979491       1.10839411      12.00000000  F        6       0.00060377       0.00748798       0.15922013
Si       5.75938473       1.10839411      12.00000000  F        6      -0.00044878       0.00764936       0.16068523
Si       9.59897455       1.10839411      12.00000000  F        6      -0.00058077       0.00927838       0.15880936
Si       3.83958982       4.43357643      12.00000000  F        6      -0.00065481      -0.00623718       0.16495486
Si       7.67917964       4.43357643      12.00000000  F        6       0.00145457      -0.00732243       0.16285199
Si      11.51876947       4.43357643      12.00000000  F        6      -0.00123652      -0.00772570       0.16480377
Si       1.91979491       1.10839411      14.35125897  F        5      -0.00111355      -0.02249128      -0.29647313
Si       5.75938473       1.10839411      14.35125897  F        5       0.00027444      -0.02322738      -0.30223013
Si       9.59897455       1.10839411      14.35125897  F        5       0.00120673      -0.02795449      -0.27879039
Si       3.83958982       4.43357643      14.35125897  F        5       0.00214528       0.01559806      -0.30157224
Si       7.67917964       4.43357643      14.35125897  F        5      -0.00649739       0.02191519      -0.29125936
Si      11.51876947       4.43357643      14.35125897  F        5       0.00577152       0.02317460      -0.30200880
Si      -0.00000000       2.21678822      15.13501196  F        4       0.05548055      -0.04095125       0.49984671
Si       3.83958982       2.21678822      15.13501196  F        4       0.00358267      -0.04259167       0.52899709
Si       7.67917964       2.21678822      15.13501196  F        4      -0.04144495      -0.08154954       0.52332327
Si       1.91979491       5.54197054      15.13501196  F        4      -0.00257346       0.01074736      -0.25188757
Si       5.75938473       5.54197054      15.13501196  F        4      -0.01530961      -0.01294456      -0.35132514
Si       9.59897455       5.54197054      15.13501196  F        4       0.02136142       0.02440276      -0.34329887
Si       0.02168434       2.20953360      17.56874856  T        3      -0.02050312      -0.02108240      -0.03080541
Si       3.84164548       2.19188800      17.57439814  T        3       0.00808697       0.00383560       0.00949937
Si       7.66926173       2.18702257      17.57480703  T        3      -0.00442879       0.00530175      -0.03771592
Si       1.92870109       5.54401026      17.46376059  T        3      -0.01022610      -0.01456241      -0.03146074
Si       5.75146642       5.53054866      17.45400736  T        3       0.00499410       0.00416823      -0.03096411
Si       9.60334985       5.53664866      17.45538233  T        3      -0.01194932      -0.00173350      -0.00129122
Si       0.00653224      -0.04872082      18.31778118  T        2      -0.00662682      -0.04000843       0.00680139
Si       3.83715511      -0.07957691      18.29821492  T        2      -0.00450001      -0.02160208       0.05164446
Si       7.67890192      -0.07999488      18.34154811  T        2       0.00016261      -0.01689156      -0.00159120
Si       1.93909654       3.36636777      18.34557261  T        2      -0.05008362       0.01025579       0.01965551
Si       5.75439930       3.35489019      18.34524621  T        2       0.03804631       0.02006602       0.03436163
Si       9.60056390       3.34269961      18.27502379  T        2      -0.00108092       0.00515712       0.03474897
Si       0.01517867      -0.90545058      20.57184937  T        1      -0.00830185      -0.12464882       0.00796523
Si       3.82058402      -0.99503487      20.51556164  T        1       0.28203587       0.17489115      -0.03862327
Si       7.67152086      -1.02499138      20.59866879  T        1      -0.13685277       0.10319197      -0.08687118
Si       1.95843400       4.26916461      20.58478939  T        1       0.06991074      -0.04668402      -0.03948479
Si       5.76514365       4.28142876      20.57608193  T        1      -0.25665954      -0.13522088      -0.03073164
Si       9.55468232       4.16364602      20.48775622  T        1      -0.02265079       0.04823228       0.01184020
F        9.14099988       5.70105114      22.96250294  T        0       0.02489368       0.11136459       0.09139308
H       10.00190436       5.86514606      22.52941264  T        0       0.08371226       0.08871139       0.25698284
38
Lattice="11.518769465528859 0.0 0.0 3.839589821842953 6.650364651656328 0.0 0.0 0.0 32.62128289467409" Properties=species:S:1:pos:R:3:move_mask:L:1:tags:I:1:forces:R:3 surface=Si111 species=HF site=hollow orientation=parallel height_A=1.9 substrate_atoms=36 calculation_kind="Rigid evaluated approach scan; not NEB" energy=-184.53880891605272 pbc="T T F"
Si       1.91979491       1.10839411      12.00000000  F        6       0.00059981       0.00759585       0.15929409
Si       5.75938473       1.10839411      12.00000000  F        6      -0.00038734       0.00761653       0.16042975
Si       9.59897455       1.10839411      12.00000000  F        6      -0.00058783       0.00932414       0.15859720
Si       3.83958982       4.43357643      12.00000000  F        6      -0.00071330      -0.00629128       0.16498085
Si       7.67917964       4.43357643      12.00000000  F        6       0.00154773      -0.00729326       0.16270323
Si      11.51876947       4.43357643      12.00000000  F        6      -0.00121505      -0.00768536       0.16427101
Si       1.91979491       1.10839411      14.35125897  F        5      -0.00111001      -0.02285926      -0.29656197
Si       5.75938473       1.10839411      14.35125897  F        5       0.00009947      -0.02282712      -0.30164176
Si       9.59897455       1.10839411      14.35125897  F        5       0.00122079      -0.02778790      -0.28038586
Si       3.83958982       4.43357643      14.35125897  F        5       0.00240610       0.01585756      -0.30168560
Si       7.67917964       4.43357643      14.35125897  F        5      -0.00680556       0.02156935      -0.29228784
Si      11.51876947       4.43357643      14.35125897  F        5       0.00571860       0.02279962      -0.30161919
Si      -0.00000000       2.21678822      15.13501196  F        4       0.05246243      -0.04422231       0.49677944
Si       3.83958982       2.21678822      15.13501196  F        4       0.00329494      -0.04098891       0.52878184
Si       7.67917964       2.21678822      15.13501196  F        4      -0.04061804      -0.08048571       0.51307025
Si       1.91979491       5.54197054      15.13501196  F        4      -0.00214779       0.00952591      -0.26296473
Si       5.75938473       5.54197054      15.13501196  F        4      -0.01421864      -0.01298059      -0.36052970
Si       9.59897455       5.54197054      15.13501196  F        4       0.01956338       0.02266472      -0.35223230
Si       0.01990744       2.20713277      17.56816758  T        3      -0.02266696      -0.01601423      -0.02277088
Si       3.84110527       2.19326881      17.57448033  T        3       0.01217442      -0.00034148       0.02140246
Si       7.66966113       2.18666971      17.57272800  T        3       0.00074400       0.00536344      -0.02252805
Si       1.92800340       5.54297749      17.46257233  T        3      -0.01237194      -0.01357094      -0.02189913
Si       5.75226211       5.53037721      17.45302161  T        3       0.00835578       0.00302093      -0.00834235
Si       9.60282418       5.53575282      17.45433530  T        3      -0.01150115       0.00240886       0.00096192
Si       0.00610036      -0.05151820      18.31805648  T        2      -0.00730705      -0.04043239       0.00821496
Si       3.83793497      -0.07949229      18.29928459  T        2      -0.00647442      -0.00591398       0.02269730
Si       7.67815167      -0.08028707      18.33848844  T        2      -0.00034975      -0.00438171      -0.01404720
Si       1.93499575       3.36592843      18.34506306  T        2      -0.03168203       0.00062171       0.00811465
Si       5.75716343       3.35476852      18.34580641  T        2       0.01485627       0.01674636       0.01332259
Si       9.60027994       3.34282928      18.27606770  T        2      -0.00527665      -0.00455455       0.03192581
Si       0.01324235      -0.91541657      20.57121793  T        1      -0.01827589      -0.08783063       0.00300194
Si       3.82855309      -0.99012792      20.51498817  T        1       0.19596205       0.13521871      -0.01723579
Si       7.66384245      -1.01879032      20.59284688  T        1      -0.08711249       0.07675020      -0.07436728
Si       1.94946581       4.26914412      20.58189993  T        1       0.06517286      -0.04111658      -0.02732145
Si       5.76650536       4.28073751      20.57437837  T        1      -0.19771208      -0.11204424      -0.01726643
Si       9.55421108       4.16474788      20.48951639  T        1      -0.01073595       0.04809428       0.00871401
F        9.14406005       5.71219046      22.97101925  T        0       0.01971168       0.09975993       0.08860822
H       10.01072858       5.87187204      22.55164518  T        0       0.07537961       0.09468431       0.25981599
38
Lattice="11.518769465528859 0.0 0.0 3.839589821842953 6.650364651656328 0.0 0.0 0.0 32.62128289467409" Properties=species:S:1:pos:R:3:move_mask:L:1:tags:I:1:forces:R:3 surface=Si111 species=HF site=hollow orientation=parallel height_A=1.9 substrate_atoms=36 calculation_kind="Rigid evaluated approach scan; not NEB" energy=-184.55539133129793 pbc="T T F"
Si       1.91979491       1.10839411      12.00000000  F        6       0.00060259       0.00773598       0.15935805
Si       5.75938473       1.10839411      12.00000000  F        6      -0.00032826       0.00756290       0.16017663
Si       9.59897455       1.10839411      12.00000000  F        6      -0.00058667       0.00937240       0.15833633
Si       3.83958982       4.43357643      12.00000000  F        6      -0.00078677      -0.00637080       0.16492225
Si       7.67917964       4.43357643      12.00000000  F        6       0.00166223      -0.00724508       0.16254596
Si      11.51876947       4.43357643      12.00000000  F        6      -0.00118944      -0.00763633       0.16366716
Si       1.91979491       1.10839411      14.35125897  F        5      -0.00142102      -0.02329821      -0.29652741
Si       5.75938473       1.10839411      14.35125897  F        5       0.00017319      -0.02237492      -0.30117784
Si       9.59897455       1.10839411      14.35125897  F        5       0.00133667      -0.02756102      -0.28224600
Si       3.83958982       4.43357643      14.35125897  F        5       0.00259951       0.01633481      -0.30151725
Si       7.67917964       4.43357643      14.35125897  F        5      -0.00713789       0.02105833      -0.29360558
Si      11.51876947       4.43357643      14.35125897  F        5       0.00568725       0.02226516      -0.30123122
Si      -0.00000000       2.21678822      15.13501196  F        4       0.04866723      -0.04786946       0.49059161
Si       3.83958982       2.21678822      15.13501196  F        4       0.00331102      -0.03961580       0.53173692
Si       7.67917964       2.21678822      15.13501196  F        4      -0.03970887      -0.07884649       0.50033422
Si       1.91979491       5.54197054      15.13501196  F        4      -0.00175337       0.00797866      -0.27842595
Si       5.75938473       5.54197054      15.13501196  F        4      -0.01283211      -0.01274366      -0.37124150
Si       9.59897455       5.54197054      15.13501196  F        4       0.01724262       0.02067125      -0.36073141
Si       0.01763291       2.20439181      17.56707464  T        3      -0.02320304      -0.01260049      -0.00553595
Si       3.84084730       2.19462804      17.57504835  T        3       0.01214421      -0.00284935       0.02869258
Si       7.67007346       2.18644234      17.57015752  T        3       0.00570206       0.00470139       0.00007078
Si       1.92703136       5.54164647      17.46089801  T        3      -0.01397875      -0.01216288      -0.00611393
Si       5.75323985       5.53027617      17.45185603  T        3       0.01143718       0.00094361       0.02040345
Si       9.60204226       5.53492071      17.45332062  T        3      -0.00951167       0.00384068       0.00189315
Si       0.00550665      -0.05520697      18.31851582  T        2      -0.00849877      -0.03540146       0.00785233
Si       3.83855983      -0.07954299      18.30085967  T        2      -0.00498704       0.01705681      -0.01901295
Si       7.67740098      -0.08067597      18.33513996  T        2      -0.00262505       0.01380502      -0.03591863
Si       1.93021559       3.36550763      18.34474312  T        2      -0.00674625      -0.01528962      -0.01157023
Si       5.76023772       3.35502885      18.34666393  T        2      -0.01372247       0.00642497      -0.01809742
Si       9.59987884       3.34285409      18.27782710  T        2      -0.01053572      -0.01389031       0.02322038
Si       0.01090983      -0.92727999      20.57066106  T        1      -0.03259765      -0.03409004      -0.00539531
Si       3.84089828      -0.98219542      20.51402853  T        1       0.03466452       0.05510930       0.01633456
Si       7.65426005      -1.01090612      20.58539221  T        1      -0.00476241       0.03134828      -0.05310837
Si       1.94206920       4.26818891      20.57841814  T        1       0.02105023      -0.02310963      -0.00959521
Si       5.76335786       4.27750551      20.57229925  T        1      -0.06006905      -0.05143076       0.00379124
Si       9.55350044       4.16693228      20.49145710  T        1       0.00996966       0.04078594       0.00624498
F        9.14753782       5.72548673      22.98146517  T        0       0.01428411       0.08579947       0.08423876
H       10.02117854       5.88068370      22.57956311  T        0       0.06644799       0.10159134       0.26664081
38
Lattice="11.518769465528859 0.0 0.0 3.839589821842953 6.650364651656328 0.0 0.0 0.0 32.62128289467409" Properties=species:S:1:pos:R:3:move_mask:L:1:tags:I:1:forces:R:3 surface=Si111 species=HF site=hollow orientation=parallel height_A=1.9 substrate_atoms=36 calculation_kind="Rigid evaluated approach scan; not NEB" energy=-184.569860959783 pbc="T T F"
Si       1.91979491       1.10839411      12.00000000  F        6       0.00064077       0.00787160       0.15940995
Si       5.75938473       1.10839411      12.00000000  F        6      -0.00027023       0.00751933       0.15990021
Si       9.59897455       1.10839411      12.00000000  F        6      -0.00060877       0.00940316       0.15806253
Si       3.83958982       4.43357643      12.00000000  F        6      -0.00081728      -0.00648554       0.16480551
Si       7.67917964       4.43357643      12.00000000  F        6       0.00172095      -0.00716295       0.16250949
Si      11.51876947       4.43357643      12.00000000  F        6      -0.00114167      -0.00754565       0.16313129
Si       1.91979491       1.10839411      14.35125897  F        5      -0.00216371      -0.02373703      -0.29618428
Si       5.75938473       1.10839411      14.35125897  F        5       0.00055748      -0.02212269      -0.30077087
Si       9.59897455       1.10839411      14.35125897  F        5       0.00166220      -0.02735867      -0.28444072
Si       3.83958982       4.43357643      14.35125897  F        5       0.00252689       0.01718921      -0.30120035
Si       7.67917964       4.43357643      14.35125897  F        5      -0.00712532       0.02037811      -0.29530345
Si      11.51876947       4.43357643      14.35125897  F        5       0.00550071       0.02164614      -0.30085766
Si      -0.00000000       2.21678822      15.13501196  F        4       0.04367703      -0.05217886       0.48304297
Si       3.83958982       2.21678822      15.13501196  F        4       0.00368370      -0.03837064       0.54024459
Si       7.67917964       2.21678822      15.13501196  F        4      -0.03826399      -0.07642715       0.48775841
Si       1.91979491       5.54197054      15.13501196  F        4      -0.00112485       0.00606100      -0.29573806
Si       5.75938473       5.54197054      15.13501196  F        4      -0.01148863      -0.01218210      -0.37577880
Si       9.59897455       5.54197054      15.13501196  F        4       0.01441789       0.01810338      -0.36918454
Si       0.01464388       2.20127625      17.56581613  T        3      -0.01908101      -0.01300044       0.01616912
Si       3.84097617       2.19588495      17.57651988  T        3       0.00531639      -0.00287263       0.02025467
Si       7.67066268       2.18636586      17.56761216  T        3       0.00475372       0.00523223       0.02088999
Si       1.92562533       5.53994215      17.45904499  T        3      -0.01336787      -0.01128759       0.00933962
Si       5.75457104       5.53020591      17.45134691  T        3       0.00981468      -0.00027204       0.03789959
Si       9.60096611       5.53421762      17.45237492  T        3      -0.00610167       0.00007899       0.00160117
Si       0.00464910      -0.05998391      18.31921972  T        2      -0.01076586      -0.02192717       0.00445875
Si       3.83902120      -0.07905313      18.30181867  T        2      -0.00012455       0.03533460      -0.05076922
Si       7.67657384      -0.08062427      18.33068390  T        2      -0.00527536       0.02857322      -0.05538517
Si       1.92526434       3.36460642      18.34405965  T        2       0.01644953      -0.03102922      -0.02944203
Si       5.76285012       3.35549031      18.34694076  T        2      -0.03414104      -0.00748886      -0.04341049
Si       9.59914769       3.34243883      18.28030612  T        2      -0.01374191      -0.01468797       0.01170618
Si       0.00756585      -0.94011731      20.56993829  T        1      -0.04107336       0.02446025      -0.01224162
Si       3.85423126      -0.97258845      20.51359466  T        1      -0.13893840      -0.03150162       0.04759351
Si       7.64461214      -1.00209943      20.57632218  T        1       0.08683491      -0.01959474      -0.03003885
Si       1.93540499       4.26651043      20.57466349  T        1      -0.04164351      -0.00304534       0.00719483
Si       5.75833625       4.27267368      20.57035868  T        1       0.09213651       0.01783886       0.02490088
Si       9.55311181       4.17038875      20.49357829  T        1       0.03247876       0.03165574       0.00558854
F        9.15143696       5.74138156      22.99448560  T        0       0.01155333       0.07012962       0.07357535
H       10.03363961       5.89263389      22.61567591  T        0       0.05353354       0.10880346       0.28070897
38
Lattice="11.518769465528859 0.0 0.0 3.839589821842953 6.650364651656328 0.0 0.0 0.0 32.62128289467409" Properties=species:S:1:pos:R:3:move_mask:L:1:tags:I:1:forces:R:3 surface=Si111 species=HF site=hollow orientation=parallel height_A=1.9 substrate_atoms=36 calculation_kind="Rigid evaluated approach scan; not NEB" energy=-184.58576896684016 pbc="T T F"
Si       1.91979491       1.10839411      12.00000000  F        6       0.00072618       0.00795401       0.15942563
Si       5.75938473       1.10839411      12.00000000  F        6      -0.00019488       0.00752203       0.15951718
Si       9.59897455       1.10839411      12.00000000  F        6      -0.00068237       0.00940063       0.15781916
Si       3.83958982       4.43357643      12.00000000  F        6      -0.00074444      -0.00662325       0.16468359
Si       7.67917964       4.43357643      12.00000000  F        6       0.00165014      -0.00704553       0.16265833
Si      11.51876947       4.43357643      12.00000000  F        6      -0.00105655      -0.00738444       0.16279991
Si       1.91979491       1.10839411      14.35125897  F        5      -0.00317246      -0.02410651      -0.29556776
Si       5.75938473       1.10839411      14.35125897  F        5       0.00105368      -0.02234353      -0.30028738
Si       9.59897455       1.10839411      14.35125897  F        5       0.00220436      -0.02733018      -0.28688609
Si       3.83958982       4.43357643      14.35125897  F        5       0.00206020       0.01843010      -0.30106560
Si       7.67917964       4.43357643      14.35125897  F        5      -0.00645756       0.01967438      -0.29735489
Si      11.51876947       4.43357643      14.35125897  F        5       0.00501642       0.02110640      -0.30044559
Si      -0.00000000       2.21678822      15.13501196  F        4       0.03741756      -0.05749079       0.47864987
Si       3.83958982       2.21678822      15.13501196  F        4       0.00420679      -0.03704277       0.55337795
Si       7.67917964       2.21678822      15.13501196  F        4      -0.03605227      -0.07317588       0.47960370
Si       1.91979491       5.54197054      15.13501196  F        4       0.00003779       0.00376691      -0.31036259
Si       5.75938473       5.54197054      15.13501196  F        4      -0.01068205      -0.01134904      -0.36762324
Si       9.59897455       5.54197054      15.13501196  F        4       0.01125265       0.01466386      -0.37829899
Si       0.01098967       2.19771591      17.56515091  T        3      -0.00984223      -0.01552158       0.03094752
Si       3.84129587       2.19702838      17.57871080  T        3      -0.00621890      -0.00112565      -0.00788944
Si       7.67141882       2.18647877      17.56584048  T        3      -0.00420084       0.00865835       0.02689762
Si       1.92374791       5.53784384      17.45754346  T        3      -0.00937236      -0.01152504       0.01446927
Si       5.75624600       5.53012638      17.45220936  T        3       0.00043821       0.00109119       0.02803868
Si       9.59967818       5.53352288      17.45149438  T        3      -0.00238911      -0.00705330       0.00056191
Si       0.00340977      -0.06551477      18.32007901  T        2      -0.01346717      -0.00274613      -0.00187622
Si       3.83947448      -0.07729206      18.30093820  T        2       0.00421624       0.03333482      -0.04547592
Si       7.67556281      -0.07954192      18.32426410  T        2      -0.00580352       0.02760372      -0.05502128
Si       1.92094534       3.36259257      18.34231912  T        2       0.02643167      -0.03641100      -0.03125923
Si       5.76421016       3.35567794      18.34564898  T        2      -0.03422806      -0.01565440      -0.04192360
Si       9.59792638       3.34149681      18.28318820  T        2      -0.01161869      -0.00322570       0.00312526
Si       0.00276588      -0.95197172      20.56877944  T        1      -0.03078818       0.06300642      -0.01112800
Si       3.86244658      -0.96419325      20.51488158  T        1      -0.23557999      -0.08442033       0.05631060
Si       7.63817297      -0.99406859      20.56623905  T        1       0.14424463      -0.05194652      -0.01638343
Si       1.92729015       4.26473517      20.57119780  T        1      -0.07690284       0.00314652       0.01360939
Si       5.75667856       4.26852330      20.56933180  T        1       0.16709351       0.06187623       0.03328379
Si       9.55389820       4.17496051      20.49588457  T        1       0.04257460       0.03244469       0.00772852
F        9.15572253       5.75968283      23.01005925  T        0       0.00921702       0.05303915       0.05410765
H       10.04793508       5.90841686      22.66163588  T        0       0.03961281       0.11680212       0.30123371
38
Lattice="11.518769465528859 0.0 0.0 3.839589821842953 6.650364651656328 0.0 0.0 0.0 32.62128289467409" Properties=species:S:1:pos:R:3:move_mask:L:1:tags:I:1:forces:R:3 surface=Si111 species=HF site=hollow orientation=parallel height_A=1.9 substrate_atoms=36 calculation_kind="Rigid evaluated approach scan; not NEB" energy=-184.6100724489367 pbc="T T F"
Si       1.91979491       1.10839411      12.00000000  F        6       0.00082837       0.00797060       0.15939335
Si       5.75938473       1.10839411      12.00000000  F        6      -0.00007133       0.00757667       0.15897730
Si       9.59897455       1.10839411      12.00000000  F        6      -0.00079446       0.00937182       0.15762482
Si       3.83958982       4.43357643      12.00000000  F        6      -0.00056442      -0.00675111       0.16460174
Si       7.67917964       4.43357643      12.00000000  F        6       0.00146159      -0.00691601       0.16292046
Si      11.51876947       4.43357643      12.00000000  F        6      -0.00093898      -0.00715671       0.16267878
Si       1.91979491       1.10839411      14.35125897  F        5      -0.00395772      -0.02439493      -0.29499910
Si       5.75938473       1.10839411      14.35125897  F        5       0.00122858      -0.02301634      -0.29959854
Si       9.59897455       1.10839411      14.35125897  F        5       0.00277020      -0.02756838      -0.28927864
Si       3.83958982       4.43357643      14.35125897  F        5       0.00131170       0.01978860      -0.30139991
Si       7.67917964       4.43357643      14.35125897  F        5      -0.00524169       0.01917355      -0.29964289
Si      11.51876947       4.43357643      14.35125897  F        5       0.00428365       0.02075832      -0.29988952
Si      -0.00000000       2.21678822      15.13501196  F        4       0.03019438      -0.06390465       0.48144385
Si       3.83958982       2.21678822      15.13501196  F        4       0.00449847      -0.03557167       0.56519206
Si       7.67917964       2.21678822      15.13501196  F        4      -0.03341872      -0.06901115       0.47764913
Si       1.91979491       5.54197054      15.13501196  F        4       0.00175870       0.00096878      -0.32029714
Si       5.75938473       5.54197054      15.13501196  F        4      -0.01058502      -0.01033983      -0.34963577
Si       9.59897455       5.54197054      15.13501196  F        4       0.00775286       0.01029399      -0.38833918
Si       0.00697282       2.19356883      17.56570780  T        3       0.00102802      -0.01395234       0.02933664
Si       3.84136874       2.19811983      17.58057656  T        3      -0.01556170      -0.00010544      -0.04388933
Si       7.67200460       2.18693160      17.56513903  T        3      -0.01537029       0.01349482       0.01361006
Si       1.92151437       5.53530620      17.45662133  T        3      -0.00271703      -0.01219538       0.00545915
Si       5.75792692       5.53009032      17.45416919  T        3      -0.01432110       0.00460584      -0.00526125
Si       9.59830493       5.53255529      17.45064188  T        3       0.00009994      -0.01104210      -0.00069307
Si       0.00164891      -0.07111643      18.32085870  T        2      -0.01458807       0.01435595      -0.00917245
Si       3.84009059      -0.07423128      18.29827438  T        2       0.00233503       0.00716000      -0.00032394
Si       7.67433024      -0.07738078      18.31572269  T        2      -0.00258055       0.00721142      -0.02770336
Si       1.91769538       3.35915968      18.33936040  T        2       0.01843348      -0.02637802      -0.01245916
Si       5.76421431       3.35524837      18.34271639  T        2      -0.01648429      -0.01015608      -0.00909713
Si       9.59625616       3.34043421      18.28617383  T        2      -0.00388672       0.01393957       0.00170331
Si      -0.00321315      -0.96126731      20.56719056  T        1      -0.00078569       0.06404860      -0.00031264
Si       3.86133759      -0.95917612      20.51837539  T        1      -0.20783903      -0.08736805       0.03705039
Si       7.63745253      -0.98813568      20.55557921  T        1       0.13692086      -0.04993320      -0.01505369
Si       1.91620417       4.26309566      20.56829090  T        1      -0.04944136      -0.01115724       0.00637004
Si       5.76160640       4.26683541      20.56962140  T        1       0.11972332       0.06538310       0.02229463
Si       9.55635442       4.18077804      20.49847940  T        1       0.03058752       0.05005591       0.01214439
F        9.16034190       5.77994772      23.02765694  T        0       0.00252466       0.03372829       0.02608405
H       10.06369288       5.92868919      22.71913857  T        0       0.03140683       0.12703278       0.32251255
38
Lattice="11.518769465528859 0.0 0.0 3.839589821842953 6.650364651656328 0.0 0.0 0.0 32.62128289467409" Properties=species:S:1:pos:R:3:move_mask:L:1:tags:I:1:forces:R:3 surface=Si111 species=HF site=hollow orientation=parallel height_A=1.9 substrate_atoms=36 calculation_kind="Rigid evaluated approach scan; not NEB" energy=-184.6383721480054 pbc="T T F"
Si       1.91979491       1.10839411      12.00000000  F        6       0.00086350       0.00796161       0.15935100
Si       5.75938473       1.10839411      12.00000000  F        6       0.00011520       0.00764031       0.15842038
Si       9.59897455       1.10839411      12.00000000  F        6      -0.00087071       0.00934909       0.15748738
Si       3.83958982       4.43357643      12.00000000  F        6      -0.00037141      -0.00681107       0.16458911
Si       7.67917964       4.43357643      12.00000000  F        6       0.00129350      -0.00683852       0.16310178
Si      11.51876947       4.43357643      12.00000000  F        6      -0.00083141      -0.00693595       0.16262405
Si       1.91979491       1.10839411      14.35125897  F        5      -0.00376487      -0.02458530      -0.29493416
Si       5.75938473       1.10839411      14.35125897  F        5       0.00060354      -0.02359783      -0.29873157
Si       9.59897455       1.10839411      14.35125897  F        5       0.00292568      -0.02796912      -0.29084644
Si       3.83958982       4.43357643      14.35125897  F        5       0.00073306       0.02055895      -0.30221542
Si       7.67917964       4.43357643      14.35125897  F        5      -0.00419276       0.01909570      -0.30167464
Si      11.51876947       4.43357643      14.35125897  F        5       0.00361679       0.02062956      -0.29918620
Si      -0.00000000       2.21678822      15.13501196  F        4       0.02344568      -0.07008773       0.49138700
Si       3.83958982       2.21678822      15.13501196  F        4       0.00418841      -0.03437612       0.56495549
Si       7.67917964       2.21678822      15.13501196  F        4      -0.03144958      -0.06430046       0.47885572
Si       1.91979491       5.54197054      15.13501196  F        4       0.00343922      -0.00226251      -0.32729386
Si       5.75938473       5.54197054      15.13501196  F        4      -0.01088787      -0.00940639      -0.33642418
Si       9.59897455       5.54197054      15.13501196  F        4       0.00411678       0.00588390      -0.39765310
Si       0.00348788       2.18933466      17.56744023  T        3       0.00671771      -0.00202585       0.01117169
Si       3.84077327       2.19907411      17.58035554  T        3      -0.01402555      -0.00366587      -0.05819825
Si       7.67186779       2.18790126      17.56509963  T        3      -0.01707309       0.01360025      -0.00675132
Si       1.91943723       5.53256024      17.45604267  T        3       0.00300945      -0.01155915      -0.00915263
Si       5.75879658       5.53025383      17.45566780  T        3      -0.02489062       0.00695859      -0.03308467
Si       9.59710286       5.53123740      17.44986365  T        3      -0.00033797      -0.00498686      -0.00087628
Si      -0.00051609      -0.07542871      18.32115489  T        2      -0.01213956       0.01939612      -0.01264132
Si       3.84073076      -0.07123918      18.29592069  T        2      -0.00900950      -0.02528140       0.04953305
Si       7.67313816      -0.07517676      18.30704567  T        2       0.00375604      -0.01838260       0.01110099
Si       1.91562171       3.35502628      18.33623338  T        2       0.00086708      -0.00712211       0.01286858
Si       5.76351939       3.35444063      18.33975481  T        2      -0.00043824       0.00715041       0.03157911
Si       9.59462427       3.34009154      18.28886867  T        2       0.00461340       0.02192507       0.00818369
Si      -0.00849859      -0.96671853      20.56578159  T        1       0.02882286       0.03368193       0.01308844
Si       3.85155558      -0.95847144      20.52301458  T        1      -0.07110014      -0.04090731       0.00770268
Si       7.64262213      -0.98504013      20.54557737  T        1       0.06881426      -0.01668587      -0.01601280
Si       1.90437071       4.26118265      20.56600736  T        1       0.03558178      -0.03681275      -0.00645626
Si       5.77100881       4.26812354      20.57082061  T        1      -0.02246760       0.02452487       0.00026488
Si       9.55980827       4.18800959      20.50127343  T        1       0.00287562       0.07371948       0.01545570
F        9.16450667       5.79917829      23.04422061  T        0       0.00268600       0.01526608      -0.00846497
H       10.07886591       5.95188036      22.78331798  T        0       0.02076532       0.13725888       0.33887735
38
Lattice="11.518769465528859 0.0 0.0 3.839589821842953 6.650364651656328 0.0 0.0 0.0 32.62128289467409" Properties=species:S:1:pos:R:3:move_mask:L:1:tags:I:1:forces:R:3 surface=Si111 species=HF site=hollow orientation=parallel height_A=1.9 substrate_atoms=36 calculation_kind="Rigid evaluated approach scan; not NEB" energy=-184.6647954065478 pbc="T T F"
Si       1.91979491       1.10839411      12.00000000  F        6       0.00076699       0.00799528       0.15930365
Si       5.75938473       1.10839411      12.00000000  F        6       0.00034671       0.00765459       0.15803759
Si       9.59897455       1.10839411      12.00000000  F        6      -0.00084079       0.00934812       0.15734882
Si       3.83958982       4.43357643      12.00000000  F        6      -0.00028290      -0.00677553       0.16456804
Si       7.67917964       4.43357643      12.00000000  F        6       0.00127847      -0.00684977       0.16303998
Si      11.51876947       4.43357643      12.00000000  F        6      -0.00076122      -0.00679719       0.16240625
Si       1.91979491       1.10839411      14.35125897  F        5      -0.00247141      -0.02469194      -0.29540568
Si       5.75938473       1.10839411      14.35125897  F        5      -0.00068972      -0.02352397      -0.29798952
Si       9.59897455       1.10839411      14.35125897  F        5       0.00248005      -0.02827137      -0.29128675
Si       3.83958982       4.43357643      14.35125897  F        5       0.00063971       0.02035217      -0.30312703
Si       7.67917964       4.43357643      14.35125897  F        5      -0.00390455       0.01932025      -0.30302011
Si      11.51876947       4.43357643      14.35125897  F        5       0.00324525       0.02061335      -0.29847615
Si      -0.00000000       2.21678822      15.13501196  F        4       0.01808359      -0.07439084       0.50261480
Si       3.83958982       2.21678822      15.13501196  F        4       0.00348255      -0.03409936       0.54962187
Si       7.67917964       2.21678822      15.13501196  F        4      -0.03071654      -0.05958380       0.47730488
Si       1.91979491       5.54197054      15.13501196  F        4       0.00443709      -0.00575271      -0.33663284
Si       5.75938473       5.54197054      15.13501196  F        4      -0.01101208      -0.00871343      -0.33925097
Si       9.59897455       5.54197054      15.13501196  F        4       0.00041628       0.00249134      -0.40465583
Si       0.00095701       2.18580906      17.56934022  T        3       0.00471031       0.01640852      -0.00937106
Si       3.83966968       2.19968636      17.57760198  T        3      -0.00310580      -0.01214843      -0.03407231
Si       7.67100161       2.18928969      17.56476903  T        3      -0.00679814       0.00553387      -0.01271536
Si       1.91788476       5.52982065      17.45516825  T        3       0.00474097      -0.00837091      -0.01439152
Si       5.75840135       5.53069430      17.45542052  T        3      -0.02428308       0.00522245      -0.03010872
Si       9.59611244       5.52994736      17.44919337  T        3      -0.00386155       0.00818607       0.00154350
Si      -0.00280991      -0.07807016      18.32083609  T        2      -0.00709816       0.01331551      -0.00950366
Si       3.84085174      -0.06992935      18.29620161  T        2      -0.02307962      -0.03793093       0.06195038
Si       7.67233693      -0.07420132      18.30049536  T        2       0.00959451      -0.02695307       0.03373009
Si       1.91397730       3.35135705      18.33426504  T        2      -0.00736491       0.00651360       0.02158054
Si       5.76293609       3.35410144      18.33874831  T        2      -0.00327395       0.02017253       0.04514424
Si       9.59350407       3.34078324      18.29141749  T        2       0.00729753       0.01545188       0.01760039
Si      -0.01151279      -0.96965234      20.56521715  T        1       0.03641989       0.00426098       0.01781297
Si       3.84047270      -0.95970899      20.52711994  T        1       0.07028381       0.01915514      -0.00604805
Si       7.64986097      -0.98326617      20.53675270  T        1      -0.00349930       0.01625122      -0.00459368
Si       1.89634181       4.25800197      20.56386871  T        1       0.11455024      -0.04993679      -0.01044149
Si       5.77764499       4.27025362      20.57180546  T        1      -0.14829525      -0.02914690      -0.01249069
Si       9.56273822       4.19713864      20.50422439  T        1      -0.01888868       0.08090350       0.01392667
F        9.16800514       5.81545895      23.05728745  T        0       0.01947137      -0.00048002      -0.04268330
H       10.09209717       5.97677095      22.85038800  T        0      -0.00201766       0.14526659       0.34873006
38
Lattice="11.518769465528859 0.0 0.0 3.839589821842953 6.650364651656328 0.0 0.0 0.0 32.62128289467409" Properties=species:S:1:pos:R:3:move_mask:L:1:tags:I:1:forces:R:3 surface=Si111 species=HF site=hollow orientation=parallel height_A=1.9 substrate_atoms=36 calculation_kind="Rigid evaluated approach scan; not NEB" energy=-184.69304358191556 pbc="T T F"
Si       1.91979491       1.10839411      12.00000000  F        6       0.00056879       0.00809190       0.15919644
Si       5.75938473       1.10839411      12.00000000  F        6       0.00057847       0.00761960       0.15789598
Si       9.59897455       1.10839411      12.00000000  F        6      -0.00071346       0.00933848       0.15717139
Si       3.83958982       4.43357643      12.00000000  F        6      -0.00031082      -0.00667989       0.16443092
Si       7.67917964       4.43357643      12.00000000  F        6       0.00137991      -0.00691695       0.16279085
Si      11.51876947       4.43357643      12.00000000  F        6      -0.00070104      -0.00674258       0.16201411
Si       1.91979491       1.10839411      14.35125897  F        5      -0.00082935      -0.02474362      -0.29597542
Si       5.75938473       1.10839411      14.35125897  F        5      -0.00196801      -0.02293825      -0.29772152
Si       9.59897455       1.10839411      14.35125897  F        5       0.00174981      -0.02833987      -0.29100080
Si       3.83958982       4.43357643      14.35125897  F        5       0.00083050       0.01956218      -0.30374379
Si       7.67917964       4.43357643      14.35125897  F        5      -0.00414756       0.01952464      -0.30361293
Si      11.51876947       4.43357643      14.35125897  F        5       0.00304908       0.02061645      -0.29794527
Si      -0.00000000       2.21678822      15.13501196  F        4       0.01377713      -0.07619478       0.50981690
Si       3.83958982       2.21678822      15.13501196  F        4       0.00294760      -0.03516163       0.52856960
Si       7.67917964       2.21678822      15.13501196  F        4      -0.03062548      -0.05538339       0.47236045
Si       1.91979491       5.54197054      15.13501196  F        4       0.00475558      -0.00914927      -0.34965466
Si       5.75938473       5.54197054      15.13501196  F        4      -0.01084467      -0.00817087      -0.35282775
Si       9.59897455       5.54197054      15.13501196  F        4      -0.00330072       0.00041519      -0.40875716
Si      -0.00092381       2.18360708      17.57050447  T        3      -0.00081900       0.02963334      -0.01928182
Si       3.83863047       2.19967394      17.57389145  T        3       0.00674907      -0.02084529       0.01096115
Si       7.67000082       2.19066618      17.56395736  T        3       0.00477852      -0.00476638       0.00085225
Si       1.91680966       5.52721282      17.45383829  T        3       0.00326596      -0.00302045      -0.00685903
Si       5.75704540       5.53127818      17.45393886  T        3      -0.01590623       0.00021654      -0.00369401
Si       9.59513420       5.52923429      17.44870781  T        3      -0.00851728       0.01869792       0.00641193
Si      -0.00499721      -0.07967654      18.32017049  T        2      -0.00219610       0.00677291      -0.00221495
Si       3.83997131      -0.07046291      18.29906286  T        2      -0.02930367      -0.02645101       0.03496167
Si       7.67208554      -0.07454370      18.29654198  T        2       0.01128482      -0.01521133       0.03279550
Si       1.91231261       3.34861685      18.33356298  T        2       0.00102158       0.00838918       0.00911600
Si       5.76231750       3.35467904      18.33983751  T        2      -0.01815868       0.01672023       0.02483126
Si       9.59289291       3.34200799      18.29426033  T        2       0.00291433       0.00489933       0.02444194
Si      -0.01244467      -0.97188353      20.56550938  T        1       0.02168721      -0.00258864       0.01114622
Si       3.83434475      -0.95991319      20.53023847  T        1       0.11928033       0.04712182       0.00045424
Si       7.65566399      -0.98111767      20.52930226  T        1      -0.03107283       0.02189218       0.01926544
Si       1.89460421       4.25326670      20.56166706  T        1       0.13326457      -0.03609571      -0.00191418
Si       5.77680481       4.27076741      20.57208486  T        1      -0.16744347      -0.05030694      -0.00717940
Si       9.56434518       4.20807930      20.50724189  T        1      -0.02099788       0.06354606       0.00874237
F        9.17170820       5.82882410      23.06621842  T        0       0.04374234      -0.01526824      -0.06839127
H       10.10288989       6.00340302      22.92033750  T        0      -0.02976933       0.15191716       0.35254735
38
Lattice="11.518769465528859 0.0 0.0 3.839589821842953 6.650364651656328 0.0 0.0 0.0 32.62128289467409" Properties=species:S:1:pos:R:3:move_mask:L:1:tags:I:1:forces:R:3 surface=Si111 species=HF site=hollow orientation=parallel height_A=1.9 substrate_atoms=36 calculation_kind="Rigid evaluated approach scan; not NEB" energy=-184.723889728795 pbc="T T F"
Si       1.91979491       1.10839411      12.00000000  F        6       0.00036900       0.00822619       0.15900658
Si       5.75938473       1.10839411      12.00000000  F        6       0.00075746       0.00758300       0.15797327
Si       9.59897455       1.10839411      12.00000000  F        6      -0.00055573       0.00928611       0.15700028
Si       3.83958982       4.43357643      12.00000000  F        6      -0.00038391      -0.00659790       0.16416887
Si       7.67917964       4.43357643      12.00000000  F        6       0.00147018      -0.00698369       0.16256665
Si      11.51876947       4.43357643      12.00000000  F        6      -0.00061238      -0.00673135       0.16166200
Si       1.91979491       1.10839411      14.35125897  F        5       0.00024682      -0.02476774      -0.29614171
Si       5.75938473       1.10839411      14.35125897  F        5      -0.00262316      -0.02240181      -0.29800312
Si       9.59897455       1.10839411      14.35125897  F        5       0.00120855      -0.02820258      -0.29045924
Si       3.83958982       4.43357643      14.35125897  F        5       0.00093122       0.01887717      -0.30385644
Si       7.67917964       4.43357643      14.35125897  F        5      -0.00434668       0.01950344      -0.30358244
Si      11.51876947       4.43357643      14.35125897  F        5       0.00279590       0.02059564      -0.29770954
Si      -0.00000000       2.21678822      15.13501196  F        4       0.01000218      -0.07569179       0.51112836
Si       3.83958982       2.21678822      15.13501196  F        4       0.00288479      -0.03761039       0.51447835
Si       7.67917964       2.21678822      15.13501196  F        4      -0.03030042      -0.05223195       0.46839518
Si       1.91979491       5.54197054      15.13501196  F        4       0.00474665      -0.01188347      -0.36260426
Si       5.75938473       5.54197054      15.13501196  F        4      -0.01074040      -0.00762673      -0.36456413
Si       9.59897455       5.54197054      15.13501196  F        4      -0.00674889      -0.00054794      -0.40922441
Si      -0.00247939       2.18303482      17.57065950  T        3      -0.00470566       0.02973154      -0.01503629
Si       3.83806498       2.19881286      17.57133601  T        3       0.00802951      -0.02478883       0.04486962
Si       7.66938597       2.19158558      17.56333526  T        3       0.00798996      -0.00913669       0.02201577
Si       1.91607291       5.52497899      17.45248193  T        3       0.00120480       0.00332868       0.00594964
Si       5.75529864       5.53175956      17.45258894  T        3      -0.00719026      -0.00528043       0.02205190
Si       9.59399478       5.52942056      17.44857662  T        3      -0.01109521       0.01987539       0.01127901
Si      -0.00685705      -0.08070008      18.31954138  T        2       0.00043707       0.00777727       0.00492937
Si       3.83806242      -0.07197461      18.30280580  T        2      -0.02346916      -0.00441970      -0.00485544
Si       7.67234281      -0.07544181      18.29468140  T        2       0.00765865       0.00342796       0.02012317
Si       1.91100708       3.34674170      18.33336697  T        2       0.01760807       0.00332779      -0.01046485
Si       5.76107554       3.35582911      18.34173276  T        2      -0.02798062      -0.00085615      -0.00880318
Si       9.59251727       3.34319920      18.29755891  T        2      -0.00481775       0.00112327       0.02542470
Si      -0.01231345      -0.97379492      20.56620094  T        1      -0.00215358       0.01401136      -0.00127184
Si       3.83425511      -0.95815466      20.53278084  T        1       0.06342942       0.03332804       0.01441650
Si       7.65909180      -0.97848512      20.52405913  T        1      -0.00990676       0.00062685       0.04151168
Si       1.89863861       4.24796080      20.55980710  T        1       0.08801844      -0.00363725       0.01146127
Si       5.76928882       4.26912938      20.57201787  T        1      -0.07959058      -0.02880910       0.00915816
Si       9.56478844       4.21952790      20.51004086  T        1      -0.00352000       0.02994678       0.00547852
F        9.17649092       5.83901719      23.07065413  T        0       0.06659645      -0.02918118      -0.08183727
H       10.11040909       6.03115853      22.99134074  T        0      -0.05564396       0.15681016       0.35336529
38
Lattice="11.518769465528859 0.0 0.0 3.839589821842953 6.650364651656328 0.0 0.0 0.0 32.62128289467409" Properties=species:S:1:pos:R:3:move_mask:L:1:tags:I:1:forces:R:3 surface=Si111 species=HF site=hollow orientation=parallel height_A=1.9 substrate_atoms=36 calculation_kind="Rigid evaluated approach scan; not NEB" energy=-184.75448804359684 pbc="T T F"
Si       1.91979491       1.10839411      12.00000000  F        6       0.00026596       0.00835890       0.15875203
Si       5.75938473       1.10839411      12.00000000  F        6       0.00085896       0.00759380       0.15815771
Si       9.59897455       1.10839411      12.00000000  F        6      -0.00044072       0.00918734       0.15690438
Si       3.83958982       4.43357643      12.00000000  F        6      -0.00041249      -0.00659243       0.16385680
Si       7.67917964       4.43357643      12.00000000  F        6       0.00144474      -0.00701045       0.16254649
Si      11.51876947       4.43357643      12.00000000  F        6      -0.00047811      -0.00671552       0.16157671
Si       1.91979491       1.10839411      14.35125897  F        5       0.00028345      -0.02480863      -0.29568317
Si       5.75938473       1.10839411      14.35125897  F        5      -0.00251359      -0.02240222      -0.29860565
Si       9.59897455       1.10839411      14.35125897  F        5       0.00114176      -0.02800341      -0.28996058
Si       3.83958982       4.43357643      14.35125897  F        5       0.00070591       0.01880462      -0.30350066
Si       7.67917964       4.43357643      14.35125897  F        5      -0.00409081       0.01928786      -0.30320231
Si      11.51876947       4.43357643      14.35125897  F        5       0.00235209       0.02052595      -0.29771980
Si      -0.00000000       2.21678822      15.13501196  F        4       0.00631316      -0.07378049       0.50832521
Si       3.83958982       2.21678822      15.13501196  F        4       0.00313575      -0.04113421       0.51460090
Si       7.67917964       2.21678822      15.13501196  F        4      -0.02925173      -0.05026880       0.47061646
Si       1.91979491       5.54197054      15.13501196  F        4       0.00477988      -0.01354494      -0.37073846
Si       5.75938473       5.54197054      15.13501196  F        4      -0.01118135      -0.00700158      -0.36521848
Si       9.59897455       5.54197054      15.13501196  F        4      -0.00967227      -0.00090996      -0.40547124
Si      -0.00391923       2.18379718      17.57016625  T        3      -0.00446730       0.01907746      -0.00198178
Si       3.83794155       2.19710484      17.57113078  T        3       0.00132151      -0.02193009       0.04551181
Si       7.66922136       2.19194714      17.56374084  T        3       0.00259037      -0.00521276       0.03368812
Si       1.91553198       5.52332557      17.45163932  T        3       0.00064154       0.00971362       0.01393080
Si       5.75360357       5.53192847      17.45241275  T        3      -0.00360395      -0.00874670       0.02756617
Si       9.59262604       5.53038604      17.44893468  T        3      -0.00910248       0.01249154       0.01276079
Si      -0.00832951      -0.08120093      18.31923967  T        2       0.00062560       0.01586376       0.00848223
Si       3.83556891      -0.07336753      18.30560588  T        2      -0.01028203       0.01050613      -0.02716515
Si       7.67286348      -0.07602075      18.29401678  T        2       0.00068211       0.01323038       0.01248328
Si       1.91068397       3.34537568      18.33278014  T        2       0.02769183       0.00030492      -0.01844439
Si       5.75893122       3.35671558      18.34289004  T        2      -0.02249362      -0.01910543      -0.02717946
Si       9.59201840       3.34419992      18.30124638  T        2      -0.01023947       0.00590280       0.02027528
Si      -0.01229674      -0.97475125      20.56670290  T        1      -0.01682588       0.03865364      -0.01079239
Si       3.83678808      -0.95537678      20.53541025  T        1      -0.02871220       0.00613980       0.01828045
Si       7.66143190      -0.97634975      20.52156218  T        1       0.02773115      -0.02588219       0.04746657
Si       1.90548621       4.24355946      20.55878727  T        1       0.01633457       0.02519679       0.01888699
Si       5.75999728       4.26663365      20.57234028  T        1       0.03642132       0.00754571       0.02164818
Si       9.56499910       4.22993223      20.51250885  T        1       0.02095265      -0.00242192       0.01004162
F        9.18305847       5.84598724      23.07084804  T        0       0.09338861      -0.03909325      -0.08338535
H       10.11414966       6.05984046      23.06275171  T        0      -0.08589491       0.15618000       0.35268986
38
Lattice="11.518769465528859 0.0 0.0 3.839589821842953 6.650364651656328 0.0 0.0 0.0 32.62128289467409" Properties=species:S:1:pos:R:3:move_mask:L:1:tags:I:1:forces:R:3 surface=Si111 species=HF site=hollow orientation=parallel height_A=1.9 substrate_atoms=36 calculation_kind="Rigid evaluated approach scan; not NEB" energy=-184.78520053957692 pbc="T T F"
Si       1.91979491       1.10839411      12.00000000  F        6       0.00028487       0.00846100       0.15847011
Si       5.75938473       1.10839411      12.00000000  F        6       0.00089716       0.00766105       0.15830299
Si       9.59897455       1.10839411      12.00000000  F        6      -0.00039453       0.00907163       0.15690913
Si       3.83958982       4.43357643      12.00000000  F        6      -0.00035577      -0.00666650       0.16358836
Si       7.67917964       4.43357643      12.00000000  F        6       0.00129714      -0.00699590       0.16272024
Si      11.51876947       4.43357643      12.00000000  F        6      -0.00031680      -0.00667777       0.16180293
Si       1.91979491       1.10839411      14.35125897  F        5      -0.00050137      -0.02491079      -0.29480850
Si       5.75938473       1.10839411      14.35125897  F        5      -0.00198160      -0.02299105      -0.29923791
Si       9.59897455       1.10839411      14.35125897  F        5       0.00147939      -0.02790752      -0.28960608
Si       3.83958982       4.43357643      14.35125897  F        5       0.00020269       0.01935541      -0.30290807
Si       7.67917964       4.43357643      14.35125897  F        5      -0.00341670       0.01909567      -0.30273375
Si      11.51876947       4.43357643      14.35125897  F        5       0.00179895       0.02040530      -0.29779226
Si      -0.00000000       2.21678822      15.13501196  F        4       0.00266536      -0.07151960       0.50531072
Si       3.83958982       2.21678822      15.13501196  F        4       0.00328287      -0.04514437       0.52604416
Si       7.67917964       2.21678822      15.13501196  F        4      -0.02767985      -0.04923119       0.48075458
Si       1.91979491       5.54197054      15.13501196  F        4       0.00495138      -0.01403769      -0.37218782
Si       5.75938473       5.54197054      15.13501196  F        4      -0.01234865      -0.00641761      -0.35554645
Si       9.59897455       5.54197054      15.13501196  F        4      -0.01191152      -0.00109610      -0.39785170
Si      -0.00526259       2.18518542      17.56968777  T        3      -0.00108980       0.00759418       0.01079358
Si       3.83789544       2.19483761      17.57280865  T        3      -0.00671923      -0.01330720       0.01674785
Si       7.66919340       2.19202789      17.56543287  T        3      -0.00408495       0.00197987       0.02775872
Si       1.91512126       5.52238421      17.45152337  T        3       0.00159154       0.01533082       0.01278463
Si       5.75208914       5.53171053      17.45338713  T        3      -0.00533414      -0.00925057       0.01287279
Si       9.59115234       5.53167147      17.44974064  T        3      -0.00296236       0.00294130       0.00931368
Si      -0.00949291      -0.08096267      18.31933969  T        2       0.00027080       0.02369706       0.00699616
Si       3.83313938      -0.07406647      18.30676604  T        2       0.00115260       0.00988497      -0.02205796
Si       7.67331146      -0.07595220      18.29398588  T        2      -0.00585512       0.00929333       0.01681127
Si       1.91154484       3.34428523      18.33155926  T        2       0.02283176       0.00392260      -0.00824792
Si       5.75628893       3.35665733      18.34272337  T        2      -0.00585234      -0.02515177      -0.01788288
Si       9.59120089       3.34524692      18.30504460  T        2      -0.00964472       0.01246582       0.01204688
Si      -0.01296481      -0.97395756      20.56667097  T        1      -0.01120581       0.05061692      -0.01187995
Si       3.83766991      -0.95288546      20.53827349  T        1      -0.08245328      -0.00962088       0.00462051
Si       7.66444440      -0.97567425      20.52146911  T        1       0.04738516      -0.03756915       0.03391716
Si       1.91167603       4.24102686      20.55872900  T        1      -0.03759310       0.03612793       0.01619446
Si       5.75397145       4.26492448      20.57347747  T        1       0.10178447       0.03288483       0.02051203
Si       9.56601791       4.23823365      20.51490804  T        1       0.03522545      -0.01692566       0.02348034
F        9.19214345       5.85003068      23.06762687  T        0       0.12897221      -0.04174864      -0.07238185
H       10.11369009       6.08932211      23.13468908  T        0      -0.12437219       0.14638026       0.34636981
38
Lattice="11.518769465528859 0.0 0.0 3.839589821842953 6.650364651656328 0.0 0.0 0.0 32.62128289467409" Properties=species:S:1:pos:R:3:move_mask:L:1:tags:I:1:forces:R:3 surface=Si111 species=HF site=hollow orientation=parallel height_A=1.9 substrate_atoms=36 calculation_kind="Rigid evaluated approach scan; not NEB" energy=-184.81703657097773 pbc="T T F"
Si       1.91979491       1.10839411      12.00000000  F        6       0.00037141       0.00852408       0.15821487
Si       5.75938473       1.10839411      12.00000000  F        6       0.00090447       0.00775329       0.15833947
Si       9.59897455       1.10839411      12.00000000  F        6      -0.00038710       0.00897657       0.15698850
Si       3.83958982       4.43357643      12.00000000  F        6      -0.00024213      -0.00676773       0.16343370
Si       7.67917964       4.43357643      12.00000000  F        6       0.00110721      -0.00696973       0.16293486
Si      11.51876947       4.43357643      12.00000000  F        6      -0.00016970      -0.00663959       0.16219408
Si       1.91979491       1.10839411      14.35125897  F        5      -0.00143338      -0.02506260      -0.29387864
Si       5.75938473       1.10839411      14.35125897  F        5      -0.00153213      -0.02378113      -0.29969190
Si       9.59897455       1.10839411      14.35125897  F        5       0.00189723      -0.02798018      -0.28936928
Si       3.83958982       4.43357643      14.35125897  F        5      -0.00033109       0.02008427      -0.30232735
Si       7.67917964       4.43357643      14.35125897  F        5      -0.00269194       0.01911867      -0.30226296
Si      11.51876947       4.43357643      14.35125897  F        5       0.00133386       0.02027780      -0.29775978
Si      -0.00000000       2.21678822      15.13501196  F        4      -0.00058416      -0.06943760       0.50529543
Si       3.83958982       2.21678822      15.13501196  F        4       0.00302109      -0.04890605       0.53918017
Si       7.67917964       2.21678822      15.13501196  F        4      -0.02614546      -0.04873379       0.49559023
Si       1.91979491       5.54197054      15.13501196  F        4       0.00504116      -0.01354345      -0.36880982
Si       5.75938473       5.54197054      15.13501196  F        4      -0.01397175      -0.00617802      -0.34357460
Si       9.59897455       5.54197054      15.13501196  F        4      -0.01337390      -0.00122726      -0.38811716
Si      -0.00639179       2.18660465      17.56972174  T        3       0.00299353       0.00329444       0.01670416
Si       3.83759604       2.19248449      17.57481923  T        3      -0.00999998      -0.00183235      -0.01795955
Si       7.66901144       2.19217043      17.56788440  T        3      -0.00548810       0.00553883       0.01006318
Si       1.91485110       5.52222072      17.45192825  T        3       0.00241753       0.01904258       0.00606648
Si       5.75065599       5.53117340      17.45467747  T        3      -0.00843670      -0.00743418      -0.00686989
Si       9.58984465       5.53282604      17.45075591  T        3       0.00412959      -0.00293944       0.00274308
Si      -0.01042346      -0.07984559      18.31969349  T        2       0.00146940       0.02460236       0.00176123
Si       3.83121900      -0.07424630      18.30684411  T        2       0.00497076      -0.00117027      -0.00368662
Si       7.67344545      -0.07553425      18.29461665  T        2      -0.00875563      -0.00112021       0.02661225
Si       1.91313182       3.34355613      18.33024991  T        2       0.00663407       0.01180606       0.01088247
Si       5.75392320       3.35562911      18.34189098  T        2       0.00980625      -0.01682415       0.00803193
Si       9.59016336       3.34658013      18.30858704  T        2      -0.00359555       0.01418837       0.00609560
Si      -0.01394234      -0.97134111      20.56618174  T        1       0.00898232       0.04036878      -0.00528587
Si       3.83516702      -0.95124542      20.54076990  T        1      -0.07185444      -0.00929073      -0.01872667
Si       7.66872967      -0.97659326      20.52271682  T        1       0.03681616      -0.02909522       0.01053611
Si       1.91521681       4.24038739      20.55931356  T        1      -0.05106983       0.03119900       0.00821937
Si       5.75306721       4.26482460      20.57519749  T        1       0.09344384       0.03951422       0.00822002
Si       9.56821609       4.24428877      20.51776473  T        1       0.03104657      -0.01022676       0.03946603
F        9.20452343       5.85167308      23.06219776  T        0       0.14976400      -0.04176022      -0.05146746
H       10.10846697       6.11888076      23.20639270  T        0      -0.14608748       0.13263133       0.33221433
38
Lattice="11.518769465528859 0.0 0.0 3.839589821842953 6.650364651656328 0.0 0.0 0.0 32.62128289467409" Properties=species:S:1:pos:R:3:move_mask:L:1:tags:I:1:forces:R:3 surface=Si111 species=HF site=hollow orientation=parallel height_A=1.9 substrate_atoms=36 calculation_kind="Rigid evaluated approach scan; not NEB" energy=-184.84853726404023 pbc="T T F"
Si       1.91979491       1.10839411      12.00000000  F        6       0.00044677       0.00855349       0.15803128
Si       5.75938473       1.10839411      12.00000000  F        6       0.00090628       0.00782931       0.15829306
Si       9.59897455       1.10839411      12.00000000  F        6      -0.00036852       0.00891986       0.15709554
Si       3.83958982       4.43357643      12.00000000  F        6      -0.00013235      -0.00683437       0.16341819
Si       7.67917964       4.43357643      12.00000000  F        6       0.00096620      -0.00696328       0.16304455
Si      11.51876947       4.43357643      12.00000000  F        6      -0.00006984      -0.00663438       0.16254462
Si       1.91979491       1.10839411      14.35125897  F        5      -0.00187639      -0.02519205      -0.29307958
Si       5.75938473       1.10839411      14.35125897  F        5      -0.00148500      -0.02428451      -0.29986076
Si       9.59897455       1.10839411      14.35125897  F        5       0.00207332      -0.02815483      -0.28919535
Si       3.83958982       4.43357643      14.35125897  F        5      -0.00066060       0.02046039      -0.30189932
Si       7.67917964       4.43357643      14.35125897  F        5      -0.00227568       0.01936203      -0.30171113
Si      11.51876947       4.43357643      14.35125897  F        5       0.00109400       0.02022411      -0.29759188
Si      -0.00000000       2.21678822      15.13501196  F        4      -0.00303995      -0.06739711       0.50923876
Si       3.83958982       2.21678822      15.13501196  F        4       0.00233397      -0.05172356       0.54532460
Si       7.67917964       2.21678822      15.13501196  F        4      -0.02503869      -0.04850329       0.50984396
Si       1.91979491       5.54197054      15.13501196  F        4       0.00473245      -0.01238581      -0.36384242
Si       5.75938473       5.54197054      15.13501196  F        4      -0.01561334      -0.00658564      -0.33678069
Si       9.59897455       5.54197054      15.13501196  F        4      -0.01400449      -0.00126260      -0.37866775
Si      -0.00718778       2.18787729      17.57039348  T        3       0.00591235       0.00687427       0.01423786
Si       3.83696864       2.19051443      17.57574936  T        3      -0.00731165       0.00902784      -0.03548789
Si       7.66865288       2.19249914      17.57025139  T        3      -0.00069934       0.00265724      -0.00698753
Si       1.91472629       5.52282328      17.45248907  T        3       0.00155925       0.01969771       0.00014586
Si       5.74917375       5.53045308      17.45545402  T        3      -0.00871972      -0.00464228      -0.01724596
Si       9.58894840       5.53364460      17.45168123  T        3       0.00871290      -0.00350838      -0.00326822
Si      -0.01111790      -0.07799492      18.32004701  T        2       0.00464592       0.01738000      -0.00376075
Si       3.82986065      -0.07443659      18.30676493  T        2       0.00187715      -0.01085965       0.00722308
Si       7.67321588      -0.07524011      18.29615230  T        2      -0.00702114      -0.00749893       0.02972323
Si       1.91466869       3.34342301      18.32961281  T        2      -0.00991923       0.01869574       0.02488741
Si       5.75239189       3.35415021      18.34152891  T        2       0.01524198      -0.00164926       0.03014339
Si       9.58918720       3.34820356      18.31168154  T        2       0.00417202       0.01004989       0.00709333
Si      -0.01438491      -0.96767202      20.56558295  T        1       0.02779068       0.01478833       0.00383549
Si       3.83037511      -0.95027999      20.54206260  T        1      -0.01609349       0.00254459      -0.03785289
Si       7.67360876      -0.97845736      20.52413035  T        1       0.00432331      -0.00626208      -0.00754398
Si       1.91610494       4.24107465      20.56010246  T        1      -0.02765318       0.01998852       0.00246987
Si       5.75594174       4.26626815      20.57690293  T        1       0.03631129       0.02953045      -0.00568948
Si       9.57118797       4.24878184      20.52159291  T        1       0.01351600       0.00654833       0.04769258
F        9.22029311       5.85138798      23.05583025  T        0       0.17069765      -0.03416158      -0.02100296
H       10.09861595       6.14785582      23.27708473  T        0      -0.16533091       0.11137149       0.30718187
38
Lattice="11.518769465528859 0.0 0.0 3.839589821842953 6.650364651656328 0.0 0.0 0.0 32.62128289467409" Properties=species:S:1:pos:R:3:move_mask:L:1:tags:I:1:forces:R:3 surface=Si111 species=HF site=hollow orientation=parallel height_A=1.9 substrate_atoms=36 calculation_kind="Rigid evaluated approach scan; not NEB" energy=-184.87794667594483 pbc="T T F"
Si       1.91979491       1.10839411      12.00000000  F        6       0.00046124       0.00855766       0.15792703
Si       5.75938473       1.10839411      12.00000000  F        6       0.00090660       0.00786380       0.15823226
Si       9.59897455       1.10839411      12.00000000  F        6      -0.00030471       0.00888849       0.15719394
Si       3.83958982       4.43357643      12.00000000  F        6      -0.00007501      -0.00683404       0.16350914
Si       7.67917964       4.43357643      12.00000000  F        6       0.00091457      -0.00698259       0.16299863
Si      11.51876947       4.43357643      12.00000000  F        6      -0.00001990      -0.00667978       0.16271705
Si       1.91979491       1.10839411      14.35125897  F        5      -0.00160639      -0.02522360      -0.29237524
Si       5.75938473       1.10839411      14.35125897  F        5      -0.00181486      -0.02424479      -0.29973865
Si       9.59897455       1.10839411      14.35125897  F        5       0.00188513      -0.02828427      -0.28906778
Si       3.83958982       4.43357643      14.35125897  F        5      -0.00070397       0.02022573      -0.30166794
Si       7.67917964       4.43357643      14.35125897  F        5      -0.00228167       0.01964656      -0.30095463
Si      11.51876947       4.43357643      14.35125897  F        5       0.00106114       0.02030649      -0.29740411
Si      -0.00000000       2.21678822      15.13501196  F        4      -0.00457172      -0.06492735       0.51596497
Si       3.83958982       2.21678822      15.13501196  F        4       0.00144776      -0.05309629       0.54162263
Si       7.67917964       2.21678822      15.13501196  F        4      -0.02432650      -0.04840721       0.51962579
Si       1.91979491       5.54197054      15.13501196  F        4       0.00386606      -0.01090383      -0.35953686
Si       5.75938473       5.54197054      15.13501196  F        4      -0.01698724      -0.00776085      -0.33751351
Si       9.59897455       5.54197054      15.13501196  F        4      -0.01380824      -0.00126260      -0.37146209
Si      -0.00760407       2.18918023      17.57149538  T        3       0.00689413       0.01290139       0.00654866
Si       3.83617317       2.18926531      17.57512014  T        3      -0.00205853       0.01647193      -0.02704109
Si       7.66833408       2.19287010      17.57190283  T        3       0.00619957      -0.00311270      -0.01340714
Si       1.91468569       5.52408209      17.45295068  T        3      -0.00087766       0.01686425      -0.00113436
Si       5.74762839       5.52968627      17.45541206  T        3      -0.00465424      -0.00213715      -0.01405078
Si       9.58855994       5.53417308      17.45230587  T        3       0.00917836      -0.00093266      -0.00576357
Si      -0.01150107      -0.07581196      18.32018759  T        2       0.00828193       0.00608988      -0.00590919
Si       3.82882968      -0.07501522      18.30698254  T        2      -0.00253830      -0.00980322      -0.00046030
Si       7.67275516      -0.07529372      18.29856102  T        2      -0.00257913      -0.00462679       0.01959910
Si       1.91553085       3.34404463      18.33006644  T        2      -0.01651277       0.02079325       0.02536417
Si       5.75174205       3.35288356      18.34241130  T        2       0.00979425       0.00986002       0.03363052
Si       9.58855651       3.34991563      18.31447409  T        2       0.00933941       0.00363388       0.01540473
Si      -0.01365980      -0.96411197      20.56524591  T        1       0.03257374      -0.01013201       0.00956922
Si       3.82585132      -0.94939582      20.54163580  T        1       0.04274469       0.01693968      -0.04248300
Si       7.67774392      -0.98021722      20.52498497  T        1      -0.02991020       0.01975474      -0.00963108
Si       1.91574741       4.24241367      20.56084019  T        1       0.00937200       0.01189176       0.00340307
Si       5.75969608       4.26859448      20.57806724  T        1      -0.02329404       0.01195630      -0.01226847
Si       9.57413156       4.25269007      20.52656680  T        1      -0.00500982       0.01754175       0.04079468
F        9.23977656       5.84982262      23.04983394  T        0       0.17343993      -0.02421672       0.01310783
H       10.08415352       6.17575847      23.34654475  T        0      -0.16442564       0.08938088       0.27465633
38
Lattice="11.518769465528859 0.0 0.0 3.839589821842953 6.650364651656328 0.0 0.0 0.0 32.62128289467409" Properties=species:S:1:pos:R:3:move_mask:L:1:tags:I:1:forces:R:3 surface=Si111 species=HF site=hollow orientation=parallel height_A=1.9 substrate_atoms=36 calculation_kind="Rigid evaluated approach scan; not NEB" energy=-184.90451485441366 pbc="T T F"
Si       1.91979491       1.10839411      12.00000000  F        6       0.00042393       0.00854214       0.15787567
Si       5.75938473       1.10839411      12.00000000  F        6       0.00088728       0.00785781       0.15820425
Si       9.59897455       1.10839411      12.00000000  F        6      -0.00019769       0.00884987       0.15727672
Si       3.83958982       4.43357643      12.00000000  F        6      -0.00007718      -0.00678307       0.16363327
Si       7.67917964       4.43357643      12.00000000  F        6       0.00092276      -0.00700181       0.16285653
Si      11.51876947       4.43357643      12.00000000  F        6       0.00000667      -0.00676470       0.16271012
Si       1.91979491       1.10839411      14.35125897  F        5      -0.00090848      -0.02514342      -0.29163054
Si       5.75938473       1.10839411      14.35125897  F        5      -0.00221807      -0.02377340      -0.29936403
Si       9.59897455       1.10839411      14.35125897  F        5       0.00146734      -0.02823736      -0.28901005
Si       3.83958982       4.43357643      14.35125897  F        5      -0.00055347       0.01955332      -0.30163371
Si       7.67917964       4.43357643      14.35125897  F        5      -0.00254641       0.01974331      -0.29999696
Si      11.51876947       4.43357643      14.35125897  F        5       0.00109302       0.02050982      -0.29737816
Si      -0.00000000       2.21678822      15.13501196  F        4      -0.00538011      -0.06170112       0.52325406
Si       3.83958982       2.21678822      15.13501196  F        4       0.00062621      -0.05279437       0.53174478
Si       7.67917964       2.21678822      15.13501196  F        4      -0.02362727      -0.04833157       0.52433747
Si       1.91979491       5.54197054      15.13501196  F        4       0.00258412      -0.00935904      -0.35616934
Si       5.75938473       5.54197054      15.13501196  F        4      -0.01812467      -0.00956403      -0.34304633
Si       9.59897455       5.54197054      15.13501196  F        4      -0.01285614      -0.00151656      -0.36725784
Si      -0.00767139       2.19077047      17.57266573  T        3       0.00607604       0.01474948      -0.00091805
Si       3.83543508       2.18889468      17.57351952  T        3       0.00131537       0.01944520      -0.00151380
Si       7.66831934       2.19305134      17.57272773  T        3       0.01006996      -0.00483552      -0.00723739
Si       1.91461711       5.52579451      17.45328581  T        3      -0.00293355       0.01138540       0.00141022
Si       5.74616827       5.52896867      17.45481528  T        3       0.00212841      -0.00052001      -0.00315760
Si       9.58860695       5.53457140      17.45259017  T        3       0.00643707       0.00118126      -0.00428311
Si      -0.01148557      -0.07376881      18.32006704  T        2       0.01011343      -0.00323734      -0.00320526
Si       3.82787825      -0.07588444      18.30714350  T        2      -0.00267206       0.00264543      -0.02200892
Si       7.67227218      -0.07552304      18.30133078  T        2       0.00116804       0.00474035      -0.00003613
Si       1.91558086       3.34538901      18.33145521  T        2      -0.01035138       0.01790181       0.01399536
Si       5.75159824       3.35223393      18.34448427  T        2       0.00031643       0.01158475       0.01724187
Si       9.58841029       3.35147234      18.31739243  T        2       0.00958581      -0.00089498       0.02539407
Si      -0.01175877      -0.96158270      20.56535094  T        1       0.02158071      -0.02057778       0.00884671
Si       3.82383247      -0.94798919      20.53958419  T        1       0.06705245       0.02345282      -0.03153908
Si       7.67995594      -0.98087752      20.52530411  T        1      -0.04671331       0.03793429       0.00602550
Si       1.91582767       4.24399326      20.56158449  T        1       0.03227028       0.01222576       0.00998469
Si       5.76185888       4.27099053      20.57853614  T        1      -0.04669810      -0.00098070      -0.00880512
Si       9.57635761       4.25661361      20.53229916  T        1      -0.01410373       0.01359746       0.01942928
F        9.26277684       5.84756331      23.04541545  T        0       0.17675662      -0.00477264       0.05495605
H       10.06565288       6.20233569      23.41479202  T        0      -0.16292034       0.06088913       0.22901481
38
Lattice="11.518769465528859 0.0 0.0 3.839589821842953 6.650364651656328 0.0 0.0 0.0 32.62128289467409" Properties=species:S:1:pos:R:3:move_mask:L:1:tags:I:1:forces:R:3 surface=Si111 species=HF site=hollow orientation=parallel height_A=1.9 substrate_atoms=36 calculation_kind="Rigid evaluated approach scan; not NEB" energy=-184.92780661670878 pbc="T T F"
Si       1.91979491       1.10839411      12.00000000  F        6       0.00039465       0.00850955       0.15784023
Si       5.75938473       1.10839411      12.00000000  F        6       0.00082328       0.00783275       0.15820022
Si       9.59897455       1.10839411      12.00000000  F        6      -0.00008495       0.00877800       0.15736192
Si       3.83958982       4.43357643      12.00000000  F        6      -0.00010323      -0.00673838       0.16371411
Si       7.67917964       4.43357643      12.00000000  F        6       0.00091993      -0.00698349       0.16273712
Si      11.51876947       4.43357643      12.00000000  F        6       0.00004322      -0.00685582       0.16263824
Si       1.91979491       1.10839411      14.35125897  F        5      -0.00035294      -0.02502086      -0.29074147
Si       5.75938473       1.10839411      14.35125897  F        5      -0.00234755      -0.02323839      -0.29872859
Si       9.59897455       1.10839411      14.35125897  F        5       0.00110696      -0.02798301      -0.28903908
Si       3.83958982       4.43357643      14.35125897  F        5      -0.00038702       0.01892595      -0.30179550
Si       7.67917964       4.43357643      14.35125897  F        5      -0.00276543       0.01955180      -0.29904563
Si      11.51876947       4.43357643      14.35125897  F        5       0.00102531       0.02073174      -0.29764371
Si      -0.00000000       2.21678822      15.13501196  F        4      -0.00586223      -0.05783919       0.52919829
Si       3.83958982       2.21678822      15.13501196  F        4      -0.00003352      -0.05086481       0.52295606
Si       7.67917964       2.21678822      15.13501196  F        4      -0.02248878      -0.04802279       0.52645751
Si       1.91979491       5.54197054      15.13501196  F        4       0.00129988      -0.00789837      -0.35269656
Si       5.75938473       5.54197054      15.13501196  F        4      -0.01931103      -0.01164575      -0.34865551
Si       9.59897455       5.54197054      15.13501196  F        4      -0.01129243      -0.00245642      -0.36549749
Si      -0.00747551       2.19271456      17.57360770  T        3       0.00416216       0.00959951      -0.00359437
Si       3.83487159       2.18939162      17.57211626  T        3       0.00105839       0.01870155       0.02167304
Si       7.66872508       2.19300237      17.57311805  T        3       0.00884460       0.00164001       0.00504878
Si       1.91443788       5.52770123      17.45362501  T        3      -0.00225409       0.00531275       0.00389717
Si       5.74503390       5.52834613      17.45418443  T        3       0.00831300       0.00058598       0.00563396
Si       9.58891357       5.53495401      17.45265043  T        3       0.00302498       0.00038631      -0.00107274
Si      -0.01105270      -0.07219223      18.31983301  T        2       0.00881160      -0.00657148       0.00254965
Si       3.82697057      -0.07650251      18.30636454  T        2       0.00291460       0.01833831      -0.04065051
Si       7.67191622      -0.07551827      18.30364875  T        2       0.00194979       0.01301843      -0.01711660
Si       1.91519298       3.34725807      18.33319927  T        2       0.00235844       0.01289626       0.00039261
Si       5.75149094       3.35217089      18.34693607  T        2      -0.00501139       0.00549728      -0.00737711
Si       9.58868582       3.35273882      18.32089064  T        2       0.00587978      -0.00197204       0.02801692
Si      -0.00927082      -0.96031895      20.56580619  T        1       0.00272130      -0.01234956       0.00308312
Si       3.82492567      -0.94583754      20.53655669  T        1       0.04707083       0.01834616      -0.01211028
Si       7.67986893      -0.97985554      20.52582153  T        1      -0.03908084       0.04303591       0.03044498
Si       1.91723467       4.24582363      20.56262233  T        1       0.02591412       0.01997579       0.01689567
Si       5.76173128       4.27295633      20.57856325  T        1      -0.02505240      -0.00312208       0.00027056
Si       9.57763622       4.26046383      20.53790626  T        1      -0.01065238      -0.00274969      -0.00682834
F        9.28937646       5.84547315      23.04399692  T        0       0.14285050       0.00505411       0.08033738
H       10.04339586       6.22712022      23.48145245  T        0      -0.12440709       0.04559397       0.19324596
38
Lattice="11.518769465528859 0.0 0.0 3.839589821842953 6.650364651656328 0.0 0.0 0.0 32.62128289467409" Properties=species:S:1:pos:R:3:move_mask:L:1:tags:I:1:forces:R:3 surface=Si111 species=HF site=hollow orientation=parallel height_A=1.9 substrate_atoms=36 calculation_kind="Rigid evaluated approach scan; not NEB" energy=-184.94722864064246 pbc="T T F"
Si       1.91979491       1.10839411      12.00000000  F        6       0.00044269       0.00846023       0.15779371
Si       5.75938473       1.10839411      12.00000000  F        6       0.00070200       0.00781503       0.15816281
Si       9.59897455       1.10839411      12.00000000  F        6      -0.00001818       0.00867258       0.15746966
Si       3.83958982       4.43357643      12.00000000  F        6      -0.00009999      -0.00676476       0.16370335
Si       7.67917964       4.43357643      12.00000000  F        6       0.00084306      -0.00690860       0.16273177
Si      11.51876947       4.43357643      12.00000000  F        6       0.00010540      -0.00691836       0.16264471
Si       1.91979491       1.10839411      14.35125897  F        5      -0.00042354      -0.02496612      -0.28970853
Si       5.75938473       1.10839411      14.35125897  F        5      -0.00203595      -0.02302283      -0.29773276
Si       9.59897455       1.10839411      14.35125897  F        5       0.00105674      -0.02762026      -0.28912408
Si       3.83958982       4.43357643      14.35125897  F        5      -0.00035623       0.01884100      -0.30217807
Si       7.67917964       4.43357643      14.35125897  F        5      -0.00269170       0.01918390      -0.29847115
Si      11.51876947       4.43357643      14.35125897  F        5       0.00079094       0.02083870      -0.29821243
Si      -0.00000000       2.21678822      15.13501196  F        4      -0.00635424      -0.05389677       0.53321670
Si       3.83958982       2.21678822      15.13501196  F        4      -0.00065705      -0.04752691       0.52156329
Si       7.67917964       2.21678822      15.13501196  F        4      -0.02065757      -0.04707546       0.52977022
Si       1.91979491       5.54197054      15.13501196  F        4       0.00052025      -0.00656488      -0.34819230
Si       5.75938473       5.54197054      15.13501196  F        4      -0.02084884      -0.01356677      -0.35117571
Si       9.59897455       5.54197054      15.13501196  F        4      -0.00929894      -0.00439114      -0.36500870
Si      -0.00712066       2.19479920      17.57424406  T        3       0.00223661       0.00011636      -0.00021556
Si       3.83444144       2.19066089      17.57190787  T        3      -0.00104169       0.01586053       0.02495971
Si       7.66947021       2.19303514      17.57367807  T        3       0.00444624       0.01348054       0.01286334
Si       1.91418365       5.52955989      17.45408945  T        3       0.00187991       0.00118900       0.00291761
Si       5.74444814       5.52784446      17.45390450  T        3       0.01102682       0.00243011       0.00592107
Si       9.58931084       5.53529617      17.45265294  T        3       0.00141069      -0.00321266       0.00088327
Si      -0.01028604      -0.07115233      18.31975000  T        2       0.00504991      -0.00390602       0.00725788
Si       3.82633248      -0.07619581      18.30386118  T        2       0.01073955       0.02589824      -0.03870522
Si       7.67170255      -0.07492419      18.30483980  T        2       0.00008656       0.01365218      -0.01834530
Si       1.91497076       3.34942848      18.33469691  T        2       0.01087908       0.00912893      -0.00455359
Si       5.75117277       3.35236654      18.34868209  T        2      -0.00215168      -0.00022650      -0.02323403
Si       9.58918609       3.35372405      18.32512869  T        2       0.00180755      -0.00093578       0.01600875
Si      -0.00703643      -0.95980637      20.56633221  T        1      -0.01159795       0.00774382      -0.00301524
Si       3.82798665      -0.94318035      20.53343896  T        1       0.00443810       0.00745438       0.00470843
Si       7.67802385      -0.97703787      20.52764042  T        1      -0.01643523       0.03719822       0.04896789
Si       1.91960301       4.24828208      20.56426871  T        1      -0.00438361       0.02851759       0.01799209
Si       5.76048757       4.27448283      20.57859852  T        1       0.01745041       0.00164699       0.00635486
Si       9.57823833       4.26360614      20.54235445  T        1       0.00105096      -0.01961936      -0.02520456
F        9.31842082       5.84392870      23.04643440  T        0       0.13966962       0.03450133       0.11862381
H       10.01887212       6.25021651      23.54677276  T        0      -0.11758070       0.01449351       0.13856234
38
Lattice="11.518769465528859 0.0 0.0 3.839589821842953 6.650364651656328 0.0 0.0 0.0 32.62128289467409" Properties=species:S:1:pos:R:3:move_mask:L:1:tags:I:1:forces:R:3 surface=Si111 species=HF site=hollow orientation=parallel height_A=1.9 substrate_atoms=36 calculation_kind="Rigid evaluated approach scan; not NEB" energy=-184.96335954923023 pbc="T T F"
Si       1.91979491       1.10839411      12.00000000  F        6       0.00058544       0.00838929       0.15773468
Si       5.75938473       1.10839411      12.00000000  F        6       0.00054244       0.00781974       0.15804426
Si       9.59897455       1.10839411      12.00000000  F        6      -0.00002612       0.00856574       0.15760086
Si       3.83958982       4.43357643      12.00000000  F        6      -0.00003331      -0.00688167       0.16361071
Si       7.67917964       4.43357643      12.00000000  F        6       0.00068600      -0.00680359       0.16283078
Si      11.51876947       4.43357643      12.00000000  F        6       0.00017369      -0.00694253       0.16279580
Si       1.91979491       1.10839411      14.35125897  F        5      -0.00112281      -0.02504580      -0.28869566
Si       5.75938473       1.10839411      14.35125897  F        5      -0.00144160      -0.02325988      -0.29630345
Si       9.59897455       1.10839411      14.35125897  F        5       0.00132374      -0.02735053      -0.28920576
Si       3.83958982       4.43357643      14.35125897  F        5      -0.00048364       0.01943304      -0.30281409
Si       7.67917964       4.43357643      14.35125897  F        5      -0.00230159       0.01894396      -0.29855718
Si      11.51876947       4.43357643      14.35125897  F        5       0.00047802       0.02078470      -0.29891402
Si      -0.00000000       2.21678822      15.13501196  F        4      -0.00686422      -0.05061713       0.53652382
Si       3.83958982       2.21678822      15.13501196  F        4      -0.00147670      -0.04320960       0.52789342
Si       7.67917964       2.21678822      15.13501196  F        4      -0.01832297      -0.04519982       0.53662211
Si       1.91979491       5.54197054      15.13501196  F        4       0.00050203      -0.00530474      -0.34315242
Si       5.75938473       5.54197054      15.13501196  F        4      -0.02267709      -0.01492145      -0.35120707
Si       9.59897455       5.54197054      15.13501196  F        4      -0.00709041      -0.00710013      -0.36477026
Si      -0.00670494       2.19660999      17.57478465  T        3       0.00162546      -0.00710872       0.00573058
Si       3.83401845       2.19252901      17.57293764  T        3      -0.00129077       0.01245477       0.00681026
Si       7.67033102       2.19371715      17.57478671  T        3       0.00081604       0.02075985       0.00885753
Si       1.91405465       5.53122700      17.45463309  T        3       0.00675319       0.00066244      -0.00085138
Si       5.74447558       5.52752789      17.45394919  T        3       0.00974421       0.00646827      -0.00022125
Si       9.58972325       5.53543668      17.45269795  T        3       0.00251725      -0.00632914       0.00020062
Si      -0.00937731      -0.07044125      18.32003003  T        2       0.00161037       0.00089188       0.00676511
Si       3.82630069      -0.07467450      18.29981676  T        2       0.01492029       0.01935490      -0.01197456
Si       7.67152173      -0.07374781      18.30498164  T        2      -0.00116071       0.00688432      -0.00035158
Si       1.91530582       3.35175052      18.33577296  T        2       0.00767620       0.00764439       0.00257722
Si       5.75079293       3.35252498      18.34906746  T        2       0.00560130       0.00222617      -0.02030127
Si       9.58970694       3.35453182      18.32957475  T        2       0.00130822      -0.00021298      -0.00869270
Si      -0.00566398      -0.95898704      20.56664150  T        1      -0.01217709       0.02414188      -0.00441835
Si       3.83085241      -0.94051799      20.53096755  T        1      -0.02237131      -0.00061009       0.01411566
Si       7.67562925      -0.97279434      20.53158975  T        1       0.00194064       0.02782678       0.05004625
Si       1.92144127       4.25179365      20.56656673  T        1      -0.03524762       0.03084943       0.01134705
Si       5.76025673       4.27588452      20.57893719  T        1       0.04136225       0.00589522       0.00363050
Si       9.57881067       4.26537585      20.54498414  T        1       0.01101465      -0.02236505      -0.02574187
F        9.35034320       5.84426420      23.05429682  T        0       0.05261322       0.00957363       0.07336474
H        9.99193529       6.27091888      23.61005363  T        0      -0.02970669       0.03969246       0.15907094
38
Lattice="11.518769465528859 0.0 0.0 3.839589821842953 6.650364651656328 0.0 0.0 0.0 32.62128289467409" Properties=species:S:1:pos:R:3:move_mask:L:1:tags:I:1:forces:R:3 surface=Si111 species=HF site=hollow orientation=parallel height_A=1.9 substrate_atoms=36 calculation_kind="Rigid evaluated approach scan; not NEB" energy=-184.9761136724021 pbc="T T F"
Si       1.91979491       1.10839411      12.00000000  F        6       0.00075912       0.00828511       0.15769358
Si       5.75938473       1.10839411      12.00000000  F        6       0.00038681       0.00784244       0.15786624
Si       9.59897455       1.10839411      12.00000000  F        6      -0.00008814       0.00850069       0.15772469
Si       3.83958982       4.43357643      12.00000000  F        6       0.00008260      -0.00703726       0.16350653
Si       7.67917964       4.43357643      12.00000000  F        6       0.00051095      -0.00673405       0.16291795
Si      11.51876947       4.43357643      12.00000000  F        6       0.00020070      -0.00695502       0.16302217
Si       1.91979491       1.10839411      14.35125897  F        5      -0.00190238      -0.02518636      -0.28796728
Si       5.75938473       1.10839411      14.35125897  F        5      -0.00094649      -0.02372329      -0.29448081
Si       9.59897455       1.10839411      14.35125897  F        5       0.00162842      -0.02735742      -0.28921461
Si       3.83958982       4.43357643      14.35125897  F        5      -0.00067721       0.02030610      -0.30364440
Si       7.67917964       4.43357643      14.35125897  F        5      -0.00184653       0.01910142      -0.29931678
Si      11.51876947       4.43357643      14.35125897  F        5       0.00033200       0.02068388      -0.29950543
Si      -0.00000000       2.21678822      15.13501196  F        4      -0.00688360      -0.04855205       0.54131564
Si       3.83958982       2.21678822      15.13501196  F        4      -0.00262185      -0.03840847       0.53577291
Si       7.67917964       2.21678822      15.13501196  F        4      -0.01607517      -0.04263481       0.54583385
Si       1.91979491       5.54197054      15.13501196  F        4       0.00102572      -0.00402981      -0.33922099
Si       5.75938473       5.54197054      15.13501196  F        4      -0.02420325      -0.01535058      -0.35192043
Si       9.59897455       5.54197054      15.13501196  F        4      -0.00480672      -0.00961087      -0.36473876
Si      -0.00625170       2.19778931      17.57557665  T        3       0.00354386      -0.00712014       0.00733912
Si       3.83357762       2.19485426      17.57421631  T        3       0.00220344       0.00917010      -0.01626242
Si       7.67112668       2.19547432      17.57624877  T        3      -0.00012747       0.01333377      -0.00526570
Si       1.91432059       5.53271651      17.45505901  T        3       0.00730107       0.00325239      -0.00237014
Si       5.74504537       5.52761445      17.45397573  T        3       0.00686202       0.01279804      -0.00419137
Si       9.59022356       5.53520452      17.45274839  T        3       0.00544694      -0.00421913      -0.00061031
Si      -0.00849541      -0.06977178      18.32065298  T        2       0.00151305       0.00379767       0.00030369
Si       3.82710884      -0.07226482      18.29562240  T        2       0.01181520       0.00330876       0.02384892
Si       7.67129917      -0.07233727      18.30508552  T        2       0.00086026      -0.00006825       0.02561716
Si       1.91602777       3.35420175      18.33685480  T        2      -0.00526737       0.00643346       0.01437629
Si       5.75077580       3.35278773      18.34826588  T        2       0.01126452       0.01338828      -0.00298509
Si       9.59023399       3.35522362      18.33296120  T        2       0.00524557      -0.00018829      -0.03306171
Si      -0.00515047      -0.95692077      20.56666344  T        1      -0.00019068       0.02280029       0.00056408
Si       3.83209580      -0.93823270      20.52960522  T        1      -0.01096877      -0.00281722       0.01645272
Si       7.67365177      -0.96753846      20.53783411  T        1       0.00076030       0.02019598       0.03374426
Si       1.92106814       4.25658119      20.56920446  T        1      -0.04293553       0.02678315       0.00226281
Si       5.76237280       4.27743594      20.57943562  T        1       0.02223611       0.00561469      -0.00682622
Si       9.57992635       4.26566471      20.54583304  T        1       0.01232674      -0.00692853      -0.01411996
F        9.38110165       5.84509282      23.06525662  T        0       0.21959854       0.16147981       0.25712806
H        9.96680354       6.29117854      23.67409573  T        0      -0.19636281      -0.11015450      -0.05158825
38
Lattice="11.518769465528859 0.0 0.0 3.839589821842953 6.650364651656328 0.0 0.0 0.0 32.62128289467409" Properties=species:S:1:pos:R:3:move_mask:L:1:tags:I:1:forces:R:3 surface=Si111 species=HF site=hollow orientation=parallel height_A=1.9 substrate_atoms=36 calculation_kind="Rigid evaluated approach scan; not NEB" energy=-184.9854656801487 pbc="T T F"
Si       1.91979491       1.10839411      12.00000000  F        6       0.00086625       0.00814614       0.15768550
Si       5.75938473       1.10839411      12.00000000  F        6       0.00026213       0.00785896       0.15773123
Si       9.59897455       1.10839411      12.00000000  F        6      -0.00013474       0.00847875       0.15781490
Si       3.83958982       4.43357643      12.00000000  F        6       0.00018533      -0.00713688       0.16344880
Si       7.67917964       4.43357643      12.00000000  F        6       0.00039595      -0.00672941       0.16290895
Si      11.51876947       4.43357643      12.00000000  F        6       0.00016780      -0.00699647       0.16316166
Si       1.91979491       1.10839411      14.35125897  F        5      -0.00216071      -0.02521893      -0.28762129
Si       5.75938473       1.10839411      14.35125897  F        5      -0.00073342      -0.02401675      -0.29268575
Si       9.59897455       1.10839411      14.35125897  F        5       0.00164319      -0.02750046      -0.28921632
Si       3.83958982       4.43357643      14.35125897  F        5      -0.00077866       0.02079988      -0.30437890
Si       7.67917964       4.43357643      14.35125897  F        5      -0.00155710       0.01949484      -0.29998307
Si      11.51876947       4.43357643      14.35125897  F        5       0.00035828       0.02073708      -0.29980329
Si      -0.00000000       2.21678822      15.13501196  F        4      -0.00599679      -0.04718859       0.54761068
Si       3.83958982       2.21678822      15.13501196  F        4      -0.00381423      -0.03369175       0.53837549
Si       7.67917964       2.21678822      15.13501196  F        4      -0.01443619      -0.04039306       0.55265632
Si       1.91979491       5.54197054      15.13501196  F        4       0.00123299      -0.00266577      -0.33640638
Si       5.75938473       5.54197054      15.13501196  F        4      -0.02475542      -0.01499755      -0.35412053
Si       9.59897455       5.54197054      15.13501196  F        4      -0.00248175      -0.01097022      -0.36464214
Si      -0.00568561       2.19854514      17.57661616  T        3       0.00641358      -0.00300193       0.00265825
Si       3.83327500       2.19736303      17.57466094  T        3       0.00623605       0.00536876      -0.02362894
Si       7.67184184       2.19765121      17.57734211  T        3      -0.00033403      -0.00257537      -0.01694699
Si       1.91488190       5.53420851      17.45534082  T        3       0.00284390       0.00548442       0.00088198
Si       5.74586266       5.52825449      17.45381584  T        3       0.00548945       0.01860531      -0.00293412
Si       9.59091581       5.53480907      17.45276731  T        3       0.00839652       0.00374384      -0.00063023
Si      -0.00763013      -0.06899869      18.32123062  T        2       0.00297718       0.00477892      -0.00666801
Si       3.82835942      -0.06993681      18.29286952  T        2       0.00693833      -0.00802712       0.04964661
Si       7.67113531      -0.07106251      18.30630381  T        2       0.00521506      -0.00118048       0.04163988
Si       1.91645059       3.35670454      18.33846568  T        2      -0.01484799       0.00383401       0.01959834
Si       5.75125462       3.35361328      18.34740877  T        2       0.01065990       0.02194476       0.00965006
Si       9.59094162       3.35584202      18.33457794  T        2       0.00903611       0.00096322      -0.04176905
Si      -0.00469367      -0.95404845      20.56670806  T        1       0.00879695       0.01097423       0.00655414
Si       3.83274077      -0.93628619      20.52909316  T        1       0.01967744      -0.00338356       0.02883002
Si       7.67189383      -0.96189110      20.54497144  T        1      -0.00973218       0.01559933       0.01286483
Si       1.91884595       4.26209336      20.57169316  T        1      -0.02981675       0.02141369      -0.00268152
Si       5.76526548       4.27908769      20.57958757  T        1      -0.01212333       0.00489562      -0.01438226
Si       9.58147795       4.26562232      20.54598237  T        1       0.00660125       0.01623565       0.00789146
F        9.41860127       5.85292986      23.08646849  T        0      -0.27314490      -0.23543120      -0.34266821
H        9.93542057       6.30469681      23.72984466  T        0       0.29245456       0.28174812       0.49955790
38
Lattice="11.518769465528859 0.0 0.0 3.839589821842953 6.650364651656328 0.0 0.0 0.0 32.62128289467409" Properties=species:S:1:pos:R:3:move_mask:L:1:tags:I:1:forces:R:3 surface=Si111 species=HF site=hollow orientation=parallel height_A=1.9 substrate_atoms=36 calculation_kind="Rigid evaluated approach scan; not NEB" energy=-184.97753153823803 pbc="T T F"
Si       1.91979491       1.10839411      12.00000000  F        6       0.00086521       0.00799368       0.15774217
Si       5.75938473       1.10839411      12.00000000  F        6       0.00016688       0.00786080       0.15771844
Si       9.59897455       1.10839411      12.00000000  F        6      -0.00012275       0.00847194       0.15786706
Si       3.83958982       4.43357643      12.00000000  F        6       0.00022766      -0.00714744       0.16348606
Si       7.67917964       4.43357643      12.00000000  F        6       0.00036748      -0.00678287       0.16279505
Si      11.51876947       4.43357643      12.00000000  F        6       0.00009402      -0.00707977       0.16316465
Si       1.91979491       1.10839411      14.35125897  F        5      -0.00177027      -0.02501666      -0.28763140
Si       5.75938473       1.10839411      14.35125897  F        5      -0.00077428      -0.02391374      -0.29124677
Si       9.59897455       1.10839411      14.35125897  F        5       0.00131751      -0.02758318      -0.28908626
Si       3.83958982       4.43357643      14.35125897  F        5      -0.00078373       0.02063559      -0.30464749
Si       7.67917964       4.43357643      14.35125897  F        5      -0.00167128       0.01978907      -0.30031202
Si      11.51876947       4.43357643      14.35125897  F        5       0.00069949       0.02091205      -0.29999104
Si      -0.00000000       2.21678822      15.13501196  F        4      -0.00404205      -0.04623879       0.55412269
Si       3.83958982       2.21678822      15.13501196  F        4      -0.00485019      -0.02962762       0.53487802
Si       7.67917964       2.21678822      15.13501196  F        4      -0.01360317      -0.03949200       0.55490647
Si       1.91979491       5.54197054      15.13501196  F        4       0.00074850      -0.00128003      -0.33323563
Si       5.75938473       5.54197054      15.13501196  F        4      -0.02415174      -0.01383424      -0.35680943
Si       9.59897455       5.54197054      15.13501196  F        4      -0.00015883      -0.01040112      -0.36457161
Si      -0.00492756       2.19910345      17.57765033  T        3       0.00845093       0.00104251      -0.00697133
Si       3.83324900       2.19981783      17.57413145  T        3       0.00758826       0.00200007      -0.01285321
Si       7.67246846       2.19949741      17.57765511  T        3      -0.00141839      -0.01595664      -0.01912228
Si       1.91549559       5.53575834      17.45562752  T        3      -0.00376952       0.00547555       0.00703272
Si       5.74680914       5.52955710      17.45355768  T        3       0.00734487       0.02071494       0.00336689
Si       9.59186451       5.53460224      17.45275949  T        3       0.00960367       0.01385702       0.00549344
Si      -0.00673931      -0.06811961      18.32148567  T        2       0.00457913       0.00503331      -0.00837913
Si       3.82975033      -0.06816935      18.29235517  T        2       0.00409424      -0.00918845       0.05159534
Si       7.67119338      -0.06996855      18.30902755  T        2       0.00608036       0.00245585       0.04049673
Si       1.91624617       3.35909376      18.34067568  T        2      -0.01470033      -0.00015937       0.01510078
Si       5.75210123       3.35521286      18.34702074  T        2       0.00800867       0.02333341       0.01070574
Si       9.59192918       3.35643299      18.33438511  T        2       0.00869406       0.00465296      -0.03336844
Si      -0.00393987      -0.95104849      20.56700516  T        1       0.00919761      -0.00078822       0.00875101
Si       3.83408986      -0.93467778      20.52976642  T        1       0.03130965      -0.00557863       0.02999234
Si       7.66993944      -0.95622734      20.55186069  T        1      -0.01808673       0.01087874      -0.00251608
Si       1.91568815       4.26786435      20.57381411  T        1      -0.00841175       0.01805993      -0.00275476
Si       5.76737729       4.28075732      20.57915912  T        1      -0.03781004       0.00363168      -0.01616973
Si       9.58312491       4.26622149      20.54642562  T        1       0.00561540       0.01793920      -0.00440857
F        9.44142690       5.85070180      23.09199639  T        0       0.69845546       0.72218982       1.05664499
H        9.91882409       6.32784497      23.79931565  T        0      -0.67738402      -0.66685932      -0.90178542
38
Lattice="11.518769465528859 0.0 0.0 3.839589821842953 6.650364651656328 0.0 0.0 0.0 32.62128289467409" Properties=species:S:1:pos:R:3:move_mask:L:1:tags:I:1:forces:R:3 surface=Si111 species=HF site=hollow orientation=parallel height_A=1.9 substrate_atoms=36 calculation_kind="Rigid evaluated approach scan; not NEB" energy=-184.72112247454606 pbc="T T F"
Si       1.91979491       1.10839411      12.00000000  F        6       0.00078543       0.00795669       0.15774183
Si       5.75938473       1.10839411      12.00000000  F        6       0.00016918       0.00783481       0.15778649
Si       9.59897455       1.10839411      12.00000000  F        6      -0.00007192       0.00846630       0.15784304
Si       3.83958982       4.43357643      12.00000000  F        6       0.00018041      -0.00706910       0.16347087
Si       7.67917964       4.43357643      12.00000000  F        6       0.00042873      -0.00680637       0.16276049
Si      11.51876947       4.43357643      12.00000000  F        6       0.00006014      -0.00711327       0.16302249
Si       1.91979491       1.10839411      14.35125897  F        5      -0.00136809      -0.02487662      -0.28805808
Si       5.75938473       1.10839411      14.35125897  F        5      -0.00076695      -0.02376051      -0.29178684
Si       9.59897455       1.10839411      14.35125897  F        5       0.00101345      -0.02732744      -0.28920775
Si       3.83958982       4.43357643      14.35125897  F        5      -0.00060111       0.02017199      -0.30404783
Si       7.67917964       4.43357643      14.35125897  F        5      -0.00161205       0.01968264      -0.29901048
Si      11.51876947       4.43357643      14.35125897  F        5       0.00044850       0.02104805      -0.29942489
Si      -0.00000000       2.21678822      15.13501196  F        4      -0.00306312      -0.04587632       0.55227111
Si       3.83958982       2.21678822      15.13501196  F        4      -0.00462434      -0.02996820       0.53132219
Si       7.67917964       2.21678822      15.13501196  F        4      -0.01414324      -0.04064721       0.54940123
Si       1.91979491       5.54197054      15.13501196  F        4      -0.00053987      -0.00102638      -0.33023163
Si       5.75938473       5.54197054      15.13501196  F        4      -0.02254841      -0.01290060      -0.35443438
Si       9.59897455       5.54197054      15.13501196  F        4       0.00009429      -0.00886278      -0.36136830
Si      -0.00458329       2.19914592      17.57736633  T        3       0.00507601       0.00141586      -0.00569803
Si       3.83355813       2.19989930      17.57360784  T        3       0.00487525       0.00048962       0.00398474
Si       7.67241068       2.19884738      17.57687611  T        3      -0.00078276      -0.00758029      -0.00669835
Si       1.91534203       5.53598140      17.45591401  T        3      -0.00359080       0.00288624       0.00647513
Si       5.74710835       5.53040097      17.45369484  T        3       0.00835093       0.01690649       0.00108934
Si       9.59225574       5.53516674      17.45298328  T        3       0.00878961       0.01670772      -0.00472696
Si      -0.00655276      -0.06791457      18.32114432  T        2       0.00096051       0.00486141      -0.00443495
Si       3.82991712      -0.06854367      18.29445703  T        2       0.00837104       0.00117441       0.05034464
Si       7.67144108      -0.06986851      18.31067728  T        2       0.00782594       0.00664027       0.02682675
Si       1.91564731       3.35908727      18.34129085  T        2      -0.00350042       0.00076305       0.00833581
Si       5.75242749       3.35616340      18.34745687  T        2       0.00255514       0.01166128      -0.00332563
Si       9.59228336       3.35662254      18.33302576  T        2       0.00479319       0.00481867      -0.01273646
Si      -0.00356518      -0.95108060      20.56736166  T        1      -0.00339261       0.00678449       0.00399420
Si       3.83536534      -0.93490504      20.53098823  T        1       0.02614410      -0.00835525       0.05949652
Si       7.66920263      -0.95578417      20.55175819  T        1      -0.02405136       0.01365172       0.02628264
Si       1.91534547       4.26860007      20.57370189  T        1      -0.00800026       0.01782944       0.00214160
Si       5.76583700       4.28090526      20.57850041  T        1      -0.01392389       0.01139270      -0.00742034
Si       9.58335367       4.26695229      20.54624602  T        1       0.00414850       0.03304310       0.03985963
F        9.46988022       5.88012200      23.13504145  T        0      -3.51123776      -3.52993240      -5.32378212
H        9.89122917       6.30067880      23.76257918  T        0       3.53274859       3.54591578       5.36194229
38
Lattice="11.518769465528859 0.0 0.0 3.839589821842953 6.650364651656328 0.0 0.0 0.0 32.62128289467409" Properties=species:S:1:pos:R:3:move_mask:L:1:tags:I:1:forces:R:3 surface=Si111 species=HF site=hollow orientation=parallel height_A=1.9 substrate_atoms=36 calculation_kind="Rigid evaluated approach scan; not NEB" energy=-184.9781510182343 pbc="T T F"
Si       1.91979491       1.10839411      12.00000000  F        6       0.00077311       0.00796688       0.15779584
Si       5.75938473       1.10839411      12.00000000  F        6       0.00016554       0.00783908       0.15783720
Si       9.59897455       1.10839411      12.00000000  F        6      -0.00006007       0.00845461       0.15785212
Si       3.83958982       4.43357643      12.00000000  F        6       0.00016702      -0.00707113       0.16353319
Si       7.67917964       4.43357643      12.00000000  F        6       0.00043304      -0.00681383       0.16275841
Si      11.51876947       4.43357643      12.00000000  F        6       0.00006626      -0.00711765       0.16304485
Si       1.91979491       1.10839411      14.35125897  F        5      -0.00135248      -0.02479628      -0.28809917
Si       5.75938473       1.10839411      14.35125897  F        5      -0.00081307      -0.02362372      -0.29185541
Si       9.59897455       1.10839411      14.35125897  F        5       0.00105023      -0.02731433      -0.28902519
Si       3.83958982       4.43357643      14.35125897  F        5      -0.00066031       0.02010166      -0.30386961
Si       7.67917964       4.43357643      14.35125897  F        5      -0.00191687       0.01956230      -0.29949295
Si      11.51876947       4.43357643      14.35125897  F        5       0.00081180       0.02094844      -0.29982682
Si      -0.00000000       2.21678822      15.13501196  F        4      -0.00285814      -0.04613782       0.55236538
Si       3.83958982       2.21678822      15.13501196  F        4      -0.00468554      -0.03015956       0.53155051
Si       7.67917964       2.21678822      15.13501196  F        4      -0.01420572      -0.04114098       0.54977605
Si       1.91979491       5.54197054      15.13501196  F        4      -0.00040743      -0.00105700      -0.32984606
Si       5.75938473       5.54197054      15.13501196  F        4      -0.02259646      -0.01266044      -0.35471033
Si       9.59897455       5.54197054      15.13501196  F        4       0.00011083      -0.00818867      -0.36223987
Si      -0.00454403       2.19915687      17.57732225  T        3       0.00523419       0.00023431      -0.00710978
Si       3.83359584       2.19990309      17.57363867  T        3       0.00433507       0.00218484       0.00152880
Si       7.67240462       2.19878874      17.57682430  T        3      -0.00125625      -0.00549998      -0.00722502
Si       1.91531425       5.53600373      17.45596410  T        3      -0.00295874       0.00294998       0.00641638
Si       5.74717295       5.53053176      17.45370327  T        3       0.00946015       0.01574581       0.00372715
Si       9.59232373       5.53529599      17.45294672  T        3       0.00718492       0.01345191       0.00661448
Si      -0.00654533      -0.06787696      18.32111002  T        2       0.00232601       0.00500538      -0.00231731
Si       3.82998188      -0.06853458      18.29484648  T        2       0.00792654       0.00148784       0.03479615
Si       7.67150162      -0.06981714      18.31088480  T        2       0.00332681       0.00518628       0.02395680
Si       1.91562024       3.35909317      18.34135533  T        2      -0.00397717       0.00021258       0.00779402
Si       5.75244725       3.35625361      18.34743114  T        2       0.00616230       0.01341802      -0.00188704
Si       9.59232044       3.35665982      18.33292724  T        2       0.00383202       0.00531470      -0.01905449
Si      -0.00359143      -0.95102811      20.56739256  T        1      -0.00093254       0.00706740       0.00310132
Si       3.83556758      -0.93496967      20.53144848  T        1       0.00811879      -0.00825195       0.03157368
Si       7.66901658      -0.95567856      20.55196151  T        1      -0.00857695       0.01155498       0.00631362
Si       1.91528359       4.26873799      20.57371846  T        1      -0.00968140       0.01842334       0.00092167
Si       5.76572929       4.28099339      20.57844300  T        1      -0.01456508       0.00578487      -0.00748184
Si       9.58338576       4.26720790      20.54655436  T        1       0.00783991       0.00253388      -0.01241815
F        9.44271838       5.85281555      23.09385833  T        0       0.70636709       0.72743708       1.07317612
H        9.91855741       6.32810889      23.80405749  T        0      -0.68418739      -0.67303282      -0.91997470
38
Lattice="11.518769465528859 0.0 0.0 3.839589821842953 6.650364651656328 0.0 0.0 0.0 32.62128289467409" Properties=species:S:1:pos:R:3:move_mask:L:1:tags:I:1:forces:R:3 surface=Si111 species=HF site=hollow orientation=parallel height_A=1.9 substrate_atoms=36 calculation_kind="Rigid evaluated approach scan; not NEB" energy=-184.9983098293461 pbc="T T F"
Si       1.91979491       1.10839411      12.00000000  F        6       0.00076729       0.00796107       0.15779276
Si       5.75938473       1.10839411      12.00000000  F        6       0.00016509       0.00783592       0.15783754
Si       9.59897455       1.10839411      12.00000000  F        6      -0.00005807       0.00845348       0.15785002
Si       3.83958982       4.43357643      12.00000000  F        6       0.00016448      -0.00706627       0.16352276
Si       7.67917964       4.43357643      12.00000000  F        6       0.00043741      -0.00681723       0.16276267
Si      11.51876947       4.43357643      12.00000000  F        6       0.00006145      -0.00711938       0.16303505
Si       1.91979491       1.10839411      14.35125897  F        5      -0.00134223      -0.02479426      -0.28817917
Si       5.75938473       1.10839411      14.35125897  F        5      -0.00079894      -0.02364070      -0.29194281
Si       9.59897455       1.10839411      14.35125897  F        5       0.00103165      -0.02728479      -0.28905451
Si       3.83958982       4.43357643      14.35125897  F        5      -0.00063293       0.02008786      -0.30376709
Si       7.67917964       4.43357643      14.35125897  F        5      -0.00188471       0.01957940      -0.29932819
Si      11.51876947       4.43357643      14.35125897  F        5       0.00075906       0.02095682      -0.29974481
Si      -0.00000000       2.21678822      15.13501196  F        4      -0.00273928      -0.04609760       0.55196122
Si       3.83958982       2.21678822      15.13501196  F        4      -0.00466962      -0.03021705       0.53157948
Si       7.67917964       2.21678822      15.13501196  F        4      -0.01425264      -0.04124629       0.54926673
Si       1.91979491       5.54197054      15.13501196  F        4      -0.00057852      -0.00101126      -0.32929900
Si       5.75938473       5.54197054      15.13501196  F        4      -0.02233655      -0.01247347      -0.35426775
Si       9.59897455       5.54197054      15.13501196  F        4       0.00013706      -0.00795295      -0.36153642
Si      -0.00449865       2.19915890      17.57726062  T        3       0.00488140       0.00056336      -0.00663155
Si       3.83363343       2.19992203      17.57365192  T        3       0.00426940       0.00203450       0.00281234
Si       7.67239373       2.19874106      17.57676166  T        3      -0.00097466      -0.00485483      -0.00636510
Si       1.91528860       5.53602931      17.45601973  T        3      -0.00287731       0.00281262       0.00619756
Si       5.74725496       5.53066827      17.45373558  T        3       0.00936192       0.01539761       0.00338687
Si       9.59238602       5.53541261      17.45300406  T        3       0.00702647       0.01345971       0.00493739
Si      -0.00652517      -0.06783357      18.32108993  T        2       0.00191051       0.00487919      -0.00241829
Si       3.83005060      -0.06852168      18.29514815  T        2       0.00805327       0.00235007       0.03564473
Si       7.67153046      -0.06977218      18.31109250  T        2       0.00414944       0.00581221       0.02237360
Si       1.91558576       3.35909502      18.34142290  T        2      -0.00321961       0.00047065       0.00740221
Si       5.75250068       3.35636994      18.34741478  T        2       0.00509885       0.01235254      -0.00282385
Si       9.59235366       3.35670590      18.33276204  T        2       0.00372696       0.00513215      -0.01679351
Si      -0.00359951      -0.95096684      20.56741944  T        1      -0.00186807       0.00750460       0.00292465
Si       3.83563797      -0.93504121      20.53172221  T        1       0.01130416      -0.00800358       0.03823332
Si       7.66894222      -0.95557839      20.55201625  T        1      -0.00789156       0.01224074       0.00591264
Si       1.91519965       4.26889771      20.57372645  T        1      -0.00899983       0.01781861       0.00135125
Si       5.76560302       4.28104354      20.57837814  T        1      -0.01322311       0.00644142      -0.00647556
Si       9.58345373       4.26722987      20.54644670  T        1       0.00541746       0.00738030       0.00050575
F        9.44884231       5.85912215      23.10316236  T        0       0.12651701       0.13895392       0.17486645
H        9.91262577       6.32227396      23.79608167  T        0      -0.10689270      -0.09189908      -0.04352938
38
Lattice="11.518769465528859 0.0 0.0 3.839589821842953 6.650364651656328 0.0 0.0 0.0 32.62128289467409" Properties=species:S:1:pos:R:3:move_mask:L:1:tags:I:1:forces:R:3 surface=Si111 species=HF site=hollow orientation=parallel height_A=1.9 substrate_atoms=36 calculation_kind="Rigid evaluated approach scan; not NEB" energy=-184.98097412810552 pbc="T T F"
Si       1.91979491       1.10839411      12.00000000  F        6       0.00075114       0.00795110       0.15779862
Si       5.75938473       1.10839411      12.00000000  F        6       0.00016352       0.00783051       0.15785016
Si       9.59897455       1.10839411      12.00000000  F        6      -0.00005117       0.00844785       0.15784649
Si       3.83958982       4.43357643      12.00000000  F        6       0.00015552      -0.00705683       0.16351412
Si       7.67917964       4.43357643      12.00000000  F        6       0.00044750      -0.00682758       0.16277116
Si      11.51876947       4.43357643      12.00000000  F        6       0.00005275      -0.00712438       0.16301920
Si       1.91979491       1.10839411      14.35125897  F        5      -0.00131216      -0.02477310      -0.28834229
Si       5.75938473       1.10839411      14.35125897  F        5      -0.00077715      -0.02364337      -0.29212634
Si       9.59897455       1.10839411      14.35125897  F        5       0.00099462      -0.02720342      -0.28906040
Si       3.83958982       4.43357643      14.35125897  F        5      -0.00058509       0.02004175      -0.30349488
Si       7.67917964       4.43357643      14.35125897  F        5      -0.00186147       0.01958735      -0.29901081
Si      11.51876947       4.43357643      14.35125897  F        5       0.00070302       0.02093741      -0.29960547
Si      -0.00000000       2.21678822      15.13501196  F        4      -0.00243574      -0.04603510       0.55102842
Si       3.83958982       2.21678822      15.13501196  F        4      -0.00464822      -0.03040132       0.53178335
Si       7.67917964       2.21678822      15.13501196  F        4      -0.01435692      -0.04156029       0.54820473
Si       1.91979491       5.54197054      15.13501196  F        4      -0.00093544      -0.00091995      -0.32793838
Si       5.75938473       5.54197054      15.13501196  F        4      -0.02173353      -0.01197892      -0.35331282
Si       9.59897455       5.54197054      15.13501196  F        4       0.00018362      -0.00729731      -0.36007554
Si      -0.00438800       2.19916879      17.57711030  T        3       0.00400634       0.00128203      -0.00555429
Si       3.83372831       2.19996818      17.57370407  T        3       0.00395320       0.00201600       0.00499988
Si       7.67236999       2.19862871      17.57661425  T        3      -0.00029639      -0.00290674      -0.00432019
Si       1.91522436       5.53609255      17.45615843  T        3      -0.00246855       0.00249642       0.00542248
Si       5.74746267       5.53101133      17.45381310  T        3       0.00927329       0.01437846       0.00305888
Si       9.59254257       5.53571006      17.45312628  T        3       0.00647894       0.01318964       0.00250370
Si      -0.00647969      -0.06772473      18.32103726  T        2       0.00133027       0.00456657      -0.00209787
Si       3.83022762      -0.06847646      18.29592943  T        2       0.00821363       0.00378190       0.03556557
Si       7.67161576      -0.06964859      18.31159940  T        2       0.00483182       0.00675135       0.01882478
Si       1.91550868       3.35910340      18.34158958  T        2      -0.00179968       0.00103772       0.00655857
Si       5.75262168       3.35665130      18.34735967  T        2       0.00382063       0.01067957      -0.00422135
Si       9.59243686       3.35682076      18.33237319  T        2       0.00329137       0.00516752      -0.01227313
Si      -0.00363350      -0.95080437      20.56748547  T        1      -0.00342908       0.00862348       0.00223133
Si       3.83586298      -0.93522006      20.53251536  T        1       0.01291907      -0.00693141       0.04484885
Si       7.66876244      -0.95531317      20.55215007  T        1      -0.00870628       0.01303155       0.00977101
Si       1.91499540       4.26929629      20.57375296  T        1      -0.00798952       0.01674578       0.00206827
Si       5.76530026       4.28118080      20.57822715  T        1      -0.01033445       0.00712616      -0.00483645
Si       9.58359238       4.26735519      20.54635704  T        1       0.00427582       0.01217597       0.01476556
F        9.45616322       5.86678532      23.11403681  T        0      -0.71877104      -0.71732883      -1.12642652
H        9.90575858       6.31570823      23.78828089  T        0       0.73664584       0.75414246       1.22826160
38
Lattice="11.518769465528859 0.0 0.0 3.839589821842953 6.650364651656328 0.0 0.0 0.0 32.62128289467409" Properties=species:S:1:pos:R:3:move_mask:L:1:tags:I:1:forces:R:3 surface=Si111 species=HF site=hollow orientation=parallel height_A=1.9 substrate_atoms=36 calculation_kind="Rigid evaluated approach scan; not NEB" energy=-184.99000675478723 pbc="T T F"
Si       1.91979491       1.10839411      12.00000000  F        6       0.00074935       0.00795131       0.15780293
Si       5.75938473       1.10839411      12.00000000  F        6       0.00016325       0.00783059       0.15785440
Si       9.59897455       1.10839411      12.00000000  F        6      -0.00005014       0.00844652       0.15784687
Si       3.83958982       4.43357643      12.00000000  F        6       0.00015418      -0.00705677       0.16351806
Si       7.67917964       4.43357643      12.00000000  F        6       0.00044813      -0.00682892       0.16277190
Si      11.51876947       4.43357643      12.00000000  F        6       0.00005275      -0.00712487       0.16302047
Si       1.91979491       1.10839411      14.35125897  F        5      -0.00131051      -0.02476707      -0.28835278
Si       5.75938473       1.10839411      14.35125897  F        5      -0.00077901      -0.02363469      -0.29213934
Si       9.59897455       1.10839411      14.35125897  F        5       0.00099601      -0.02719738      -0.28904517
Si       3.83958982       4.43357643      14.35125897  F        5      -0.00058703       0.02003629      -0.30346541
Si       7.67917964       4.43357643      14.35125897  F        5      -0.00188064       0.01958026      -0.29902808
Si      11.51876947       4.43357643      14.35125897  F        5       0.00072525       0.02092789      -0.29962519
Si      -0.00000000       2.21678822      15.13501196  F        4      -0.00240564      -0.04604783       0.55098026
Si       3.83958982       2.21678822      15.13501196  F        4      -0.00465176      -0.03042743       0.53184502
Si       7.67917964       2.21678822      15.13501196  F        4      -0.01436348      -0.04160723       0.54818914
Si       1.91979491       5.54197054      15.13501196  F        4      -0.00094409      -0.00091736      -0.32782825
Si       5.75938473       5.54197054      15.13501196  F        4      -0.02169734      -0.01192797      -0.35326252
Si       9.59897455       5.54197054      15.13501196  F        4       0.00018395      -0.00721025      -0.36004171
Si      -0.00437931       2.19917157      17.57709826  T        3       0.00396731       0.00124271      -0.00556866
Si       3.83373688       2.19997255      17.57371491  T        3       0.00389914       0.00213365       0.00488985
Si       7.67236935       2.19862241      17.57660489  T        3      -0.00028402      -0.00268190      -0.00426825
Si       1.91521901       5.53609796      17.45617018  T        3      -0.00237973       0.00249501       0.00533979
Si       5.74748276       5.53104250      17.45381973  T        3       0.00931347       0.01424838       0.00320700
Si       9.59255662       5.53573865      17.45313171  T        3       0.00633969       0.01296065       0.00314474
Si      -0.00647681      -0.06771484      18.32103271  T        2       0.00140896       0.00456911      -0.00196005
Si       3.83024542      -0.06846827      18.29600651  T        2       0.00817487       0.00376351       0.03464283
Si       7.67162623      -0.06963395      18.31164020  T        2       0.00454129       0.00665889       0.01850393
Si       1.91550478       3.35910565      18.34160379  T        2      -0.00178432       0.00102438       0.00648491
Si       5.75262996       3.35667444      18.34735052  T        2       0.00402745       0.01074914      -0.00412984
Si       9.59244399       3.35683196      18.33234659  T        2       0.00320177       0.00528047      -0.01232400
Si      -0.00364093      -0.95078568      20.56749030  T        1      -0.00329873       0.00867737       0.00214516
Si       3.83589098      -0.93523509      20.53261256  T        1       0.01147819      -0.00697507       0.04257334
Si       7.66874357      -0.95528492      20.55217125  T        1      -0.00799756       0.01287596       0.00900752
Si       1.91497808       4.26933259      20.57375745  T        1      -0.00806108       0.01674572       0.00200679
Si       5.76527786       4.28119625      20.57821667  T        1      -0.01023842       0.00681945      -0.00481865
Si       9.58360165       4.26738158      20.54638905  T        1       0.00457458       0.01006599       0.01094210
F        9.45460535       5.86523058      23.11159539  T        0      -0.48759483      -0.48372943      -0.77260487
H        9.90735519       6.31734276      23.79094303  T        0       0.50590876       0.52305093       0.88174574
38
Lattice="11.518769465528859 0.0 0.0 3.839589821842953 6.650364651656328 0.0 0.0 0.0 32.62128289467409" Properties=species:S:1:pos:R:3:move_mask:L:1:tags:I:1:forces:R:3 surface=Si111 species=HF site=hollow orientation=parallel height_A=1.9 substrate_atoms=36 calculation_kind="Rigid evaluated approach scan; not NEB" energy=-184.99822323221213 pbc="T T F"
Si       1.91979491       1.10839411      12.00000000  F        6       0.00074582       0.00795149       0.15781074
Si       5.75938473       1.10839411      12.00000000  F        6       0.00016276       0.00783066       0.15786219
Si       9.59897455       1.10839411      12.00000000  F        6      -0.00004821       0.00844402       0.15784744
Si       3.83958982       4.43357643      12.00000000  F        6       0.00015164      -0.00705657       0.16352485
Si       7.67917964       4.43357643      12.00000000  F        6       0.00044938      -0.00683160       0.16277339
Si      11.51876947       4.43357643      12.00000000  F        6       0.00005258      -0.00712583       0.16302251
Si       1.91979491       1.10839411      14.35125897  F        5      -0.00130692      -0.02475608      -0.28837332
Si       5.75938473       1.10839411      14.35125897  F        5      -0.00078177      -0.02361927      -0.29216447
Si       9.59897455       1.10839411      14.35125897  F        5       0.00099755      -0.02718440      -0.28901723
Si       3.83958982       4.43357643      14.35125897  F        5      -0.00058963       0.02002600      -0.30340698
Si       7.67917964       4.43357643      14.35125897  F        5      -0.00191271       0.01956788      -0.29904876
Si      11.51876947       4.43357643      14.35125897  F        5       0.00076235       0.02090963      -0.29965424
Si      -0.00000000       2.21678822      15.13501196  F        4      -0.00234672      -0.04606668       0.55087230
Si       3.83958982       2.21678822      15.13501196  F        4      -0.00465764      -0.03047837       0.53196740
Si       7.67917964       2.21678822      15.13501196  F        4      -0.01437570      -0.04169390       0.54814106
Si       1.91979491       5.54197054      15.13501196  F        4      -0.00096692      -0.00091105      -0.32760257
Si       5.75938473       5.54197054      15.13501196  F        4      -0.02161771      -0.01182506      -0.35314801
Si       9.59897455       5.54197054      15.13501196  F        4       0.00018413      -0.00704334      -0.35994206
Si      -0.00436166       2.19917715      17.57707362  T        3       0.00387030       0.00120524      -0.00554956
Si       3.83375426       2.19998177      17.57373678  T        3       0.00379701       0.00233523       0.00473017
Si       7.67236806       2.19861009      17.57658588  T        3      -0.00023563      -0.00224401      -0.00412265
Si       1.91520830       5.53610901      17.45619400  T        3      -0.00221004       0.00248578       0.00516480
Si       5.74752394       5.53110587      17.45383365  T        3       0.00937348       0.01400020       0.00344955
Si       9.59258497       5.53579651      17.45314439  T        3       0.00608980       0.01257494       0.00414542
Si      -0.00647072      -0.06769460      18.32102376  T        2       0.00153870       0.00456440      -0.00171034
Si       3.83028171      -0.06845156      18.29616177  T        2       0.00810442       0.00373347       0.03308849
Si       7.67164692      -0.06960428      18.31172280  T        2       0.00403742       0.00650809       0.01791331
Si       1.91549684       3.35911022      18.34163266  T        2      -0.00174121       0.00102184       0.00634736
Si       5.75264740       3.35672192      18.34733205  T        2       0.00437841       0.01085519      -0.00397087
Si       9.59245835       3.35685513      18.33229210  T        2       0.00304111       0.00548720      -0.01229657
Si      -0.00365580      -0.95074735      20.56749997  T        1      -0.00309977       0.00879428       0.00197510
Si       3.83594464      -0.93526590      20.53280559  T        1       0.00889822      -0.00700967       0.03856862
Si       7.66870676      -0.95522758      20.55221264  T        1      -0.00711496       0.01260365       0.00829492
Si       1.91494252       4.26940677      20.57376646  T        1      -0.00816982       0.01673238       0.00191784
Si       5.76523232       4.28122706      20.57819529  T        1      -0.01003013       0.00631488      -0.00478984
Si       9.58362133       4.26743029      20.54644497  T        1       0.00525918       0.00650409       0.00435114
F        9.45199446       5.86263209      23.10748273  T        0      -0.12883546      -0.12093059      -0.22109461
H        9.91004635       6.32011055      23.79552492  T        0       0.14814668       0.16432588       0.34212348
38
Lattice="11.518769465528859 0.0 0.0 3.839589821842953 6.650364651656328 0.0 0.0 0.0 32.62128289467409" Properties=species:S:1:pos:R:3:move_mask:L:1:tags:I:1:forces:R:3 surface=Si111 species=HF site=hollow orientation=parallel height_A=1.9 substrate_atoms=36 calculation_kind="Rigid evaluated approach scan; not NEB" energy=-184.99785550055554 pbc="T T F"
Si       1.91979491       1.10839411      12.00000000  F        6       0.00074008       0.00795099       0.15782139
Si       5.75938473       1.10839411      12.00000000  F        6       0.00016206       0.00783043       0.15787318
Si       9.59897455       1.10839411      12.00000000  F        6      -0.00004540       0.00844020       0.15784791
Si       3.83958982       4.43357643      12.00000000  F        6       0.00014783      -0.00705596       0.16353292
Si       7.67917964       4.43357643      12.00000000  F        6       0.00045149      -0.00683609       0.16277618
Si      11.51876947       4.43357643      12.00000000  F        6       0.00005175      -0.00712736       0.16302452
Si       1.91979491       1.10839411      14.35125897  F        5      -0.00130098      -0.02474079      -0.28840949
Si       5.75938473       1.10839411      14.35125897  F        5      -0.00078354      -0.02360011      -0.29220720
Si       9.59897455       1.10839411      14.35125897  F        5       0.00099734      -0.02716090      -0.28897958
Si       3.83958982       4.43357643      14.35125897  F        5      -0.00059010       0.02001122      -0.30330948
Si       7.67917964       4.43357643      14.35125897  F        5      -0.00194985       0.01955332      -0.29904867
Si      11.51876947       4.43357643      14.35125897  F        5       0.00080478       0.02088257      -0.29967706
Si      -0.00000000       2.21678822      15.13501196  F        4      -0.00225037      -0.04608147       0.55065874
Si       3.83958982       2.21678822      15.13501196  F        4      -0.00466405      -0.03055956       0.53217286
Si       7.67917964       2.21678822      15.13501196  F        4      -0.01439431      -0.04182070       0.54801414
Si       1.91979491       5.54197054      15.13501196  F        4      -0.00102120      -0.00089652      -0.32720994
Si       5.75938473       5.54197054      15.13501196  F        4      -0.02146305      -0.01164888      -0.35291237
Si       9.59897455       5.54197054      15.13501196  F        4       0.00018368      -0.00677955      -0.35968192
Si      -0.00433109       2.19918675      17.57703039  T        3       0.00367179       0.00123966      -0.00540695
Si       3.83378430       2.19999893      17.57377442  T        3       0.00364761       0.00258652       0.00463019
Si       7.67236602       2.19859049      17.57655313  T        3      -0.00010625      -0.00154843      -0.00379586
Si       1.91519027       5.53612839      17.45623503  T        3      -0.00195767       0.00245681       0.00486795
Si       5.74759657       5.53121602      17.45385926  T        3       0.00942362       0.01361709       0.00371732
Si       9.59263360       5.53589629      17.45317153  T        3       0.00573987       0.01208674       0.00513961
Si      -0.00645941      -0.06765907      18.32100922  T        2       0.00167402       0.00453252      -0.00137776
Si       3.83034512      -0.06842236      18.29642705  T        2       0.00800465       0.00374919       0.03118283
Si       7.67168085      -0.06955287      18.31186510  T        2       0.00343533       0.00636323       0.01698645
Si       1.91548310       3.35911820      18.34168273  T        2      -0.00162871       0.00108062       0.00613902
Si       5.75267970       3.35680584      18.34730036  T        2       0.00476037       0.01091225      -0.00379289
Si       9.59248281       3.35689681      18.33219640  T        2       0.00282701       0.00575353      -0.01194286
Si      -0.00368094      -0.95067948      20.56751617  T        1      -0.00292812       0.00900294       0.00171221
Si       3.83602669      -0.93532023      20.53312565  T        1       0.00569815      -0.00691211       0.03380037
Si       7.66864663      -0.95512815      20.55228136  T        1      -0.00653490       0.01228634       0.00839114
Si       1.91487951       4.26953702      20.57378184  T        1      -0.00823234       0.01664048       0.00185496
Si       5.76515328       4.28127874      20.57815787  T        1      -0.00962935       0.00573731      -0.00468896
Si       9.58365899       4.26749880      20.54651182  T        1       0.00631739       0.00246279      -0.00310379
F        9.44915585       5.85983462      23.10294248  T        0       0.22851687       0.24077628       0.33206109
H        9.91303047       6.32322502      23.80094666  T        0      -0.20777550      -0.19318461      -0.19866020
38
Lattice="11.518769465528859 0.0 0.0 3.839589821842953 6.650364651656328 0.0 0.0 0.0 32.62128289467409" Properties=species:S:1:pos:R:3:move_mask:L:1:tags:I:1:forces:R:3 surface=Si111 species=HF site=hollow orientation=parallel height_A=1.9 substrate_atoms=36 calculation_kind="Rigid evaluated approach scan; not NEB" energy=-184.99803723355876 pbc="T T F"
Si       1.91979491       1.10839411      12.00000000  F        6       0.00073977       0.00795080       0.15782156
Si       5.75938473       1.10839411      12.00000000  F        6       0.00016205       0.00783034       0.15787343
Si       9.59897455       1.10839411      12.00000000  F        6      -0.00004533       0.00844004       0.15784786
Si       3.83958982       4.43357643      12.00000000  F        6       0.00014770      -0.00705587       0.16353275
Si       7.67917964       4.43357643      12.00000000  F        6       0.00045162      -0.00683635       0.16277645
Si      11.51876947       4.43357643      12.00000000  F        6       0.00005158      -0.00712743       0.16302438
Si       1.91979491       1.10839411      14.35125897  F        5      -0.00130085      -0.02474050      -0.28841258
Si       5.75938473       1.10839411      14.35125897  F        5      -0.00078310      -0.02360044      -0.29221048
Si       9.59897455       1.10839411      14.35125897  F        5       0.00099699      -0.02715945      -0.28897936
Si       3.83958982       4.43357643      14.35125897  F        5      -0.00058941       0.02001097      -0.30330363
Si       7.67917964       4.43357643      14.35125897  F        5      -0.00194943       0.01955379      -0.29904380
Si      11.51876947       4.43357643      14.35125897  F        5       0.00080411       0.02088195      -0.29967478
Si      -0.00000000       2.21678822      15.13501196  F        4      -0.00224491      -0.04607985       0.55064096
Si       3.83958982       2.21678822      15.13501196  F        4      -0.00466380      -0.03056349       0.53218585
Si       7.67917964       2.21678822      15.13501196  F        4      -0.01439518      -0.04182528       0.54799938
Si       1.91979491       5.54197054      15.13501196  F        4      -0.00102722      -0.00089483      -0.32718443
Si       5.75938473       5.54197054      15.13501196  F        4      -0.02145013      -0.01163766      -0.35288944
Si       9.59897455       5.54197054      15.13501196  F        4       0.00018364      -0.00676579      -0.35964996
Si      -0.00432910       2.19918742      17.57702746  T        3       0.00365713       0.00125320      -0.00538497
Si       3.83378628       2.20000033      17.57377693  T        3       0.00364389       0.00258716       0.00465391
Si       7.67236596       2.19858965      17.57655108  T        3      -0.00009388      -0.00151726      -0.00376978
Si       1.91518921       5.53612973      17.45623767  T        3      -0.00194920       0.00245415       0.00485392
Si       5.74760167       5.53122340      17.45386128  T        3       0.00941793       0.01360028       0.00371046
Si       9.59263671       5.53590284      17.45317432  T        3       0.00572798       0.01207606       0.00510412
Si      -0.00645850      -0.06765662      18.32100847  T        2       0.00166679       0.00452847      -0.00137795
Si       3.83034946      -0.06842033      18.29644394  T        2       0.00800093       0.00376846       0.03117192
Si       7.67168271      -0.06954943      18.31187430  T        2       0.00344807       0.00637507       0.01692947
Si       1.91548221       3.35911879      18.34168606  T        2      -0.00161233       0.00109224       0.00612762
Si       5.75268228       3.35681176      18.34729830  T        2       0.00473914       0.01088771      -0.00380324
Si       9.59248434       3.35689992      18.33218993  T        2       0.00282401       0.00575164      -0.01187480
Si      -0.00368253      -0.95067460      20.56751710  T        1      -0.00294353       0.00901357       0.00170472
Si       3.83602978      -0.93532397      20.53314397  T        1       0.00574063      -0.00689478       0.03389030
Si       7.66864309      -0.95512150      20.55228591  T        1      -0.00653065       0.01229672       0.00840916
Si       1.91487505       4.26954603      20.57378285  T        1      -0.00821044       0.01661878       0.00186452
Si       5.76514806       4.28128185      20.57815533  T        1      -0.00959875       0.00574292      -0.00466302
Si       9.58366242       4.26750013      20.54651014  T        1       0.00627991       0.00254436      -0.00286175
F        9.44927967       5.85996509      23.10312241  T        0       0.21718332       0.22926471       0.31443269
H        9.91291789       6.32312035      23.80083901  T        0      -0.19647907      -0.18182442      -0.18147147
38
Lattice="11.518769465528859 0.0 0.0 3.839589821842953 6.650364651656328 0.0 0.0 0.0 32.62128289467409" Properties=species:S:1:pos:R:3:move_mask:L:1:tags:I:1:forces:R:3 surface=Si111 species=HF site=hollow orientation=parallel height_A=1.9 substrate_atoms=36 calculation_kind="Rigid evaluated approach scan; not NEB" energy=-184.9983608548293 pbc="T T F"
Si       1.91979491       1.10839411      12.00000000  F        6       0.00073916       0.00795041       0.15782192
Si       5.75938473       1.10839411      12.00000000  F        6       0.00016201       0.00783016       0.15787393
Si       9.59897455       1.10839411      12.00000000  F        6      -0.00004517       0.00843971       0.15784775
Si       3.83958982       4.43357643      12.00000000  F        6       0.00014743      -0.00705569       0.16353243
Si       7.67917964       4.43357643      12.00000000  F        6       0.00045187      -0.00683687       0.16277700
Si      11.51876947       4.43357643      12.00000000  F        6       0.00005125      -0.00712755       0.16302413
Si       1.91979491       1.10839411      14.35125897  F        5      -0.00130057      -0.02473989      -0.28841874
Si       5.75938473       1.10839411      14.35125897  F        5      -0.00078222      -0.02360107      -0.29221703
Si       9.59897455       1.10839411      14.35125897  F        5       0.00099629      -0.02715652      -0.28897887
Si       3.83958982       4.43357643      14.35125897  F        5      -0.00058805       0.02001047      -0.30329191
Si       7.67917964       4.43357643      14.35125897  F        5      -0.00194862       0.01955472      -0.29903413
Si      11.51876947       4.43357643      14.35125897  F        5       0.00080282       0.02088068      -0.29967026
Si      -0.00000000       2.21678822      15.13501196  F        4      -0.00223395      -0.04607665       0.55060542
Si       3.83958982       2.21678822      15.13501196  F        4      -0.00466332      -0.03057140       0.53221200
Si       7.67917964       2.21678822      15.13501196  F        4      -0.01439690      -0.04183450       0.54797003
Si       1.91979491       5.54197054      15.13501196  F        4      -0.00103922      -0.00089146      -0.32713335
Si       5.75938473       5.54197054      15.13501196  F        4      -0.02142427      -0.01161515      -0.35284357
Si       9.59897455       5.54197054      15.13501196  F        4       0.00018355      -0.00673816      -0.35958615
Si      -0.00432512       2.19918877      17.57702160  T        3       0.00362782       0.00128020      -0.00534111
Si       3.83379024       2.20000314      17.57378198  T        3       0.00363633       0.00258877       0.00470058
Si       7.67236585       2.19858799      17.57654697  T        3      -0.00006915      -0.00145462      -0.00371768
Si       1.91518709       5.53613239      17.45624295  T        3      -0.00193206       0.00244886       0.00482567
Si       5.74761191       5.53123819      17.45386531  T        3       0.00940664       0.01356649       0.00369716
Si       9.59264294       5.53591597      17.45317988  T        3       0.00570402       0.01205438       0.00503464
Si      -0.00645668      -0.06765169      18.32100697  T        2       0.00165268       0.00452037      -0.00137789
Si       3.83035815      -0.06841624      18.29647783  T        2       0.00799335       0.00380651       0.03114807
Si       7.67168645      -0.06954250      18.31189273  T        2       0.00347248       0.00639826       0.01681568
Si       1.91548045       3.35911997      18.34169272  T        2      -0.00157990       0.00111542       0.00610485
Si       5.75268745       3.35682360      18.34729417  T        2       0.00469769       0.01083930      -0.00382325
Si       9.59248741       3.35690617      18.33217699  T        2       0.00281786       0.00574824      -0.01173950
Si      -0.00368572      -0.95066481      20.56751896  T        1      -0.00297373       0.00903484       0.00168954
Si       3.83603600      -0.93533147      20.53318076  T        1       0.00582068      -0.00685989       0.03406219
Si       7.66863599      -0.95510814      20.55229504  T        1      -0.00652339       0.01231677       0.00844787
Si       1.91486611       4.26956411      20.57378487  T        1      -0.00816713       0.01657566       0.00188337
Si       5.76513761       4.28128809      20.57815025  T        1      -0.00953784       0.00575335      -0.00461170
Si       9.58366926       4.26750286      20.54650691  T        1       0.00620821       0.00270156      -0.00239163
F        9.44952125       5.86021989      23.10347276  T        0       0.19504299       0.20677649       0.27999518
H        9.91269883       6.32291718      23.80063339  T        0      -0.17440966      -0.15963219      -0.14789264
38
Lattice="11.518769465528859 0.0 0.0 3.839589821842953 6.650364651656328 0.0 0.0 0.0 32.62128289467409" Properties=species:S:1:pos:R:3:move_mask:L:1:tags:I:1:forces:R:3 surface=Si111 species=HF site=hollow orientation=parallel height_A=1.9 substrate_atoms=36 calculation_kind="Rigid evaluated approach scan; not NEB" energy=-184.99875531109743 pbc="T T F"
Si       1.91979491       1.10839411      12.00000000  F        6       0.00073822       0.00794984       0.15782249
Si       5.75938473       1.10839411      12.00000000  F        6       0.00016196       0.00782989       0.15787472
Si       9.59897455       1.10839411      12.00000000  F        6      -0.00004492       0.00843922       0.15784760
Si       3.83958982       4.43357643      12.00000000  F        6       0.00014702      -0.00705543       0.16353198
Si       7.67917964       4.43357643      12.00000000  F        6       0.00045225      -0.00683766       0.16277783
Si      11.51876947       4.43357643      12.00000000  F        6       0.00005076      -0.00712775       0.16302376
Si       1.91979491       1.10839411      14.35125897  F        5      -0.00130015      -0.02473895      -0.28842798
Si       5.75938473       1.10839411      14.35125897  F        5      -0.00078092      -0.02360194      -0.29222684
Si       9.59897455       1.10839411      14.35125897  F        5       0.00099525      -0.02715209      -0.28897798
Si       3.83958982       4.43357643      14.35125897  F        5      -0.00058603       0.02000968      -0.30327414
Si       7.67917964       4.43357643      14.35125897  F        5      -0.00194754       0.01955606      -0.29901976
Si      11.51876947       4.43357643      14.35125897  F        5       0.00080105       0.02087868      -0.29966361
Si      -0.00000000       2.21678822      15.13501196  F        4      -0.00221739      -0.04607188       0.55055197
Si       3.83958982       2.21678822      15.13501196  F        4      -0.00466263      -0.03058344       0.53225188
Si       7.67917964       2.21678822      15.13501196  F        4      -0.01439946      -0.04184851       0.54792620
Si       1.91979491       5.54197054      15.13501196  F        4      -0.00105718      -0.00088641      -0.32705624
Si       5.75938473       5.54197054      15.13501196  F        4      -0.02138527      -0.01158105      -0.35277450
Si       9.59897455       5.54197054      15.13501196  F        4       0.00018335      -0.00669624      -0.35949034
Si      -0.00431912       2.19919085      17.57701275  T        3       0.00358367       0.00132057      -0.00527529
Si       3.83379623       2.20000740      17.57378966  T        3       0.00362461       0.00259202       0.00476880
Si       7.67236571       2.19858552      17.57654078  T        3      -0.00003198      -0.00135944      -0.00363942
Si       1.91518389       5.53613643      17.45625092  T        3      -0.00190575       0.00244101       0.00478266
Si       5.74762741       5.53126056      17.45387141  T        3       0.00938988       0.01351511       0.00367821
Si       9.59265235       5.53593584      17.45318825  T        3       0.00566740       0.01202076       0.00493420
Si      -0.00645395      -0.06764424      18.32100470  T        2       0.00163237       0.00450824      -0.00137668
Si       3.83037132      -0.06841002      18.29652912  T        2       0.00798152       0.00386250       0.03110652
Si       7.67169214      -0.06953200      18.31192054  T        2       0.00350642       0.00643190       0.01664461
Si       1.91547781       3.35912178      18.34170280  T        2      -0.00153189       0.00115018       0.00607066
Si       5.75269523       3.35684150      18.34728790  T        2       0.00463790       0.01076818      -0.00385149
Si       9.59249206       3.35691564      18.33215750  T        2       0.00280820       0.00574414      -0.01153788
Si      -0.00369058      -0.95064996      20.56752176  T        1      -0.00301756       0.00906686       0.00166617
Si       3.83604548      -0.93534281      20.53323662  T        1       0.00592811      -0.00680694       0.03429953
Si       7.66862525      -0.95508789      20.55230890  T        1      -0.00651503       0.01234508       0.00851216
Si       1.91485262       4.26959144      20.57378795  T        1      -0.00810317       0.01651149       0.00191105
Si       5.76512184       4.28129755      20.57814260  T        1      -0.00944690       0.00576686      -0.00453584
Si       9.58367957       4.26750712      20.54650241  T        1       0.00610850       0.00292212      -0.00172114
F        9.44986892       5.86058728      23.10397504  T        0       0.16316977       0.17440139       0.23041652
H        9.91238521       6.32262774      23.80034958  T        0      -0.14263446      -0.12768406      -0.09955036
38
Lattice="11.518769465528859 0.0 0.0 3.839589821842953 6.650364651656328 0.0 0.0 0.0 32.62128289467409" Properties=species:S:1:pos:R:3:move_mask:L:1:tags:I:1:forces:R:3 surface=Si111 species=HF site=hollow orientation=parallel height_A=1.9 substrate_atoms=36 calculation_kind="Rigid evaluated approach scan; not NEB" energy=-184.9991342902878 pbc="T T F"
Si       1.91979491       1.10839411      12.00000000  F        6       0.00073693       0.00794908       0.15782332
Si       5.75938473       1.10839411      12.00000000  F        6       0.00016189       0.00782953       0.15787586
Si       9.59897455       1.10839411      12.00000000  F        6      -0.00004458       0.00843852       0.15784739
Si       3.83958982       4.43357643      12.00000000  F        6       0.00014646      -0.00705508       0.16353145
Si       7.67917964       4.43357643      12.00000000  F        6       0.00045277      -0.00683875       0.16277894
Si      11.51876947       4.43357643      12.00000000  F        6       0.00005011      -0.00712801       0.16302330
Si       1.91979491       1.10839411      14.35125897  F        5      -0.00129956      -0.02473760      -0.28844038
Si       5.75938473       1.10839411      14.35125897  F        5      -0.00077922      -0.02360296      -0.29224004
Si       9.59897455       1.10839411      14.35125897  F        5       0.00099390      -0.02714606      -0.28897649
Si       3.83958982       4.43357643      14.35125897  F        5      -0.00058340       0.02000858      -0.30324992
Si       7.67917964       4.43357643      14.35125897  F        5      -0.00194634       0.01955775      -0.29900079
Si      11.51876947       4.43357643      14.35125897  F        5       0.00079902       0.02087580      -0.29965493
Si      -0.00000000       2.21678822      15.13501196  F        4      -0.00219486      -0.04606555       0.55047986
Si       3.83958982       2.21678822      15.13501196  F        4      -0.00466177      -0.03059996       0.53230680
Si       7.67917964       2.21678822      15.13501196  F        4      -0.01440284      -0.04186771       0.54786780
Si       1.91979491       5.54197054      15.13501196  F        4      -0.00108123      -0.00087964      -0.32695164
Si       5.75938473       5.54197054      15.13501196  F        4      -0.02133246      -0.01153457      -0.35268112
Si       9.59897455       5.54197054      15.13501196  F        4       0.00018298      -0.00663891      -0.35936142
Si      -0.00431098       2.19919372      17.57700077  T        3       0.00352401       0.00137447      -0.00518690
Si       3.83380439       2.20001321      17.57380020  T        3       0.00360809       0.00259814       0.00485678
Si       7.67236555       2.19858226      17.57653245  T        3       0.00001812      -0.00122915      -0.00353419
Si       1.91517955       5.53614192      17.45626175  T        3      -0.00186916       0.00243063       0.00472360
Si       5.74764851       5.53129099      17.45387971  T        3       0.00936769       0.01344470       0.00365484
Si       9.59266515       5.53596288      17.45319955  T        3       0.00561678       0.01197321       0.00480740
Si      -0.00645024      -0.06763410      18.32100161  T        2       0.00160683       0.00449201      -0.00137281
Si       3.83038925      -0.06840148      18.29659900  T        2       0.00796470       0.00393559       0.03103864
Si       7.67169993      -0.06951764      18.31195826  T        2       0.00354658       0.00647475       0.01641385
Si       1.91547427       3.35912428      18.34171649  T        2      -0.00146864       0.00119680       0.00602459
Si       5.75270577       3.35686582      18.34727933  T        2       0.00456236       0.01067558      -0.00388594
Si       9.59249838       3.35692854      18.33213117  T        2       0.00279434       0.00574065      -0.01126980
Si      -0.00369725      -0.95062969      20.56752554  T        1      -0.00307339       0.00911006       0.00163357
Si       3.83605853      -0.93535820      20.53331303  T        1       0.00604674      -0.00673495       0.03457632
Si       7.66861061      -0.95506025      20.55232786  T        1      -0.00650721       0.01237957       0.00860827
Si       1.91483429       4.26962863      20.57379217  T        1      -0.00801925       0.01642626       0.00194700
Si       5.76510044       4.28131045      20.57813226  T        1      -0.00932562       0.00578060      -0.00443605
Si       9.58369350       4.26751318      20.54649704  T        1       0.00598921       0.00318660      -0.00089140
F        9.45030619       5.86105088      23.10460273  T        0       0.12322436       0.13382317       0.16827094
H        9.91199423       6.32226991      23.80001826  T        0      -0.10280434      -0.08764313      -0.03895669
38
Lattice="11.518769465528859 0.0 0.0 3.839589821842953 6.650364651656328 0.0 0.0 0.0 32.62128289467409" Properties=species:S:1:pos:R:3:move_mask:L:1:tags:I:1:forces:R:3 surface=Si111 species=HF site=hollow orientation=parallel height_A=1.9 substrate_atoms=36 calculation_kind="Rigid evaluated approach scan; not NEB" energy=-184.99941714227495 pbc="T T F"
Si       1.91979491       1.10839411      12.00000000  F        6       0.00073524       0.00794812       0.15782452
Si       5.75938473       1.10839411      12.00000000  F        6       0.00016180       0.00782908       0.15787743
Si       9.59897455       1.10839411      12.00000000  F        6      -0.00004413       0.00843759       0.15784715
Si       3.83958982       4.43357643      12.00000000  F        6       0.00014571      -0.00705466       0.16353089
Si       7.67917964       4.43357643      12.00000000  F        6       0.00045342      -0.00684019       0.16278039
Si      11.51876947       4.43357643      12.00000000  F        6       0.00004928      -0.00712837       0.16302278
Si       1.91979491       1.10839411      14.35125897  F        5      -0.00129877      -0.02473572      -0.28845630
Si       5.75938473       1.10839411      14.35125897  F        5      -0.00077711      -0.02360399      -0.29225700
Si       9.59897455       1.10839411      14.35125897  F        5       0.00099223      -0.02713819      -0.28897402
Si       3.83958982       4.43357643      14.35125897  F        5      -0.00058014       0.02000708      -0.30321820
Si       7.67917964       4.43357643      14.35125897  F        5      -0.00194530       0.01955971      -0.29897709
Si      11.51876947       4.43357643      14.35125897  F        5       0.00079707       0.02087178      -0.29964430
Si      -0.00000000       2.21678822      15.13501196  F        4      -0.00216548      -0.04605762       0.55038687
Si       3.83958982       2.21678822      15.13501196  F        4      -0.00466079      -0.03062176       0.53237974
Si       7.67917964       2.21678822      15.13501196  F        4      -0.01440707      -0.04189305       0.54779379
Si       1.91979491       5.54197054      15.13501196  F        4      -0.00111193      -0.00087100      -0.32681566
Si       5.75938473       5.54197054      15.13501196  F        4      -0.02126397      -0.01147371      -0.35256024
Si       9.59897455       5.54197054      15.13501196  F        4       0.00018229      -0.00656353      -0.35919568
Si      -0.00430042       2.19919757      17.57698523  T        3       0.00344696       0.00144278      -0.00507381
Si       3.83381505       2.20002082      17.57381416  T        3       0.00358554       0.00260920       0.00496290
Si       7.67236543       2.19857820      17.57652170  T        3       0.00008254      -0.00105781      -0.00339932
Si       1.91517394       5.53614910      17.45627583  T        3      -0.00181999       0.00241769       0.00464567
Si       5.74767611       5.53133073      17.45389053  T        3       0.00933984       0.01335184       0.00362873
Si       9.59268182       5.53599822      17.45321412  T        3       0.00554914       0.01190759       0.00466052
Si      -0.00644543      -0.06762085      18.32099757  T        2       0.00157726       0.00447143      -0.00136393
Si       3.83041271      -0.06839018      18.29669039  T        2       0.00794139       0.00402553       0.03092894
Si       7.67171020      -0.06949878      18.31200728  T        2       0.00358829       0.00652540       0.01611589
Si       1.91546973       3.35912763      18.34173435  T        2      -0.00138973       0.00125633       0.00596512
Si       5.75271944       3.35689751      18.34726804  T        2       0.00447400       0.01056203      -0.00392385
Si       9.59250664       3.35694542      18.33209713  T        2       0.00277492       0.00573984      -0.01093125
Si      -0.00370608      -0.95060308      20.56753045  T        1      -0.00313930       0.00916562       0.00158972
Si       3.83607583      -0.93537823      20.53341356  T        1       0.00615226      -0.00664190       0.03485386
Si       7.66859146      -0.95502402      20.55235283  T        1      -0.00649970       0.01241735       0.00874308
Si       1.91481044       4.26967718      20.57379776  T        1      -0.00791516       0.01631868       0.00199078
Si       5.76507263       4.28132738      20.57811887  T        1      -0.00917177       0.00578997      -0.00431168
Si       9.58371153       4.26752155      20.54649140  T        1       0.00586040       0.00346629       0.00004246
F        9.45081288       5.86159099      23.10532216  T        0       0.07756369       0.08742816       0.09720220
H        9.91154796       6.32186740      23.79968430  T        0      -0.05726293      -0.04186763       0.03032890
38
Lattice="11.518769465528859 0.0 0.0 3.839589821842953 6.650364651656328 0.0 0.0 0.0 32.62128289467409" Properties=species:S:1:pos:R:3:move_mask:L:1:tags:I:1:forces:R:3 surface=Si111 species=HF site=hollow orientation=parallel height_A=1.9 substrate_atoms=36 calculation_kind="Rigid evaluated approach scan; not NEB" energy=-184.99955357694162 pbc="T T F"
Si       1.91979491       1.10839411      12.00000000  F        6       0.00073299       0.00794692       0.15782628
Si       5.75938473       1.10839411      12.00000000  F        6       0.00016168       0.00782852       0.15787965
Si       9.59897455       1.10839411      12.00000000  F        6      -0.00004351       0.00843633       0.15784686
Si       3.83958982       4.43357643      12.00000000  F        6       0.00014470      -0.00705414       0.16353041
Si       7.67917964       4.43357643      12.00000000  F        6       0.00045427      -0.00684211       0.16278228
Si      11.51876947       4.43357643      12.00000000  F        6       0.00004823      -0.00712883       0.16302223
Si       1.91979491       1.10839411      14.35125897  F        5      -0.00129773      -0.02473305      -0.28847673
Si       5.75938473       1.10839411      14.35125897  F        5      -0.00077455      -0.02360485      -0.29227879
Si       9.59897455       1.10839411      14.35125897  F        5       0.00099022      -0.02712789      -0.28896987
Si       3.83958982       4.43357643      14.35125897  F        5      -0.00057620       0.02000504      -0.30317639
Si       7.67917964       4.43357643      14.35125897  F        5      -0.00194487       0.01956187      -0.29894802
Si      11.51876947       4.43357643      14.35125897  F        5       0.00079577       0.02086606      -0.29963168
Si      -0.00000000       2.21678822      15.13501196  F        4      -0.00212697      -0.04604779       0.55026703
Si       3.83958982       2.21678822      15.13501196  F        4      -0.00465974      -0.03065080       0.53247777
Si       7.67917964       2.21678822      15.13501196  F        4      -0.01441229      -0.04192675       0.54770084
Si       1.91979491       5.54197054      15.13501196  F        4      -0.00115094      -0.00085998      -0.32663837
Si       5.75938473       5.54197054      15.13501196  F        4      -0.02117491      -0.01139353      -0.35240335
Si       9.59897455       5.54197054      15.13501196  F        4       0.00018103      -0.00646360      -0.35898281
Si      -0.00428668       2.19920281      17.57696501  T        3       0.00334761       0.00152838      -0.00492990
Si       3.83382904       2.20003088      17.57383281  T        3       0.00355430       0.00262924       0.00508641
Si       7.67236542       2.19857324      17.57650785  T        3       0.00016509      -0.00083114      -0.00322742
Si       1.91516665       5.53615853      17.45629420  T        3      -0.00175300       0.00240195       0.00454218
Si       5.74771241       5.53138288      17.45390472  T        3       0.00930519       0.01322842       0.00360236
Si       9.59270364       5.53604463      17.45323297  T        3       0.00545744       0.01181464       0.00450271
Si      -0.00643916      -0.06760343      18.32099226  T        2       0.00154517       0.00444567      -0.00134583
Si       3.83044356      -0.06837506      18.29681061  T        2       0.00790836       0.00413391       0.03074632
Si       7.67172384      -0.06947379      18.31207118  T        2       0.00362417       0.00658244       0.01573040
Si       1.91546394       3.35913219      18.34175775  T        2      -0.00129264       0.00133181       0.00588813
Si       5.75273724       3.35693899      18.34725306  T        2       0.00437593       0.01042582      -0.00396122
Si       9.59251747       3.35696765      18.33205307  T        2       0.00274708       0.00574534      -0.01050794
Si      -0.00371788      -0.95056788      20.56753683  T        1      -0.00321303       0.00923668       0.00153017
Si       3.83609896      -0.93540441      20.53354681  T        1       0.00620379      -0.00652303       0.03506809
Si       7.66856625      -0.95497616      20.55238603  T        1      -0.00648748       0.01245415       0.00892432
Si       1.91477926       4.26974090      20.57380524  T        1      -0.00778814       0.01618397       0.00204251
Si       5.76503633       4.28134972      20.57810153  T        1      -0.00897812       0.00578664      -0.00415845
Si       9.58373496       4.26753335      20.54648637  T        1       0.00573420       0.00371426       0.00100154
F        9.45136411       5.86218440      23.10608896  T        0       0.02982131       0.03888889       0.02281364
H        9.91107602       6.32145374      23.79942097  T        0      -0.00962440       0.00601054       0.10282463
38
Lattice="11.518769465528859 0.0 0.0 3.839589821842953 6.650364651656328 0.0 0.0 0.0 32.62128289467409" Properties=species:S:1:pos:R:3:move_mask:L:1:tags:I:1:forces:R:3 surface=Si111 species=HF site=hollow orientation=parallel height_A=1.9 substrate_atoms=36 calculation_kind="Rigid evaluated approach scan; not NEB" energy=-184.99955757147558 pbc="T T F"
Si       1.91979491       1.10839411      12.00000000  F        6       0.00073007       0.00794547       0.15782884
Si       5.75938473       1.10839411      12.00000000  F        6       0.00016151       0.00782784       0.15788277
Si       9.59897455       1.10839411      12.00000000  F        6      -0.00004268       0.00843464       0.15784653
Si       3.83958982       4.43357643      12.00000000  F        6       0.00014335      -0.00705355       0.16353017
Si       7.67917964       4.43357643      12.00000000  F        6       0.00045533      -0.00684462       0.16278471
Si      11.51876947       4.43357643      12.00000000  F        6       0.00004695      -0.00712944       0.16302174
Si       1.91979491       1.10839411      14.35125897  F        5      -0.00129638      -0.02472932      -0.28850236
Si       5.75938473       1.10839411      14.35125897  F        5      -0.00077156      -0.02360522      -0.29230617
Si       9.59897455       1.10839411      14.35125897  F        5       0.00098793      -0.02711469      -0.28896320
Si       3.83958982       4.43357643      14.35125897  F        5      -0.00057162       0.02000232      -0.30312227
Si       7.67917964       4.43357643      14.35125897  F        5      -0.00194573       0.01956406      -0.29891371
Si      11.51876947       4.43357643      14.35125897  F        5       0.00079599       0.02085805      -0.29961748
Si      -0.00000000       2.21678822      15.13501196  F        4      -0.00207747      -0.04603599       0.55011611
Si       3.83958982       2.21678822      15.13501196  F        4      -0.00465874      -0.03068879       0.53260777
Si       7.67917964       2.21678822      15.13501196  F        4      -0.01441847      -0.04197073       0.54758763
Si       1.91979491       5.54197054      15.13501196  F        4      -0.00119923      -0.00084628      -0.32641191
Si       5.75938473       5.54197054      15.13501196  F        4      -0.02106138      -0.01128975      -0.35220363
Si       9.59897455       5.54197054      15.13501196  F        4       0.00017885      -0.00633336      -0.35871539
Si      -0.00426919       2.19920986      17.57693926  T        3       0.00322260       0.00163211      -0.00475173
Si       3.83384708       2.20004396      17.57385738  T        3       0.00351178       0.00266333       0.00522152
Si       7.67236567       2.19856751      17.57649044  T        3       0.00026812      -0.00053727      -0.00301462
Si       1.91515740       5.53617069      17.45631770  T        3      -0.00166313       0.00238375       0.00440750
Si       5.74775934       5.53145009      17.45392302  T        3       0.00926319       0.01306730       0.00358015
Si       9.59273164       5.53610451      17.45325682  T        3       0.00533477       0.01168407       0.00435348
Si      -0.00643115      -0.06758095      18.32098542  T        2       0.00151390       0.00441462      -0.00131349
Si       3.83048345      -0.06835513      18.29696592  T        2       0.00786197       0.00425919       0.03045218
Si       7.67174168      -0.06944121      18.31215280  T        2       0.00364267       0.00664168       0.01524212
Si       1.91545675       3.35913834      18.34178782  T        2      -0.00117731       0.00142483       0.00579048
Si       5.75275996       3.35699230      18.34723351  T        2       0.00427572       0.01026916      -0.00399089
Si       9.59253143       3.35699647      18.33199731  T        2       0.00270786       0.00576195      -0.00999514
Si      -0.00373342      -0.95052205      20.56754490  T        1      -0.00328846       0.00932476       0.00145098
Si       3.83612927      -0.93543797      20.53372048  T        1       0.00614282      -0.00637665       0.03512028
Si       7.66853361      -0.95491401      20.55242959  T        1      -0.00645930       0.01248263       0.00914848
Si       1.91473926       4.26982306      20.57381510  T        1      -0.00763854       0.01601997       0.00210039
Si       5.76498991       4.28137869      20.57807956  T        1      -0.00874165       0.00575869      -0.00397535
Si       9.58376483       4.26754966      20.54648337  T        1       0.00562884       0.00385464       0.00184124
F        9.45190592       5.86277807      23.10681404  T        0      -0.01278751      -0.00449444      -0.04374310
H        9.91063653       6.32109066      23.79934155  T        0       0.03292492       0.04877504       0.16762540
38
Lattice="11.518769465528859 0.0 0.0 3.839589821842953 6.650364651656328 0.0 0.0 0.0 32.62128289467409" Properties=species:S:1:pos:R:3:move_mask:L:1:tags:I:1:forces:R:3 surface=Si111 species=HF site=hollow orientation=parallel height_A=1.9 substrate_atoms=36 calculation_kind="Rigid evaluated approach scan; not NEB" energy=-184.9995627045502 pbc="T T F"
Si       1.91979491       1.10839411      12.00000000  F        6       0.00072999       0.00794544       0.15782893
Si       5.75938473       1.10839411      12.00000000  F        6       0.00016151       0.00782783       0.15788287
Si       9.59897455       1.10839411      12.00000000  F        6      -0.00004266       0.00843459       0.15784652
Si       3.83958982       4.43357643      12.00000000  F        6       0.00014331      -0.00705354       0.16353019
Si       7.67917964       4.43357643      12.00000000  F        6       0.00045536      -0.00684469       0.16278477
Si      11.51876947       4.43357643      12.00000000  F        6       0.00004692      -0.00712946       0.16302174
Si       1.91979491       1.10839411      14.35125897  F        5      -0.00129635      -0.02472919      -0.28850297
Si       5.75938473       1.10839411      14.35125897  F        5      -0.00077151      -0.02360516      -0.29230682
Si       9.59897455       1.10839411      14.35125897  F        5       0.00098790      -0.02711436      -0.28896290
Si       3.83958982       4.43357643      14.35125897  F        5      -0.00057155       0.02000225      -0.30312082
Si       7.67917964       4.43357643      14.35125897  F        5      -0.00194589       0.01956407      -0.29891313
Si      11.51876947       4.43357643      14.35125897  F        5       0.00079619       0.02085778      -0.29961731
Si      -0.00000000       2.21678822      15.13501196  F        4      -0.00207619      -0.04603576       0.55011251
Si       3.83958982       2.21678822      15.13501196  F        4      -0.00465875      -0.03068984       0.53261160
Si       7.67917964       2.21678822      15.13501196  F        4      -0.01441857      -0.04197191       0.54758534
Si       1.91979491       5.54197054      15.13501196  F        4      -0.00120029      -0.00084596      -0.32640619
Si       5.75938473       5.54197054      15.13501196  F        4      -0.02105851      -0.01128698      -0.35219858
Si       9.59897455       5.54197054      15.13501196  F        4       0.00017873      -0.00632979      -0.35870900
Si      -0.00426876       2.19921008      17.57693861  T        3       0.00321966       0.00163415      -0.00474780
Si       3.83384755       2.20004432      17.57385809  T        3       0.00351047       0.00266502       0.00522267
Si       7.67236571       2.19856744      17.57649003  T        3       0.00027046      -0.00052950      -0.00301001
Si       1.91515718       5.53617102      17.45631830  T        3      -0.00166045       0.00238351       0.00440390
Si       5.74776059       5.53145186      17.45392350  T        3       0.00926231       0.01306290       0.00358067
Si       9.59273236       5.53610609      17.45325741  T        3       0.00533111       0.01167954       0.00435496
Si      -0.00643095      -0.06758035      18.32098524  T        2       0.00151405       0.00441405      -0.00131187
Si       3.83048452      -0.06835455      18.29697004  T        2       0.00786036       0.00426108       0.03043871
Si       7.67174217      -0.06944031      18.31215486  T        2       0.00364056       0.00664183       0.01523015
Si       1.91545659       3.35913853      18.34178861  T        2      -0.00117525       0.00142684       0.00578807
Si       5.75276054       3.35699369      18.34723297  T        2       0.00427553       0.01026683      -0.00398987
Si       9.59253180       3.35699725      18.33199596  T        2       0.00270654       0.00576326      -0.00998496
Si      -0.00373386      -0.95052079      20.56754510  T        1      -0.00328848       0.00932663       0.00144874
Si       3.83613011      -0.93543884      20.53372523  T        1       0.00612937      -0.00637367       0.03510021
Si       7.66853274      -0.95491231      20.55243083  T        1      -0.00645630       0.01248157       0.00915153
Si       1.91473822       4.26982523      20.57381538  T        1      -0.00763594       0.01601657       0.00210105
Si       5.76498872       4.28137947      20.57807902  T        1      -0.00873677       0.00575567      -0.00397182
Si       9.58376559       4.26755018      20.54648362  T        1       0.00563075       0.00384111       0.00182570
F        9.45190419       5.86277746      23.10680811  T        0      -0.01201205      -0.00371437      -0.04254839
H        9.91064099       6.32109727      23.79936426  T        0       0.03215443       0.04800168       0.16645163
38
Lattice="11.518769465528859 0.0 0.0 3.839589821842953 6.650364651656328 0.0 0.0 0.0 32.62128289467409" Properties=species:S:1:pos:R:3:move_mask:L:1:tags:I:1:forces:R:3 surface=Si111 species=HF site=hollow orientation=parallel height_A=1.9 substrate_atoms=36 calculation_kind="Rigid evaluated approach scan; not NEB" energy=-184.999572795476 pbc="T T F"
Si       1.91979491       1.10839411      12.00000000  F        6       0.00072983       0.00794538       0.15782912
Si       5.75938473       1.10839411      12.00000000  F        6       0.00016150       0.00782780       0.15788308
Si       9.59897455       1.10839411      12.00000000  F        6      -0.00004261       0.00843449       0.15784651
Si       3.83958982       4.43357643      12.00000000  F        6       0.00014324      -0.00705353       0.16353025
Si       7.67917964       4.43357643      12.00000000  F        6       0.00045540      -0.00684483       0.16278490
Si      11.51876947       4.43357643      12.00000000  F        6       0.00004687      -0.00712949       0.16302176
Si       1.91979491       1.10839411      14.35125897  F        5      -0.00129628      -0.02472895      -0.28850419
Si       5.75938473       1.10839411      14.35125897  F        5      -0.00077140      -0.02360505      -0.29230812
Si       9.59897455       1.10839411      14.35125897  F        5       0.00098784      -0.02711369      -0.28896230
Si       3.83958982       4.43357643      14.35125897  F        5      -0.00057141       0.02000210      -0.30311793
Si       7.67917964       4.43357643      14.35125897  F        5      -0.00194621       0.01956408      -0.29891197
Si      11.51876947       4.43357643      14.35125897  F        5       0.00079657       0.02085724      -0.29961697
Si      -0.00000000       2.21678822      15.13501196  F        4      -0.00207363      -0.04603529       0.55010531
Si       3.83958982       2.21678822      15.13501196  F        4      -0.00465877      -0.03069195       0.53261926
Si       7.67917964       2.21678822      15.13501196  F        4      -0.01441876      -0.04197429       0.54758076
Si       1.91979491       5.54197054      15.13501196  F        4      -0.00120243      -0.00084534      -0.32639474
Si       5.75938473       5.54197054      15.13501196  F        4      -0.02105277      -0.01128142      -0.35218847
Si       9.59897455       5.54197054      15.13501196  F        4       0.00017849      -0.00632266      -0.35869621
Si      -0.00426788       2.19921052      17.57693733  T        3       0.00321378       0.00163823      -0.00473995
Si       3.83384850       2.20004504      17.57385951  T        3       0.00350785       0.00266839       0.00522498
Si       7.67236578       2.19856729      17.57648922  T        3       0.00027515      -0.00051397      -0.00300081
Si       1.91515673       5.53617166      17.45631949  T        3      -0.00165509       0.00238303       0.00439670
Si       5.74776310       5.53145540      17.45392447  T        3       0.00926053       0.01305411       0.00358171
Si       9.59273381       5.53610926      17.45325859  T        3       0.00532379       0.01167048       0.00435788
Si      -0.00643054      -0.06757915      18.32098488  T        2       0.00151435       0.00441291      -0.00130863
Si       3.83048665      -0.06835340      18.29697830  T        2       0.00785713       0.00426489       0.03041180
Si       7.67174316      -0.06943851      18.31215899  T        2       0.00363634       0.00664215       0.01520624
Si       1.91545627       3.35913892      18.34179018  T        2      -0.00117114       0.00143086       0.00578324
Si       5.75276170       3.35699648      18.34723189  T        2       0.00427512       0.01026216      -0.00398784
Si       9.59253253       3.35699881      18.33199325  T        2       0.00270391       0.00576588      -0.00996461
Si      -0.00373476      -0.95051826      20.56754549  T        1      -0.00328852       0.00933037       0.00144426
Si       3.83613177      -0.93544056      20.53373475  T        1       0.00610257      -0.00636770       0.03506022
Si       7.66853099      -0.95490893      20.55243331  T        1      -0.00645033       0.01247946       0.00915765
Si       1.91473615       4.26982957      20.57381595  T        1      -0.00763071       0.01600975       0.00210236
Si       5.76498635       4.28138103      20.57807794  T        1      -0.00872702       0.00574963      -0.00396475
Si       9.58376712       4.26755122      20.54648412  T        1       0.00563453       0.00381418       0.00179489
F        9.45190084       5.86277636      23.10679644  T        0      -0.01047470      -0.00216797      -0.04017986
H        9.91064980       6.32111037      23.79940951  T        0       0.03062700       0.04646854       0.16412450
38
Lattice="11.518769465528859 0.0 0.0 3.839589821842953 6.650364651656328 0.0 0.0 0.0 32.62128289467409" Properties=species:S:1:pos:R:3:move_mask:L:1:tags:I:1:forces:R:3 surface=Si111 species=HF site=hollow orientation=parallel height_A=1.9 substrate_atoms=36 calculation_kind="Rigid evaluated approach scan; not NEB" energy=-184.99958750575243 pbc="T T F"
Si       1.91979491       1.10839411      12.00000000  F        6       0.00072959       0.00794529       0.15782940
Si       5.75938473       1.10839411      12.00000000  F        6       0.00016149       0.00782776       0.15788340
Si       9.59897455       1.10839411      12.00000000  F        6      -0.00004254       0.00843434       0.15784650
Si       3.83958982       4.43357643      12.00000000  F        6       0.00014312      -0.00705350       0.16353033
Si       7.67917964       4.43357643      12.00000000  F        6       0.00045548      -0.00684505       0.16278509
Si      11.51876947       4.43357643      12.00000000  F        6       0.00004678      -0.00712954       0.16302178
Si       1.91979491       1.10839411      14.35125897  F        5      -0.00129619      -0.02472858      -0.28850603
Si       5.75938473       1.10839411      14.35125897  F        5      -0.00077125      -0.02360489      -0.29231008
Si       9.59897455       1.10839411      14.35125897  F        5       0.00098776      -0.02711268      -0.28896141
Si       3.83958982       4.43357643      14.35125897  F        5      -0.00057120       0.02000188      -0.30311358
Si       7.67917964       4.43357643      14.35125897  F        5      -0.00194668       0.01956411      -0.29891023
Si      11.51876947       4.43357643      14.35125897  F        5       0.00079714       0.02085644      -0.29961646
Si      -0.00000000       2.21678822      15.13501196  F        4      -0.00206979      -0.04603459       0.55009451
Si       3.83958982       2.21678822      15.13501196  F        4      -0.00465879      -0.03069510       0.53263077
Si       7.67917964       2.21678822      15.13501196  F        4      -0.01441905      -0.04197784       0.54757388
Si       1.91979491       5.54197054      15.13501196  F        4      -0.00120564      -0.00084440      -0.32637756
Si       5.75938473       5.54197054      15.13501196  F        4      -0.02104415      -0.01127309      -0.35217328
Si       9.59897455       5.54197054      15.13501196  F        4       0.00017813      -0.00631196      -0.35867699
Si      -0.00426657       2.19921119      17.57693539  T        3       0.00320496       0.00164436      -0.00472815
Si       3.83384993       2.20004612      17.57386163  T        3       0.00350393       0.00267344       0.00522846
Si       7.67236589       2.19856708      17.57648799  T        3       0.00028219      -0.00049070      -0.00298700
Si       1.91515605       5.53617263      17.45632128  T        3      -0.00164706       0.00238232       0.00438589
Si       5.74776687       5.53146072      17.45392593  T        3       0.00925785       0.01304093       0.00358324
Si       9.59273598       5.53611401      17.45326037  T        3       0.00531282       0.01165690       0.00436217
Si      -0.00642992      -0.06757736      18.32098435  T        2       0.00151479       0.00441120      -0.00130379
Si       3.83048985      -0.06835166      18.29699068  T        2       0.00785228       0.00427060       0.03037152
Si       7.67174464      -0.06943581      18.31216519  T        2       0.00363006       0.00664265       0.01517036
Si       1.91545580       3.35913950      18.34179253  T        2      -0.00116496       0.00143690       0.00577601
Si       5.75276344       3.35700065      18.34723027  T        2       0.00427447       0.01025513      -0.00398480
Si       9.59253364       3.35700116      18.33198919  T        2       0.00269997       0.00576979      -0.00993402
Si      -0.00373609      -0.95051446      20.56754608  T        1      -0.00328861       0.00933597       0.00143755
Si       3.83613426      -0.93544316      20.53374903  T        1       0.00606260      -0.00635873       0.03500057
Si       7.66852836      -0.95490385      20.55243704  T        1      -0.00644144       0.01247632       0.00916688
Si       1.91473305       4.26983609      20.57381681  T        1      -0.00762285       0.01599951       0.00210434
Si       5.76498280       4.28138337      20.57807633  T        1      -0.00871240       0.00574062      -0.00395412
Si       9.58376941       4.26755278      20.54648486  T        1       0.00564011       0.00377413       0.00174936
F        9.45189611       5.86277502      23.10677937  T        0      -0.00820353       0.00011635      -0.03668066
H        9.91066272       6.32112975      23.79947702  T        0       0.02837060       0.04420369       0.16068618
38
Lattice="11.518769465528859 0.0 0.0 3.839589821842953 6.650364651656328 0.0 0.0 0.0 32.62128289467409" Properties=species:S:1:pos:R:3:move_mask:L:1:tags:I:1:forces:R:3 surface=Si111 species=HF site=hollow orientation=parallel height_A=1.9 substrate_atoms=36 calculation_kind="Rigid evaluated approach scan; not NEB" energy=-184.99960635746055 pbc="T T F"
Si       1.91979491       1.10839411      12.00000000  F        6       0.00072927       0.00794517       0.15782977
Si       5.75938473       1.10839411      12.00000000  F        6       0.00016147       0.00782771       0.15788381
Si       9.59897455       1.10839411      12.00000000  F        6      -0.00004244       0.00843413       0.15784648
Si       3.83958982       4.43357643      12.00000000  F        6       0.00014297      -0.00705347       0.16353044
Si       7.67917964       4.43357643      12.00000000  F        6       0.00045557      -0.00684533       0.16278534
Si      11.51876947       4.43357643      12.00000000  F        6       0.00004667      -0.00712961       0.16302181
Si       1.91979491       1.10839411      14.35125897  F        5      -0.00129606      -0.02472808      -0.28850848
Si       5.75938473       1.10839411      14.35125897  F        5      -0.00077105      -0.02360467      -0.29231270
Si       9.59897455       1.10839411      14.35125897  F        5       0.00098764      -0.02711133      -0.28896021
Si       3.83958982       4.43357643      14.35125897  F        5      -0.00057092       0.02000159      -0.30310778
Si       7.67917964       4.43357643      14.35125897  F        5      -0.00194730       0.01956414      -0.29890790
Si      11.51876947       4.43357643      14.35125897  F        5       0.00079790       0.02085536      -0.29961577
Si      -0.00000000       2.21678822      15.13501196  F        4      -0.00206466      -0.04603364       0.55008009
Si       3.83958982       2.21678822      15.13501196  F        4      -0.00465882      -0.03069930       0.53264615
Si       7.67917964       2.21678822      15.13501196  F        4      -0.01441943      -0.04198258       0.54756470
Si       1.91979491       5.54197054      15.13501196  F        4      -0.00120993      -0.00084314      -0.32635462
Si       5.75938473       5.54197054      15.13501196  F        4      -0.02103263      -0.01126195      -0.35215297
Si       9.59897455       5.54197054      15.13501196  F        4       0.00017764      -0.00629768      -0.35865127
Si      -0.00426483       2.19921208      17.57693281  T        3       0.00319319       0.00165258      -0.00471237
Si       3.83385184       2.20004758      17.57386448  T        3       0.00349871       0.00268015       0.00523313
Si       7.67236604       2.19856680      17.57648636  T        3       0.00029160      -0.00045966      -0.00296857
Si       1.91515515       5.53617393      17.45632368  T        3      -0.00163636       0.00238137       0.00437148
Si       5.74777191       5.53146782      17.45392788  T        3       0.00925424       0.01302334       0.00358522
Si       9.59273887       5.53612036      17.45326274  T        3       0.00529820       0.01163882       0.00436768
Si      -0.00642910      -0.06757496      18.32098364  T        2       0.00151535       0.00440892      -0.00129739
Si       3.83049412      -0.06834934      18.29700723  T        2       0.00784580       0.00427825       0.03031795
Si       7.67174662      -0.06943219      18.31217346  T        2       0.00362178       0.00664334       0.01512252
Si       1.91545516       3.35914028      18.34179568  T        2      -0.00115672       0.00144499       0.00576636
Si       5.75276577       3.35700624      18.34722810  T        2       0.00427351       0.01024570      -0.00398076
Si       9.59253511       3.35700430      18.33198377  T        2       0.00269475       0.00577496      -0.00989313
Si      -0.00373788      -0.95050938      20.56754687  T        1      -0.00328876       0.00934342       0.00142862
Si       3.83613758      -0.93544662      20.53376811  T        1       0.00600975      -0.00634673       0.03492167
Si       7.66852485      -0.95489706      20.55244202  T        1      -0.00642968       0.01247218       0.00917927
Si       1.91472889       4.26984480      20.57381795  T        1      -0.00761230       0.01598581       0.00210700
Si       5.76497805       4.28138650      20.57807417  T        1      -0.00869290       0.00572867      -0.00393991
Si       9.58377248       4.26755486      20.54648584  T        1       0.00564736       0.00372139       0.00169001
F        9.45189040       5.86277383      23.10675749  T        0      -0.00524169       0.00309486      -0.03211729
H        9.91067940       6.32115504      23.79956634  T        0       0.02542826       0.04125031       0.15620159
38
Lattice="11.518769465528859 0.0 0.0 3.839589821842953 6.650364651656328 0.0 0.0 0.0 32.62128289467409" Properties=species:S:1:pos:R:3:move_mask:L:1:tags:I:1:forces:R:3 surface=Si111 species=HF site=hollow orientation=parallel height_A=1.9 substrate_atoms=36 calculation_kind="Rigid evaluated approach scan; not NEB" energy=-184.9996287682921 pbc="T T F"
Si       1.91979491       1.10839411      12.00000000  F        6       0.00072887       0.00794501       0.15783023
Si       5.75938473       1.10839411      12.00000000  F        6       0.00016145       0.00782764       0.15788433
Si       9.59897455       1.10839411      12.00000000  F        6      -0.00004232       0.00843387       0.15784646
Si       3.83958982       4.43357643      12.00000000  F        6       0.00014277      -0.00705343       0.16353058
Si       7.67917964       4.43357643      12.00000000  F        6       0.00045570      -0.00684568       0.16278566
Si      11.51876947       4.43357643      12.00000000  F        6       0.00004653      -0.00712969       0.16302185
Si       1.91979491       1.10839411      14.35125897  F        5      -0.00129591      -0.02472746      -0.28851155
Si       5.75938473       1.10839411      14.35125897  F        5      -0.00077079      -0.02360440      -0.29231598
Si       9.59897455       1.10839411      14.35125897  F        5       0.00098749      -0.02710964      -0.28895872
Si       3.83958982       4.43357643      14.35125897  F        5      -0.00057056       0.02000123      -0.30310051
Si       7.67917964       4.43357643      14.35125897  F        5      -0.00194807       0.01956419      -0.29890495
Si      11.51876947       4.43357643      14.35125897  F        5       0.00079884       0.02085402      -0.29961489
Si      -0.00000000       2.21678822      15.13501196  F        4      -0.00205824      -0.04603244       0.55006200
Si       3.83958982       2.21678822      15.13501196  F        4      -0.00465885      -0.03070457       0.53266547
Si       7.67917964       2.21678822      15.13501196  F        4      -0.01441991      -0.04198848       0.54755319
Si       1.91979491       5.54197054      15.13501196  F        4      -0.00121531      -0.00084156      -0.32632588
Si       5.75938473       5.54197054      15.13501196  F        4      -0.02101817      -0.01124798      -0.35212747
Si       9.59897455       5.54197054      15.13501196  F        4       0.00017703      -0.00627979      -0.35861896
Si      -0.00426263       2.19921320      17.57692958  T        3       0.00317843       0.00166292      -0.00469255
Si       3.83385423       2.20004940      17.57386805  T        3       0.00349219       0.00268851       0.00523904
Si       7.67236623       2.19856646      17.57648432  T        3       0.00030339      -0.00042085      -0.00294549
Si       1.91515402       5.53617556      17.45632667  T        3      -0.00162297       0.00238019       0.00435345
Si       5.74777824       5.53147673      17.45393033  T        3       0.00924967       0.01300134       0.00358761
Si       9.59274250       5.53612833      17.45326572  T        3       0.00527992       0.01161623       0.00437424
Si      -0.00642806      -0.06757194      18.32098275  T        2       0.00151600       0.00440605      -0.00128945
Si       3.83049948      -0.06834643      18.29702798  T        2       0.00783767       0.00428787       0.03025119
Si       7.67174910      -0.06942766      18.31218383  T        2       0.00361158       0.00664425       0.01506265
Si       1.91545436       3.35914126      18.34179962  T        2      -0.00114639       0.00145516       0.00575430
Si       5.75276869       3.35701324      18.34722538  T        2       0.00427217       0.01023381      -0.00397571
Si       9.59253695       3.35700824      18.33197698  T        2       0.00268826       0.00578137      -0.00984179
Si      -0.00374013      -0.95050301      20.56754785  T        1      -0.00328900       0.00935272       0.00141748
Si       3.83614173      -0.93545097      20.53379203  T        1       0.00594441      -0.00633166       0.03482404
Si       7.66852045      -0.95488854      20.55244828  T        1      -0.00641515       0.01246707       0.00919491
Si       1.91472369       4.26985573      20.57381939  T        1      -0.00759900       0.01596860       0.00211038
Si       5.76497210       4.28139042      20.57807147  T        1      -0.00866852       0.00571384      -0.00392206
Si       9.58377633       4.26755745      20.54648704  T        1       0.00565612       0.00365651       0.00161803
F        9.45188425       5.86277335      23.10673160  T        0      -0.00164803       0.00670795      -0.02658049
H        9.91069931       6.32118578      23.79967690  T        0       0.02185868       0.03766729       0.15075936
38
Lattice="11.518769465528859 0.0 0.0 3.839589821842953 6.650364651656328 0.0 0.0 0.0 32.62128289467409" Properties=species:S:1:pos:R:3:move_mask:L:1:tags:I:1:forces:R:3 surface=Si111 species=HF site=hollow orientation=parallel height_A=1.9 substrate_atoms=36 calculation_kind="Rigid evaluated approach scan; not NEB" energy=-184.99965409618997 pbc="T T F"
Si       1.91979491       1.10839411      12.00000000  F        6       0.00072839       0.00794483       0.15783079
Si       5.75938473       1.10839411      12.00000000  F        6       0.00016143       0.00782756       0.15788496
Si       9.59897455       1.10839411      12.00000000  F        6      -0.00004218       0.00843357       0.15784643
Si       3.83958982       4.43357643      12.00000000  F        6       0.00014254      -0.00705337       0.16353074
Si       7.67917964       4.43357643      12.00000000  F        6       0.00045584      -0.00684611       0.16278605
Si      11.51876947       4.43357643      12.00000000  F        6       0.00004636      -0.00712979       0.16302190
Si       1.91979491       1.10839411      14.35125897  F        5      -0.00129572      -0.02472673      -0.28851525
Si       5.75938473       1.10839411      14.35125897  F        5      -0.00077048      -0.02360409      -0.29231992
Si       9.59897455       1.10839411      14.35125897  F        5       0.00098731      -0.02710761      -0.28895692
Si       3.83958982       4.43357643      14.35125897  F        5      -0.00057013       0.02000081      -0.30309175
Si       7.67917964       4.43357643      14.35125897  F        5      -0.00194898       0.01956426      -0.29890139
Si      11.51876947       4.43357643      14.35125897  F        5       0.00079995       0.02085240      -0.29961381
Si      -0.00000000       2.21678822      15.13501196  F        4      -0.00205051      -0.04603096       0.55004021
Si       3.83958982       2.21678822      15.13501196  F        4      -0.00465888      -0.03071091       0.53268879
Si       7.67917964       2.21678822      15.13501196  F        4      -0.01442046      -0.04199556       0.54753932
Si       1.91979491       5.54197054      15.13501196  F        4      -0.00122180      -0.00083965      -0.32629127
Si       5.75938473       5.54197054      15.13501196  F        4      -0.02100071      -0.01123115      -0.35209665
Si       9.59897455       5.54197054      15.13501196  F        4       0.00017628      -0.00625825      -0.35857992
Si      -0.00426000       2.19921456      17.57692569  T        3       0.00316067       0.00167543      -0.00466861
Si       3.83385712       2.20005161      17.57387236  T        3       0.00348438       0.00269850       0.00524622
Si       7.67236647       2.19856607      17.57648186  T        3       0.00031761      -0.00037422      -0.00291771
Si       1.91515267       5.53617752      17.45633028  T        3      -0.00160690       0.00237878       0.00433176
Si       5.74778586       5.53148747      17.45393328  T        3       0.00924408       0.01297489       0.00359034
Si       9.59274688       5.53613793      17.45326931  T        3       0.00525796       0.01158913       0.00438162
Si      -0.00642681      -0.06756831      18.32098167  T        2       0.00151673       0.00440260      -0.00128002
Si       3.83050595      -0.06834290      18.29705299  T        2       0.00782786       0.00429951       0.03017131
Si       7.67175209      -0.06942218      18.31219632  T        2       0.00359954       0.00664543       0.01499065
Si       1.91545340       3.35914244      18.34180438  T        2      -0.00113395       0.00146745       0.00573980
Si       5.75277221       3.35702169      18.34722209  T        2       0.00427033       0.01021937      -0.00396966
Si       9.59253917       3.35701299      18.33196880  T        2       0.00268053       0.00578898      -0.00977980
Si      -0.00374284      -0.95049531      20.56754903  T        1      -0.00328936       0.00936384       0.00140413
Si       3.83614671      -0.93545620      20.53382085  T        1       0.00586703      -0.00631346       0.03470833
Si       7.66851515      -0.95487826      20.55245584  T        1      -0.00639793       0.01246104       0.00921391
Si       1.91471741       4.26986891      20.57382112  T        1      -0.00758284       0.01594780       0.00211451
Si       5.76496492       4.28139515      20.57806821  T        1      -0.00863923       0.00569619      -0.00390049
Si       9.58378098       4.26756054      20.54648847  T        1       0.00566617       0.00358021       0.00153497
F        9.45187837       5.86277433      23.10670272  T        0       0.00250239       0.01087951      -0.02018616
H        9.91072182       6.32122133      23.79980799  T        0       0.01773670       0.03352977       0.14447261
38
Lattice="11.518769465528859 0.0 0.0 3.839589821842953 6.650364651656328 0.0 0.0 0.0 32.62128289467409" Properties=species:S:1:pos:R:3:move_mask:L:1:tags:I:1:forces:R:3 surface=Si111 species=HF site=hollow orientation=parallel height_A=1.9 substrate_atoms=36 calculation_kind="Rigid evaluated approach scan; not NEB" energy=-184.9996816912608 pbc="T T F"
Si       1.91979491       1.10839411      12.00000000  F        6       0.00072782       0.00794461       0.15783145
Si       5.75938473       1.10839411      12.00000000  F        6       0.00016140       0.00782746       0.15788569
Si       9.59897455       1.10839411      12.00000000  F        6      -0.00004202       0.00843320       0.15784640
Si       3.83958982       4.43357643      12.00000000  F        6       0.00014227      -0.00705332       0.16353092
Si       7.67917964       4.43357643      12.00000000  F        6       0.00045602      -0.00684662       0.16278650
Si      11.51876947       4.43357643      12.00000000  F        6       0.00004616      -0.00712990       0.16302195
Si       1.91979491       1.10839411      14.35125897  F        5      -0.00129551      -0.02472587      -0.28851959
Si       5.75938473       1.10839411      14.35125897  F        5      -0.00077011      -0.02360374      -0.29232455
Si       9.59897455       1.10839411      14.35125897  F        5       0.00098710      -0.02710523      -0.28895483
Si       3.83958982       4.43357643      14.35125897  F        5      -0.00056962       0.02000032      -0.30308147
Si       7.67917964       4.43357643      14.35125897  F        5      -0.00195003       0.01956435      -0.29889718
Si      11.51876947       4.43357643      14.35125897  F        5       0.00080124       0.02085051      -0.29961252
Si      -0.00000000       2.21678822      15.13501196  F        4      -0.00204146      -0.04602920       0.55001463
Si       3.83958982       2.21678822      15.13501196  F        4      -0.00465892      -0.03071833       0.53271623
Si       7.67917964       2.21678822      15.13501196  F        4      -0.01442110      -0.04200382       0.54752305
Si       1.91979491       5.54197054      15.13501196  F        4      -0.00122942      -0.00083741      -0.32625069
Si       5.75938473       5.54197054      15.13501196  F        4      -0.02098020      -0.01121138      -0.35206040
Si       9.59897455       5.54197054      15.13501196  F        4       0.00017539      -0.00623299      -0.35853396
Si      -0.00425691       2.19921616      17.57692113  T        3       0.00313985       0.00169019      -0.00464043
Si       3.83386051       2.20005420      17.57387743  T        3       0.00347526       0.00271011       0.00525473
Si       7.67236675       2.19856563      17.57647899  T        3       0.00033430      -0.00031972      -0.00288517
Si       1.91515109       5.53617983      17.45633452  T        3      -0.00158811       0.00237716       0.00430640
Si       5.74779483       5.53150008      17.45393675  T        3       0.00923741       0.01294395       0.00359334
Si       9.59275201       5.53614920      17.45327354  T        3       0.00523230       0.01155750       0.00438952
Si      -0.00642534      -0.06756404      18.32098042  T        2       0.00151749       0.00439856      -0.00126916
Si       3.83051355      -0.06833876      18.29708236  T        2       0.00781631       0.00431322       0.03007840
Si       7.67175559      -0.06941575      18.31221096  T        2       0.00358579       0.00664691       0.01490641
Si       1.91545229       3.35914384      18.34180997  T        2      -0.00111936       0.00148194       0.00572285
Si       5.75277635       3.35703162      18.34721824  T        2       0.00426785       0.01020229      -0.00396261
Si       9.59254178       3.35701859      18.33195922  T        2       0.00267158       0.00579775      -0.00970690
Si      -0.00374603      -0.95048626      20.56755042  T        1      -0.00328990       0.00937679       0.00138857
Si       3.83615253      -0.93546235      20.53385467  T        1       0.00577818      -0.00629203       0.03457529
Si       7.66850892      -0.95486618      20.55246473  T        1      -0.00637815       0.01245414       0.00923639
Si       1.91471003       4.26988439      20.57382316  T        1      -0.00756370       0.01592330       0.00211944
Si       5.76495651       4.28140070      20.57806440  T        1      -0.00860498       0.00567579      -0.00387510
Si       9.58378645       4.26756414      20.54649010  T        1       0.00567722       0.00349335       0.00144274
F        9.45187365       5.86277769      23.10667215  T        0       0.00711773       0.01551644      -0.01307629
H        9.91074611       6.32126094      23.79995878  T        0       0.01315394       0.02892969       0.13747994
38
Lattice="11.518769465528859 0.0 0.0 3.839589821842953 6.650364651656328 0.0 0.0 0.0 32.62128289467409" Properties=species:S:1:pos:R:3:move_mask:L:1:tags:I:1:forces:R:3 surface=Si111 species=HF site=hollow orientation=parallel height_A=1.9 substrate_atoms=36 calculation_kind="Rigid evaluated approach scan; not NEB" energy=-184.99971412347543 pbc="T T F"
Si       1.91979491       1.10839411      12.00000000  F        6       0.00072709       0.00794433       0.15783228
Si       5.75938473       1.10839411      12.00000000  F        6       0.00016136       0.00782733       0.15788663
Si       9.59897455       1.10839411      12.00000000  F        6      -0.00004181       0.00843274       0.15784635
Si       3.83958982       4.43357643      12.00000000  F        6       0.00014193      -0.00705324       0.16353115
Si       7.67917964       4.43357643      12.00000000  F        6       0.00045623      -0.00684726       0.16278709
Si      11.51876947       4.43357643      12.00000000  F        6       0.00004591      -0.00713005       0.16302202
Si       1.91979491       1.10839411      14.35125897  F        5      -0.00129524      -0.02472477      -0.28852515
Si       5.75938473       1.10839411      14.35125897  F        5      -0.00076962      -0.02360331      -0.29233047
Si       9.59897455       1.10839411      14.35125897  F        5       0.00098683      -0.02710218      -0.28895218
Si       3.83958982       4.43357643      14.35125897  F        5      -0.00056897       0.01999971      -0.30306830
Si       7.67917964       4.43357643      14.35125897  F        5      -0.00195134       0.01956449      -0.29889175
Si      11.51876947       4.43357643      14.35125897  F        5       0.00080285       0.02084811      -0.29961081
Si      -0.00000000       2.21678822      15.13501196  F        4      -0.00202988      -0.04602688       0.54998186
Si       3.83958982       2.21678822      15.13501196  F        4      -0.00465896      -0.03072783       0.53275150
Si       7.67917964       2.21678822      15.13501196  F        4      -0.01442188      -0.04201430       0.54750222
Si       1.91979491       5.54197054      15.13501196  F        4      -0.00123920      -0.00083453      -0.32619875
Si       5.75938473       5.54197054      15.13501196  F        4      -0.02095386      -0.01118602      -0.35201377
Si       9.59897455       5.54197054      15.13501196  F        4       0.00017422      -0.00620066      -0.35847483
Si      -0.00425295       2.19921823      17.57691529  T        3       0.00311321       0.00170921      -0.00460419
Si       3.83386485       2.20005755      17.57388395  T        3       0.00346368       0.00272481       0.00526577
Si       7.67236713       2.19856510      17.57647532  T        3       0.00035570      -0.00025020      -0.00284358
Si       1.91514907       5.53618279      17.45633993  T        3      -0.00156415       0.00237512       0.00427401
Si       5.74780634       5.53151626      17.45394122  T        3       0.00922868       0.01290444       0.00359686
Si       9.59275858       5.53616365      17.45327899  T        3       0.00519958       0.01151723       0.00439848
Si      -0.00642346      -0.06755855      18.32097881  T        2       0.00151831       0.00439340      -0.00125555
Si       3.83052330      -0.06833342      18.29712000  T        2       0.00780148       0.00433089       0.02996064
Si       7.67176009      -0.06940748      18.31222971  T        2       0.00356876       0.00664896       0.01479883
Si       1.91545086       3.35914565      18.34181713  T        2      -0.00110071       0.00150060       0.00570123
Si       5.75278166       3.35704435      18.34721329  T        2       0.00426419       0.01018016      -0.00395364
Si       9.59254513       3.35702578      18.33194698  T        2       0.00266030       0.00580872      -0.00961325
Si      -0.00375012      -0.95047463      20.56755218  T        1      -0.00329077       0.00939320       0.00136882
Si       3.83615993      -0.93547023      20.53389801  T        1       0.00566740      -0.00626448       0.03440913
Si       7.66850094      -0.95485066      20.55247617  T        1      -0.00635343       0.01244558       0.00926543
Si       1.91470058       4.26990426      20.57382579  T        1      -0.00753891       0.01589178       0.00212588
Si       5.76494572       4.28140781      20.57805952  T        1      -0.00856133       0.00565015      -0.00384245
Si       9.58379349       4.26756870      20.54649212  T        1       0.00569022       0.00338625       0.00133274
F        9.45187100       5.86278543      23.10663816  T        0       0.01263539       0.02105673      -0.00457799
H        9.91077390       6.32130840      23.80014726  T        0       0.00767672       0.02343179       0.12911774
38
Lattice="11.518769465528859 0.0 0.0 3.839589821842953 6.650364651656328 0.0 0.0 0.0 32.62128289467409" Properties=species:S:1:pos:R:3:move_mask:L:1:tags:I:1:forces:R:3 surface=Si111 species=HF site=hollow orientation=parallel height_A=1.9 substrate_atoms=36 calculation_kind="Rigid evaluated approach scan; not NEB" energy=-184.9997514903745 pbc="T T F"
Si       1.91979491       1.10839411      12.00000000  F        6       0.00072617       0.00794397       0.15783333
Si       5.75938473       1.10839411      12.00000000  F        6       0.00016132       0.00782717       0.15788781
Si       9.59897455       1.10839411      12.00000000  F        6      -0.00004154       0.00843215       0.15784630
Si       3.83958982       4.43357643      12.00000000  F        6       0.00014150      -0.00705315       0.16353142
Si       7.67917964       4.43357643      12.00000000  F        6       0.00045651      -0.00684809       0.16278784
Si      11.51876947       4.43357643      12.00000000  F        6       0.00004558      -0.00713023       0.16302211
Si       1.91979491       1.10839411      14.35125897  F        5      -0.00129491      -0.02472340      -0.28853223
Si       5.75938473       1.10839411      14.35125897  F        5      -0.00076900      -0.02360279      -0.29233799
Si       9.59897455       1.10839411      14.35125897  F        5       0.00098648      -0.02709831      -0.28894882
Si       3.83958982       4.43357643      14.35125897  F        5      -0.00056813       0.01999896      -0.30305152
Si       7.67917964       4.43357643      14.35125897  F        5      -0.00195295       0.01956471      -0.29888477
Si      11.51876947       4.43357643      14.35125897  F        5       0.00080484       0.02084506      -0.29960857
Si      -0.00000000       2.21678822      15.13501196  F        4      -0.00201517      -0.04602385       0.54994013
Si       3.83958982       2.21678822      15.13501196  F        4      -0.00465899      -0.03073989       0.53279660
Si       7.67917964       2.21678822      15.13501196  F        4      -0.01442283      -0.04202751       0.54747572
Si       1.91979491       5.54197054      15.13501196  F        4      -0.00125167      -0.00083085      -0.32613268
Si       5.75938473       5.54197054      15.13501196  F        4      -0.02092023      -0.01115370      -0.35195413
Si       9.59897455       5.54197054      15.13501196  F        4       0.00017271      -0.00615955      -0.35839913
Si      -0.00424792       2.19922089      17.57690786  T        3       0.00307935       0.00173362      -0.00455785
Si       3.83387039       2.20006183      17.57389228  T        3       0.00344906       0.00274324       0.00528002
Si       7.67236763       2.19856449      17.57647068  T        3       0.00038296      -0.00016219      -0.00279078
Si       1.91514651       5.53618657      17.45634682  T        3      -0.00153382       0.00237260       0.00423294
Si       5.74782103       5.53153689      17.45394692  T        3       0.00921729       0.01285436       0.00360082
Si       9.59276694       5.53618208      17.45328594  T        3       0.00515817       0.01146634       0.00440808
Si      -0.00642105      -0.06755156      18.32097677  T        2       0.00151915       0.00438684      -0.00123869
Si       3.83053575      -0.06832660      18.29716798  T        2       0.00778252       0.00435353       0.02981263
Si       7.67176582      -0.06939692      18.31225355  T        2       0.00354797       0.00665181       0.01466242
Si       1.91544905       3.35914798      18.34182625  T        2      -0.00107700       0.00152452       0.00567383
Si       5.75278845       3.35706059      18.34720698  T        2       0.00425877       0.01015162      -0.00394231
Si       9.59254939       3.35703498      18.33193141  T        2       0.00264626       0.00582229      -0.00949362
Si      -0.00375535      -0.95045975      20.56755442  T        1      -0.00329211       0.00941382       0.00134394
Si       3.83616929      -0.93548027      20.53395321  T        1       0.00553106      -0.00622926       0.03420411
Si       7.66849076      -0.95483086      20.55249081  T        1      -0.00632291       0.01243511       0.00930274
Si       1.91468852       4.26992962      20.57382915  T        1      -0.00750690       0.01585143       0.00213428
Si       5.76493198       4.28141687      20.57805331  T        1      -0.00850608       0.00561824      -0.00380069
Si       9.58380249       4.26757442      20.54649460  T        1       0.00570494       0.00325630       0.00120526
F        9.45187287       5.86280060      23.10660284  T        0       0.01905583       0.02749822       0.00530759
H        9.91080418       6.32136379      23.80038003  T        0       0.00130580       0.01703688       0.11938387
38
Lattice="11.518769465528859 0.0 0.0 3.839589821842953 6.650364651656328 0.0 0.0 0.0 32.62128289467409" Properties=species:S:1:pos:R:3:move_mask:L:1:tags:I:1:forces:R:3 surface=Si111 species=HF site=hollow orientation=parallel height_A=1.9 substrate_atoms=36 calculation_kind="Rigid evaluated approach scan; not NEB" energy=-184.9997938938777 pbc="T T F"
Si       1.91979491       1.10839411      12.00000000  F        6       0.00072500       0.00794350       0.15783465
Si       5.75938473       1.10839411      12.00000000  F        6       0.00016127       0.00782696       0.15788930
Si       9.59897455       1.10839411      12.00000000  F        6      -0.00004121       0.00843140       0.15784622
Si       3.83958982       4.43357643      12.00000000  F        6       0.00014095      -0.00705303       0.16353175
Si       7.67917964       4.43357643      12.00000000  F        6       0.00045686      -0.00684913       0.16278879
Si      11.51876947       4.43357643      12.00000000  F        6       0.00004516      -0.00713047       0.16302221
Si       1.91979491       1.10839411      14.35125897  F        5      -0.00129450      -0.02472168      -0.28854119
Si       5.75938473       1.10839411      14.35125897  F        5      -0.00076820      -0.02360218      -0.29234749
Si       9.59897455       1.10839411      14.35125897  F        5       0.00098604      -0.02709341      -0.28894462
Si       3.83958982       4.43357643      14.35125897  F        5      -0.00056705       0.01999805      -0.30303028
Si       7.67917964       4.43357643      14.35125897  F        5      -0.00195490       0.01956503      -0.29887584
Si      11.51876947       4.43357643      14.35125897  F        5       0.00080728       0.02084123      -0.29960563
Si      -0.00000000       2.21678822      15.13501196  F        4      -0.00199660      -0.04601989       0.54988730
Si       3.83958982       2.21678822      15.13501196  F        4      -0.00465902      -0.03075511       0.53285401
Si       7.67917964       2.21678822      15.13501196  F        4      -0.01442395      -0.04204402       0.54744222
Si       1.91979491       5.54197054      15.13501196  F        4      -0.00126748      -0.00082617      -0.32604916
Si       5.75938473       5.54197054      15.13501196  F        4      -0.02087750      -0.01111273      -0.35187821
Si       9.59897455       5.54197054      15.13501196  F        4       0.00017074      -0.00610758      -0.35830270
Si      -0.00424157       2.19922429      17.57689847  T        3       0.00303659       0.00176479      -0.00449888
Si       3.83387742       2.20006730      17.57390289  T        3       0.00343076       0.00276617       0.00529831
Si       7.67236829       2.19856381      17.57646483  T        3       0.00041749      -0.00005157      -0.00272419
Si       1.91514329       5.53619137      17.45635554  T        3      -0.00149570       0.00236952       0.00418123
Si       5.74783969       5.53156305      17.45395418  T        3       0.00920244       0.01279128       0.00360508
Si       9.59277753       5.53620544      17.45329480  T        3       0.00510613       0.01140251       0.00441754
Si      -0.00641798      -0.06754267      18.32097420  T        2       0.00151988       0.00437856      -0.00121811
Si       3.83055154      -0.06831789      18.29722879  T        2       0.00775839       0.00438238       0.02962817
Si       7.67177307      -0.06938350      18.31228371  T        2       0.00352302       0.00665576       0.01449061
Si       1.91544678       3.35915097      18.34183782  T        2      -0.00104707       0.00155502       0.00563938
Si       5.75279707       3.35708121      18.34719897  T        2       0.00425076       0.01011495      -0.00392807
Si       9.59255479       3.35704668      18.33191177  T        2       0.00262895       0.00583886      -0.00934165
Si      -0.00376199      -0.95044082      20.56755723  T        1      -0.00329417       0.00943948       0.00131287
Si       3.83618102      -0.93549299      20.53402314  T        1       0.00536563      -0.00618448       0.03395445
Si       7.66847787      -0.95480570      20.55250945  T        1      -0.00628565       0.01242249       0.00935033
Si       1.91467324       4.26996179      20.57383343  T        1      -0.00746573       0.01580005       0.00214520
Si       5.76491458       4.28142834      20.57804547  T        1      -0.00843671       0.00557897      -0.00374756
Si       9.58381394       4.26758154      20.54649760  T        1       0.00572078       0.00310154       0.00106291
F        9.45188317       5.86282783      23.10657014  T        0       0.02627636       0.03473365       0.01641878
H        9.91083480       6.32142629      23.80066387  T        0      -0.00585504       0.00984928       0.10843226
38
Lattice="11.518769465528859 0.0 0.0 3.839589821842953 6.650364651656328 0.0 0.0 0.0 32.62128289467409" Properties=species:S:1:pos:R:3:move_mask:L:1:tags:I:1:forces:R:3 surface=Si111 species=HF site=hollow orientation=parallel height_A=1.9 substrate_atoms=36 calculation_kind="Rigid evaluated approach scan; not NEB" energy=-184.9998417425539 pbc="T T F"
Si       1.91979491       1.10839411      12.00000000  F        6       0.00072353       0.00794291       0.15783628
Si       5.75938473       1.10839411      12.00000000  F        6       0.00016120       0.00782669       0.15789115
Si       9.59897455       1.10839411      12.00000000  F        6      -0.00004080       0.00843046       0.15784613
Si       3.83958982       4.43357643      12.00000000  F        6       0.00014027      -0.00705289       0.16353214
Si       7.67917964       4.43357643      12.00000000  F        6       0.00045729      -0.00685045       0.16279000
Si      11.51876947       4.43357643      12.00000000  F        6       0.00004462      -0.00713076       0.16302234
Si       1.91979491       1.10839411      14.35125897  F        5      -0.00129400      -0.02471955      -0.28855246
Si       5.75938473       1.10839411      14.35125897  F        5      -0.00076716      -0.02360149      -0.29235941
Si       9.59897455       1.10839411      14.35125897  F        5       0.00098547      -0.02708726      -0.28893939
Si       3.83958982       4.43357643      14.35125897  F        5      -0.00056568       0.01999697      -0.30300356
Si       7.67917964       4.43357643      14.35125897  F        5      -0.00195723       0.01956552      -0.29886448
Si      11.51876947       4.43357643      14.35125897  F        5       0.00081023       0.02083646      -0.29960178
Si      -0.00000000       2.21678822      15.13501196  F        4      -0.00197334      -0.04601470       0.54982087
Si       3.83958982       2.21678822      15.13501196  F        4      -0.00465902      -0.03077420       0.53292671
Si       7.67917964       2.21678822      15.13501196  F        4      -0.01442525      -0.04206445       0.54740019
Si       1.91979491       5.54197054      15.13501196  F        4      -0.00128740      -0.00082026      -0.32594431
Si       5.75938473       5.54197054      15.13501196  F        4      -0.02082354      -0.01106110      -0.35178207
Si       9.59897455       5.54197054      15.13501196  F        4       0.00016819      -0.00604232      -0.35818050
Si      -0.00423360       2.19922864      17.57688669  T        3       0.00298300       0.00180437      -0.00442430
Si       3.83388627       2.20007424      17.57391632  T        3       0.00340806       0.00279439       0.00532161
Si       7.67236918       2.19856311      17.57645753  T        3       0.00046091       0.00008633      -0.00264090
Si       1.91513927       5.53619743      17.45636648  T        3      -0.00144818       0.00236583       0.00411663
Si       5.74786325       5.53159603      17.45396335  T        3       0.00918310       0.01271246       0.00360928
Si       9.59279083       5.53623488      17.45330601  T        3       0.00504124       0.01132310       0.00442550
Si      -0.00641411      -0.06753145      18.32097098  T        2       0.00152033       0.00436822      -0.00119333
Si       3.83057147      -0.06830685      18.29730538  T        2       0.00772785       0.00441893       0.02940044
Si       7.67178220      -0.06936652      18.31232158  T        2       0.00349364       0.00666122       0.01427594
Si       1.91544396       3.35915478      18.34185240  T        2      -0.00100959       0.00159371       0.00559640
Si       5.75280796       3.35710721      18.34718887  T        2       0.00423901       0.01006808      -0.00391028
Si       9.59256160       3.35706150      18.33188715  T        2       0.00260789       0.00585879      -0.00914982
Si      -0.00377039      -0.95041686      20.56756074  T        1      -0.00329722       0.00947104       0.00127446
Si       3.83619560      -0.93550900      20.53411114  T        1       0.00516822      -0.00612788       0.03365491
Si       7.66846162      -0.95477392      20.55253308  T        1      -0.00624073       0.01240751       0.00941047
Si       1.91465397       4.27000238      20.57383885  T        1      -0.00741300       0.01573498       0.00215933
Si       5.76489268       4.28144279      20.57803563  T        1      -0.00835041       0.00553122      -0.00368036
Si       9.58382845       4.26759031      20.54650116  T        1       0.00573651       0.00292124       0.00091179
F        9.45190776       5.86287386      23.10654664  T        0       0.03403806       0.04249685       0.02835049
H        9.91086201       6.32149374      23.80100505  T        0      -0.01354609       0.00213000       0.09665385
38
Lattice="11.518769465528859 0.0 0.0 3.839589821842953 6.650364651656328 0.0 0.0 0.0 32.62128289467409" Properties=species:S:1:pos:R:3:move_mask:L:1:tags:I:1:forces:R:3 surface=Si111 species=HF site=hollow orientation=parallel height_A=1.9 substrate_atoms=36 calculation_kind="Rigid evaluated approach scan; not NEB" energy=-184.9998962668507 pbc="T T F"
Si       1.91979491       1.10839411      12.00000000  F        6       0.00072170       0.00794216       0.15783830
Si       5.75938473       1.10839411      12.00000000  F        6       0.00016113       0.00782636       0.15789344
Si       9.59897455       1.10839411      12.00000000  F        6      -0.00004030       0.00842928       0.15784601
Si       3.83958982       4.43357643      12.00000000  F        6       0.00013943      -0.00705271       0.16353260
Si       7.67917964       4.43357643      12.00000000  F        6       0.00045782      -0.00685210       0.16279153
Si      11.51876947       4.43357643      12.00000000  F        6       0.00004395      -0.00713112       0.16302251
Si       1.91979491       1.10839411      14.35125897  F        5      -0.00129341      -0.02471696      -0.28856650
Si       5.75938473       1.10839411      14.35125897  F        5      -0.00076584      -0.02360074      -0.29237422
Si       9.59897455       1.10839411      14.35125897  F        5       0.00098477      -0.02707960      -0.28893296
Si       3.83958982       4.43357643      14.35125897  F        5      -0.00056396       0.01999572      -0.30297021
Si       7.67917964       4.43357643      14.35125897  F        5      -0.00195996       0.01956626      -0.29885014
Si      11.51876947       4.43357643      14.35125897  F        5       0.00081374       0.02083056      -0.29959676
Si      -0.00000000       2.21678822      15.13501196  F        4      -0.00194444      -0.04600794       0.54973810
Si       3.83958982       2.21678822      15.13501196  F        4      -0.00465897      -0.03079790       0.53301814
Si       7.67917964       2.21678822      15.13501196  F        4      -0.01442667      -0.04208942       0.54734797
Si       1.91979491       5.54197054      15.13501196  F        4      -0.00131227      -0.00081284      -0.32581385
Si       5.75938473       5.54197054      15.13501196  F        4      -0.02075591      -0.01099655      -0.35166120
Si       9.59897455       5.54197054      15.13501196  F        4       0.00016487      -0.00596107      -0.35802677
Si      -0.00422369       2.19923416      17.57687203  T        3       0.00291645       0.00185425      -0.00433071
Si       3.83389734       2.20008300      17.57393321  T        3       0.00338021       0.00282873       0.00535097
Si       7.67237037       2.19856247      17.57644853  T        3       0.00051502       0.00025647      -0.00253776
Si       1.91513432       5.53620504      17.45638009  T        3      -0.00138951       0.00236153       0.00403671
Si       5.74789278       5.53163726      17.45397487  T        3       0.00915801       0.01261491       0.00361287
Si       9.59280740       5.53627167      17.45332010  T        3       0.00496115       0.01122527       0.00442991
Si      -0.00640925      -0.06751739      18.32096699  T        2       0.00152027       0.00435544      -0.00116404
Si       3.83059642      -0.06829294      18.29740106  T        2       0.00768942       0.00446481       0.02912240
Si       7.67179359      -0.06934522      18.31236873  T        2       0.00345982       0.00666865       0.01401038
Si       1.91544048       3.35915963      18.34187060  T        2      -0.00096315       0.00164242       0.00554334
Si       5.75282159       3.35713976      18.34717623  T        2       0.00422199       0.01000859      -0.00388815
Si       9.59257009       3.35708012      18.33185659  T        2       0.00258268       0.00588233      -0.00890978
Si      -0.00378093      -0.95038674      20.56756508  T        1      -0.00330159       0.00950930       0.00122754
Si       3.83621354      -0.93552900      20.53422101  T        1       0.00493721      -0.00605698       0.03330162
Si       7.66844132      -0.95473408      20.55256282  T        1      -0.00618737       0.01239008       0.00948550
Si       1.91462989       4.27005320      20.57384568  T        1      -0.00734588       0.01565322       0.00217750
Si       5.76486537       4.28146083      20.57802341  T        1      -0.00824427       0.00547397      -0.00359608
Si       9.58384668       4.26760097      20.54650530  T        1       0.00575006       0.00271671       0.00076267
F        9.45195482       5.86294787      23.10654211  T        0       0.04187907       0.05031541       0.04038071
H        9.91088007       6.32156224      23.80140851  T        0      -0.02130526      -0.00565648       0.08474843
38
Lattice="11.518769465528859 0.0 0.0 3.839589821842953 6.650364651656328 0.0 0.0 0.0 32.62128289467409" Properties=species:S:1:pos:R:3:move_mask:L:1:tags:I:1:forces:R:3 surface=Si111 species=HF site=hollow orientation=parallel height_A=1.9 substrate_atoms=36 calculation_kind="Rigid evaluated approach scan; not NEB" energy=-184.99996013894003 pbc="T T F"
Si       1.91979491       1.10839411      12.00000000  F        6       0.00071943       0.00794123       0.15784077
Si       5.75938473       1.10839411      12.00000000  F        6       0.00016104       0.00782594       0.15789625
Si       9.59897455       1.10839411      12.00000000  F        6      -0.00003969       0.00842783       0.15784585
Si       3.83958982       4.43357643      12.00000000  F        6       0.00013841      -0.00705250       0.16353310
Si       7.67917964       4.43357643      12.00000000  F        6       0.00045847      -0.00685416       0.16279344
Si      11.51876947       4.43357643      12.00000000  F        6       0.00004311      -0.00713156       0.16302271
Si       1.91979491       1.10839411      14.35125897  F        5      -0.00129272      -0.02471382      -0.28858381
Si       5.75938473       1.10839411      14.35125897  F        5      -0.00076416      -0.02359996      -0.29239242
Si       9.59897455       1.10839411      14.35125897  F        5       0.00098389      -0.02707019      -0.28892513
Si       3.83958982       4.43357643      14.35125897  F        5      -0.00056182       0.01999431      -0.30292903
Si       7.67917964       4.43357643      14.35125897  F        5      -0.00196309       0.01956733      -0.29883223
Si      11.51876947       4.43357643      14.35125897  F        5       0.00081786       0.02082335      -0.29959028
Si      -0.00000000       2.21678822      15.13501196  F        4      -0.00190897      -0.04599916       0.54963607
Si       3.83958982       2.21678822      15.13501196  F        4      -0.00465885      -0.03082702       0.53313217
Si       7.67917964       2.21678822      15.13501196  F        4      -0.01442815      -0.04211951       0.54728390
Si       1.91979491       5.54197054      15.13501196  F        4      -0.00134299      -0.00080364      -0.32565330
Si       5.75938473       5.54197054      15.13501196  F        4      -0.02067197      -0.01091666      -0.35151061
Si       9.59897455       5.54197054      15.13501196  F        4       0.00016057      -0.00586099      -0.35783514
Si      -0.00421151       2.19924113      17.57685401  T        3       0.00283482       0.00191647      -0.00421450
Si       3.83391104       2.20009396      17.57395428  T        3       0.00334647       0.00286997       0.00538734
Si       7.67237197       2.19856203      17.57643754  T        3       0.00058170       0.00046375      -0.00241167
Si       1.91512829       5.53621448      17.45639684  T        3      -0.00131794       0.00235670       0.00393904
Si       5.74792945       5.53168832      17.45398921  T        3       0.00912562       0.01249557       0.00361503
Si       9.59282784       5.53631721      17.45333764  T        3       0.00486345       0.01110616       0.00442799
Si      -0.00640320      -0.06749994      18.32096209  T        2       0.00151937       0.00433986      -0.00113017
Si       3.83062735      -0.06827554      18.29751943  T        2       0.00764144       0.00452172       0.02878716
Si       7.67180769      -0.06931873      18.31242677  T        2       0.00342190       0.00667857       0.01368586
Si       1.91543625       3.35916577      18.34189313  T        2      -0.00090639       0.00170314       0.00547863
Si       5.75283852       3.35718010      18.34716056  T        2       0.00419783       0.00993385      -0.00386072
Si       9.59258060       3.35710333      18.33181910  T        2       0.00255305       0.00590958      -0.00861273
Si      -0.00379405      -0.95034921      20.56757038  T        1      -0.00330757       0.00955487       0.00117103
Si       3.83623531      -0.93555371      20.53435682  T        1       0.00467280      -0.00596912       0.03289254
Si       7.66841621      -0.95468459      20.55259996  T        1      -0.00612492       0.01237016       0.00957751
Si       1.91460009       4.27011621      20.57385420  T        1      -0.00726123       0.01555154       0.00220063
Si       5.76483163       4.28148314      20.57800838  T        1      -0.00811561       0.00540635      -0.00349153
Si       9.58386940       4.26761373      20.54651003  T        1       0.00575841       0.00249175       0.00063145
F        9.45203492       5.86306147      23.10656966  T        0       0.04912262       0.05749854       0.05145043
H        9.91088113       6.32162592      23.80187740  T        0      -0.02845618      -0.01283023       0.07374436
38
Lattice="11.518769465528859 0.0 0.0 3.839589821842953 6.650364651656328 0.0 0.0 0.0 32.62128289467409" Properties=species:S:1:pos:R:3:move_mask:L:1:tags:I:1:forces:R:3 surface=Si111 species=HF site=hollow orientation=parallel height_A=1.9 substrate_atoms=36 calculation_kind="Rigid evaluated approach scan; not NEB" energy=-185.00003788442226 pbc="T T F"
Si       1.91979491       1.10839411      12.00000000  F        6       0.00071666       0.00794006       0.15784373
Si       5.75938473       1.10839411      12.00000000  F        6       0.00016095       0.00782541       0.15789964
Si       9.59897455       1.10839411      12.00000000  F        6      -0.00003898       0.00842605       0.15784565
Si       3.83958982       4.43357643      12.00000000  F        6       0.00013719      -0.00705226       0.16353366
Si       7.67917964       4.43357643      12.00000000  F        6       0.00045924      -0.00685668       0.16279580
Si      11.51876947       4.43357643      12.00000000  F        6       0.00004208      -0.00713210       0.16302297
Si       1.91979491       1.10839411      14.35125897  F        5      -0.00129194      -0.02471009      -0.28860489
Si       5.75938473       1.10839411      14.35125897  F        5      -0.00076207      -0.02359920      -0.29241448
Si       9.59897455       1.10839411      14.35125897  F        5       0.00098282      -0.02705874      -0.28891569
Si       3.83958982       4.43357643      14.35125897  F        5      -0.00055919       0.01999279      -0.30287870
Si       7.67917964       4.43357643      14.35125897  F        5      -0.00196660       0.01956886      -0.29881016
Si      11.51876947       4.43357643      14.35125897  F        5       0.00082260       0.02081466      -0.29958200
Si      -0.00000000       2.21678822      15.13501196  F        4      -0.00186593      -0.04598785       0.54951182
Si       3.83958982       2.21678822      15.13501196  F        4      -0.00465862      -0.03086237       0.53327315
Si       7.67917964       2.21678822      15.13501196  F        4      -0.01442953      -0.04215519       0.54720637
Si       1.91979491       5.54197054      15.13501196  F        4      -0.00138049      -0.00079234      -0.32545804
Si       5.75938473       5.54197054      15.13501196  F        4      -0.02056883      -0.01081878      -0.35132481
Si       9.59897455       5.54197054      15.13501196  F        4       0.00015504      -0.00573904      -0.35759864
Si      -0.00419673       2.19924987      17.57683210  T        3       0.00273597       0.00199318      -0.00407181
Si       3.83392782       2.20010757      17.57398031  T        3       0.00330615       0.00291883       0.00543144
Si       7.67237410       2.19856203      17.57642434  T        3       0.00066283       0.00071292      -0.00225968
Si       1.91512104       5.53622609      17.45641722  T        3      -0.00123172       0.00235153       0.00382116
Si       5.74797453       5.53175090      17.45400688  T        3       0.00908412       0.01235136       0.00361469
Si       9.59285276       5.53637297      17.45335926  T        3       0.00474575       0.01096285       0.00441637
Si      -0.00639576      -0.06747849      18.32095615  T        2       0.00151733       0.00432118      -0.00109186
Si       3.83066533      -0.06825398      18.29766433  T        2       0.00758202       0.00459131       0.02838795
Si       7.67182493      -0.06928607      18.31249743  T        2       0.00338048       0.00669145       0.01329449
Si       1.91543118       3.35917347      18.34192070  T        2      -0.00083806       0.00177803       0.00540077
Si       5.75285932       3.35722960      18.34714133  T        2       0.00416434       0.00984111      -0.00382671
Si       9.59259346       3.35713199      18.33177368  T        2       0.00251891       0.00594046      -0.00824966
Si      -0.00381022      -0.95030287      20.56757675  T        1      -0.00331533       0.00960806       0.00110403
Si       3.83626138      -0.93558392      20.53452292  T        1       0.00437702      -0.00586159       0.03242708
Si       7.66838545      -0.95462369      20.55264593  T        1      -0.00605290       0.01234772       0.00968812
Si       1.91456360       4.27019355      20.57386475  T        1      -0.00715561       0.01542651       0.00222966
Si       5.76479042       4.28151042      20.57799015  T        1      -0.00796216       0.00532765      -0.00336341
Si       9.58389742       4.26762879      20.54651533  T        1       0.00575759       0.00225255       0.00053851
F        9.45216071       5.86322850      23.10664527  T        0       0.05491682       0.06317729       0.06022297
H        9.91085555       6.32167737      23.80241365  T        0      -0.03414795      -0.01853558       0.06494052
38
Lattice="11.518769465528859 0.0 0.0 3.839589821842953 6.650364651656328 0.0 0.0 0.0 32.62128289467409" Properties=species:S:1:pos:R:3:move_mask:L:1:tags:I:1:forces:R:3 surface=Si111 species=HF site=hollow orientation=parallel height_A=1.9 substrate_atoms=36 calculation_kind="Rigid evaluated approach scan; not NEB" energy=-185.00013565853735 pbc="T T F"
Si       1.91979491       1.10839411      12.00000000  F        6       0.00071331       0.00793863       0.15784727
Si       5.75938473       1.10839411      12.00000000  F        6       0.00016085       0.00782477       0.15790369
Si       9.59897455       1.10839411      12.00000000  F        6      -0.00003813       0.00842388       0.15784540
Si       3.83958982       4.43357643      12.00000000  F        6       0.00013573      -0.00705200       0.16353426
Si       7.67917964       4.43357643      12.00000000  F        6       0.00046016      -0.00685975       0.16279870
Si      11.51876947       4.43357643      12.00000000  F        6       0.00004081      -0.00713274       0.16302329
Si       1.91979491       1.10839411      14.35125897  F        5      -0.00129108      -0.02470571      -0.28863029
Si       5.75938473       1.10839411      14.35125897  F        5      -0.00075946      -0.02359854      -0.29244092
Si       9.59897455       1.10839411      14.35125897  F        5       0.00098154      -0.02704497      -0.28890442
Si       3.83958982       4.43357643      14.35125897  F        5      -0.00055601       0.01999122      -0.30281778
Si       7.67917964       4.43357643      14.35125897  F        5      -0.00197046       0.01957103      -0.29878326
Si      11.51876947       4.43357643      14.35125897  F        5       0.00082801       0.02080427      -0.29957155
Si      -0.00000000       2.21678822      15.13501196  F        4      -0.00181428      -0.04597335       0.54936216
Si       3.83958982       2.21678822      15.13501196  F        4      -0.00465824      -0.03090487       0.53344626
Si       7.67917964       2.21678822      15.13501196  F        4      -0.01443058      -0.04219687       0.54711383
Si       1.91979491       5.54197054      15.13501196  F        4      -0.00142574      -0.00077859      -0.32522305
Si       5.75938473       5.54197054      15.13501196  F        4      -0.02044323      -0.01069992      -0.35109742
Si       9.59897455       5.54197054      15.13501196  F        4       0.00014790      -0.00559187      -0.35730927
Si      -0.00417896       2.19926078      17.57680577  T        3       0.00261773       0.00208674      -0.00389845
Si       3.83394820       2.20012436      17.57401225  T        3       0.00325851       0.00297612       0.00548355
Si       7.67237696       2.19856282      17.57640869  T        3       0.00076038       0.00100872      -0.00207892
Si       1.91511245       5.53624027      17.45644176  T        3      -0.00112899       0.00234639       0.00368055
Si       5.74802949       5.53182691      17.45402848  T        3       0.00903126       0.01217897       0.00361047
Si       9.59288284       5.53644067      17.45338569  T        3       0.00460549       0.01079214       0.00439117
Si      -0.00638666      -0.06745234      18.32094902  T        2       0.00151386       0.00429918      -0.00104953
Si       3.83071157      -0.06822741      18.29784010  T        2       0.00750885       0.00467514       0.02791724
Si       7.67184585      -0.06924613      18.31258253  T        2       0.00333632       0.00670764       0.01282828
Si       1.91542521       3.35918312      18.34195415  T        2      -0.00075708       0.00186948       0.00530825
Si       5.75288465       3.35728980      18.34711794  T        2       0.00411908       0.00972745      -0.00378429
Si       9.59260906       3.35716711      18.33171929  T        2       0.00248037       0.00597478      -0.00781113
Si      -0.00382999      -0.95024607      20.56758432  T        1      -0.00332467       0.00966880       0.00102572
Si       3.83629221      -0.93562051      20.53472431  T        1       0.00405311      -0.00573147       0.03190452
Si       7.66834810      -0.95454935      20.55270245  T        1      -0.00597083       0.01232259       0.00981828
Si       1.91451933       4.27028768      20.57387773  T        1      -0.00702516       0.01527441       0.00226559
Si       5.76474054       4.28154351      20.57796825  T        1      -0.00778211       0.00523710      -0.00320827
Si       9.58393171       4.26764628      20.54652122  T        1       0.00574274       0.00200697       0.00050736
F        9.45234664       5.86346465      23.10678698  T        0       0.05831788       0.06638828       0.06521005
H        9.91079245       6.32170829      23.80302002  T        0      -0.03743784      -0.02182408       0.05978267
38
Lattice="11.518769465528859 0.0 0.0 3.839589821842953 6.650364651656328 0.0 0.0 0.0 32.62128289467409" Properties=species:S:1:pos:R:3:move_mask:L:1:tags:I:1:forces:R:3 surface=Si111 species=HF site=hollow orientation=parallel height_A=1.9 substrate_atoms=36 calculation_kind="Rigid evaluated approach scan; not NEB" energy=-185.00026006839158 pbc="T T F"
Si       1.91979491       1.10839411      12.00000000  F        6       0.00070928       0.00793688       0.15785146
Si       5.75938473       1.10839411      12.00000000  F        6       0.00016074       0.00782398       0.15790853
Si       9.59897455       1.10839411      12.00000000  F        6      -0.00003716       0.00842126       0.15784510
Si       3.83958982       4.43357643      12.00000000  F        6       0.00013401      -0.00705171       0.16353490
Si       7.67917964       4.43357643      12.00000000  F        6       0.00046122      -0.00686348       0.16280226
Si      11.51876947       4.43357643      12.00000000  F        6       0.00003927      -0.00713349       0.16302372
Si       1.91979491       1.10839411      14.35125897  F        5      -0.00129016      -0.02470061      -0.28866062
Si       5.75938473       1.10839411      14.35125897  F        5      -0.00075625      -0.02359805      -0.29247232
Si       9.59897455       1.10839411      14.35125897  F        5       0.00098003      -0.02702852      -0.28889099
Si       3.83958982       4.43357643      14.35125897  F        5      -0.00055221       0.01998972      -0.30274447
Si       7.67917964       4.43357643      14.35125897  F        5      -0.00197463       0.01957403      -0.29875087
Si      11.51876947       4.43357643      14.35125897  F        5       0.00083417       0.02079193      -0.29955849
Si      -0.00000000       2.21678822      15.13501196  F        4      -0.00175279      -0.04595480       0.54918348
Si       3.83958982       2.21678822      15.13501196  F        4      -0.00465764      -0.03095556       0.53365807
Si       7.67917964       2.21678822      15.13501196  F        4      -0.01443092      -0.04224485       0.54700476
Si       1.91979491       5.54197054      15.13501196  F        4      -0.00147987      -0.00076199      -0.32494250
Si       5.75938473       5.54197054      15.13501196  F        4      -0.02029116      -0.01055641      -0.35082060
Si       9.59897455       5.54197054      15.13501196  F        4       0.00013867      -0.00541539      -0.35695730
Si      -0.00415781       2.19927439      17.57677438  T        3       0.00247775       0.00219981      -0.00368959
Si       3.83397280       2.20014501      17.57405131  T        3       0.00320272       0.00304288       0.00554317
Si       7.67238080       2.19856492      17.57639034  T        3       0.00087653       0.00135632      -0.00186656
Si       1.91510241       5.53625748      17.45647107  T        3      -0.00100759       0.00234192       0.00351436
Si       5.74809616       5.53191871      17.45405477  T        3       0.00896413       0.01197459       0.00360069
Si       9.59291889       5.53652236      17.45341782  T        3       0.00443975       0.01059013       0.00434834
Si      -0.00637559      -0.06742061      18.32094054  T        2       0.00150882       0.00427368      -0.00100376
Si       3.83076753      -0.06819479      18.29805207  T        2       0.00741892       0.00477466       0.02736541
Si       7.67187110      -0.06919750      18.31268427  T        2       0.00329005       0.00672716       0.01227863
Si       1.91541826       3.35919519      18.34199448  T        2      -0.00066259       0.00198027       0.00519947
Si       5.75291532       3.35736262      18.34708964  T        2       0.00405942       0.00958976      -0.00373066
Si       9.59262787       3.35720998      18.33165479  T        2       0.00243766       0.00601229      -0.00728684
Si      -0.00385408      -0.95017673      20.56759322  T        1      -0.00333484       0.00973654       0.00093532
Si       3.83632828      -0.93566452      20.53496705  T        1       0.00370446      -0.00557549       0.03132133
Si       7.66830301      -0.95445904      20.55277171  T        1      -0.00587803       0.01229420       0.00996816
Si       1.91446594       4.27040161      20.57389365  T        1      -0.00686545       0.01509097       0.00230941
Si       5.76468058       4.28158338      20.57794220  T        1      -0.00757416       0.00513353      -0.00302235
Si       9.58397345       4.26766637      20.54652775  T        1       0.00570829       0.00176335       0.00056239
F        9.45260844       5.86378713      23.10701363  T        0       0.05841818       0.06620282       0.06496748
H        9.91068056       6.32171066      23.80370355  T        0      -0.03741863      -0.02178234       0.05967148
38
Lattice="11.518769465528859 0.0 0.0 3.839589821842953 6.650364651656328 0.0 0.0 0.0 32.62128289467409" Properties=species:S:1:pos:R:3:move_mask:L:1:tags:I:1:forces:R:3 surface=Si111 species=HF site=hollow orientation=parallel height_A=1.9 substrate_atoms=36 calculation_kind="Rigid evaluated approach scan; not NEB" energy=-185.0004161616036 pbc="T T F"
Si       1.91979491       1.10839411      12.00000000  F        6       0.00070444       0.00793475       0.15785643
Si       5.75938473       1.10839411      12.00000000  F        6       0.00016065       0.00782303       0.15791429
Si       9.59897455       1.10839411      12.00000000  F        6      -0.00003604       0.00841810       0.15784472
Si       3.83958982       4.43357643      12.00000000  F        6       0.00013200      -0.00705141       0.16353557
Si       7.67917964       4.43357643      12.00000000  F        6       0.00046244      -0.00686800       0.16280660
Si      11.51876947       4.43357643      12.00000000  F        6       0.00003742      -0.00713438       0.16302428
Si       1.91979491       1.10839411      14.35125897  F        5      -0.00128920      -0.02469472      -0.28869662
Si       5.75938473       1.10839411      14.35125897  F        5      -0.00075233      -0.02359784      -0.29250932
Si       9.59897455       1.10839411      14.35125897  F        5       0.00097828      -0.02700898      -0.28887497
Si       3.83958982       4.43357643      14.35125897  F        5      -0.00054773       0.01998845      -0.30265654
Si       7.67917964       4.43357643      14.35125897  F        5      -0.00197907       0.01957814      -0.29871224
Si      11.51876947       4.43357643      14.35125897  F        5       0.00084121       0.02077731      -0.29954232
Si      -0.00000000       2.21678822      15.13501196  F        4      -0.00168000      -0.04593104       0.54897153
Si       3.83958982       2.21678822      15.13501196  F        4      -0.00465675      -0.03101578       0.53391740
Si       7.67917964       2.21678822      15.13501196  F        4      -0.01442998      -0.04229937       0.54687770
Si       1.91979491       5.54197054      15.13501196  F        4      -0.00154416      -0.00074202      -0.32460930
Si       5.75938473       5.54197054      15.13501196  F        4      -0.02010754      -0.01038353      -0.35048419
Si       9.59897455       5.54197054      15.13501196  F        4       0.00012665      -0.00520446      -0.35653029
Si      -0.00413277       2.19929147      17.57673720  T        3       0.00231344       0.00233546      -0.00343949
Si       3.83400244       2.20017045      17.57409907  T        3       0.00313769       0.00312058       0.00560844
Si       7.67238602       2.19856916      17.57636907  T        3       0.00101370       0.00176151      -0.00161975
Si       1.91509078       5.53627838      17.45650589  T        3      -0.00086485       0.00233914       0.00331920
Si       5.74817692       5.53202932      17.45408671  T        3       0.00887886       0.01173349       0.00358335
Si       9.59296191       5.53662068      17.45345677  T        3       0.00424490       0.01035178       0.00428406
Si      -0.00636216      -0.06738217      18.32093048  T        2       0.00150235       0.00424469      -0.00095528
Si       3.83083515      -0.06815465      18.29830702  T        2       0.00730815       0.00489094       0.02671886
Si       7.67190152      -0.06913829      18.31280528  T        2       0.00324183       0.00674947       0.01163596
Si       1.91541027       3.35921037      18.34204298  T        2      -0.00055406       0.00211382       0.00507261
Si       5.75295236       3.35745049      18.34705549  T        2       0.00398269       0.00942479      -0.00366134
Si       9.59265052       3.35726230      18.33157884  T        2       0.00239122       0.00605283      -0.00666532
Si      -0.00388340      -0.95009210      20.56760358  T        1      -0.00334398       0.00981003       0.00083205
Si       3.83637016      -0.93571729      20.53525899  T        1       0.00333317      -0.00538989       0.03066721
Si       7.66824869      -0.95434941      20.55285663  T        1      -0.00577338       0.01226113       0.01013668
Si       1.91440178       4.27053924      20.57391320  T        1      -0.00667128       0.01487121       0.00236207
Si       5.76460873       4.28163131      20.57791140  T        1      -0.00733775       0.00501494      -0.00280153
Si       9.58402416       4.26768923      20.54653517  T        1       0.00564820       0.00152874       0.00072504
F        9.45296209       5.86421370      23.10734246  T        0       0.05456505       0.06194776       0.05843320
H        9.91050980       6.32167873      23.80448070  T        0      -0.03343625      -0.01775065       0.06563124
38
Lattice="11.518769465528859 0.0 0.0 3.839589821842953 6.650364651656328 0.0 0.0 0.0 32.62128289467409" Properties=species:S:1:pos:R:3:move_mask:L:1:tags:I:1:forces:R:3 surface=Si111 species=HF site=hollow orientation=parallel height_A=1.9 substrate_atoms=36 calculation_kind="Rigid evaluated approach scan; not NEB" energy=-185.00060571057358 pbc="T T F"
Si       1.91979491       1.10839411      12.00000000  F        6       0.00069861       0.00793216       0.15786235
Si       5.75938473       1.10839411      12.00000000  F        6       0.00016057       0.00782186       0.15792116
Si       9.59897455       1.10839411      12.00000000  F        6      -0.00003476       0.00841425       0.15784426
Si       3.83958982       4.43357643      12.00000000  F        6       0.00012965      -0.00705114       0.16353630
Si       7.67917964       4.43357643      12.00000000  F        6       0.00046383      -0.00687351       0.16281193
Si      11.51876947       4.43357643      12.00000000  F        6       0.00003518      -0.00713544       0.16302508
Si       1.91979491       1.10839411      14.35125897  F        5      -0.00128824      -0.02468792      -0.28873914
Si       5.75938473       1.10839411      14.35125897  F        5      -0.00074755      -0.02359802      -0.29255263
Si       9.59897455       1.10839411      14.35125897  F        5       0.00097629      -0.02698583      -0.28885570
Si       3.83958982       4.43357643      14.35125897  F        5      -0.00054254       0.01998766      -0.30255107
Si       7.67917964       4.43357643      14.35125897  F        5      -0.00198381       0.01958372      -0.29866668
Si      11.51876947       4.43357643      14.35125897  F        5       0.00084941       0.02075999      -0.29952248
Si      -0.00000000       2.21678822      15.13501196  F        4      -0.00159410      -0.04590043       0.54872136
Si       3.83958982       2.21678822      15.13501196  F        4      -0.00465548      -0.03108718       0.53423625
Si       7.67917964       2.21678822      15.13501196  F        4      -0.01442683      -0.04236042       0.54673154
Si       1.91979491       5.54197054      15.13501196  F        4      -0.00162008      -0.00071805      -0.32421481
Si       5.75938473       5.54197054      15.13501196  F        4      -0.01988575      -0.01017513      -0.35007487
Si       9.59897455       5.54197054      15.13501196  F        4       0.00011080      -0.00495241      -0.35601225
Si      -0.00410324       2.19931307      17.57669335  T        3       0.00212205       0.00249717      -0.00314142
Si       3.83403816       2.20020193      17.57415771  T        3       0.00306202       0.00321141       0.00567503
Si       7.67239321       2.19857681      17.57634465  T        3       0.00117453       0.00223071      -0.00133601
Si       1.91507748       5.53630381      17.45654715  T        3      -0.00069744       0.00233977       0.00309109
Si       5.74827489       5.53216269      17.45412560  T        3       0.00877023       0.01144982       0.00355609
Si       9.59301316       5.53673907      17.45350403  T        3       0.00401644       0.01007032       0.00419570
Si      -0.00634582      -0.06733550      18.32091856  T        2       0.00149523       0.00421249      -0.00090496
Si       3.83091694      -0.06810504      18.29861379  T        2       0.00717088       0.00502422       0.02595778
Si       7.67193822      -0.06906600      18.31294887  T        2       0.00319072       0.00677288       0.01088988
Si       1.91540120       3.35922965      18.34210131  T        2      -0.00043173       0.00227419       0.00492573
Si       5.75299713       3.35755665      18.34701423  T        2       0.00388657       0.00922944      -0.00356923
Si       9.59267780       3.35732636      18.33148996  T        2       0.00234169       0.00609645      -0.00593430
Si      -0.00391921      -0.94998844      20.56761557  T        1      -0.00334837       0.00988683       0.00071517
Si       3.83641851      -0.93578052      20.53561040  T        1       0.00293784      -0.00517042       0.02991914
Si       7.66818318      -0.95421601      20.55296120  T        1      -0.00565485       0.01222045       0.01032035
Si       1.91432467       4.27070572      20.57393732  T        1      -0.00643669       0.01460936       0.00242427
Si       5.76452264       4.28168897      20.57787517  T        1      -0.00707373       0.00487790      -0.00254142
Si       9.58408582       4.26771505      20.54654399  T        1       0.00555659       0.00130601       0.00100672
F        9.45342148       5.86476031      23.10778449  T        0       0.04675232       0.05360166       0.04553900
H        9.91027428       6.32161245      23.80538521  T        0      -0.02547950      -0.00971485       0.07771083
38
Lattice="11.518769465528859 0.0 0.0 3.839589821842953 6.650364651656328 0.0 0.0 0.0 32.62128289467409" Properties=species:S:1:pos:R:3:move_mask:L:1:tags:I:1:forces:R:3 surface=Si111 species=HF site=hollow orientation=parallel height_A=1.9 substrate_atoms=36 calculation_kind="Rigid evaluated approach scan; not NEB" energy=-185.0008284121573 pbc="T T F"
Si       1.91979491       1.10839411      12.00000000  F        6       0.00069159       0.00792902       0.15786941
Si       5.75938473       1.10839411      12.00000000  F        6       0.00016053       0.00782045       0.15792941
Si       9.59897455       1.10839411      12.00000000  F        6      -0.00003331       0.00840955       0.15784371
Si       3.83958982       4.43357643      12.00000000  F        6       0.00012690      -0.00705095       0.16353712
Si       7.67917964       4.43357643      12.00000000  F        6       0.00046537      -0.00688023       0.16281848
Si      11.51876947       4.43357643      12.00000000  F        6       0.00003248      -0.00713668       0.16302622
Si       1.91979491       1.10839411      14.35125897  F        5      -0.00128735      -0.02468011      -0.28878910
Si       5.75938473       1.10839411      14.35125897  F        5      -0.00074177      -0.02359873      -0.29260294
Si       9.59897455       1.10839411      14.35125897  F        5       0.00097411      -0.02695847      -0.28883227
Si       3.83958982       4.43357643      14.35125897  F        5      -0.00053664       0.01998774      -0.30242443
Si       7.67917964       4.43357643      14.35125897  F        5      -0.00198889       0.01959125      -0.29861367
Si      11.51876947       4.43357643      14.35125897  F        5       0.00085925       0.02073941      -0.29949839
Si      -0.00000000       2.21678822      15.13501196  F        4      -0.00149305      -0.04586075       0.54842782
Si       3.83958982       2.21678822      15.13501196  F        4      -0.00465369      -0.03117170       0.53463052
Si       7.67917964       2.21678822      15.13501196  F        4      -0.01442001      -0.04242752       0.54656615
Si       1.91979491       5.54197054      15.13501196  F        4      -0.00170915      -0.00068932      -0.32374915
Si       5.75938473       5.54197054      15.13501196  F        4      -0.01961757      -0.00992344      -0.34957578
Si       9.59897455       5.54197054      15.13501196  F        4       0.00008963      -0.00465099      -0.35538329
Si      -0.00406856       2.19934071      17.57664188  T        3       0.00190121       0.00268840      -0.00278820
Si       3.83408129       2.20024118      17.57423008  T        3       0.00297391       0.00331853       0.00573456
Si       7.67240323       2.19858983      17.57631698  T        3       0.00136140       0.00276984      -0.00101427
Si       1.91506247       5.53633490      17.45659591  T        3      -0.00050150       0.00234655       0.00282576
Si       5.74839409       5.53232378      17.45417310  T        3       0.00863126       0.01111670       0.00351629
Si       9.59307415       5.53688186      17.45356145  T        3       0.00374920       0.00973718       0.00408350
Si      -0.00632585      -0.06727863      18.32090445  T        2       0.00148922       0.00417791      -0.00085381
Si       3.83101610      -0.06804328      18.29898343  T        2       0.00699949       0.00517294       0.02505429
Si       7.67198265      -0.06897732      18.31311885  T        2       0.00313386       0.00679381       0.01003093
Si       1.91539108       3.35925443      18.34217158  T        2      -0.00029727       0.00246596       0.00475699
Si       5.75305131       3.35768516      18.34696433  T        2       0.00376984       0.00900157      -0.00344348
Si       9.59271075       3.35740517      18.33138668  T        2       0.00229001       0.00614359      -0.00508269
Si      -0.00396312      -0.94986086      20.56762929  T        1      -0.00334132       0.00996251       0.00058420
Si       3.83647400      -0.93585627      20.53603428  T        1       0.00251098      -0.00491284       0.02903410
Si       7.66810397      -0.95405302      20.55309074  T        1      -0.00551879       0.01216683       0.01051097
Si       1.91423198       4.27090757      20.57396732  T        1      -0.00615550       0.01429937       0.00249602
Si       5.76441941       4.28175844      20.57783277  T        1      -0.00678555       0.00471701      -0.00223809
Si       9.58416093       4.26774405      20.54655525  T        1       0.00542871       0.00108980       0.00139759
F        9.45399395       5.86543662      23.10833668  T        0       0.03623813       0.04242150       0.02818749
H        9.90997714       6.32152271      23.80647791  T        0      -0.01479574       0.00107430       0.09402802
38
Lattice="11.518769465528859 0.0 0.0 3.839589821842953 6.650364651656328 0.0 0.0 0.0 32.62128289467409" Properties=species:S:1:pos:R:3:move_mask:L:1:tags:I:1:forces:R:3 surface=Si111 species=HF site=hollow orientation=parallel height_A=1.9 substrate_atoms=36 calculation_kind="Rigid evaluated approach scan; not NEB" energy=-185.001088263157 pbc="T T F"
Si       1.91979491       1.10839411      12.00000000  F        6       0.00068312       0.00792522       0.15787788
Si       5.75938473       1.10839411      12.00000000  F        6       0.00016056       0.00781875       0.15793935
Si       9.59897455       1.10839411      12.00000000  F        6      -0.00003168       0.00840379       0.15784305
Si       3.83958982       4.43357643      12.00000000  F        6       0.00012372      -0.00705091       0.16353813
Si       7.67917964       4.43357643      12.00000000  F        6       0.00046706      -0.00688846       0.16282654
Si      11.51876947       4.43357643      12.00000000  F        6       0.00002927      -0.00713815       0.16302789
Si       1.91979491       1.10839411      14.35125897  F        5      -0.00128659      -0.02467117      -0.28884720
Si       5.75938473       1.10839411      14.35125897  F        5      -0.00073484      -0.02360006      -0.29266061
Si       9.59897455       1.10839411      14.35125897  F        5       0.00097180      -0.02692633      -0.28880352
Si       3.83958982       4.43357643      14.35125897  F        5      -0.00053015       0.01998923      -0.30227277
Si       7.67917964       4.43357643      14.35125897  F        5      -0.00199444       0.01960130      -0.29855327
Si      11.51876947       4.43357643      14.35125897  F        5       0.00087141       0.02071497      -0.29946960
Si      -0.00000000       2.21678822      15.13501196  F        4      -0.00137505      -0.04580913       0.54808715
Si       3.83958982       2.21678822      15.13501196  F        4      -0.00465121      -0.03127119       0.53511916
Si       7.67917964       2.21678822      15.13501196  F        4      -0.01440743      -0.04249908       0.54638361
Si       1.91979491       5.54197054      15.13501196  F        4      -0.00181244      -0.00065503      -0.32320336
Si       5.75938473       5.54197054      15.13501196  F        4      -0.01929401      -0.00961990      -0.34896794
Si       9.59897455       5.54197054      15.13501196  F        4       0.00006115      -0.00429147      -0.35462174
Si      -0.00402818       2.19937635      17.57658204  T        3       0.00165030       0.00291148      -0.00237415
Si       3.83413332       2.20029032      17.57431956  T        3       0.00287146       0.00344575       0.00577314
Si       7.67241730       2.19861106      17.57628624  T        3       0.00157529       0.00338129      -0.00065685
Si       1.91504595       5.53637301      17.45665314  T        3      -0.00027356       0.00236352       0.00252010
Si       5.74853909       5.53251811      17.45423110  T        3       0.00845352       0.01072758       0.00346128
Si       9.59314636       5.53705375      17.45363107  T        3       0.00343859       0.00934309       0.00395246
Si      -0.00630144      -0.06720928      18.32088778  T        2       0.00148746       0.00414269      -0.00080310
Si       3.83113617      -0.06796608      18.29942797  T        2       0.00678484       0.00533238       0.02397427
Si       7.67203645      -0.06886835      18.31331888  T        2       0.00306591       0.00680602       0.00905521
Si       1.91538005       3.35928655      18.34225606  T        2      -0.00015480       0.00269321       0.00456555
Si       5.75311676       3.35784057      18.34690413  T        2       0.00363345       0.00874143      -0.00326927
Si       9.59275055       3.35750231      18.33126813  T        2       0.00223764       0.00619514      -0.00410521
Si      -0.00401701      -0.94970354      20.56764476  T        1      -0.00331239       0.01002974       0.00043970
Si       3.83653704      -0.93594672      20.53654495  T        1       0.00203810      -0.00461443       0.02794645
Si       7.66800826      -0.95385370      20.55325164  T        1      -0.00535939       0.01209190       0.01069231
Si       1.91412087       4.27115215      20.57400475  T        1      -0.00582288       0.01393652       0.00257605
Si       5.76429589       4.28184202      20.57778366  T        1      -0.00648098       0.00452516      -0.00188956
Si       9.58425225       4.26777635      20.54657067  T        1       0.00526222       0.00086384       0.00185569
F        9.45467488       5.86623989      23.10897348  T        0       0.02610718       0.03151609       0.01116625
H        9.90963557       6.32143593      23.80785102  T        0      -0.00445220       0.01153523       0.10987694
38
Lattice="11.518769465528859 0.0 0.0 3.839589821842953 6.650364651656328 0.0 0.0 0.0 32.62128289467409" Properties=species:S:1:pos:R:3:move_mask:L:1:tags:I:1:forces:R:3 surface=Si111 species=HF site=hollow orientation=parallel height_A=1.9 substrate_atoms=36 calculation_kind="Rigid evaluated approach scan; not NEB" energy=-185.00140005328262 pbc="T T F"
Si       1.91979491       1.10839411      12.00000000  F        6       0.00067297       0.00792067       0.15788799
Si       5.75938473       1.10839411      12.00000000  F        6       0.00016071       0.00781670       0.15795128
Si       9.59897455       1.10839411      12.00000000  F        6      -0.00002989       0.00839676       0.15784228
Si       3.83958982       4.43357643      12.00000000  F        6       0.00012006      -0.00705113       0.16353942
Si       7.67917964       4.43357643      12.00000000  F        6       0.00046881      -0.00689848       0.16283641
Si      11.51876947       4.43357643      12.00000000  F        6       0.00002548      -0.00713988       0.16303030
Si       1.91979491       1.10839411      14.35125897  F        5      -0.00128603      -0.02466108      -0.28891364
Si       5.75938473       1.10839411      14.35125897  F        5      -0.00072666      -0.02360216      -0.29272538
Si       9.59897455       1.10839411      14.35125897  F        5       0.00096947      -0.02688904      -0.28876819
Si       3.83958982       4.43357643      14.35125897  F        5      -0.00052330       0.01999286      -0.30209265
Si       7.67917964       4.43357643      14.35125897  F        5      -0.00200056       0.01961455      -0.29848634
Si      11.51876947       4.43357643      14.35125897  F        5       0.00088670       0.02068620      -0.29943585
Si      -0.00000000       2.21678822      15.13501196  F        4      -0.00123910      -0.04574211       0.54769883
Si       3.83958982       2.21678822      15.13501196  F        4      -0.00464780      -0.03138681       0.53572200
Si       7.67917964       2.21678822      15.13501196  F        4      -0.01438623      -0.04257186       0.54618907
Si       1.91979491       5.54197054      15.13501196  F        4      -0.00193012      -0.00061450      -0.32257205
Si       5.75938473       5.54197054      15.13501196  F        4      -0.01890667      -0.00925651      -0.34823276
Si       9.59897455       5.54197054      15.13501196  F        4       0.00002298      -0.00386632      -0.35370705
Si      -0.00398185       2.19942237      17.57651364  T        3       0.00137190       0.00316653      -0.00189726
Si       3.83419563       2.20035178      17.57442969  T        3       0.00275306       0.00359671       0.00577167
Si       7.67243697       2.19864427      17.57625309  T        3       0.00181445       0.00406017      -0.00027111
Si       1.91502841       5.53641956      17.45671943  T        3      -0.00001194       0.00239608       0.00217385
Si       5.74871435       5.53275089      17.45430150  T        3       0.00822760       0.01027810       0.00338812
Si       9.59323094       5.53725915      17.45371486  T        3       0.00308255       0.00888057       0.00381143
Si      -0.00627170      -0.06712510      18.32086823  T        2       0.00149414       0.00410972      -0.00075475
Si       3.83128056      -0.06786983      18.29995849  T        2       0.00651742       0.00549403       0.02268399
Si       7.67210122      -0.06873504      18.31355150  T        2       0.00298004       0.00680090       0.00796931
Si       1.91536845       3.35932826      18.34235692  T        2      -0.00001120       0.00295845       0.00435241
Si       5.75319523       3.35802730      18.34683221  T        2       0.00348023       0.00845228      -0.00302930
Si       9.59279837       3.35762162      18.33113472  T        2       0.00218671       0.00625193      -0.00300615
Si      -0.00408275      -0.94951036      20.56766185  T        1      -0.00324813       0.01007794       0.00028400
Si       3.83660748      -0.93605374      20.53715581  T        1       0.00150348      -0.00427519       0.02657947
Si       7.66789335      -0.95361111      20.55345075  T        1      -0.00516943       0.01198496       0.01083843
Si       1.91398887       4.27144666      20.57405139  T        1      -0.00543672       0.01351899       0.00266164
Si       5.76414912       4.28194182      20.57772772  T        1      -0.00617278       0.00429539      -0.00149701
Si       9.58436243       4.26781180      20.54659267  T        1       0.00505634       0.00060766       0.00231626
F        9.45545010       5.86715694      23.10965182  T        0       0.02077817       0.02535242       0.00143081
H        9.90927713       6.32138946      23.80961584  T        0       0.00115330       0.01724448       0.11843051
38
Lattice="11.518769465528859 0.0 0.0 3.839589821842953 6.650364651656328 0.0 0.0 0.0 32.62128289467409" Properties=species:S:1:pos:R:3:move_mask:L:1:tags:I:1:forces:R:3 surface=Si111 species=HF site=hollow orientation=parallel height_A=1.9 substrate_atoms=36 calculation_kind="Rigid evaluated approach scan; not NEB" energy=-185.0017828754164 pbc="T T F"
Si       1.91979491       1.10839411      12.00000000  F        6       0.00066090       0.00791526       0.15789995
Si       5.75938473       1.10839411      12.00000000  F        6       0.00016101       0.00781425       0.15796552
Si       9.59897455       1.10839411      12.00000000  F        6      -0.00002795       0.00838822       0.15784140
Si       3.83958982       4.43357643      12.00000000  F        6       0.00011592      -0.00705176       0.16354107
Si       7.67917964       4.43357643      12.00000000  F        6       0.00047056      -0.00691061       0.16284843
Si      11.51876947       4.43357643      12.00000000  F        6       0.00002105      -0.00714190       0.16303371
Si       1.91979491       1.10839411      14.35125897  F        5      -0.00128572      -0.02464990      -0.28898816
Si       5.75938473       1.10839411      14.35125897  F        5      -0.00071711      -0.02360525      -0.29279631
Si       9.59897455       1.10839411      14.35125897  F        5       0.00096720      -0.02684635      -0.28872496
Si       3.83958982       4.43357643      14.35125897  F        5      -0.00051639       0.01999959      -0.30188081
Si       7.67917964       4.43357643      14.35125897  F        5      -0.00200716       0.01963192      -0.29841427
Si      11.51876947       4.43357643      14.35125897  F        5       0.00090586       0.02065280      -0.29939678
Si      -0.00000000       2.21678822      15.13501196  F        4      -0.00108498      -0.04565498       0.54726555
Si       3.83958982       2.21678822      15.13501196  F        4      -0.00464306      -0.03151896       0.53646127
Si       7.67917964       2.21678822      15.13501196  F        4      -0.01435256      -0.04264032       0.54599064
Si       1.91979491       5.54197054      15.13501196  F        4      -0.00206167      -0.00056694      -0.32185290
Si       5.75938473       5.54197054      15.13501196  F        4      -0.01844677      -0.00882507      -0.34734987
Si       9.59897455       5.54197054      15.13501196  F        4      -0.00002789      -0.00336871      -0.35261692
Si      -0.00392958       2.19948182      17.57643701  T        3       0.00107188       0.00345216      -0.00135850
Si       3.83426973       2.20042852      17.57456441  T        3       0.00261740       0.00377409       0.00570710
Si       7.67246429       2.19869459      17.57621866  T        3       0.00207439       0.00479307       0.00013107
Si       1.91501074       5.53647633      17.45679510  T        3       0.00028267       0.00245125       0.00179003
Si       5.74892475       5.53302762      17.45438635  T        3       0.00794183       0.00976596       0.00329187
Si       9.59332876       5.53750254      17.45381493  T        3       0.00268228       0.00834496       0.00366707
Si      -0.00623560      -0.06702338      18.32084544  T        2       0.00151363       0.00408298      -0.00071235
Si       3.83145280      -0.06775022      18.30058610  T        2       0.00618704       0.00564642       0.02115445
Si       7.67217873      -0.06857273      18.31381842  T        2       0.00287040       0.00676834       0.00679039
Si       1.91535674       3.35938252      18.34247641  T        2       0.00012468       0.00326317       0.00412032
Si       5.75328859       3.35825016      18.34674733  T        2       0.00331217       0.00813837      -0.00270479
Si       9.59285553       3.35776756      18.33098816  T        2       0.00214038       0.00631378      -0.00179558
Si      -0.00416235      -0.94927422      20.56768019  T        1      -0.00313345       0.01009274       0.00012168
Si       3.83668451      -0.93617908      20.53788038  T        1       0.00090353      -0.00389663       0.02486576
Si       7.66775634      -0.95331738      20.55369602  T        1      -0.00494238       0.01183400       0.01091464
Si       1.91383359       4.27179893      20.57410935  T        1      -0.00499600       0.01304672       0.00274933
Si       5.76397592       4.28206000      20.57766528  T        1      -0.00587788       0.00402342      -0.00106335
Si       9.58449422       4.26784994      20.54662444  T        1       0.00480633       0.00031681       0.00273308
F        9.45631554       5.86818393      23.11033914  T        0       0.02401199       0.02773715       0.00501293
H        9.90892192       6.32141480      23.81188307  T        0      -0.00172214       0.01442995       0.11375828
38
Lattice="11.518769465528859 0.0 0.0 3.839589821842953 6.650364651656328 0.0 0.0 0.0 32.62128289467409" Properties=species:S:1:pos:R:3:move_mask:L:1:tags:I:1:forces:R:3 surface=Si111 species=HF site=hollow orientation=parallel height_A=1.9 substrate_atoms=36 calculation_kind="Rigid evaluated approach scan; not NEB" energy=-185.00224275405483 pbc="T T F"
Si       1.91979491       1.10839411      12.00000000  F        6       0.00064656       0.00790881       0.15791394
Si       5.75938473       1.10839411      12.00000000  F        6       0.00016156       0.00781132       0.15798243
Si       9.59897455       1.10839411      12.00000000  F        6      -0.00002591       0.00837785       0.15784036
Si       3.83958982       4.43357643      12.00000000  F        6       0.00011129      -0.00705298       0.16354312
Si       7.67917964       4.43357643      12.00000000  F        6       0.00047215      -0.00692530       0.16286305
Si      11.51876947       4.43357643      12.00000000  F        6       0.00001592      -0.00714429       0.16303840
Si       1.91979491       1.10839411      14.35125897  F        5      -0.00128566      -0.02463786      -0.28907015
Si       5.75938473       1.10839411      14.35125897  F        5      -0.00070595      -0.02360981      -0.29287173
Si       9.59897455       1.10839411      14.35125897  F        5       0.00096500      -0.02679805      -0.28867236
Si       3.83958982       4.43357643      14.35125897  F        5      -0.00050976       0.02001089      -0.30163330
Si       7.67917964       4.43357643      14.35125897  F        5      -0.00201367       0.01965487      -0.29833860
Si      11.51876947       4.43357643      14.35125897  F        5       0.00092940       0.02061467      -0.29935137
Si      -0.00000000       2.21678822      15.13501196  F        4      -0.00091305      -0.04554037       0.54679304
Si       3.83958982       2.21678822      15.13501196  F        4      -0.00463623      -0.03166726       0.53736614
Si       7.67917964       2.21678822      15.13501196  F        4      -0.01430070      -0.04269528       0.54579966
Si       1.91979491       5.54197054      15.13501196  F        4      -0.00220621      -0.00051117      -0.32104505
Si       5.75938473       5.54197054      15.13501196  F        4      -0.01790251      -0.00831510      -0.34629151
Si       9.59897455       5.54197054      15.13501196  F        4      -0.00009564      -0.00279089      -0.35131995
Si      -0.00387157       2.19955918      17.57635305  T        3       0.00075991       0.00376655      -0.00076060
Si       3.83435755       2.20052491      17.57472893  T        3       0.00246319       0.00397860       0.00555254
Si       7.67250234       2.19876960      17.57618471  T        3       0.00234750       0.00555553       0.00053358
Si       1.91499442       5.53654590      17.45688030  T        3       0.00060654       0.00253876       0.00137548
Si       5.74917675       5.53335560      17.45448843  T        3       0.00757925       0.00918997       0.00316239
Si       9.59344077       5.53778976      17.45393422  T        3       0.00224331       0.00773543       0.00351459
Si      -0.00619159      -0.06690031      18.32081890  T        2       0.00154938       0.00406795      -0.00068286
Si       3.83165749      -0.06760119      18.30132486  T        2       0.00578128       0.00577557       0.01936464
Si       7.67227129      -0.06837507      18.31412138  T        2       0.00273548       0.00669749       0.00554686
Si       1.91534561       3.35945369      18.34261753  T        2       0.00024256       0.00360913       0.00387369
Si       5.75339932       3.35851568      18.34664820  T        2       0.00312599       0.00780194      -0.00227536
Si       9.59292390       3.35794645      18.33083166  T        2       0.00210363       0.00637786      -0.00048335
Si      -0.00425834      -0.94898540      20.56769925  T        1      -0.00295257       0.01005419      -0.00003947
Si       3.83676656      -0.93632495      20.53873554  T        1       0.00026704      -0.00347921       0.02277316
Si       7.66759342      -0.95296179      20.55399820  T        1      -0.00467606       0.01162646       0.01087761
Si       1.91365201       4.27221957      20.57418164  T        1      -0.00449786       0.01251940       0.00283593
Si       5.76377183       4.28219932      20.57759709  T        1      -0.00561756       0.00371077      -0.00059124
Si       9.58465120       4.26788991      20.54667031  T        1       0.00449486       0.00003362       0.00313934
F        9.45730798       5.86935777      23.11105571  T        0       0.03608249       0.03894052       0.02251864
H        9.90855602       6.32151379      23.81474206  T        0      -0.01334494       0.00280942       0.09521831
38
Lattice="11.518769465528859 0.0 0.0 3.839589821842953 6.650364651656328 0.0 0.0 0.0 32.62128289467409" Properties=species:S:1:pos:R:3:move_mask:L:1:tags:I:1:forces:R:3 surface=Si111 species=HF site=hollow orientation=parallel height_A=1.9 substrate_atoms=36 calculation_kind="Rigid evaluated approach scan; not NEB" energy=-185.00277765312825 pbc="T T F"
Si       1.91979491       1.10839411      12.00000000  F        6       0.00062953       0.00790108       0.15793001
Si       5.75938473       1.10839411      12.00000000  F        6       0.00016247       0.00780774       0.15800236
Si       9.59897455       1.10839411      12.00000000  F        6      -0.00002385       0.00836523       0.15783914
Si       3.83958982       4.43357643      12.00000000  F        6       0.00010622      -0.00705505       0.16354549
Si       7.67917964       4.43357643      12.00000000  F        6       0.00047338      -0.00694309       0.16288085
Si      11.51876947       4.43357643      12.00000000  F        6       0.00000999      -0.00714714       0.16304468
Si       1.91979491       1.10839411      14.35125897  F        5      -0.00128572      -0.02462546      -0.28915825
Si       5.75938473       1.10839411      14.35125897  F        5      -0.00069277      -0.02361671      -0.29294872
Si       9.59897455       1.10839411      14.35125897  F        5       0.00096268      -0.02674405      -0.28860889
Si       3.83958982       4.43357643      14.35125897  F        5      -0.00050374       0.02002881      -0.30134591
Si       7.67917964       4.43357643      14.35125897  F        5      -0.00201874       0.01968565      -0.29826099
Si      11.51876947       4.43357643      14.35125897  F        5       0.00095725       0.02057226      -0.29929762
Si      -0.00000000       2.21678822      15.13501196  F        4      -0.00072494      -0.04538700       0.54629299
Si       3.83958982       2.21678822      15.13501196  F        4      -0.00462599      -0.03182945       0.53847231
Si       7.67917964       2.21678822      15.13501196  F        4      -0.01422239      -0.04272188       0.54563186
Si       1.91979491       5.54197054      15.13501196  F        4      -0.00236225      -0.00044541      -0.32015181
Si       5.75938473       5.54197054      15.13501196  F        4      -0.01725921      -0.00771433      -0.34502224
Si       9.59897455       5.54197054      15.13501196  F        4      -0.00018584      -0.00212553      -0.34977477
Si      -0.00380838       2.19966089      17.57626374  T        3       0.00045172       0.00410674      -0.00011063
Si       3.83446153       2.20064711      17.57492966  T        3       0.00228936       0.00420665       0.00527972
Si       7.67255549       2.19888027      17.57615392  T        3       0.00262070       0.00630515       0.00091526
Si       1.91498183       5.53663198      17.45697475  T        3       0.00094995       0.00267154       0.00094387
Si       5.74947835       5.53374386      17.45461119  T        3       0.00711653       0.00855190       0.00298180
Si       9.59356770       5.53812780      17.45407653  T        3       0.00177941       0.00705982       0.00332848
Si      -0.00613748      -0.06675070      18.32078786  T        2       0.00160216       0.00407178      -0.00067781
Si       3.83190009      -0.06741464      18.30219095  T        2       0.00528647       0.00586546       0.01731480
Si       7.67238175      -0.06813373      18.31446140  T        2       0.00258225       0.00657844       0.00428458
Si       1.91533594       3.35954817      18.34278407  T        2       0.00033200       0.00399740       0.00361934
Si       5.75353055       3.35883230      18.34653404  T        2       0.00290921       0.00744094      -0.00172319
Si       9.59300603       3.35816687      18.33067110  T        2       0.00208347       0.00643669       0.00092193
Si      -0.00437364      -0.94863107      20.56771818  T        1      -0.00269221       0.00993580      -0.00018697
Si       3.83685082      -0.93649378      20.53974036  T        1      -0.00032075      -0.00302105       0.02034765
Si       7.66739984      -0.95253030      20.55437120  T        1      -0.00437680       0.01135137       0.01067561
Si       1.91344079       4.27272217      20.57427234  T        1      -0.00393735       0.01193710       0.00291912
Si       5.76353088       4.28236303      20.57752472  T        1      -0.00541718       0.00337006      -0.00008358
Si       9.58483764       4.26793034      20.54673635  T        1       0.00408517      -0.00011914       0.00371162
F        9.45853524       5.87078569      23.11191945  T        0       0.05068051       0.05253979       0.04401237
H        9.90810328       6.32163121      23.81822227  T        0      -0.02742070      -0.01129211       0.07245554
38
Lattice="11.518769465528859 0.0 0.0 3.839589821842953 6.650364651656328 0.0 0.0 0.0 32.62128289467409" Properties=species:S:1:pos:R:3:move_mask:L:1:tags:I:1:forces:R:3 surface=Si111 species=HF site=hollow orientation=parallel height_A=1.9 substrate_atoms=36 calculation_kind="Rigid evaluated approach scan; not NEB" energy=-185.00341149141204 pbc="T T F"
Si       1.91979491       1.10839411      12.00000000  F        6       0.00060947       0.00789179       0.15794799
Si       5.75938473       1.10839411      12.00000000  F        6       0.00016385       0.00780335       0.15802553
Si       9.59897455       1.10839411      12.00000000  F        6      -0.00002185       0.00834999       0.15783767
Si       3.83958982       4.43357643      12.00000000  F        6       0.00010078      -0.00705824       0.16354797
Si       7.67917964       4.43357643      12.00000000  F        6       0.00047398      -0.00696446       0.16290232
Si      11.51876947       4.43357643      12.00000000  F        6       0.00000321      -0.00715058       0.16305277
Si       1.91979491       1.10839411      14.35125897  F        5      -0.00128544      -0.02461347      -0.28924957
Si       5.75938473       1.10839411      14.35125897  F        5      -0.00067715      -0.02362693      -0.29302250
Si       9.59897455       1.10839411      14.35125897  F        5       0.00095975      -0.02668477      -0.28853359
Si       3.83958982       4.43357643      14.35125897  F        5      -0.00049861       0.02005556      -0.30101684
Si       7.67917964       4.43357643      14.35125897  F        5      -0.00202038       0.01972676      -0.29818368
Si      11.51876947       4.43357643      14.35125897  F        5       0.00098854       0.02052694      -0.29923317
Si      -0.00000000       2.21678822      15.13501196  F        4      -0.00052489      -0.04518109       0.54578755
Si       3.83958982       2.21678822      15.13501196  F        4      -0.00461056      -0.03199956       0.53980850
Si       7.67917964       2.21678822      15.13501196  F        4      -0.01410791      -0.04270016       0.54550691
Si       1.91979491       5.54197054      15.13501196  F        4      -0.00252654      -0.00036764      -0.31918718
Si       5.75938473       5.54197054      15.13501196  F        4      -0.01650557      -0.00701448      -0.34351261
Si       9.59897455       5.54197054      15.13501196  F        4      -0.00030404      -0.00137147      -0.34794558
Si      -0.00374131       2.19979443      17.57617294  T        3       0.00017034       0.00446536       0.00057311
Si       3.83458361       2.20080205      17.57517183  T        3       0.00209522       0.00444840       0.00486761
Si       7.67262887       2.19903949      17.57612984  T        3       0.00287318       0.00697986       0.00125249
Si       1.91497635       5.53673892      17.45707703  T        3       0.00129460       0.00286286       0.00051826
Si       5.74983603       5.53419971      17.45475742  T        3       0.00653091       0.00785966       0.00272914
Si       9.59370903       5.53852175      17.45424508  T        3       0.00131581       0.00633995       0.00306903
Si      -0.00607085      -0.06656917      18.32075147  T        2       0.00166879       0.00410216      -0.00070891
Si       3.83218450      -0.06718232      18.30319446  T        2       0.00469459       0.00589998       0.01503903
Si       7.67251257      -0.06784082      18.31483633  T        2       0.00242440       0.00640521       0.00306844
Si       1.91532872       3.35967361      18.34297924  T        2       0.00038613       0.00442392       0.00336627
Si       5.75368477       3.35920757      18.34640600  T        2       0.00264355       0.00705048      -0.00104412
Si       9.59310453       3.35843764      18.33051636  T        2       0.00208543       0.00647916       0.00240613
Si      -0.00451016      -0.94819892      20.56773584  T        1      -0.00234803       0.00971091      -0.00030532
Si       3.83693327      -0.93668672      20.54090657  T        1      -0.00073405      -0.00251943       0.01772552
Si       7.66717171      -0.95200972      20.55482776  T        1      -0.00405773       0.01100229       0.01025623
Si       1.91319823       4.27331882      20.57438580  T        1      -0.00331407       0.01130536       0.00299670
Si       5.76324715       4.28255344      20.57745120  T        1      -0.00529833       0.00302632       0.00045285
Si       9.58505637       4.26797016      20.54683098  T        1       0.00353416       0.00003813       0.00472791
F        9.46015520       5.87262185      23.11312275  T        0       0.05625916       0.05676667       0.05079131
H        9.90743960       6.32166397      23.82227645  T        0      -0.03244070      -0.01626877       0.06368584
38
Lattice="11.518769465528859 0.0 0.0 3.839589821842953 6.650364651656328 0.0 0.0 0.0 32.62128289467409" Properties=species:S:1:pos:R:3:move_mask:L:1:tags:I:1:forces:R:3 surface=Si111 species=HF site=hollow orientation=parallel height_A=1.9 substrate_atoms=36 calculation_kind="Rigid evaluated approach scan; not NEB" energy=-185.004172287497 pbc="T T F"
Si       1.91979491       1.10839411      12.00000000  F        6       0.00058597       0.00788067       0.15796760
Si       5.75938473       1.10839411      12.00000000  F        6       0.00016579       0.00779792       0.15805223
Si       9.59897455       1.10839411      12.00000000  F        6      -0.00001993       0.00833166       0.15783594
Si       3.83958982       4.43357643      12.00000000  F        6       0.00009503      -0.00706285       0.16355048
Si       7.67917964       4.43357643      12.00000000  F        6       0.00047363      -0.00698990       0.16292793
Si      11.51876947       4.43357643      12.00000000  F        6      -0.00000439      -0.00715485       0.16306285
Si       1.91979491       1.10839411      14.35125897  F        5      -0.00128377      -0.02460266      -0.28933948
Si       5.75938473       1.10839411      14.35125897  F        5      -0.00065875      -0.02364096      -0.29308613
Si       9.59897455       1.10839411      14.35125897  F        5       0.00095536      -0.02662084      -0.28844511
Si       3.83958982       4.43357643      14.35125897  F        5      -0.00049478       0.02009328      -0.30064585
Si       7.67917964       4.43357643      14.35125897  F        5      -0.00201683       0.01978063      -0.29811075
Si      11.51876947       4.43357643      14.35125897  F        5       0.00102269       0.02048077      -0.29915619
Si      -0.00000000       2.21678822      15.13501196  F        4      -0.00031923      -0.04490537       0.54531140
Si       3.83958982       2.21678822      15.13501196  F        4      -0.00458766      -0.03216771       0.54139845
Si       7.67917964       2.21678822      15.13501196  F        4      -0.01394544      -0.04260506       0.54545031
Si       1.91979491       5.54197054      15.13501196  F        4      -0.00269367      -0.00027519      -0.31817374
Si       5.75938473       5.54197054      15.13501196  F        4      -0.01563265      -0.00620952      -0.34173829
Si       9.59897455       5.54197054      15.13501196  F        4      -0.00045592      -0.00053113      -0.34580144
Si      -0.00367216       2.19996930      17.57608656  T        3      -0.00005444       0.00482759       0.00125693
Si       3.83472557       2.20099834      17.57545985  T        3       0.00187737       0.00469195       0.00429622
Si       7.67272875       2.19926291      17.57611685  T        3       0.00307496       0.00750324       0.00152152
Si       1.91498248       5.53687254      17.45718483  T        3       0.00161557       0.00312643       0.00012883
Si       5.75025550       5.53473012      17.45492945  T        3       0.00580231       0.00712215       0.00238785
Si       9.59386338       5.53897606      17.45444267  T        3       0.00088588       0.00560469       0.00271316
Si      -0.00598863      -0.06634919      18.32070839  T        2       0.00174592       0.00416750      -0.00077899
Si       3.83251353      -0.06689493      18.30434172  T        2       0.00400333       0.00585789       0.01256741
Si       7.67266631      -0.06748779      18.31524198  T        2       0.00226527       0.00617002       0.00197504
Si       1.91532492       3.35983995      18.34320634  T        2       0.00040220       0.00487685       0.00312305
Si       5.75386407       3.35964945      18.34626749  T        2       0.00231739       0.00662833      -0.00024533
Si       9.59322264       3.35876901      18.33038203  T        2       0.00210762       0.00649666       0.00394247
Si      -0.00466897      -0.94767572      20.56775088  T        1      -0.00191931       0.00935562      -0.00038032
Si       3.83700978      -0.93690394      20.54224207  T        1      -0.00089229      -0.00197090       0.01500854
Si       7.66690515      -0.95138572      20.55538047  T        1      -0.00372383       0.01056747       0.00956151
Si       1.91292381       4.27402224      20.57452720  T        1      -0.00264007       0.01063808       0.00306235
Si       5.76291335       4.28277269      20.57738114  T        1      -0.00527016       0.00270525       0.00100485
Si       9.58530875       4.26801065      20.54696899  T        1       0.00282667       0.00063282       0.00634399
F        9.46229539       5.87498458      23.11479359  T        0       0.04636972       0.04499641       0.03181548
H        9.90647817       6.32155040      23.82693776  T        0      -0.02197956      -0.00559692       0.07963522
38
Lattice="11.518769465528859 0.0 0.0 3.839589821842953 6.650364651656328 0.0 0.0 0.0 32.62128289467409" Properties=species:S:1:pos:R:3:move_mask:L:1:tags:I:1:forces:R:3 surface=Si111 species=HF site=hollow orientation=parallel height_A=1.9 substrate_atoms=36 calculation_kind="Rigid evaluated approach scan; not NEB" energy=-185.00505455032916 pbc="T T F"
Si       1.91979491       1.10839411      12.00000000  F        6       0.00055843       0.00786738       0.15798870
Si       5.75938473       1.10839411      12.00000000  F        6       0.00016835       0.00779117       0.15808320
Si       9.59897455       1.10839411      12.00000000  F        6      -0.00001801       0.00830949       0.15783403
Si       3.83958982       4.43357643      12.00000000  F        6       0.00008895      -0.00706935       0.16355334
Si       7.67917964       4.43357643      12.00000000  F        6       0.00047184      -0.00702010       0.16295823
Si      11.51876947       4.43357643      12.00000000  F        6      -0.00001268      -0.00716039       0.16307524
Si       1.91979491       1.10839411      14.35125897  F        5      -0.00127863      -0.02459359      -0.28942067
Si       5.75938473       1.10839411      14.35125897  F        5      -0.00063739      -0.02365815      -0.29312921
Si       9.59897455       1.10839411      14.35125897  F        5       0.00094816      -0.02655274      -0.28834018
Si       3.83958982       4.43357643      14.35125897  F        5      -0.00049295       0.02014417      -0.30023263
Si       7.67917964       4.43357643      14.35125897  F        5      -0.00200733       0.01984953      -0.29805017
Si      11.51876947       4.43357643      14.35125897  F        5       0.00106067       0.02043621      -0.29906629
Si      -0.00000000       2.21678822      15.13501196  F        4      -0.00011639      -0.04453457       0.54491877
Si       3.83958982       2.21678822      15.13501196  F        4      -0.00455423      -0.03231823       0.54326928
Si       7.67917964       2.21678822      15.13501196  F        4      -0.01371807      -0.04240231       0.54549989
Si       1.91979491       5.54197054      15.13501196  F        4      -0.00285496      -0.00016355      -0.31714127
Si       5.75938473       5.54197054      15.13501196  F        4      -0.01463026      -0.00529147      -0.33967313
Si       9.59897455       5.54197054      15.13501196  F        4      -0.00064827       0.00039360      -0.34330717
Si      -0.00360298       2.20020006      17.57601352  T        3      -0.00018378       0.00516642       0.00188374
Si       3.83488993       2.20124919      17.57579881  T        3       0.00162529       0.00492663       0.00353531
Si       7.67286412       2.19957274      17.57612085  T        3       0.00318208       0.00778159       0.00169849
Si       1.91500684       5.53704253      17.45729505  T        3       0.00188088       0.00347851      -0.00018644
Si       5.75074403       5.53534545      17.45512989  T        3       0.00491228       0.00634318       0.00195266
Si       9.59402909       5.53949754      17.45467257  T        3       0.00053047       0.00488363       0.00229029
Si      -0.00588604      -0.06608033      18.32065615  T        2       0.00183431       0.00427819      -0.00087141
Si       3.83289059      -0.06653904      18.30564075  T        2       0.00321569       0.00570256       0.00988102
Si       7.67284693      -0.06706217      18.31567355  T        2       0.00207661       0.00585436       0.00109214
Si       1.91532560       3.36006263      18.34347063  T        2       0.00038145       0.00533218       0.00289563
Si       5.75407107       3.36016989      18.34612497  T        2       0.00193880       0.00618082       0.00065704
Si       9.59336552       3.35917645      18.33029081  T        2       0.00213286       0.00648899       0.00547888
Si      -0.00485080      -0.94704255      20.56776179  T        1      -0.00140178       0.00884886      -0.00040278
Si       3.83707695      -0.93714530      20.54375851  T        1      -0.00085991      -0.00137132       0.01211216
Si       7.66659428      -0.95063721      20.55604575  T        1      -0.00335057       0.01001537       0.00851035
Si       1.91261720       4.27485169      20.57470432  T        1      -0.00195089       0.00996126       0.00309895
Si       5.76251725       4.28302435      20.57732175  T        1      -0.00531557       0.00242325       0.00155133
Si       9.58559521       4.26805863      20.54717959  T        1       0.00201395       0.00162245       0.00833506
F        9.46497652       5.87787483      23.11683743  T        0       0.03140045       0.02774724       0.00345195
H        9.90526081       6.32137286      23.83253705  T        0      -0.00638982       0.01030875       0.10421563
38
Lattice="11.518769465528859 0.0 0.0 3.839589821842953 6.650364651656328 0.0 0.0 0.0 32.62128289467409" Properties=species:S:1:pos:R:3:move_mask:L:1:tags:I:1:forces:R:3 surface=Si111 species=HF site=hollow orientation=parallel height_A=1.9 substrate_atoms=36 calculation_kind="Rigid evaluated approach scan; not NEB" energy=-185.00609501037897 pbc="T T F"
Si       1.91979491       1.10839411      12.00000000  F        6       0.00052638       0.00785169       0.15801106
Si       5.75938473       1.10839411      12.00000000  F        6       0.00017139       0.00778280       0.15811922
Si       9.59897455       1.10839411      12.00000000  F        6      -0.00001581       0.00828272       0.15783224
Si       3.83958982       4.43357643      12.00000000  F        6       0.00008243      -0.00707816       0.16355716
Si       7.67917964       4.43357643      12.00000000  F        6       0.00046812      -0.00705548       0.16299349
Si      11.51876947       4.43357643      12.00000000  F        6      -0.00002130      -0.00716782       0.16309014
Si       1.91979491       1.10839411      14.35125897  F        5      -0.00126683      -0.02458635      -0.28948345
Si       5.75938473       1.10839411      14.35125897  F        5      -0.00061327      -0.02367615      -0.29313924
Si       9.59897455       1.10839411      14.35125897  F        5       0.00093625      -0.02648081      -0.28821524
Si       3.83958982       4.43357643      14.35125897  F        5      -0.00049367       0.02020896      -0.29978122
Si       7.67917964       4.43357643      14.35125897  F        5      -0.00199248       0.01993405      -0.29801137
Si      11.51876947       4.43357643      14.35125897  F        5       0.00110408       0.02039639      -0.29896528
Si      -0.00000000       2.21678822      15.13501196  F        4       0.00007318      -0.04404145       0.54467801
Si       3.83958982       2.21678822      15.13501196  F        4      -0.00450720      -0.03242827       0.54541778
Si       7.67917964       2.21678822      15.13501196  F        4      -0.01340923      -0.04205703       0.54569455
Si       1.91979491       5.54197054      15.13501196  F        4      -0.00299948      -0.00002661      -0.31612620
Si       5.75938473       5.54197054      15.13501196  F        4      -0.01349993      -0.00426190      -0.33732050
Si       9.59897455       5.54197054      15.13501196  F        4      -0.00088373       0.00139241      -0.34045519
Si      -0.00353558       2.20050239      17.57596501  T        3      -0.00018477       0.00544718       0.00237905
Si       3.83507773       2.20156860      17.57618857  T        3       0.00132422       0.00513836       0.00257894
Si       7.67304350       2.19999001      17.57614766  T        3       0.00314753       0.00773361       0.00177910
Si       1.91505666       5.53726086      17.45740388  T        3       0.00205495       0.00392517      -0.00038998
Si       5.75130333       5.53605200      17.45535852  T        3       0.00386360       0.00552295       0.00144098
Si       9.59420358       5.54008973      17.45493548  T        3       0.00028997       0.00420623       0.00188412
Si      -0.00575782      -0.06575142      18.32059171  T        2       0.00193273       0.00443932      -0.00094312
Si       3.83331454      -0.06610313      18.30708530  T        2       0.00235578       0.00539874       0.00694637
Si       7.67305720      -0.06655378      18.31612409  T        2       0.00180466       0.00544307       0.00048361
Si       1.91533141       3.36035905      18.34377639  T        2       0.00034116       0.00575209       0.00268179
Si       5.75430613       3.36077842      18.34598982  T        2       0.00153491       0.00571708       0.00161052
Si       9.59353843       3.35967499      18.33027213  T        2       0.00212336       0.00646266       0.00694525
Si      -0.00505325      -0.94628439      20.56776741  T        1      -0.00080823       0.00819556      -0.00037620
Si       3.83713326      -0.93740747      20.54545256  T        1      -0.00086163      -0.00071454       0.00882926
Si       7.66623537      -0.94974691      20.55683179  T        1      -0.00287887       0.00931242       0.00703909
Si       1.91228136       4.27582302      20.57492477  T        1      -0.00130676       0.00930941       0.00308169
Si       5.76204590       4.28331103      20.57728257  T        1      -0.00536161       0.00219004       0.00206897
Si       9.58591155       4.26812884      20.54750406  T        1       0.00122093       0.00277208       0.01010721
F        9.46810554       5.88116610      23.11894805  T        0       0.03571682       0.02994895       0.00656161
H        9.90394557       6.32133176      23.83958979  T        0      -0.00996765       0.00681063       0.09739575
38
Lattice="11.518769465528859 0.0 0.0 3.839589821842953 6.650364651656328 0.0 0.0 0.0 32.62128289467409" Properties=species:S:1:pos:R:3:move_mask:L:1:tags:I:1:forces:R:3 surface=Si111 species=HF site=hollow orientation=parallel height_A=1.9 substrate_atoms=36 calculation_kind="Rigid evaluated approach scan; not NEB" energy=-185.00730263347396 pbc="T T F"
Si       1.91979491       1.10839411      12.00000000  F        6       0.00048945       0.00783313       0.15803375
Si       5.75938473       1.10839411      12.00000000  F        6       0.00017455       0.00777237       0.15816072
Si       9.59897455       1.10839411      12.00000000  F        6      -0.00001289       0.00825042       0.15783105
Si       3.83958982       4.43357643      12.00000000  F        6       0.00007537      -0.00708980       0.16356202
Si       7.67917964       4.43357643      12.00000000  F        6       0.00046179      -0.00709628       0.16303380
Si      11.51876947       4.43357643      12.00000000  F        6      -0.00002975      -0.00717808       0.16310732
Si       1.91979491       1.10839411      14.35125897  F        5      -0.00124399      -0.02458121      -0.28951599
Si       5.75938473       1.10839411      14.35125897  F        5      -0.00058614      -0.02369257      -0.29310098
Si       9.59897455       1.10839411      14.35125897  F        5       0.00091649      -0.02640448      -0.28806810
Si       3.83958982       4.43357643      14.35125897  F        5      -0.00049632       0.02028802      -0.29929878
Si       7.67917964       4.43357643      14.35125897  F        5      -0.00197066       0.02003499      -0.29799850
Si      11.51876947       4.43357643      14.35125897  F        5       0.00115101       0.02036647      -0.29885211
Si      -0.00000000       2.21678822      15.13501196  F        4       0.00023638      -0.04338634       0.54467055
Si       3.83958982       2.21678822      15.13501196  F        4      -0.00444254      -0.03246249       0.54781537
Si       7.67917964       2.21678822      15.13501196  F        4      -0.01299918      -0.04152453       0.54607100
Si       1.91979491       5.54197054      15.13501196  F        4      -0.00311770       0.00014716      -0.31516341
Si       5.75938473       5.54197054      15.13501196  F        4      -0.01224741      -0.00312760      -0.33469722
Si       9.59897455       5.54197054      15.13501196  F        4      -0.00116014       0.00244632      -0.33723226
Si      -0.00347047       2.20089724      17.57595493  T        3      -0.00003832       0.00564374       0.00266932
Si       3.83528927       2.20197565      17.57662481  T        3       0.00096093       0.00528547       0.00148612
Si       7.67327639       2.20053848      17.57620390  T        3       0.00292600       0.00728351       0.00179498
Si       1.91514068       5.53754586      17.45750751  T        3       0.00208884       0.00445830      -0.00044111
Si       5.75193201       5.53685672      17.45561325  T        3       0.00267186       0.00466204       0.00086753
Si       9.59438473       5.54075727      17.45523212  T        3       0.00021317       0.00362140       0.00150973
Si      -0.00559655      -0.06534622      18.32051112  T        2       0.00201614       0.00464552      -0.00094446
Si       3.83378170      -0.06557405      18.30865939  T        2       0.00146795       0.00493847       0.00383828
Si       7.67329932      -0.06595070      18.31658747  T        2       0.00142936       0.00495193       0.00018435
Si       1.91534287       3.36075289      18.34412942  T        2       0.00032816       0.00609421       0.00247031
Si       5.75456890       3.36148722      18.34587958  T        2       0.00109925       0.00521195       0.00249598
Si       9.59374800       3.36028480      18.33036698  T        2       0.00203103       0.00640016       0.00830538
Si      -0.00527115      -0.94538373      20.56776693  T        1      -0.00020234       0.00742644      -0.00030627
Si       3.83717608      -0.93768421      20.54730971  T        1      -0.00098655       0.00004294       0.00531112
Si       7.66582540      -0.94869438      20.55774170  T        1      -0.00227761       0.00846309       0.00516784
Si       1.91192044       4.27695741      20.57519810  T        1      -0.00075864       0.00870252       0.00299109
Si       5.76148160       4.28363671      20.57727683  T        1      -0.00528320       0.00204956       0.00254020
Si       9.58625133       4.26824521      20.54799758  T        1       0.00054094       0.00404537       0.01152047
F        9.47185364       5.88498377      23.12118918  T        0       0.05780024       0.05023796       0.04026373
H        9.90245272       6.32140174      23.84831451  T        0      -0.03122552      -0.01476008       0.05991718
38
Lattice="11.518769465528859 0.0 0.0 3.839589821842953 6.650364651656328 0.0 0.0 0.0 32.62128289467409" Properties=species:S:1:pos:R:3:move_mask:L:1:tags:I:1:forces:R:3 surface=Si111 species=HF site=hollow orientation=parallel height_A=1.9 substrate_atoms=36 calculation_kind="Rigid evaluated approach scan; not NEB" energy=-185.00871043803045 pbc="T T F"
Si       1.91979491       1.10839411      12.00000000  F        6       0.00044781       0.00781111       0.15805484
Si       5.75938473       1.10839411      12.00000000  F        6       0.00017706       0.00775933       0.15820698
Si       9.59897455       1.10839411      12.00000000  F        6      -0.00000875       0.00821171       0.15783129
Si       3.83958982       4.43357643      12.00000000  F        6       0.00006776      -0.00710475       0.16356692
Si       7.67917964       4.43357643      12.00000000  F        6       0.00045206      -0.00714218       0.16307881
Si      11.51876947       4.43357643      12.00000000  F        6      -0.00003736      -0.00719229       0.16312607
Si       1.91979491       1.10839411      14.35125897  F        5      -0.00120566      -0.02457866      -0.28950607
Si       5.75938473       1.10839411      14.35125897  F        5      -0.00055528      -0.02370570      -0.29299941
Si       9.59897455       1.10839411      14.35125897  F        5       0.00088508      -0.02632167      -0.28790010
Si       3.83958982       4.43357643      14.35125897  F        5      -0.00049836       0.02038077      -0.29879739
Si       7.67917964       4.43357643      14.35125897  F        5      -0.00193685       0.02015280      -0.29800396
Si      11.51876947       4.43357643      14.35125897  F        5       0.00119370       0.02035335      -0.29872170
Si      -0.00000000       2.21678822      15.13501196  F        4       0.00035922      -0.04252194       0.54497085
Si       3.83958982       2.21678822      15.13501196  F        4      -0.00435672      -0.03237380       0.55038710
Si       7.67917964       2.21678822      15.13501196  F        4      -0.01247055      -0.04076046       0.54665279
Si       1.91979491       5.54197054      15.13501196  F        4      -0.00320575       0.00037586      -0.31427039
Si       5.75938473       5.54197054      15.13501196  F        4      -0.01089079      -0.00190703      -0.33185273
Si       9.59897455       5.54197054      15.13501196  F        4      -0.00146454       0.00352320      -0.33363312
Si      -0.00340533       2.20140712      17.57599693  T        3       0.00023560       0.00575599       0.00271663
Si       3.83552210       2.20249088      17.57709528  T        3       0.00053457       0.00528835       0.00041146
Si       7.67356926       2.20123588      17.57629591  T        3       0.00249686       0.00640941       0.00182863
Si       1.91526654       5.53792141      17.45760375  T        3       0.00193192       0.00504035      -0.00031440
Si       5.75262037       5.53776212      17.45588796  T        3       0.00138011       0.00376654       0.00024544
Si       9.59457218       5.54150353      17.45556179  T        3       0.00033702       0.00318614       0.00105959
Si      -0.00539394      -0.06484537      18.32041111  T        2       0.00202602       0.00487196      -0.00083479
Si       3.83428309      -0.06494213      18.31032715  T        2       0.00061405       0.00436998       0.00080927
Si       7.67357226      -0.06524365      18.31705993  T        2       0.00100178       0.00444770       0.00016381
Si       1.91536087       3.36127058      18.34453492  T        2       0.00041736       0.00632235       0.00223879
Si       5.75485628       3.36230634      18.34581684  T        2       0.00057567       0.00459554       0.00312510
Si       9.59399977       3.36102699      18.33062538  T        2       0.00181220       0.00624135       0.00957166
Si      -0.00549558      -0.94432719      20.56776045  T        1       0.00029008       0.00660778      -0.00019694
Si       3.83720012      -0.93796338      20.54929268  T        1      -0.00103216       0.00100371       0.00230633
Si       7.66536604      -0.94746389      20.55876344  T        1      -0.00159285       0.00754930       0.00309050
Si       1.91154043       4.27827540      20.57553315  T        1      -0.00031973       0.00812659       0.00282131
Si       5.76080731       4.28400632      20.57732071  T        1      -0.00493820       0.00207813       0.00294063
Si       9.58660572       4.26844208      20.54872225  T        1      -0.00001701       0.00574201       0.01323679
F        9.47677645       5.88982907      23.12424426  T        0       0.05453331       0.04433442       0.03023550
H        9.90033155       6.32118387      23.85831418  T        0      -0.02723867      -0.01069725       0.06435389
38
Lattice="11.518769465528859 0.0 0.0 3.839589821842953 6.650364651656328 0.0 0.0 0.0 32.62128289467409" Properties=species:S:1:pos:R:3:move_mask:L:1:tags:I:1:forces:R:3 surface=Si111 species=HF site=hollow orientation=parallel height_A=1.9 substrate_atoms=36 calculation_kind="Rigid evaluated approach scan; not NEB" energy=-185.0103279835773 pbc="T T F"
Si       1.91979491       1.10839411      12.00000000  F        6       0.00040212       0.00778517       0.15807291
Si       5.75938473       1.10839411      12.00000000  F        6       0.00017749       0.00774325       0.15825747
Si       9.59897455       1.10839411      12.00000000  F        6      -0.00000256       0.00816517       0.15783472
Si       3.83958982       4.43357643      12.00000000  F        6       0.00005955      -0.00712408       0.16357171
Si       7.67917964       4.43357643      12.00000000  F        6       0.00043771      -0.00719246       0.16312790
Si      11.51876947       4.43357643      12.00000000  F        6      -0.00004287      -0.00721193       0.16314662
Si       1.91979491       1.10839411      14.35125897  F        5      -0.00114754      -0.02457747      -0.28943821
Si       5.75938473       1.10839411      14.35125897  F        5      -0.00052119      -0.02371028      -0.29281739
Si       9.59897455       1.10839411      14.35125897  F        5       0.00083961      -0.02622744      -0.28770921
Si       3.83958982       4.43357643      14.35125897  F        5      -0.00049742       0.02048505      -0.29829098
Si       7.67917964       4.43357643      14.35125897  F        5      -0.00188963       0.02028411      -0.29802047
Si      11.51876947       4.43357643      14.35125897  F        5       0.00122766       0.02036134      -0.29857614
Si      -0.00000000       2.21678822      15.13501196  F        4       0.00042749      -0.04139100       0.54565639
Si       3.83958982       2.21678822      15.13501196  F        4      -0.00424958      -0.03210226       0.55302461
Si       7.67917964       2.21678822      15.13501196  F        4      -0.01180467      -0.03972481       0.54748855
Si       1.91979491       5.54197054      15.13501196  F        4      -0.00325823       0.00068747      -0.31343344
Si       5.75938473       5.54197054      15.13501196  F        4      -0.00946750      -0.00062564      -0.32888560
Si       9.59897455       5.54197054      15.13501196  F        4      -0.00177094       0.00458872      -0.32968206
Si      -0.00333371       2.20206181      17.57610476  T        3       0.00056535       0.00578491       0.00251036
Si       3.83577074       2.20313975      17.57758162  T        3       0.00005000       0.00506872      -0.00049676
Si       7.67392585       2.20209617      17.57643304  T        3       0.00187235       0.00519779       0.00197491
Si       1.91544043       5.53842288      17.45769364  T        3       0.00156510       0.00560010      -0.00002933
Si       5.75335065       5.53876955      17.45617205  T        3       0.00007975       0.00283325      -0.00034637
Si       9.59477012       5.54233583      17.45592111  T        3       0.00063513       0.00287955       0.00059876
Si      -0.00514007      -0.06422108      18.32028976  T        2       0.00191575       0.00507891      -0.00054278
Si       3.83480561      -0.06419716      18.31203554  T        2      -0.00013209       0.00372971      -0.00198960
Si       7.67387273      -0.06442073      18.31754233  T        2       0.00051087       0.00397619       0.00031351
Si       1.91538914       3.36194679      18.34499939  T        2       0.00066220       0.00638736       0.00194928
Si       5.75516114       3.36324630      18.34582841  T        2      -0.00002247       0.00383540       0.00332013
Si       9.59429829       3.36192860      18.33111709  T        2       0.00140923       0.00593256       0.01063825
Si      -0.00571589      -0.94309843      20.56774916  T        1       0.00057098       0.00583568      -0.00006723
Si       3.83719965      -0.93822198      20.55135627  T        1      -0.00118154       0.00227531      -0.00001892
Si       7.66486256      -0.94603634      20.55987242  T        1      -0.00079709       0.00665180       0.00105165
Si       1.91114790       4.27980545      20.57594026  T        1      -0.00002827       0.00755527       0.00253599
Si       5.76000577       4.28443057      20.57743582  T        1      -0.00416550       0.00228179       0.00320794
Si       9.58696419       4.26877944      20.54977424  T        1      -0.00030187       0.00757333       0.01472629
F        9.48307240       5.89580141      23.12806478  T        0       0.03394463       0.02024681      -0.01218759
H        9.89752882       6.32070616      23.86998747  T        0      -0.00607203       0.01106265       0.09952413
38
Lattice="11.518769465528859 0.0 0.0 3.839589821842953 6.650364651656328 0.0 0.0 0.0 32.62128289467409" Properties=species:S:1:pos:R:3:move_mask:L:1:tags:I:1:forces:R:3 surface=Si111 species=HF site=hollow orientation=parallel height_A=1.9 substrate_atoms=36 calculation_kind="Rigid evaluated approach scan; not NEB" energy=-185.01217964536713 pbc="T T F"
Si       1.91979491       1.10839411      12.00000000  F        6       0.00035418       0.00775537       0.15808772
Si       5.75938473       1.10839411      12.00000000  F        6       0.00017390       0.00772423       0.15831133
Si       9.59897455       1.10839411      12.00000000  F        6       0.00000643       0.00810935       0.15784425
Si       3.83958982       4.43357643      12.00000000  F        6       0.00005096      -0.00714937       0.16357727
Si       7.67917964       4.43357643      12.00000000  F        6       0.00041711      -0.00724567       0.16318023
Si      11.51876947       4.43357643      12.00000000  F        6      -0.00004452      -0.00723832       0.16317101
Si       1.91979491       1.10839411      14.35125897  F        5      -0.00106920      -0.02457459      -0.28929807
Si       5.75938473       1.10839411      14.35125897  F        5      -0.00048666      -0.02369854      -0.29254293
Si       9.59897455       1.10839411      14.35125897  F        5       0.00078250      -0.02611438      -0.28749096
Si       3.83958982       4.43357643      14.35125897  F        5      -0.00049229       0.02059748      -0.29779367
Si       7.67917964       4.43357643      14.35125897  F        5      -0.00183243       0.02042101      -0.29804015
Si      11.51876947       4.43357643      14.35125897  F        5       0.00125359       0.02038825      -0.29842907
Si      -0.00000000       2.21678822      15.13501196  F        4       0.00043023      -0.03994656       0.54676614
Si       3.83958982       2.21678822      15.13501196  F        4      -0.00412863      -0.03159240       0.55559539
Si       7.67917964       2.21678822      15.13501196  F        4      -0.01099181      -0.03840651       0.54865749
Si       1.91979491       5.54197054      15.13501196  F        4      -0.00327047       0.00111680      -0.31258672
Si       5.75938473       5.54197054      15.13501196  F        4      -0.00804291       0.00068214      -0.32595249
Si       9.59897455       5.54197054      15.13501196  F        4      -0.00203814       0.00560988      -0.32545575
Si      -0.00324510       2.20288920      17.57628513  T        3       0.00081252       0.00573532       0.00211886
Si       3.83602417       2.20394095      17.57806049  T        3      -0.00046588       0.00458241      -0.00116312
Si       7.67434030       2.20311532      17.57662794  T        3       0.00113498       0.00389625       0.00227389
Si       1.91566099       5.53908971      17.45778393  T        3       0.00104430       0.00602836       0.00031509
Si       5.75409310       5.53987087      17.45645019  T        3      -0.00109310       0.00186751      -0.00076112
Si       9.59498872       5.54326097      17.45630227  T        3       0.00096920       0.00254993       0.00041449
Si      -0.00482851      -0.06344450      18.32015140  T        2       0.00167562       0.00521587      -0.00001283
Si       3.83533148      -0.06333647      18.31371079  T        2      -0.00070312       0.00302210      -0.00453769
Si       7.67419176      -0.06347404      18.31804016  T        2      -0.00011580       0.00353183       0.00044626
Si       1.91543655       3.36281303      18.34552535  T        2       0.00103173       0.00624655       0.00155960
Si       5.75546950       3.36430762      18.34593415  T        2      -0.00058891       0.00297936       0.00301814
Si       9.59464076       3.36301044      18.33191671  T        2       0.00079111       0.00545303       0.01122796
Si      -0.00592303      -0.94168774      20.56773581  T        1       0.00063614       0.00520123       0.00005979
Si       3.83716572      -0.93841965      20.55344734  T        1      -0.00199910       0.00389206      -0.00235078
Si       7.66432967      -0.94440107      20.56102624  T        1       0.00024901       0.00583957      -0.00075100
Si       1.91074925       4.28157019      20.57642471  T        1       0.00007618       0.00693639       0.00207343
Si       5.75907541       4.28492518      20.57764332  T        1      -0.00287689       0.00257211       0.00325056
Si       9.58731899       4.26933582      20.55125748  T        1      -0.00009595       0.00860231       0.01408996
F        9.49041495       5.90242812      23.13159208  T        0       0.06555148       0.05068179       0.04254052
H        9.89451610       6.32053520      23.88463726  T        0      -0.03710536      -0.02127211       0.03858694
38
Lattice="11.518769465528859 0.0 0.0 3.839589821842953 6.650364651656328 0.0 0.0 0.0 32.62128289467409" Properties=species:S:1:pos:R:3:move_mask:L:1:tags:I:1:forces:R:3 surface=Si111 species=HF site=hollow orientation=parallel height_A=1.9 substrate_atoms=36 calculation_kind="Rigid evaluated approach scan; not NEB" energy=-185.01428108932495 pbc="T T F"
Si       1.91979491       1.10839411      12.00000000  F        6       0.00030738       0.00772119       0.15809610
Si       5.75938473       1.10839411      12.00000000  F        6       0.00016427       0.00770222       0.15836296
Si       9.59897455       1.10839411      12.00000000  F        6       0.00001798       0.00804317       0.15786278
Si       3.83958982       4.43357643      12.00000000  F        6       0.00004339      -0.00718269       0.16357994
Si       7.67917964       4.43357643      12.00000000  F        6       0.00038816      -0.00729973       0.16323442
Si      11.51876947       4.43357643      12.00000000  F        6      -0.00004082      -0.00727225       0.16320152
Si       1.91979491       1.10839411      14.35125897  F        5      -0.00097670      -0.02457082      -0.28907483
Si       5.75938473       1.10839411      14.35125897  F        5      -0.00045292      -0.02367441      -0.29216767
Si       9.59897455       1.10839411      14.35125897  F        5       0.00071923      -0.02597486      -0.28725441
Si       3.83958982       4.43357643      14.35125897  F        5      -0.00047875       0.02072063      -0.29732160
Si       7.67917964       4.43357643      14.35125897  F        5      -0.00175114       0.02056432      -0.29801880
Si      11.51876947       4.43357643      14.35125897  F        5       0.00125147       0.02043565      -0.29827631
Si      -0.00000000       2.21678822      15.13501196  F        4       0.00035019      -0.03812349       0.54828733
Si       3.83958982       2.21678822      15.13501196  F        4      -0.00400572      -0.03078532       0.55796127
Si       7.67917964       2.21678822      15.13501196  F        4      -0.01002560      -0.03678704       0.55025170
Si       1.91979491       5.54197054      15.13501196  F        4      -0.00325690       0.00171413      -0.31161297
Si       5.75938473       5.54197054      15.13501196  F        4      -0.00668782       0.00197637      -0.32319250
Si       9.59897455       5.54197054      15.13501196  F        4      -0.00221175       0.00652883      -0.32095993
Si      -0.00312782       2.20392195      17.57653956  T        3       0.00081225       0.00566308       0.00175945
Si       3.83626554       2.20490826      17.57850705  T        3      -0.00092467       0.00371546      -0.00141570
Si       7.67479901       2.20428058      17.57690235  T        3       0.00042146       0.00278260       0.00270512
Si       1.91591996       5.53996948      17.45788615  T        3       0.00044606       0.00617293       0.00059183
Si       5.75480940       5.54105108      17.45670668  T        3      -0.00202238       0.00096346      -0.00096704
Si       9.59524317       5.54428547      17.45670291  T        3       0.00118288       0.00209657       0.00016555
Si      -0.00445594      -0.06248081      18.32001061  T        2       0.00122533       0.00521108       0.00061064
Si       3.83584123      -0.06236144      18.31525719  T        2      -0.00109738       0.00238166      -0.00613837
Si       7.67451148      -0.06239458      18.31856022  T        2      -0.00061879       0.00321800       0.00042523
Si       1.91551943       3.36390245      18.34611150  T        2       0.00144185       0.00591512       0.00105176
Si       5.75576246       3.36548474      18.34614320  T        2      -0.00121692       0.00199284       0.00221398
Si       9.59501486       3.36429180      18.33310652  T        2       0.00007264       0.00466679       0.01120981
Si      -0.00611170      -0.94008128      20.56772429  T        1       0.00043453       0.00471570       0.00025662
Si       3.83706389      -0.93848893      20.55548932  T        1      -0.00230084       0.00598495      -0.00299420
Si       7.66379749      -0.94254525      20.56217139  T        1       0.00122682       0.00541050      -0.00170629
Si       1.91034741       4.28359434      20.57698607  T        1       0.00017167       0.00612381       0.00145644
Si       5.75803459       4.28551369      20.57796344  T        1      -0.00131582       0.00301551       0.00290364
Si       9.58767567       4.27019034      20.55323732  T        1       0.00020128       0.00984975       0.01350863
F        9.50007422       5.91085973      23.13660498  T        0       0.04081239       0.02195472      -0.00988414
H        9.89020852       6.31964437      23.90079992  T        0      -0.01230633       0.00442957       0.08128804
38
Lattice="11.518769465528859 0.0 0.0 3.839589821842953 6.650364651656328 0.0 0.0 0.0 32.62128289467409" Properties=species:S:1:pos:R:3:move_mask:L:1:tags:I:1:forces:R:3 surface=Si111 species=HF site=hollow orientation=parallel height_A=1.9 substrate_atoms=36 calculation_kind="Rigid evaluated approach scan; not NEB" energy=-185.0165899675249 pbc="T T F"
Si       1.91979491       1.10839411      12.00000000  F        6       0.00026575       0.00768305       0.15809884
Si       5.75938473       1.10839411      12.00000000  F        6       0.00014661       0.00767795       0.15840917
Si       9.59897455       1.10839411      12.00000000  F        6       0.00003184       0.00796457       0.15789509
Si       3.83958982       4.43357643      12.00000000  F        6       0.00003886      -0.00722753       0.16358153
Si       7.67917964       4.43357643      12.00000000  F        6       0.00034775      -0.00735283       0.16328966
Si      11.51876947       4.43357643      12.00000000  F        6      -0.00002935      -0.00731449       0.16324586
Si       1.91979491       1.10839411      14.35125897  F        5      -0.00087990      -0.02456332      -0.28874845
Si       5.75938473       1.10839411      14.35125897  F        5      -0.00042871      -0.02363285      -0.29167817
Si       9.59897455       1.10839411      14.35125897  F        5       0.00066447      -0.02580098      -0.28699413
Si       3.83958982       4.43357643      14.35125897  F        5      -0.00046010       0.02085632      -0.29688563
Si       7.67917964       4.43357643      14.35125897  F        5      -0.00164862       0.02070836      -0.29794491
Si      11.51876947       4.43357643      14.35125897  F        5       0.00122466       0.02049327      -0.29815070
Si      -0.00000000       2.21678822      15.13501196  F        4       0.00016013      -0.03585437       0.55024522
Si       3.83958982       2.21678822      15.13501196  F        4      -0.00390594      -0.02963565       0.56001393
Si       7.67917964       2.21678822      15.13501196  F        4      -0.00889617      -0.03486210       0.55251855
Si       1.91979491       5.54197054      15.13501196  F        4      -0.00321090       0.00254545      -0.31037145
Si       5.75938473       5.54197054      15.13501196  F        4      -0.00551352       0.00322031      -0.32078513
Si       9.59897455       5.54197054      15.13501196  F        4      -0.00223268       0.00729758      -0.31626876
Si      -0.00297413       2.20521176      17.57687284  T        3       0.00042611       0.00548326       0.00161160
Si       3.83647122       2.20604865      17.57890012  T        3      -0.00124649       0.00254096      -0.00142326
Si       7.67528269       2.20558222      17.57729620  T        3      -0.00011031       0.00222049       0.00296640
Si       1.91620189       5.54112569      17.45801515  T        3      -0.00002233       0.00586335       0.00059034
Si       5.75545051       5.54229039      17.45692590  T        3      -0.00256542       0.00024417      -0.00079542
Si       9.59555191       5.54541495      17.45711672  T        3       0.00098049       0.00123393       0.00027513
Si      -0.00402546      -0.06128037      18.31989368  T        2       0.00063412       0.00500711       0.00120116
Si       3.83631203      -0.06127002      18.31656574  T        2      -0.00130791       0.00173003      -0.00670623
Si       7.67480974      -0.06116152      18.31910636  T        2      -0.00106654       0.00290081       0.00014166
Si       1.91566500       3.36526053      18.34675143  T        2       0.00160477       0.00535018       0.00041001
Si       5.75600805       3.36676477      18.34644976  T        2      -0.00168671       0.00110863       0.00122106
Si       9.59539778       3.36579157      18.33479211  T        2      -0.00062834       0.00367300       0.01003457
Si      -0.00628475      -0.93824934      20.56772352  T        1       0.00020320       0.00430842       0.00055378
Si       3.83686247      -0.93830429      20.55743497  T        1      -0.00254699       0.00831068      -0.00336749
Si       7.66330944      -0.94043054      20.56326136  T        1       0.00228212       0.00542144      -0.00176916
Si       1.90994673       4.28591034      20.57761807  T        1       0.00027969       0.00504261       0.00063677
Si       5.75692179       4.28623966      20.57841216  T        1       0.00023980       0.00350435       0.00198499
Si       9.58804638       4.27147757      20.55582295  T        1       0.00060766       0.01014693       0.01026627
F        9.51161996       5.92035564      23.14127345  T        0       0.07165627       0.05295800       0.05240920
H        9.88531076       6.31892864      23.92067290  T        0      -0.04340738      -0.02925113       0.01028809
38
Lattice="11.518769465528859 0.0 0.0 3.839589821842953 6.650364651656328 0.0 0.0 0.0 32.62128289467409" Properties=species:S:1:pos:R:3:move_mask:L:1:tags:I:1:forces:R:3 surface=Si111 species=HF site=hollow orientation=parallel height_A=1.9 substrate_atoms=36 calculation_kind="Rigid evaluated approach scan; not NEB" energy=-185.01895559348876 pbc="T T F"
Si       1.91979491       1.10839411      12.00000000  F        6       0.00023210       0.00764080       0.15809342
Si       5.75938473       1.10839411      12.00000000  F        6       0.00012227       0.00765149       0.15844312
Si       9.59897455       1.10839411      12.00000000  F        6       0.00004638       0.00787462       0.15794129
Si       3.83958982       4.43357643      12.00000000  F        6       0.00004011      -0.00728439       0.16357864
Si       7.67917964       4.43357643      12.00000000  F        6       0.00029535      -0.00740413       0.16334403
Si      11.51876947       4.43357643      12.00000000  F        6      -0.00001034      -0.00736389       0.16330733
Si       1.91979491       1.10839411      14.35125897  F        5      -0.00078859      -0.02455680      -0.28831665
Si       5.75938473       1.10839411      14.35125897  F        5      -0.00041903      -0.02358875      -0.29107389
Si       9.59897455       1.10839411      14.35125897  F        5       0.00062705      -0.02559808      -0.28672742
Si       3.83958982       4.43357643      14.35125897  F        5      -0.00043829       0.02101018      -0.29648823
Si       7.67917964       4.43357643      14.35125897  F        5      -0.00150728       0.02086515      -0.29778367
Si      11.51876947       4.43357643      14.35125897  F        5       0.00115347       0.02056602      -0.29804842
Si      -0.00000000       2.21678822      15.13501196  F        4      -0.00016941      -0.03311569       0.55262741
Si       3.83958982       2.21678822      15.13501196  F        4      -0.00384827      -0.02817330       0.56172691
Si       7.67917964       2.21678822      15.13501196  F        4      -0.00762173      -0.03262842       0.55556855
Si       1.91979491       5.54197054      15.13501196  F        4      -0.00315082       0.00364887      -0.30882301
Si       5.75938473       5.54197054      15.13501196  F        4      -0.00457155       0.00439961      -0.31869307
Si       9.59897455       5.54197054      15.13501196  F        4      -0.00208857       0.00786037      -0.31132957
Si      -0.00279793       2.20678020      17.57728727  T        3      -0.00024401       0.00507862       0.00174572
Si       3.83662160       2.20732692      17.57923262  T        3      -0.00136603       0.00117486      -0.00123620
Si       7.67576900       2.20700927      17.57783588  T        3      -0.00043750       0.00216746       0.00271073
Si       1.91648733       5.54257625      17.45817398  T        3      -0.00025821       0.00502957       0.00027755
Si       5.75598134       5.54356118      17.45711126  T        3      -0.00274527      -0.00008995      -0.00039574
Si       9.59591173       5.54662068      17.45755016  T        3       0.00034088       0.00013698       0.00003406
Si      -0.00355823      -0.05982512      18.31983134  T        2      -0.00009603       0.00456110       0.00143409
Si       3.83672893      -0.06007964      18.31758009  T        2      -0.00145370       0.00121472      -0.00550904
Si       7.67506266      -0.05977215      18.31966797  T        2      -0.00111643       0.00261432      -0.00023934
Si       1.91588838       3.36689209      18.34742096  T        2       0.00134225       0.00457586      -0.00031598
Si       5.75617830       3.36811759      18.34681869  T        2      -0.00209682       0.00040505       0.00038923
Si       9.59575733       3.36748826      18.33697672  T        2      -0.00106508       0.00251300       0.00788698
Si      -0.00645103      -0.93618525      20.56774878  T        1       0.00004502       0.00376961       0.00103182
Si       3.83653804      -0.93772591      20.55925370  T        1      -0.00087480       0.01064449      -0.00121797
Si       7.66292081      -0.93802679      20.56428575  T        1       0.00281202       0.00602455      -0.00056054
Si       1.90955274       4.28850082      20.57829021  T        1       0.00061258       0.00370332      -0.00019927
Si       5.75580230       4.28714212      20.57896146  T        1       0.00132152       0.00431930       0.00044759
Si       9.58845165       4.27326266      20.55893303  T        1       0.00046335       0.01156288       0.00859361
F        9.52672124       5.93249484      23.14848148  T        0      -0.00107580      -0.02949854      -0.11248457
H        9.87829300       6.31682600      23.94135041  T        0       0.02798921       0.04828913       0.16026050
38
Lattice="11.518769465528859 0.0 0.0 3.839589821842953 6.650364651656328 0.0 0.0 0.0 32.62128289467409" Properties=species:S:1:pos:R:3:move_mask:L:1:tags:I:1:forces:R:3 surface=Si111 species=HF site=hollow orientation=parallel height_A=1.9 substrate_atoms=36 calculation_kind="Rigid evaluated approach scan; not NEB" energy=-185.01966729824048 pbc="T T F"
Si       1.91979491       1.10839411      12.00000000  F        6       0.00020403       0.00759651       0.15808966
Si       5.75938473       1.10839411      12.00000000  F        6       0.00009496       0.00762380       0.15847580
Si       9.59897455       1.10839411      12.00000000  F        6       0.00006237       0.00777459       0.15800133
Si       3.83958982       4.43357643      12.00000000  F        6       0.00004716      -0.00735101       0.16358536
Si       7.67917964       4.43357643      12.00000000  F        6       0.00023327      -0.00745515       0.16339984
Si      11.51876947       4.43357643      12.00000000  F        6       0.00001561      -0.00741921       0.16339000
Si       1.91979491       1.10839411      14.35125897  F        5      -0.00069600      -0.02454381      -0.28778228
Si       5.75938473       1.10839411      14.35125897  F        5      -0.00043732      -0.02351964      -0.29036474
Si       9.59897455       1.10839411      14.35125897  F        5       0.00060960      -0.02537470      -0.28642720
Si       3.83958982       4.43357643      14.35125897  F        5      -0.00042945       0.02116723      -0.29611154
Si       7.67917964       4.43357643      14.35125897  F        5      -0.00137219       0.02101713      -0.29763017
Si      11.51876947       4.43357643      14.35125897  F        5       0.00109352       0.02063675      -0.29803710
Si      -0.00000000       2.21678822      15.13501196  F        4      -0.00064816      -0.03000424       0.55551985
Si       3.83958982       2.21678822      15.13501196  F        4      -0.00384753      -0.02651885       0.56315656
Si       7.67917964       2.21678822      15.13501196  F        4      -0.00624141      -0.03015605       0.55943705
Si       1.91979491       5.54197054      15.13501196  F        4      -0.00303214       0.00500188      -0.30712380
Si       5.75938473       5.54197054      15.13501196  F        4      -0.00389203       0.00553909      -0.31682175
Si       9.59897455       5.54197054      15.13501196  F        4      -0.00183986       0.00826379      -0.30631933
Si      -0.00263012       2.20861205      17.57779013  T        3      -0.00097000       0.00412869       0.00175108
Si       3.83671086       2.20868167      17.57951314  T        3      -0.00138494       0.00017140      -0.00138774
Si       7.67624316       2.20856160      17.57851110  T        3      -0.00064682       0.00240628       0.00155624
Si       1.91676557       5.54428592      17.45834845  T        3      -0.00017319       0.00379773      -0.00027212
Si       5.75639319       5.54484936      17.45728131  T        3      -0.00261675      -0.00008359       0.00033219
Si       9.59629355       5.54785328      17.45799254  T        3      -0.00069818      -0.00112808       0.00100934
Si      -0.00308753      -0.05813252      18.31983479  T        2      -0.00064536       0.00389521       0.00154726
Si       3.83708514      -0.05881242      18.31835484  T        2      -0.00135717       0.00048036      -0.00418271
Si       7.67526782      -0.05823732      18.32022797  T        2      -0.00152912       0.00189424      -0.00075236
Si       1.91617813       3.36876468      18.34808713  T        2       0.00053184       0.00350050      -0.00108613
Si       5.75625369       3.36951226      18.34721204  T        2      -0.00189797       0.00029875       0.00005373
Si       9.59607334       3.36933091      18.33956611  T        2      -0.00139432       0.00180614       0.00457814
Si      -0.00661804      -0.93391038      20.56782256  T        1       0.00031347       0.00308562       0.00137783
Si       3.83616733      -0.93664147      20.56104653  T        1      -0.00136767       0.01190646      -0.00309545
Si       7.66265667      -0.93530135      20.56530139  T        1       0.00417878       0.00642298      -0.00009750
Si       1.90918062       4.29130794      20.57896448  T        1       0.00070053       0.00237265      -0.00107838
Si       5.75472542       4.28826127      20.57954095  T        1       0.00245566       0.00524239      -0.00120578
Si       9.58888540       4.27561713      20.56249654  T        1       0.00081268       0.00984589      -0.00072053
F        9.54202881       5.94346497      23.15056793  T        0       0.20313517       0.20256916       0.40100103
H        9.87246092       6.31693889      23.96985031  T        0      -0.17737109      -0.18489089      -0.35576569
38
Lattice="11.518769465528859 0.0 0.0 3.839589821842953 6.650364651656328 0.0 0.0 0.0 32.62128289467409" Properties=species:S:1:pos:R:3:move_mask:L:1:tags:I:1:forces:R:3 surface=Si111 species=HF site=hollow orientation=parallel height_A=1.9 substrate_atoms=36 calculation_kind="Rigid evaluated approach scan; not NEB" energy=-185.02161649130971 pbc="T T F"
Si       1.91979491       1.10839411      12.00000000  F        6       0.00020504       0.00759543       0.15808576
Si       5.75938473       1.10839411      12.00000000  F        6       0.00009542       0.00762275       0.15847093
Si       9.59897455       1.10839411      12.00000000  F        6       0.00006211       0.00777415       0.15800074
Si       3.83958982       4.43357643      12.00000000  F        6       0.00004849      -0.00735133       0.16358096
Si       7.67917964       4.43357643      12.00000000  F        6       0.00023265      -0.00745481       0.16339773
Si      11.51876947       4.43357643      12.00000000  F        6       0.00001584      -0.00741969       0.16338931
Si       1.91979491       1.10839411      14.35125897  F        5      -0.00069535      -0.02454734      -0.28777344
Si       5.75938473       1.10839411      14.35125897  F        5      -0.00043738      -0.02352868      -0.29035030
Si       9.59897455       1.10839411      14.35125897  F        5       0.00060691      -0.02537703      -0.28644231
Si       3.83958982       4.43357643      14.35125897  F        5      -0.00042802       0.02116981      -0.29611849
Si       7.67917964       4.43357643      14.35125897  F        5      -0.00135355       0.02102597      -0.29759948
Si      11.51876947       4.43357643      14.35125897  F        5       0.00107076       0.02065018      -0.29801887
Si      -0.00000000       2.21678822      15.13501196  F        4      -0.00067928      -0.02993936       0.55558608
Si       3.83958982       2.21678822      15.13501196  F        4      -0.00385311      -0.02649828       0.56309193
Si       7.67917964       2.21678822      15.13501196  F        4      -0.00623580      -0.03009798       0.55946882
Si       1.91979491       5.54197054      15.13501196  F        4      -0.00304508       0.00504151      -0.30713377
Si       5.75938473       5.54197054      15.13501196  F        4      -0.00391434       0.00553285      -0.31677246
Si       9.59897455       5.54197054      15.13501196  F        4      -0.00183379       0.00821107      -0.30622663
Si      -0.00263838       2.20864723      17.57780505  T        3      -0.00090937       0.00408831       0.00172791
Si       3.83669906       2.20868313      17.57950131  T        3      -0.00134880       0.00015613      -0.00120663
Si       7.67623765       2.20858210      17.57852436  T        3      -0.00067905       0.00230390       0.00154564
Si       1.91676410       5.54431828      17.45834613  T        3      -0.00020771       0.00374544      -0.00022482
Si       5.75637089       5.54484865      17.45728414  T        3      -0.00259867       0.00001988       0.00020794
Si       9.59628760       5.54784366      17.45800114  T        3      -0.00061950      -0.00087073       0.00025721
Si      -0.00309303      -0.05809933      18.31984798  T        2      -0.00071482       0.00383300       0.00139444
Si       3.83707358      -0.05880833      18.31831920  T        2      -0.00143821       0.00070568      -0.00352157
Si       7.67525479      -0.05822117      18.32022155  T        2      -0.00119923       0.00204352      -0.00063840
Si       1.91618267       3.36879451      18.34807788  T        2       0.00056689       0.00348608      -0.00105333
Si       5.75623751       3.36951481      18.34721249  T        2      -0.00205793       0.00023273       0.00004431
Si       9.59606145       3.36934630      18.33960512  T        2      -0.00128669       0.00169950       0.00485494
Si      -0.00661537      -0.93388408      20.56783431  T        1       0.00021680       0.00302892       0.00141600
Si       3.83615567      -0.93654000      20.56102015  T        1       0.00028259       0.01200178      -0.00034127
Si       7.66269228      -0.93524662      20.56530056  T        1       0.00354377       0.00662719       0.00051996
Si       1.90918659       4.29132816      20.57895529  T        1       0.00083701       0.00239887      -0.00095051
Si       5.75474635       4.28830594      20.57953067  T        1       0.00227708       0.00547037      -0.00125603
Si       9.58889233       4.27570103      20.56249040  T        1       0.00040221       0.01165336       0.00344812
F        9.54375990       5.94519124      23.15398521  T        0       0.04978072       0.02561989       0.00985311
H        9.87094938       6.31536327      23.96681852  T        0      -0.02470860      -0.01065301       0.02728647
38
Lattice="11.518769465528859 0.0 0.0 3.839589821842953 6.650364651656328 0.0 0.0 0.0 32.62128289467409" Properties=species:S:1:pos:R:3:move_mask:L:1:tags:I:1:forces:R:3 surface=Si111 species=HF site=hollow orientation=parallel height_A=1.9 substrate_atoms=36 calculation_kind="Rigid evaluated approach scan; not NEB" energy=-185.02011109484855 pbc="T T F"
Si       1.91979491       1.10839411      12.00000000  F        6       0.00020719       0.00759357       0.15808116
Si       5.75938473       1.10839411      12.00000000  F        6       0.00009638       0.00762080       0.15846511
Si       9.59897455       1.10839411      12.00000000  F        6       0.00006235       0.00777188       0.15800169
Si       3.83958982       4.43357643      12.00000000  F        6       0.00005161      -0.00735281       0.16357776
Si       7.67917964       4.43357643      12.00000000  F        6       0.00023054      -0.00745422       0.16339464
Si      11.51876947       4.43357643      12.00000000  F        6       0.00001743      -0.00742135       0.16339127
Si       1.91979491       1.10839411      14.35125897  F        5      -0.00069143      -0.02455048      -0.28774293
Si       5.75938473       1.10839411      14.35125897  F        5      -0.00044391      -0.02353300      -0.29031139
Si       9.59897455       1.10839411      14.35125897  F        5       0.00060386      -0.02537933      -0.28645963
Si       3.83958982       4.43357643      14.35125897  F        5      -0.00043064       0.02116982      -0.29613351
Si       7.67917964       4.43357643      14.35125897  F        5      -0.00133210       0.02103371      -0.29756771
Si      11.51876947       4.43357643      14.35125897  F        5       0.00104415       0.02066869      -0.29801416
Si      -0.00000000       2.21678822      15.13501196  F        4      -0.00076205      -0.02978821       0.55580321
Si       3.83958982       2.21678822      15.13501196  F        4      -0.00387452      -0.02645354       0.56292580
Si       7.67917964       2.21678822      15.13501196  F        4      -0.00621838      -0.02997109       0.55963457
Si       1.91979491       5.54197054      15.13501196  F        4      -0.00304767       0.00514537      -0.30717565
Si       5.75938473       5.54197054      15.13501196  F        4      -0.00400423       0.00551870      -0.31670793
Si       9.59897455       5.54197054      15.13501196  F        4      -0.00182169       0.00809915      -0.30610457
Si      -0.00266064       2.20874550      17.57784663  T        3      -0.00079530       0.00390334       0.00159631
Si       3.83666646       2.20868699      17.57947101  T        3      -0.00128516       0.00029722      -0.00101241
Si       7.67622162       2.20863809      17.57856148  T        3      -0.00071132       0.00214967       0.00139052
Si       1.91675938       5.54440843      17.45834038  T        3      -0.00021655       0.00361696      -0.00016173
Si       5.75630849       5.54484833      17.45729008  T        3      -0.00251458       0.00022930       0.00006579
Si       9.59627215       5.54782083      17.45801308  T        3      -0.00052360      -0.00040878      -0.00052871
Si      -0.00310963      -0.05800701      18.31988256  T        2      -0.00074255       0.00368180       0.00119461
Si       3.83703974      -0.05879315      18.31822974  T        2      -0.00147303       0.00099621      -0.00269542
Si       7.67522353      -0.05817335      18.32020538  T        2      -0.00085287       0.00215248      -0.00048049
Si       1.91619598       3.36887815      18.34805239  T        2       0.00053497       0.00340502      -0.00097489
Si       5.75618943       3.36952089      18.34721363  T        2      -0.00212112       0.00028641       0.00010591
Si       9.59602980       3.36938784      18.33971933  T        2      -0.00113482       0.00171629       0.00513099
Si      -0.00660943      -0.93381107      20.56786794  T        1       0.00014384       0.00296101       0.00135888
Si       3.83614979      -0.93625315      20.56099085  T        1       0.00176142       0.01178825       0.00237513
Si       7.66278207      -0.93508939      20.56530829  T        1       0.00276392       0.00677208       0.00131379
Si       1.90920560       4.29138544      20.57893154  T        1       0.00092450       0.00249020      -0.00075564
Si       5.75480228       4.28843527      20.57950096  T        1       0.00205930       0.00576931      -0.00127302
Si       9.58890511       4.27596640      20.56254105  T        1       0.00012396       0.01317335       0.00725814
F        9.54612891       5.94716228      23.15722129  T        0      -0.10654660      -0.15496318      -0.39019955
H        9.86918645       6.31377165      23.96453445  T        0       0.13091869       0.16726541       0.41923406
38
Lattice="11.518769465528859 0.0 0.0 3.839589821842953 6.650364651656328 0.0 0.0 0.0 32.62128289467409" Properties=species:S:1:pos:R:3:move_mask:L:1:tags:I:1:forces:R:3 surface=Si111 species=HF site=hollow orientation=parallel height_A=1.9 substrate_atoms=36 calculation_kind="Rigid evaluated approach scan; not NEB" energy=-185.02086668173328 pbc="T T F"
Si       1.91979491       1.10839411      12.00000000  F        6       0.00020727       0.00759360       0.15808188
Si       5.75938473       1.10839411      12.00000000  F        6       0.00009638       0.00762080       0.15846599
Si       9.59897455       1.10839411      12.00000000  F        6       0.00006254       0.00777150       0.15800225
Si       3.83958982       4.43357643      12.00000000  F        6       0.00005178      -0.00735305       0.16357905
Si       7.67917964       4.43357643      12.00000000  F        6       0.00023028      -0.00745422       0.16339492
Si      11.51876947       4.43357643      12.00000000  F        6       0.00001774      -0.00742154       0.16339211
Si       1.91979491       1.10839411      14.35125897  F        5      -0.00069080      -0.02454958      -0.28773974
Si       5.75938473       1.10839411      14.35125897  F        5      -0.00044558      -0.02352979      -0.29030883
Si       9.59897455       1.10839411      14.35125897  F        5       0.00060445      -0.02537869      -0.28645675
Si       3.83958982       4.43357643      14.35125897  F        5      -0.00043200       0.02116863      -0.29613404
Si       7.67917964       4.43357643      14.35125897  F        5      -0.00133590       0.02103137      -0.29757534
Si      11.51876947       4.43357643      14.35125897  F        5       0.00104861       0.02066697      -0.29802266
Si      -0.00000000       2.21678822      15.13501196  F        4      -0.00076835      -0.02978106       0.55582730
Si       3.83958982       2.21678822      15.13501196  F        4      -0.00387733      -0.02645143       0.56291375
Si       7.67917964       2.21678822      15.13501196  F        4      -0.00621665      -0.02996671       0.55966166
Si       1.91979491       5.54197054      15.13501196  F        4      -0.00304173       0.00515308      -0.30718163
Si       5.75938473       5.54197054      15.13501196  F        4      -0.00401697       0.00551818      -0.31671518
Si       9.59897455       5.54197054      15.13501196  F        4      -0.00182153       0.00809665      -0.30611962
Si      -0.00266233       2.20875382      17.57785003  T        3      -0.00079550       0.00387234       0.00156998
Si       3.83666372       2.20868762      17.57946886  T        3      -0.00128521       0.00034044      -0.00104944
Si       7.67622011       2.20864267      17.57856444  T        3      -0.00070486       0.00215827       0.00135164
Si       1.91675892       5.54441613      17.45834004  T        3      -0.00020154       0.00361004      -0.00016822
Si       5.75630313       5.54484882      17.45729022  T        3      -0.00250119       0.00023258       0.00008884
Si       9.59627104       5.54781996      17.45801195  T        3      -0.00053978      -0.00042512      -0.00033653
Si      -0.00311121      -0.05799916      18.31988511  T        2      -0.00071657       0.00367462       0.00121432
Si       3.83703660      -0.05879103      18.31822400  T        2      -0.00144307       0.00096511      -0.00282081
Si       7.67522171      -0.05816877      18.32020436  T        2      -0.00092015       0.00210695      -0.00050588
Si       1.91619712       3.36888541      18.34805031  T        2       0.00051406       0.00338760      -0.00097391
Si       5.75618491       3.36952150      18.34721385  T        2      -0.00206466       0.00032721       0.00012018
Si       9.59602738       3.36939149      18.33973027  T        2      -0.00114911       0.00176848       0.00505459
Si      -0.00660913      -0.93380476      20.56787084  T        1       0.00017235       0.00296852       0.00132969
Si       3.83615354      -0.93622804      20.56099591  T        1       0.00138370       0.01168782       0.00174931
Si       7.66278795      -0.93507496      20.56531109  T        1       0.00292847       0.00671273       0.00108291
Si       1.90920756       4.29139075      20.57892993  T        1       0.00088065       0.00249848      -0.00077097
Si       5.75480666       4.28844757      20.57949825  T        1       0.00208043       0.00572383      -0.00125420
Si       9.58890538       4.27599447      20.56255652  T        1       0.00020475       0.01267494       0.00620363
F        9.54590191       5.94683214      23.15638998  T        0      -0.06572622      -0.10775994      -0.28563606
H        9.86946537       6.31412801      23.96542762  T        0       0.09021122       0.12074039       0.31668580
38
Lattice="11.518769465528859 0.0 0.0 3.839589821842953 6.650364651656328 0.0 0.0 0.0 32.62128289467409" Properties=species:S:1:pos:R:3:move_mask:L:1:tags:I:1:forces:R:3 surface=Si111 species=HF site=hollow orientation=parallel height_A=1.9 substrate_atoms=36 calculation_kind="Rigid evaluated approach scan; not NEB" energy=-185.02163805653248 pbc="T T F"
Si       1.91979491       1.10839411      12.00000000  F        6       0.00020745       0.00759362       0.15808309
Si       5.75938473       1.10839411      12.00000000  F        6       0.00009641       0.00762075       0.15846747
Si       9.59897455       1.10839411      12.00000000  F        6       0.00006289       0.00777075       0.15800330
Si       3.83958982       4.43357643      12.00000000  F        6       0.00005213      -0.00735352       0.16358130
Si       7.67917964       4.43357643      12.00000000  F        6       0.00022977      -0.00745421       0.16339537
Si      11.51876947       4.43357643      12.00000000  F        6       0.00001833      -0.00742192       0.16339365
Si       1.91979491       1.10839411      14.35125897  F        5      -0.00068956      -0.02454798      -0.28773333
Si       5.75938473       1.10839411      14.35125897  F        5      -0.00044868      -0.02352401      -0.29030338
Si       9.59897455       1.10839411      14.35125897  F        5       0.00060540      -0.02537752      -0.28645184
Si       3.83958982       4.43357643      14.35125897  F        5      -0.00043448       0.02116648      -0.29613532
Si       7.67917964       4.43357643      14.35125897  F        5      -0.00134228       0.02102722      -0.29758820
Si      11.51876947       4.43357643      14.35125897  F        5       0.00105605       0.02066416      -0.29803758
Si      -0.00000000       2.21678822      15.13501196  F        4      -0.00078133      -0.02976510       0.55587431
Si       3.83958982       2.21678822      15.13501196  F        4      -0.00388282      -0.02644656       0.56288877
Si       7.67917964       2.21678822      15.13501196  F        4      -0.00621316      -0.02995620       0.55971283
Si       1.91979491       5.54197054      15.13501196  F        4      -0.00303109       0.00516900      -0.30719309
Si       5.75938473       5.54197054      15.13501196  F        4      -0.00404161       0.00551707      -0.31672727
Si       9.59897455       5.54197054      15.13501196  F        4      -0.00182103       0.00808999      -0.30614424
Si      -0.00266578       2.20877068      17.57785689  T        3      -0.00079536       0.00381530       0.00152240
Si       3.83665815       2.20868902      17.57946437  T        3      -0.00128389       0.00042001      -0.00111194
Si       7.67621704       2.20865202      17.57857038  T        3      -0.00069236       0.00217270       0.00128216
Si       1.91675802       5.54443181      17.45833932  T        3      -0.00017516       0.00359473      -0.00017904
Si       5.75629226       5.54484982      17.45729056  T        3      -0.00247461       0.00024195       0.00012828
Si       9.59626872       5.54781814      17.45801012  T        3      -0.00056678      -0.00044480      -0.00001105
Si      -0.00311437      -0.05798321      18.31989034  T        2      -0.00067055       0.00365863       0.00124686
Si       3.83703028      -0.05878678      18.31821200  T        2      -0.00138957       0.00091421      -0.00302712
Si       7.67521785      -0.05815954      18.32020221  T        2      -0.00103531       0.00202803      -0.00054643
Si       1.91619939       3.36890014      18.34804608  T        2       0.00047476       0.00335599      -0.00096947
Si       5.75617585       3.36952284      18.34721435  T        2      -0.00196265       0.00040280       0.00014735
Si       9.59602242       3.36939907      18.33975234  T        2      -0.00117177       0.00186182       0.00492093
Si      -0.00660844      -0.93379190      20.56787666  T        1       0.00022139       0.00298228       0.00127504
Si       3.83616027      -0.93617715      20.56100469  T        1       0.00071976       0.01150214       0.00066593
Si       7.66280034      -0.93504573      20.56531623  T        1       0.00319659       0.00660696       0.00071439
Si       1.90921147       4.29140157      20.57892661  T        1       0.00080352       0.00251533      -0.00079462
Si       5.75481565       4.28847248      20.57949277  T        1       0.00211621       0.00564851      -0.00122004
Si       9.58890611       4.27605040      20.56258545  T        1       0.00035635       0.01180643       0.00437375
F        9.54553854       5.94627420      23.15495049  T        0       0.00310086      -0.02805407      -0.10889167
H        9.86993473       6.31474095      23.96699793  T        0       0.02158620       0.04219903       0.14338847
38
Lattice="11.518769465528859 0.0 0.0 3.839589821842953 6.650364651656328 0.0 0.0 0.0 32.62128289467409" Properties=species:S:1:pos:R:3:move_mask:L:1:tags:I:1:forces:R:3 surface=Si111 species=HF site=hollow orientation=parallel height_A=1.9 substrate_atoms=36 calculation_kind="Rigid evaluated approach scan; not NEB" energy=-185.02171236905244 pbc="T T F"
Si       1.91979491       1.10839411      12.00000000  F        6       0.00020784       0.00759353       0.15808436
Si       5.75938473       1.10839411      12.00000000  F        6       0.00009648       0.00762055       0.15846905
Si       9.59897455       1.10839411      12.00000000  F        6       0.00006338       0.00776960       0.15800473
Si       3.83958982       4.43357643      12.00000000  F        6       0.00005278      -0.00735425       0.16358398
Si       7.67917964       4.43357643      12.00000000  F        6       0.00022897      -0.00745416       0.16339577
Si      11.51876947       4.43357643      12.00000000  F        6       0.00001922      -0.00742253       0.16339573
Si       1.91979491       1.10839411      14.35125897  F        5      -0.00068769      -0.02454606      -0.28772299
Si       5.75938473       1.10839411      14.35125897  F        5      -0.00045299      -0.02351664      -0.29029377
Si       9.59897455       1.10839411      14.35125897  F        5       0.00060630      -0.02537589      -0.28644650
Si       3.83958982       4.43357643      14.35125897  F        5      -0.00043780       0.02116366      -0.29613801
Si       7.67917964       4.43357643      14.35125897  F        5      -0.00134907       0.02102211      -0.29760230
Si      11.51876947       4.43357643      14.35125897  F        5       0.00106379       0.02066156      -0.29805603
Si      -0.00000000       2.21678822      15.13501196  F        4      -0.00080356      -0.02973443       0.55594745
Si       3.83958982       2.21678822      15.13501196  F        4      -0.00389131      -0.02643665       0.56284550
Si       7.67917964       2.21678822      15.13501196  F        4      -0.00620746      -0.02993402       0.55978707
Si       1.91979491       5.54197054      15.13501196  F        4      -0.00301751       0.00519635      -0.30721020
Si       5.75938473       5.54197054      15.13501196  F        4      -0.00407921       0.00551507      -0.31673957
Si       9.59897455       5.54197054      15.13501196  F        4      -0.00181966       0.00807444      -0.30616827
Si      -0.00267157       2.20879873      17.57786821  T        3      -0.00079241       0.00373550       0.00145800
Si       3.83664880       2.20869169      17.57945659  T        3      -0.00127731       0.00052890      -0.00117896
Si       7.67621194       2.20866777      17.57858005  T        3      -0.00067467       0.00218651       0.00119106
Si       1.91675661       5.54445805      17.45833807  T        3      -0.00014298       0.00356591      -0.00018986
Si       5.75627411       5.54485154      17.45729130  T        3      -0.00243226       0.00026566       0.00017209
Si       9.59626473       5.54781501      17.45800844  T        3      -0.00059544      -0.00044160       0.00035268
Si      -0.00311947      -0.05795650      18.31989926  T        2      -0.00061373       0.00362829       0.00127766
Si       3.83701990      -0.05877987      18.31819099  T        2      -0.00132242       0.00086718      -0.00323614
Si       7.67521087      -0.05814439      18.32019844  T        2      -0.00116252       0.00193579      -0.00058686
Si       1.91620304       3.36892472      18.34803901  T        2       0.00042044       0.00331257      -0.00095643
Si       5.75616106       3.36952541      18.34721529  T        2      -0.00183198       0.00050541       0.00018541
Si       9.59601400       3.36941217      18.33978882  T        2      -0.00119129       0.00197934       0.00475818
Si      -0.00660706      -0.93377026      20.56788621  T        1       0.00027781       0.00299921       0.00119938
Si       3.83616875      -0.93609251      20.56101485  T        1      -0.00006159       0.01124926      -0.00057420
Si       7.66282228      -0.93499711      20.56532326  T        1       0.00347339       0.00647678       0.00033719
Si       1.90921770       4.29141980      20.57892094  T        1       0.00070990       0.00254245      -0.00081308
Si       5.75483088       4.28851398      20.57948373  T        1       0.00215135       0.00556890      -0.00117546
Si       9.58890798       4.27614061      20.56262625  T        1       0.00055270       0.01078080       0.00224864
F        9.54522198       5.94567733      23.15328726  T        0       0.07966913       0.06084862       0.08861102
H        9.87043004       6.31543509      23.96889538  T        0      -0.05474864      -0.04537772      -0.05021634
38
Lattice="11.518769465528859 0.0 0.0 3.839589821842953 6.650364651656328 0.0 0.0 0.0 32.62128289467409" Properties=species:S:1:pos:R:3:move_mask:L:1:tags:I:1:forces:R:3 surface=Si111 species=HF site=hollow orientation=parallel height_A=1.9 substrate_atoms=36 calculation_kind="Rigid evaluated approach scan; not NEB" energy=-185.0217258448547 pbc="T T F"
Si       1.91979491       1.10839411      12.00000000  F        6       0.00020788       0.00759350       0.15808429
Si       5.75938473       1.10839411      12.00000000  F        6       0.00009649       0.00762051       0.15846896
Si       9.59897455       1.10839411      12.00000000  F        6       0.00006339       0.00776954       0.15800476
Si       3.83958982       4.43357643      12.00000000  F        6       0.00005283      -0.00735429       0.16358392
Si       7.67917964       4.43357643      12.00000000  F        6       0.00022892      -0.00745414       0.16339573
Si      11.51876947       4.43357643      12.00000000  F        6       0.00001927      -0.00742257       0.16339577
Si       1.91979491       1.10839411      14.35125897  F        5      -0.00068761      -0.02454609      -0.28772237
Si       5.75938473       1.10839411      14.35125897  F        5      -0.00045311      -0.02351664      -0.29029302
Si       9.59897455       1.10839411      14.35125897  F        5       0.00060622      -0.02537585      -0.28644676
Si       3.83958982       4.43357643      14.35125897  F        5      -0.00043785       0.02116364      -0.29613832
Si       7.67917964       4.43357643      14.35125897  F        5      -0.00134872       0.02102216      -0.29760178
Si      11.51876947       4.43357643      14.35125897  F        5       0.00106334       0.02066185      -0.29805601
Si      -0.00000000       2.21678822      15.13501196  F        4      -0.00080527      -0.02973139       0.55595157
Si       3.83958982       2.21678822      15.13501196  F        4      -0.00389176      -0.02643551       0.56284203
Si       7.67917964       2.21678822      15.13501196  F        4      -0.00620709      -0.02993144       0.55978994
Si       1.91979491       5.54197054      15.13501196  F        4      -0.00301744       0.00519848      -0.30721098
Si       5.75938473       5.54197054      15.13501196  F        4      -0.00408113       0.00551490      -0.31673865
Si       9.59897455       5.54197054      15.13501196  F        4      -0.00181944       0.00807242      -0.30616634
Si      -0.00267199       2.20880072      17.57786899  T        3      -0.00079133       0.00373266       0.00145609
Si       3.83664812       2.20869197      17.57945596  T        3      -0.00127581       0.00053141      -0.00117544
Si       7.67621158       2.20866893      17.57858068  T        3      -0.00067443       0.00218480       0.00118932
Si       1.91675654       5.54445995      17.45833797  T        3      -0.00014320       0.00356326      -0.00018901
Si       5.75627282       5.54485168      17.45729139  T        3      -0.00242973       0.00026917       0.00017023
Si       9.59626441       5.54781477      17.45800863  T        3      -0.00059411      -0.00043442       0.00034198
Si      -0.00311980      -0.05795457      18.31989994  T        2      -0.00061415       0.00362548       0.00127421
Si       3.83701920      -0.05877941      18.31818926  T        2      -0.00132270       0.00087268      -0.00322294
Si       7.67521026      -0.05814336      18.32019813  T        2      -0.00115668       0.00193781      -0.00058495
Si       1.91620326       3.36892649      18.34803850  T        2       0.00041967       0.00331100      -0.00095473
Si       5.75616008       3.36952568      18.34721539  T        2      -0.00183212       0.00050690       0.00018594
Si       9.59601337       3.36941322      18.33979135  T        2      -0.00118876       0.00197897       0.00475923
Si      -0.00660692      -0.93376866      20.56788685  T        1       0.00027638       0.00299861       0.00119800
Si       3.83616872      -0.93608651      20.56101455  T        1      -0.00003902       0.01124433      -0.00053377
Si       7.66282413      -0.93499366      20.56532344  T        1       0.00346189       0.00647838       0.00034684
Si       1.90921807       4.29142116      20.57892051  T        1       0.00071089       0.00254399      -0.00080999
Si       5.75483203       4.28851694      20.57948310  T        1       0.00214744       0.00557238      -0.00117522
Si       9.58890827       4.27614635      20.56262745  T        1       0.00054845       0.01080111       0.00230414
F        9.54526441       5.94570974      23.15333446  T        0       0.07750322       0.05834344       0.08305527
H        9.87040088       6.31541092      23.96886864  T        0      -0.05259483      -0.04291101      -0.04477795
38
Lattice="11.518769465528859 0.0 0.0 3.839589821842953 6.650364651656328 0.0 0.0 0.0 32.62128289467409" Properties=species:S:1:pos:R:3:move_mask:L:1:tags:I:1:forces:R:3 surface=Si111 species=HF site=hollow orientation=parallel height_A=1.9 substrate_atoms=36 calculation_kind="Rigid evaluated approach scan; not NEB" energy=-185.02175011437745 pbc="T T F"
Si       1.91979491       1.10839411      12.00000000  F        6       0.00020798       0.00759342       0.15808414
Si       5.75938473       1.10839411      12.00000000  F        6       0.00009651       0.00762043       0.15846878
Si       9.59897455       1.10839411      12.00000000  F        6       0.00006341       0.00776942       0.15800484
Si       3.83958982       4.43357643      12.00000000  F        6       0.00005295      -0.00735437       0.16358382
Si       7.67917964       4.43357643      12.00000000  F        6       0.00022882      -0.00745411       0.16339564
Si      11.51876947       4.43357643      12.00000000  F        6       0.00001935      -0.00742265       0.16339585
Si       1.91979491       1.10839411      14.35125897  F        5      -0.00068744      -0.02454614      -0.28772115
Si       5.75938473       1.10839411      14.35125897  F        5      -0.00045336      -0.02351663      -0.29029152
Si       9.59897455       1.10839411      14.35125897  F        5       0.00060607      -0.02537578      -0.28644726
Si       3.83958982       4.43357643      14.35125897  F        5      -0.00043796       0.02116360      -0.29613895
Si       7.67917964       4.43357643      14.35125897  F        5      -0.00134804       0.02102225      -0.29760077
Si      11.51876947       4.43357643      14.35125897  F        5       0.00106244       0.02066242      -0.29805600
Si      -0.00000000       2.21678822      15.13501196  F        4      -0.00080870      -0.02972531       0.55595982
Si       3.83958982       2.21678822      15.13501196  F        4      -0.00389267      -0.02643323       0.56283509
Si       7.67917964       2.21678822      15.13501196  F        4      -0.00620634      -0.02992628       0.55979575
Si       1.91979491       5.54197054      15.13501196  F        4      -0.00301728       0.00520275      -0.30721255
Si       5.75938473       5.54197054      15.13501196  F        4      -0.00408501       0.00551455      -0.31673685
Si       9.59897455       5.54197054      15.13501196  F        4      -0.00181901       0.00806840      -0.30616253
Si      -0.00267284       2.20880471      17.57787054  T        3      -0.00078921       0.00372691       0.00145224
Si       3.83664675       2.20869254      17.57945470  T        3      -0.00127282       0.00053652      -0.00116852
Si       7.67621086       2.20867127      17.57858196  T        3      -0.00067393       0.00218145       0.00118577
Si       1.91675639       5.54446376      17.45833777  T        3      -0.00014358       0.00355795      -0.00018735
Si       5.75627022       5.54485197      17.45729157  T        3      -0.00242465       0.00027615       0.00016659
Si       9.59626378       5.54781431      17.45800900  T        3      -0.00059149      -0.00042019       0.00032122
Si      -0.00312046      -0.05795069      18.31990130  T        2      -0.00061490       0.00361987       0.00126740
Si       3.83701779      -0.05877848      18.31818581  T        2      -0.00132316       0.00088353      -0.00319700
Si       7.67520902      -0.05814129      18.32019750  T        2      -0.00114526       0.00194172      -0.00058122
Si       1.91620371       3.36893002      18.34803748  T        2       0.00041807       0.00330783      -0.00095133
Si       5.75615813       3.36952622      18.34721559  T        2      -0.00183221       0.00050999       0.00018705
Si       9.59601210       3.36941533      18.33979643  T        2      -0.00118376       0.00197838       0.00476106
Si      -0.00660662      -0.93376546      20.56788813  T        1       0.00027359       0.00299747       0.00119517
Si       3.83616866      -0.93607450      20.56101396  T        1       0.00000465       0.01123420      -0.00045526
Si       7.66282784      -0.93498674      20.56532381  T        1       0.00343937       0.00648138       0.00036564
Si       1.90921883       4.29142387      20.57891964  T        1       0.00071272       0.00254710      -0.00080390
Si       5.75483432       4.28852289      20.57948184  T        1       0.00213975       0.00557917      -0.00117467
Si       9.58890886       4.27615788      20.56262989  T        1       0.00054036       0.01084001       0.00241139
F        9.54534823       5.94577325      23.15342583  T        0       0.07330306       0.05348516       0.07228011
H        9.87034368       6.31536391      23.96881820  T        0      -0.04841832      -0.03812735      -0.03423057
38
Lattice="11.518769465528859 0.0 0.0 3.839589821842953 6.650364651656328 0.0 0.0 0.0 32.62128289467409" Properties=species:S:1:pos:R:3:move_mask:L:1:tags:I:1:forces:R:3 surface=Si111 species=HF site=hollow orientation=parallel height_A=1.9 substrate_atoms=36 calculation_kind="Rigid evaluated approach scan; not NEB" energy=-185.02178047961175 pbc="T T F"
Si       1.91979491       1.10839411      12.00000000  F        6       0.00020811       0.00759331       0.15808393
Si       5.75938473       1.10839411      12.00000000  F        6       0.00009654       0.00762031       0.15846853
Si       9.59897455       1.10839411      12.00000000  F        6       0.00006345       0.00776924       0.15800495
Si       3.83958982       4.43357643      12.00000000  F        6       0.00005313      -0.00735449       0.16358368
Si       7.67917964       4.43357643      12.00000000  F        6       0.00022868      -0.00745407       0.16339552
Si      11.51876947       4.43357643      12.00000000  F        6       0.00001948      -0.00742276       0.16339599
Si       1.91979491       1.10839411      14.35125897  F        5      -0.00068718      -0.02454622      -0.28771928
Si       5.75938473       1.10839411      14.35125897  F        5      -0.00045374      -0.02351659      -0.29028926
Si       9.59897455       1.10839411      14.35125897  F        5       0.00060586      -0.02537565      -0.28644800
Si       3.83958982       4.43357643      14.35125897  F        5      -0.00043813       0.02116354      -0.29613989
Si       7.67917964       4.43357643      14.35125897  F        5      -0.00134707       0.02102237      -0.29759931
Si      11.51876947       4.43357643      14.35125897  F        5       0.00106113       0.02066327      -0.29805604
Si      -0.00000000       2.21678822      15.13501196  F        4      -0.00081387      -0.02971616       0.55597234
Si       3.83958982       2.21678822      15.13501196  F        4      -0.00389406      -0.02642979       0.56282463
Si       7.67917964       2.21678822      15.13501196  F        4      -0.00620521      -0.02991852       0.55980461
Si       1.91979491       5.54197054      15.13501196  F        4      -0.00301700       0.00520921      -0.30721495
Si       5.75938473       5.54197054      15.13501196  F        4      -0.00409089       0.00551403      -0.31673423
Si       9.59897455       5.54197054      15.13501196  F        4      -0.00181836       0.00806237      -0.30615695
Si      -0.00267412       2.20881073      17.57787289  T        3      -0.00078608       0.00371814       0.00144634
Si       3.83664469       2.20869340      17.57945281  T        3      -0.00126834       0.00054447      -0.00115848
Si       7.67620977       2.20867479      17.57858388  T        3      -0.00067310       0.00217657       0.00118025
Si       1.91675615       5.54446951      17.45833746  T        3      -0.00014405       0.00354994      -0.00018493
Si       5.75626630       5.54485240      17.45729184  T        3      -0.00241691       0.00028659       0.00016138
Si       9.59626282       5.54781361      17.45800954  T        3      -0.00058771      -0.00039906       0.00029167
Si      -0.00312145      -0.05794484      18.31990335  T        2      -0.00061582       0.00361142       0.00125741
Si       3.83701565      -0.05877706      18.31818062  T        2      -0.00132359       0.00089947      -0.00315923
Si       7.67520715      -0.05813816      18.32019656  T        2      -0.00112878       0.00194722      -0.00057581
Si       1.91620439       3.36893537      18.34803594  T        2       0.00041548       0.00330299      -0.00094621
Si       5.75615517       3.36952704      18.34721589  T        2      -0.00183184       0.00051497       0.00018883
Si       9.59601018       3.36941853      18.33980412  T        2      -0.00117641       0.00197791       0.00476311
Si      -0.00660618      -0.93376061      20.56789006  T        1       0.00026964       0.00299586       0.00119069
Si       3.83616862      -0.93605634      20.56101313  T        1       0.00006650       0.01121825      -0.00034334
Si       7.66283342      -0.93497627      20.56532438  T        1       0.00340678       0.00648534       0.00039256
Si       1.90921998       4.29142799      20.57891834  T        1       0.00071509       0.00255181      -0.00079492
Si       5.75483779       4.28853190      20.57947995  T        1       0.00212847       0.00558894      -0.00117368
Si       9.58890974       4.27617534      20.56263365  T        1       0.00052921       0.01089399       0.00256286
F        9.54547162       5.94586541      23.15355535  T        0       0.06733285       0.04657918       0.05696120
H        9.87026051       6.31529665      23.96875042  T        0      -0.04248227      -0.03132740      -0.01923598
38
Lattice="11.518769465528859 0.0 0.0 3.839589821842953 6.650364651656328 0.0 0.0 0.0 32.62128289467409" Properties=species:S:1:pos:R:3:move_mask:L:1:tags:I:1:forces:R:3 surface=Si111 species=HF site=hollow orientation=parallel height_A=1.9 substrate_atoms=36 calculation_kind="Rigid evaluated approach scan; not NEB" energy=-185.02181143851573 pbc="T T F"
Si       1.91979491       1.10839411      12.00000000  F        6       0.00020830       0.00759317       0.15808365
Si       5.75938473       1.10839411      12.00000000  F        6       0.00009658       0.00762015       0.15846820
Si       9.59897455       1.10839411      12.00000000  F        6       0.00006351       0.00776899       0.15800511
Si       3.83958982       4.43357643      12.00000000  F        6       0.00005336      -0.00735466       0.16358352
Si       7.67917964       4.43357643      12.00000000  F        6       0.00022848      -0.00745402       0.16339535
Si      11.51876947       4.43357643      12.00000000  F        6       0.00001967      -0.00742292       0.16339618
Si       1.91979491       1.10839411      14.35125897  F        5      -0.00068683      -0.02454630      -0.28771674
Si       5.75938473       1.10839411      14.35125897  F        5      -0.00045428      -0.02351648      -0.29028619
Si       9.59897455       1.10839411      14.35125897  F        5       0.00060557      -0.02537547      -0.28644893
Si       3.83958982       4.43357643      14.35125897  F        5      -0.00043837       0.02116343      -0.29614116
Si       7.67917964       4.43357643      14.35125897  F        5      -0.00134582       0.02102248      -0.29759748
Si      11.51876947       4.43357643      14.35125897  F        5       0.00105946       0.02066436      -0.29805623
Si      -0.00000000       2.21678822      15.13501196  F        4      -0.00082086      -0.02970384       0.55598939
Si       3.83958982       2.21678822      15.13501196  F        4      -0.00389595      -0.02642515       0.56281048
Si       7.67917964       2.21678822      15.13501196  F        4      -0.00620367      -0.02990810       0.55981683
Si       1.91979491       5.54197054      15.13501196  F        4      -0.00301653       0.00521793      -0.30721823
Si       5.75938473       5.54197054      15.13501196  F        4      -0.00409894       0.00551335      -0.31673087
Si       9.59897455       5.54197054      15.13501196  F        4      -0.00181750       0.00805431      -0.30614976
Si      -0.00267585       2.20881891      17.57787608  T        3      -0.00078199       0.00370607       0.00143816
Si       3.83664190       2.20869458      17.57945024  T        3      -0.00126235       0.00055573      -0.00114570
Si       7.67620829       2.20867958      17.57858648  T        3      -0.00067182       0.00217032       0.00117245
Si       1.91675584       5.54447731      17.45833705  T        3      -0.00014445       0.00353915      -0.00018184
Si       5.75626098       5.54485301      17.45729221  T        3      -0.00240632       0.00030052       0.00015487
Si       9.59626152       5.54781269      17.45801024  T        3      -0.00058294      -0.00037119       0.00025527
Si      -0.00312280      -0.05793690      18.31990613  T        2      -0.00061663       0.00360006       0.00124446
Si       3.83701275      -0.05877513      18.31817361  T        2      -0.00132365       0.00092018      -0.00311084
Si       7.67520464      -0.05813390      18.32019528  T        2      -0.00110795       0.00195385      -0.00056894
Si       1.91620530       3.36894262      18.34803385  T        2       0.00041165       0.00329631      -0.00093932
Si       5.75615115       3.36952816      18.34721630  T        2      -0.00183034       0.00052231       0.00019144
Si       9.59600759       3.36942287      18.33981456  T        2      -0.00116685       0.00197809       0.00476447
Si      -0.00660558      -0.93375404      20.56789268  T        1       0.00026480       0.00299393       0.00118421
Si       3.83616863      -0.93603171      20.56101213  T        1       0.00014219       0.01119537      -0.00020489
Si       7.66284096      -0.93496206      20.56532518  T        1       0.00336553       0.00648959       0.00042597
Si       1.90922154       4.29143357      20.57891658  T        1       0.00071751       0.00255823      -0.00078320
Si       5.75484248       4.28854413      20.57947737  T        1       0.00211388       0.00560118      -0.00117201
Si       9.58891093       4.27619911      20.56263894  T        1       0.00051619       0.01095769       0.00274719
F        9.54563243       5.94598277      23.15371401  T        0       0.05999211       0.03808767       0.03812179
H        9.87015427       6.31521297      23.96867520  T        0      -0.03518473      -0.02296629      -0.00079664
38
Lattice="11.518769465528859 0.0 0.0 3.839589821842953 6.650364651656328 0.0 0.0 0.0 32.62128289467409" Properties=species:S:1:pos:R:3:move_mask:L:1:tags:I:1:forces:R:3 surface=Si111 species=HF site=hollow orientation=parallel height_A=1.9 substrate_atoms=36 calculation_kind="Rigid evaluated approach scan; not NEB" energy=-185.0218382380387 pbc="T T F"
Si       1.91979491       1.10839411      12.00000000  F        6       0.00020853       0.00759298       0.15808333
Si       5.75938473       1.10839411      12.00000000  F        6       0.00009664       0.00761994       0.15846782
Si       9.59897455       1.10839411      12.00000000  F        6       0.00006358       0.00776867       0.15800533
Si       3.83958982       4.43357643      12.00000000  F        6       0.00005367      -0.00735487       0.16358334
Si       7.67917964       4.43357643      12.00000000  F        6       0.00022822      -0.00745395       0.16339516
Si      11.51876947       4.43357643      12.00000000  F        6       0.00001990      -0.00742313       0.16339644
Si       1.91979491       1.10839411      14.35125897  F        5      -0.00068636      -0.02454638      -0.28771345
Si       5.75938473       1.10839411      14.35125897  F        5      -0.00045500      -0.02351623      -0.29028226
Si       9.59897455       1.10839411      14.35125897  F        5       0.00060523      -0.02537521      -0.28645001
Si       3.83958982       4.43357643      14.35125897  F        5      -0.00043872       0.02116326      -0.29614278
Si       7.67917964       4.43357643      14.35125897  F        5      -0.00134436       0.02102254      -0.29759538
Si      11.51876947       4.43357643      14.35125897  F        5       0.00105748       0.02066568      -0.29805668
Si      -0.00000000       2.21678822      15.13501196  F        4      -0.00082986      -0.02968811       0.55601147
Si       3.83958982       2.21678822      15.13501196  F        4      -0.00389841      -0.02641922       0.56279233
Si       7.67917964       2.21678822      15.13501196  F        4      -0.00620168      -0.02989483       0.55983288
Si       1.91979491       5.54197054      15.13501196  F        4      -0.00301576       0.00522914      -0.30722252
Si       5.75938473       5.54197054      15.13501196  F        4      -0.00410943       0.00551249      -0.31672687
Si       9.59897455       5.54197054      15.13501196  F        4      -0.00181642       0.00804411      -0.30614114
Si      -0.00267807       2.20882943      17.57788017  T        3      -0.00077699       0.00369021       0.00142733
Si       3.83663831       2.20869611      17.57944696  T        3      -0.00125480       0.00057101      -0.00113063
Si       7.67620639       2.20868574      17.57858982  T        3      -0.00066990       0.00216289       0.00116184
Si       1.91675543       5.54448736      17.45833653  T        3      -0.00014457       0.00352535      -0.00017820
Si       5.75625414       5.54485381      17.45729267  T        3      -0.00239252       0.00031809       0.00014741
Si       9.59625986       5.54781154      17.45801110  T        3      -0.00057738      -0.00033664       0.00021470
Si      -0.00312454      -0.05792668      18.31990970  T        2      -0.00061694       0.00358557       0.00122878
Si       3.83700901      -0.05877260      18.31816464  T        2      -0.00132283       0.00094533      -0.00305336
Si       7.67520143      -0.05812840      18.32019365  T        2      -0.00108373       0.00196100      -0.00056093
Si       1.91620648       3.36895197      18.34803117  T        2       0.00040618       0.00328751      -0.00093053
Si       5.75614597       3.36952961      18.34721683  T        2      -0.00182671       0.00053277       0.00019510
Si       9.59600425       3.36942847      18.33982803  T        2      -0.00115524       0.00197970       0.00476380
Si      -0.00660481      -0.93374556      20.56789605  T        1       0.00025944       0.00299185       0.00117517
Si       3.83616876      -0.93599996      20.56101105  T        1       0.00022584       0.01116376      -0.00004925
Si       7.66285063      -0.93494372      20.56532626  T        1       0.00331753       0.00649313       0.00046341
Si       1.90922356       4.29144079      20.57891432  T        1       0.00071929       0.00256653      -0.00076890
Si       5.75484851       4.28855993      20.57947405  T        1       0.00209626       0.00561522      -0.00116932
Si       9.58891243       4.27622988      20.56264605  T        1       0.00050289       0.01102347       0.00294864
F        9.54582846       5.94612096      23.15388940  T        0       0.05183720       0.02865499       0.01718985
H        9.87002857       6.31511802      23.96860682  T        0      -0.02708025      -0.01367862       0.01968807
38
Lattice="11.518769465528859 0.0 0.0 3.839589821842953 6.650364651656328 0.0 0.0 0.0 32.62128289467409" Properties=species:S:1:pos:R:3:move_mask:L:1:tags:I:1:forces:R:3 surface=Si111 species=HF site=hollow orientation=parallel height_A=1.9 substrate_atoms=36 calculation_kind="Rigid evaluated approach scan; not NEB" energy=-185.0218585423418 pbc="T T F"
Si       1.91979491       1.10839411      12.00000000  F        6       0.00020882       0.00759276       0.15808297
Si       5.75938473       1.10839411      12.00000000  F        6       0.00009670       0.00761970       0.15846739
Si       9.59897455       1.10839411      12.00000000  F        6       0.00006368       0.00776825       0.15800562
Si       3.83958982       4.43357643      12.00000000  F        6       0.00005404      -0.00735515       0.16358319
Si       7.67917964       4.43357643      12.00000000  F        6       0.00022789      -0.00745386       0.16339494
Si      11.51876947       4.43357643      12.00000000  F        6       0.00002021      -0.00742339       0.16339679
Si       1.91979491       1.10839411      14.35125897  F        5      -0.00068576      -0.02454642      -0.28770930
Si       5.75938473       1.10839411      14.35125897  F        5      -0.00045594      -0.02351578      -0.29027736
Si       9.59897455       1.10839411      14.35125897  F        5       0.00060483      -0.02537485      -0.28645119
Si       3.83958982       4.43357643      14.35125897  F        5      -0.00043920       0.02116300      -0.29614477
Si       7.67917964       4.43357643      14.35125897  F        5      -0.00134275       0.02102250      -0.29759314
Si      11.51876947       4.43357643      14.35125897  F        5       0.00105526       0.02066719      -0.29805758
Si      -0.00000000       2.21678822      15.13501196  F        4      -0.00084107      -0.02966865       0.55603926
Si       3.83958982       2.21678822      15.13501196  F        4      -0.00390153      -0.02641184       0.56276975
Si       7.67917964       2.21678822      15.13501196  F        4      -0.00619918      -0.02987848       0.55985343
Si       1.91979491       5.54197054      15.13501196  F        4      -0.00301457       0.00524310      -0.30722797
Si       5.75938473       5.54197054      15.13501196  F        4      -0.00412272       0.00551146      -0.31672238
Si       9.59897455       5.54197054      15.13501196  F        4      -0.00181512       0.00803166      -0.30613133
Si      -0.00268085       2.20884259      17.57788528  T        3      -0.00077115       0.00366990       0.00141331
Si       3.83663382       2.20869806      17.57944287  T        3      -0.00124559       0.00059131      -0.00111391
Si       7.67620400       2.20869344      17.57859399  T        3      -0.00066710       0.00215455       0.00114773
Si       1.91675492       5.54449993      17.45833588  T        3      -0.00014412       0.00350825      -0.00017414
Si       5.75624559       5.54485485      17.45729323  T        3      -0.00237500       0.00033947       0.00013953
Si       9.59625778       5.54781018      17.45801208  T        3      -0.00057136      -0.00029554       0.00017373
Si      -0.00312672      -0.05791390      18.31991413  T        2      -0.00061620       0.00356770       0.00121069
Si       3.83700432      -0.05876937      18.31815352  T        2      -0.00132045       0.00097442      -0.00298898
Si       7.67519747      -0.05812148      18.32019162  T        2      -0.00105739       0.00196779      -0.00055221
Si       1.91620794       3.36896367      18.34802783  T        2       0.00039853       0.00327618      -0.00091969
Si       5.75613948       3.36953145      18.34721750  T        2      -0.00181959       0.00054735       0.00020014
Si       9.59600010       3.36943548      18.33984492  T        2      -0.00114178       0.00198383       0.00475918
Si      -0.00660386      -0.93373495      20.56790026  T        1       0.00025406       0.00298987       0.00116286
Si       3.83616910      -0.93596024      20.56101004  T        1       0.00030940       0.01112098       0.00011072
Si       7.66286264      -0.93492073      20.56532771  T        1       0.00326555       0.00649464       0.00050124
Si       1.90922610       4.29144984      20.57891152  T        1       0.00071947       0.00257697      -0.00075225
Si       5.75485603       4.28857976      20.57946989  T        1       0.00207598       0.00563005      -0.00116511
Si       9.58891429       4.27626857      20.56265539  T        1       0.00049142       0.01108082       0.00314554
F        9.54605666       5.94627396      23.15406443  T        0       0.04364760       0.01918493      -0.00382931
H        9.86988839       6.31501890      23.96856494  T        0      -0.01894585      -0.00435466       0.04025261
38
Lattice="11.518769465528859 0.0 0.0 3.839589821842953 6.650364651656328 0.0 0.0 0.0 32.62128289467409" Properties=species:S:1:pos:R:3:move_mask:L:1:tags:I:1:forces:R:3 surface=Si111 species=HF site=hollow orientation=parallel height_A=1.9 substrate_atoms=36 calculation_kind="Rigid evaluated approach scan; not NEB" energy=-185.02187364369175 pbc="T T F"
Si       1.91979491       1.10839411      12.00000000  F        6       0.00020916       0.00759250       0.15808259
Si       5.75938473       1.10839411      12.00000000  F        6       0.00009677       0.00761941       0.15846696
Si       9.59897455       1.10839411      12.00000000  F        6       0.00006381       0.00776774       0.15800600
Si       3.83958982       4.43357643      12.00000000  F        6       0.00005448      -0.00735549       0.16358308
Si       7.67917964       4.43357643      12.00000000  F        6       0.00022750      -0.00745376       0.16339470
Si      11.51876947       4.43357643      12.00000000  F        6       0.00002058      -0.00742370       0.16339725
Si       1.91979491       1.10839411      14.35125897  F        5      -0.00068503      -0.02454642      -0.28770427
Si       5.75938473       1.10839411      14.35125897  F        5      -0.00045712      -0.02351505      -0.29027151
Si       9.59897455       1.10839411      14.35125897  F        5       0.00060439      -0.02537437      -0.28645237
Si       3.83958982       4.43357643      14.35125897  F        5      -0.00043983       0.02116263      -0.29614713
Si       7.67917964       4.43357643      14.35125897  F        5      -0.00134111       0.02102230      -0.29759095
Si      11.51876947       4.43357643      14.35125897  F        5       0.00105293       0.02066884      -0.29805908
Si      -0.00000000       2.21678822      15.13501196  F        4      -0.00085452      -0.02964555       0.55607288
Si       3.83958982       2.21678822      15.13501196  F        4      -0.00390532      -0.02640303       0.56274276
Si       7.67917964       2.21678822      15.13501196  F        4      -0.00619616      -0.02985913       0.55987873
Si       1.91979491       5.54197054      15.13501196  F        4      -0.00301282       0.00525981      -0.30723464
Si       5.75938473       5.54197054      15.13501196  F        4      -0.00413892       0.00551029      -0.31671763
Si       9.59897455       5.54197054      15.13501196  F        4      -0.00181361       0.00801708      -0.30612079
Si      -0.00268419       2.20885840      17.57789141  T        3      -0.00076467       0.00364489       0.00139588
Si       3.83662844       2.20870046      17.57943799  T        3      -0.00123480       0.00061722      -0.00109656
Si       7.67620114       2.20870271      17.57859898  T        3      -0.00066322       0.00214576       0.00112971
Si       1.91675431       5.54451503      17.45833510  T        3      -0.00014282       0.00348790      -0.00016993
Si       5.75623533       5.54485616      17.45729389  T        3      -0.00235360       0.00036439       0.00013191
Si       9.59625530       5.54780863      17.45801315  T        3      -0.00056533      -0.00024894       0.00013714
Si      -0.00312935      -0.05789854      18.31991944  T        2      -0.00061388       0.00354655       0.00119090
Si       3.83699867      -0.05876542      18.31814028  T        2      -0.00131583       0.00100639      -0.00292130
Si       7.67519275      -0.05811314      18.32018919  T        2      -0.00103080       0.00197323      -0.00054346
Si       1.91620969       3.36897773      18.34802383  T        2       0.00038832       0.00326216      -0.00090687
Si       5.75613168       3.36953370      18.34721833  T        2      -0.00180775       0.00056677       0.00020674
Si       9.59599512       3.36944394      18.33986525  T        2      -0.00112700       0.00199147       0.00474871
Si      -0.00660273      -0.93372216      20.56790531  T        1       0.00024930       0.00298830       0.00114678
Si       3.83616974      -0.93591247      20.56100924  T        1       0.00038298       0.01106542       0.00025847
Si       7.66287698      -0.93489301      20.56532954  T        1       0.00321364       0.00649268       0.00053463
Si       1.90922916       4.29146078      20.57890819  T        1       0.00071707       0.00258955      -0.00073385
Si       5.75486504       4.28860370      20.57946489  T        1       0.00205383       0.00564433      -0.00115899
Si       9.58891650       4.27631538      20.56266719  T        1       0.00048408       0.01111770       0.00331141
F        9.54630922       5.94643239      23.15421781  T        0       0.03640863       0.01082057      -0.02239661
H        9.86974175       6.31492498      23.96857077  T        0      -0.01176333       0.00387956       0.05840872
38
Lattice="11.518769465528859 0.0 0.0 3.839589821842953 6.650364651656328 0.0 0.0 0.0 32.62128289467409" Properties=species:S:1:pos:R:3:move_mask:L:1:tags:I:1:forces:R:3 surface=Si111 species=HF site=hollow orientation=parallel height_A=1.9 substrate_atoms=36 calculation_kind="Rigid evaluated approach scan; not NEB" energy=-185.02188931538245 pbc="T T F"
Si       1.91979491       1.10839411      12.00000000  F        6       0.00020958       0.00759219       0.15808218
Si       5.75938473       1.10839411      12.00000000  F        6       0.00009685       0.00761905       0.15846649
Si       9.59897455       1.10839411      12.00000000  F        6       0.00006399       0.00776708       0.15800651
Si       3.83958982       4.43357643      12.00000000  F        6       0.00005504      -0.00735593       0.16358304
Si       7.67917964       4.43357643      12.00000000  F        6       0.00022699      -0.00745365       0.16339443
Si      11.51876947       4.43357643      12.00000000  F        6       0.00002107      -0.00742410       0.16339787
Si       1.91979491       1.10839411      14.35125897  F        5      -0.00068408      -0.02454633      -0.28769785
Si       5.75938473       1.10839411      14.35125897  F        5      -0.00045869      -0.02351389      -0.29026414
Si       9.59897455       1.10839411      14.35125897  F        5       0.00060387      -0.02537369      -0.28645360
Si       3.83958982       4.43357643      14.35125897  F        5      -0.00044069       0.02116208      -0.29615007
Si       7.67917964       4.43357643      14.35125897  F        5      -0.00133937       0.02102185      -0.29758880
Si      11.51876947       4.43357643      14.35125897  F        5       0.00105039       0.02067071      -0.29806150
Si      -0.00000000       2.21678822      15.13501196  F        4      -0.00087150      -0.02961662       0.55611571
Si       3.83958982       2.21678822      15.13501196  F        4      -0.00391017      -0.02639191       0.56270876
Si       7.67917964       2.21678822      15.13501196  F        4      -0.00619231      -0.02983498       0.55991147
Si       1.91979491       5.54197054      15.13501196  F        4      -0.00301023       0.00528088      -0.30724323
Si       5.75938473       5.54197054      15.13501196  F        4      -0.00415970       0.00550889      -0.31671242
Si       9.59897455       5.54197054      15.13501196  F        4      -0.00181176       0.00799912      -0.30610897
Si      -0.00268841       2.20887841      17.57789915  T        3      -0.00075715       0.00361254       0.00137312
Si       3.83662163       2.20870357      17.57943184  T        3      -0.00122147       0.00065182      -0.00107787
Si       7.67619751       2.20871445      17.57860528  T        3      -0.00065766       0.00213618       0.00110565
Si       1.91675353       5.54453415      17.45833413  T        3      -0.00014025       0.00346239      -0.00016540
Si       5.75622235       5.54485788      17.45729470  T        3      -0.00232606       0.00039499       0.00012452
Si       9.59625216       5.54780679      17.45801437  T        3      -0.00055917      -0.00019341       0.00010633
Si      -0.00313269      -0.05787908      18.31992611  T        2      -0.00060922       0.00352018       0.00116817
Si       3.83699150      -0.05876030      18.31812367  T        2      -0.00130782       0.00104322      -0.00284743
Si       7.67518685      -0.05810251      18.32018614  T        2      -0.00100327       0.00197681      -0.00053454
Si       1.91621189       3.36899557      18.34801878  T        2       0.00037420       0.00324390      -0.00089088
Si       5.75612178       3.36953661      18.34721939  T        2      -0.00178879       0.00059364       0.00021570
Si       9.59598885       3.36945470      18.33989107  T        2      -0.00110998       0.00200433       0.00472933
Si      -0.00660132      -0.93370592      20.56791167  T        1       0.00024531       0.00298730       0.00112489
Si       3.83617084      -0.93585193      20.56100877  T        1       0.00044373       0.01099007       0.00039153
Si       7.66289503      -0.93485780      20.56533200  T        1       0.00316096       0.00648564       0.00056171
Si       1.90923305       4.29147471      20.57890401  T        1       0.00071083       0.00260551      -0.00071252
Si       5.75487643       4.28863415      20.57945855  T        1       0.00202843       0.00565797      -0.00114993
Si       9.58891926       4.27637503      20.56268285  T        1       0.00048244       0.01112543       0.00343553
F        9.54660287       5.94660220      23.15434284  T        0       0.03042631       0.00392158      -0.03770914
H        9.86958248       6.31483666      23.96864649  T        0      -0.00584066       0.01066914       0.07336533
38
Lattice="11.518769465528859 0.0 0.0 3.839589821842953 6.650364651656328 0.0 0.0 0.0 32.62128289467409" Properties=species:S:1:pos:R:3:move_mask:L:1:tags:I:1:forces:R:3 surface=Si111 species=HF site=hollow orientation=parallel height_A=1.9 substrate_atoms=36 calculation_kind="Rigid evaluated approach scan; not NEB" energy=-185.02191201514944 pbc="T T F"
Si       1.91979491       1.10839411      12.00000000  F        6       0.00021008       0.00759182       0.15808176
Si       5.75938473       1.10839411      12.00000000  F        6       0.00009695       0.00761862       0.15846603
Si       9.59897455       1.10839411      12.00000000  F        6       0.00006422       0.00776626       0.15800716
Si       3.83958982       4.43357643      12.00000000  F        6       0.00005571      -0.00735647       0.16358310
Si       7.67917964       4.43357643      12.00000000  F        6       0.00022637      -0.00745351       0.16339415
Si      11.51876947       4.43357643      12.00000000  F        6       0.00002167      -0.00742460       0.16339868
Si       1.91979491       1.10839411      14.35125897  F        5      -0.00068289      -0.02454614      -0.28768995
Si       5.75938473       1.10839411      14.35125897  F        5      -0.00046067      -0.02351221      -0.29025516
Si       9.59897455       1.10839411      14.35125897  F        5       0.00060329      -0.02537280      -0.28645479
Si       3.83958982       4.43357643      14.35125897  F        5      -0.00044182       0.02116132      -0.29615362
Si       7.67917964       4.43357643      14.35125897  F        5      -0.00133762       0.02102108      -0.29758685
Si      11.51876947       4.43357643      14.35125897  F        5       0.00104774       0.02067275      -0.29806503
Si      -0.00000000       2.21678822      15.13501196  F        4      -0.00089223      -0.02958158       0.55616838
Si       3.83958982       2.21678822      15.13501196  F        4      -0.00391618      -0.02637832       0.56266734
Si       7.67917964       2.21678822      15.13501196  F        4      -0.00618757      -0.02980581       0.55995227
Si       1.91979491       5.54197054      15.13501196  F        4      -0.00300663       0.00530659      -0.30725389
Si       5.75938473       5.54197054      15.13501196  F        4      -0.00418544       0.00550729      -0.31670693
Si       9.59897455       5.54197054      15.13501196  F        4      -0.00180960       0.00797772      -0.30609622
Si      -0.00269356       2.20890291      17.57790859  T        3      -0.00074879       0.00357227       0.00134457
Si       3.83661331       2.20870749      17.57942436  T        3      -0.00120550       0.00069609      -0.00105865
Si       7.67619306       2.20872884      17.57861294  T        3      -0.00065007       0.00212626       0.00107493
Si       1.91675257       5.54455758      17.45833296  T        3      -0.00013611       0.00343146      -0.00016079
Si       5.75620649       5.54486010      17.45729566  T        3      -0.00229180       0.00043134       0.00011805
Si       9.59624833       5.54780473      17.45801573  T        3      -0.00055330      -0.00012952       0.00008621
Si      -0.00313679      -0.05785526      18.31993423  T        2      -0.00060161       0.00348843       0.00114297
Si       3.83698271      -0.05875388      18.31810354  T        2      -0.00129559       0.00108424      -0.00277040
Si       7.67517970      -0.05808943      18.32018243  T        2      -0.00097643       0.00197755      -0.00052610
Si       1.91621455       3.36901743      18.34801262  T        2       0.00035559       0.00322102      -0.00087157
Si       5.75610967       3.36954025      18.34722072  T        2      -0.00176112       0.00062902       0.00022725
Si       9.59598120       3.36946794      18.33992277  T        2      -0.00109106       0.00202356       0.00469852
Si      -0.00659960      -0.93368597      20.56791943  T        1       0.00024266       0.00298723       0.00109644
Si       3.83617250      -0.93577774      20.56100880  T        1       0.00048194       0.01089232       0.00049373
Si       7.66291699      -0.93481454      20.56533517  T        1       0.00311138       0.00647189       0.00057725
Si       1.90923782       4.29149187      20.57889895  T        1       0.00069962       0.00262504      -0.00068869
Si       5.75489033       4.28867163      20.57945079  T        1       0.00200029       0.00566951      -0.00113736
Si       9.58892262       4.27644850      20.56270280  T        1       0.00048883       0.01109111       0.00349102
F        9.54693315       5.94677556      23.15441810  T        0       0.02670000      -0.00034789      -0.04717198
H        9.86941710       6.31476288      23.96881618  T        0      -0.00217429       0.01486702       0.08257819
38
Lattice="11.518769465528859 0.0 0.0 3.839589821842953 6.650364651656328 0.0 0.0 0.0 32.62128289467409" Properties=species:S:1:pos:R:3:move_mask:L:1:tags:I:1:forces:R:3 surface=Si111 species=HF site=hollow orientation=parallel height_A=1.9 substrate_atoms=36 calculation_kind="Rigid evaluated approach scan; not NEB" energy=-185.02194858260145 pbc="T T F"
Si       1.91979491       1.10839411      12.00000000  F        6       0.00021068       0.00759138       0.15808133
Si       5.75938473       1.10839411      12.00000000  F        6       0.00009707       0.00761811       0.15846557
Si       9.59897455       1.10839411      12.00000000  F        6       0.00006450       0.00776525       0.15800799
Si       3.83958982       4.43357643      12.00000000  F        6       0.00005650      -0.00735714       0.16358329
Si       7.67917964       4.43357643      12.00000000  F        6       0.00022562      -0.00745335       0.16339386
Si      11.51876947       4.43357643      12.00000000  F        6       0.00002242      -0.00742521       0.16339969
Si       1.91979491       1.10839411      14.35125897  F        5      -0.00068143      -0.02454581      -0.28768038
Si       5.75938473       1.10839411      14.35125897  F        5      -0.00046314      -0.02350989      -0.29024443
Si       9.59897455       1.10839411      14.35125897  F        5       0.00060265      -0.02537162      -0.28645587
Si       3.83958982       4.43357643      14.35125897  F        5      -0.00044325       0.02116033      -0.29615785
Si       7.67917964       4.43357643      14.35125897  F        5      -0.00133594       0.02101992      -0.29758524
Si      11.51876947       4.43357643      14.35125897  F        5       0.00104504       0.02067494      -0.29806988
Si      -0.00000000       2.21678822      15.13501196  F        4      -0.00091714      -0.02953979       0.55623193
Si       3.83958982       2.21678822      15.13501196  F        4      -0.00392347      -0.02636190       0.56261774
Si       7.67917964       2.21678822      15.13501196  F        4      -0.00618184      -0.02977109       0.56000202
Si       1.91979491       5.54197054      15.13501196  F        4      -0.00300184       0.00533743      -0.30726687
Si       5.75938473       5.54197054      15.13501196  F        4      -0.00421671       0.00550552      -0.31670131
Si       9.59897455       5.54197054      15.13501196  F        4      -0.00180711       0.00795266      -0.30608274
Si      -0.00269976       2.20893239      17.57791991  T        3      -0.00073975       0.00352327       0.00130962
Si       3.83660331       2.20871239      17.57941540  T        3      -0.00118663       0.00075126      -0.00103940
Si       7.67618770       2.20874620      17.57862210  T        3      -0.00064004       0.00211644       0.00103688
Si       1.91675143       5.54458578      17.45833156  T        3      -0.00013008       0.00339456      -0.00015630
Si       5.75618744       5.54486293      17.45729679  T        3      -0.00224990       0.00047380       0.00011312
Si       9.59624372       5.54780249      17.45801719  T        3      -0.00054809      -0.00005733       0.00008118
Si      -0.00314172      -0.05782658      18.31994394  T        2      -0.00059046       0.00345086       0.00111545
Si       3.83697211      -0.05874595      18.31807955  T        2      -0.00127823       0.00112921      -0.00269227
Si       7.67517120      -0.05807359      18.32017798  T        2      -0.00095151       0.00197462      -0.00051874
Si       1.91621770       3.36904378      18.34800526  T        2       0.00033184       0.00319296      -0.00084862
Si       5.75609511       3.36954478      18.34722237  T        2      -0.00172304       0.00067418       0.00024163
Si       9.59597203       3.36948401      18.33996101  T        2      -0.00107039       0.00205027       0.00465343
Si      -0.00659754      -0.93366186      20.56792872  T        1       0.00024177       0.00298848       0.00106049
Si       3.83617484      -0.93568838      20.56100954  T        1       0.00048909       0.01076893       0.00055105
Si       7.66294329      -0.93476224      20.56533914  T        1       0.00306807       0.00644980       0.00057644
Si       1.90924357       4.29151270      20.57889294  T        1       0.00068229       0.00264846      -0.00066254
Si       5.75490701       4.28871702      20.57944144  T        1       0.00196954       0.00567753      -0.00112061
Si       9.58892666       4.27653745      20.56272764  T        1       0.00050541       0.01100249       0.00345371
F        9.54729948       5.94694705      23.15442453  T        0       0.02611370      -0.00095152      -0.04846305
H        9.86924987       6.31471118      23.96910401  T        0      -0.00164623       0.01545199       0.08376965
38
Lattice="11.518769465528859 0.0 0.0 3.839589821842953 6.650364651656328 0.0 0.0 0.0 32.62128289467409" Properties=species:S:1:pos:R:3:move_mask:L:1:tags:I:1:forces:R:3 surface=Si111 species=HF site=hollow orientation=parallel height_A=1.9 substrate_atoms=36 calculation_kind="Rigid evaluated approach scan; not NEB" energy=-185.02200237784461 pbc="T T F"
Si       1.91979491       1.10839411      12.00000000  F        6       0.00021139       0.00759087       0.15808091
Si       5.75938473       1.10839411      12.00000000  F        6       0.00009719       0.00761751       0.15846515
Si       9.59897455       1.10839411      12.00000000  F        6       0.00006487       0.00776401       0.15800902
Si       3.83958982       4.43357643      12.00000000  F        6       0.00005744      -0.00735795       0.16358362
Si       7.67917964       4.43357643      12.00000000  F        6       0.00022471      -0.00745317       0.16339356
Si      11.51876947       4.43357643      12.00000000  F        6       0.00002333      -0.00742594       0.16340094
Si       1.91979491       1.10839411      14.35125897  F        5      -0.00067965      -0.02454531      -0.28766887
Si       5.75938473       1.10839411      14.35125897  F        5      -0.00046616      -0.02350682      -0.29023163
Si       9.59897455       1.10839411      14.35125897  F        5       0.00060191      -0.02537009      -0.28645681
Si       3.83958982       4.43357643      14.35125897  F        5      -0.00044502       0.02115906      -0.29616287
Si       7.67917964       4.43357643      14.35125897  F        5      -0.00133435       0.02101828      -0.29758403
Si      11.51876947       4.43357643      14.35125897  F        5       0.00104229       0.02067729      -0.29807625
Si      -0.00000000       2.21678822      15.13501196  F        4      -0.00094695      -0.02949009       0.55630810
Si       3.83958982       2.21678822      15.13501196  F        4      -0.00393227      -0.02634206       0.56255856
Si       7.67917964       2.21678822      15.13501196  F        4      -0.00617492      -0.02972982       0.56006207
Si       1.91979491       5.54197054      15.13501196  F        4      -0.00299564       0.00537427      -0.30728254
Si       5.75938473       5.54197054      15.13501196  F        4      -0.00425443       0.00550362      -0.31669557
Si       9.59897455       5.54197054      15.13501196  F        4      -0.00180425       0.00792343      -0.30606841
Si      -0.00270719       2.20896770      17.57793339  T        3      -0.00073017       0.00346441       0.00126748
Si       3.83659134       2.20871855      17.57940473  T        3      -0.00116427       0.00081894      -0.00102008
Si       7.67618129       2.20876706      17.57863298  T        3      -0.00062694       0.00210711       0.00099074
Si       1.91675007       5.54461961      17.45832990  T        3      -0.00012194       0.00335069      -0.00015206
Si       5.75616466       5.54486655      17.45729810  T        3      -0.00219884       0.00052325       0.00011018
Si       9.59623821       5.54780017      17.45801879  T        3      -0.00054374       0.00002400       0.00009459
Si      -0.00314763      -0.05779218      18.31995550  T        2      -0.00057522       0.00340661       0.00108526
Si       3.83695940      -0.05873613      18.31805112  T        2      -0.00125470       0.00117872      -0.00261336
Si       7.67516113      -0.05805447      18.32017268  T        2      -0.00092897       0.00196749      -0.00051281
Si       1.91622140       3.36907542      18.34799649  T        2       0.00030209       0.00315892      -0.00082132
Si       5.75607769       3.36955043      18.34722443  T        2      -0.00167261       0.00073074       0.00025909
Si       9.59596109       3.36950349      18.34000697  T        2      -0.00104776       0.00208552       0.00459071
Si      -0.00659508      -0.93363279      20.56793976  T        1       0.00024281       0.00299150       0.00101584
Si       3.83617800      -0.93558117      20.56101123  T        1       0.00045914       0.01061566       0.00055388
Si       7.66297466      -0.93469926      20.56534407  T        1       0.00303268       0.00641775       0.00055573
Si       1.90925044       4.29153793      20.57888583  T        1       0.00065772       0.00267629      -0.00063389
Si       5.75492695       4.28877183      20.57943023  T        1       0.00193576       0.00568072      -0.00109887
Si       9.58893154       4.27664465      20.56275823  T        1       0.00053408       0.01084897       0.00330514
F        9.54770808       5.94711577      23.15434790  T        0       0.02930514       0.00286885      -0.03986452
H        9.86908094       6.31468631      23.96953342  T        0      -0.00489375       0.01167678       0.07525333
38
Lattice="11.518769465528859 0.0 0.0 3.839589821842953 6.650364651656328 0.0 0.0 0.0 32.62128289467409" Properties=species:S:1:pos:R:3:move_mask:L:1:tags:I:1:forces:R:3 surface=Si111 species=HF site=hollow orientation=parallel height_A=1.9 substrate_atoms=36 calculation_kind="Rigid evaluated approach scan; not NEB" energy=-185.022069762535 pbc="T T F"
Si       1.91979491       1.10839411      12.00000000  F        6       0.00021224       0.00759025       0.15808047
Si       5.75938473       1.10839411      12.00000000  F        6       0.00009734       0.00761679       0.15846473
Si       9.59897455       1.10839411      12.00000000  F        6       0.00006532       0.00776250       0.15801031
Si       3.83958982       4.43357643      12.00000000  F        6       0.00005856      -0.00735895       0.16358411
Si       7.67917964       4.43357643      12.00000000  F        6       0.00022361      -0.00745296       0.16339326
Si      11.51876947       4.43357643      12.00000000  F        6       0.00002444      -0.00742683       0.16340248
Si       1.91979491       1.10839411      14.35125897  F        5      -0.00067748      -0.02454461      -0.28765495
Si       5.75938473       1.10839411      14.35125897  F        5      -0.00046983      -0.02350285      -0.29021629
Si       9.59897455       1.10839411      14.35125897  F        5       0.00060103      -0.02536810      -0.28645764
Si       3.83958982       4.43357643      14.35125897  F        5      -0.00044719       0.02115746      -0.29616891
Si       7.67917964       4.43357643      14.35125897  F        5      -0.00133278       0.02101607      -0.29758313
Si      11.51876947       4.43357643      14.35125897  F        5       0.00103934       0.02067987      -0.29808433
Si      -0.00000000       2.21678822      15.13501196  F        4      -0.00098286      -0.02943041       0.55639956
Si       3.83958982       2.21678822      15.13501196  F        4      -0.00394290      -0.02631773       0.56248751
Si       7.67917964       2.21678822      15.13501196  F        4      -0.00616654      -0.02968022       0.56013429
Si       1.91979491       5.54197054      15.13501196  F        4      -0.00298778       0.00541858      -0.30730147
Si       5.75938473       5.54197054      15.13501196  F        4      -0.00430001       0.00550165      -0.31668954
Si       9.59897455       5.54197054      15.13501196  F        4      -0.00180098       0.00788908      -0.30605262
Si      -0.00271614       2.20901026      17.57794951  T        3      -0.00072018       0.00339421       0.00121721
Si       3.83657694       2.20872642      17.57939192  T        3      -0.00113736       0.00090109      -0.00099957
Si       7.67617357       2.20879234      17.57864592  T        3      -0.00060991       0.00209856       0.00093591
Si       1.91674846       5.54466045      17.45832793  T        3      -0.00011162       0.00329813      -0.00014809
Si       5.75613728       5.54487127      17.45729964  T        3      -0.00213622       0.00058136       0.00010938
Si       9.59623157       5.54779791      17.45802057  T        3      -0.00054014       0.00011673       0.00012706
Si      -0.00315475      -0.05775065      18.31996933  T        2      -0.00055555       0.00335421       0.00105113
Si       3.83694406      -0.05872383      18.31801723  T        2      -0.00122401       0.00123480      -0.00253058
Si       7.67514911      -0.05803123      18.32016630  T        2      -0.00090770       0.00195645      -0.00050828
Si       1.91622573       3.36911367      18.34798601  T        2       0.00026536       0.00311784      -0.00078848
Si       5.75605677       3.36955761      18.34722702  T        2      -0.00160788       0.00080056       0.00027979
Si       9.59594796       3.36952734      18.34006253  T        2      -0.00102233       0.00212992       0.00450659
Si      -0.00659211      -0.93359746      20.56795292  T        1       0.00024535       0.00299679       0.00096104
Si       3.83618214      -0.93545176      20.56101409  T        1       0.00039189       0.01042724       0.00050272
Si       7.66301237      -0.93462284      20.56535017  T        1       0.00300368       0.00637446       0.00051462
Si       1.90925869       4.29156876      20.57887739  T        1       0.00062506       0.00270938      -0.00060182
Si       5.75495095       4.28883854      20.57941673  T        1       0.00189748       0.00567819      -0.00107114
Si       9.58893754       4.27677454      20.56279575  T        1       0.00057578       0.01062517       0.00304157
F        9.54817732       5.94728969      23.15418605  T        0       0.03632152       0.01119299      -0.02115401
H        9.86890245       6.31468666      23.97012206  T        0      -0.01196675       0.00346231       0.05680711
38
Lattice="11.518769465528859 0.0 0.0 3.839589821842953 6.650364651656328 0.0 0.0 0.0 32.62128289467409" Properties=species:S:1:pos:R:3:move_mask:L:1:tags:I:1:forces:R:3 surface=Si111 species=HF site=hollow orientation=parallel height_A=1.9 substrate_atoms=36 calculation_kind="Rigid evaluated approach scan; not NEB" energy=-185.02214163419296 pbc="T T F"
Si       1.91979491       1.10839411      12.00000000  F        6       0.00021326       0.00758949       0.15807995
Si       5.75938473       1.10839411      12.00000000  F        6       0.00009750       0.00761589       0.15846428
Si       9.59897455       1.10839411      12.00000000  F        6       0.00006589       0.00776062       0.15801190
Si       3.83958982       4.43357643      12.00000000  F        6       0.00005991      -0.00736019       0.16358470
Si       7.67917964       4.43357643      12.00000000  F        6       0.00022226      -0.00745272       0.16339294
Si      11.51876947       4.43357643      12.00000000  F        6       0.00002581      -0.00742794       0.16340435
Si       1.91979491       1.10839411      14.35125897  F        5      -0.00067480      -0.02454368      -0.28763794
Si       5.75938473       1.10839411      14.35125897  F        5      -0.00047427      -0.02349784      -0.29019761
Si       9.59897455       1.10839411      14.35125897  F        5       0.00059991      -0.02536548      -0.28645849
Si       3.83958982       4.43357643      14.35125897  F        5      -0.00044980       0.02115550      -0.29617631
Si       7.67917964       4.43357643      14.35125897  F        5      -0.00133097       0.02101321      -0.29758212
Si      11.51876947       4.43357643      14.35125897  F        5       0.00103582       0.02068288      -0.29809413
Si      -0.00000000       2.21678822      15.13501196  F        4      -0.00102680      -0.02935738       0.55651029
Si       3.83958982       2.21678822      15.13501196  F        4      -0.00395587      -0.02628710       0.56240094
Si       7.67917964       2.21678822      15.13501196  F        4      -0.00615622      -0.02961926       0.56022115
Si       1.91979491       5.54197054      15.13501196  F        4      -0.00297804       0.00547270      -0.30732447
Si       5.75938473       5.54197054      15.13501196  F        4      -0.00435549       0.00549977      -0.31668257
Si       9.59897455       5.54197054      15.13501196  F        4      -0.00179718       0.00784803      -0.30603368
Si      -0.00272710       2.20906228      17.57796903  T        3      -0.00070983       0.00331097       0.00115787
Si       3.83655936       2.20873683      17.57937633  T        3      -0.00110404       0.00099977      -0.00097462
Si       7.67616414       2.20882347      17.57866147  T        3      -0.00058775       0.00209087       0.00087243
Si       1.91674653       5.54471048      17.45832555  T        3      -0.00009945       0.00323408      -0.00014418
Si       5.75610395       5.54487763      17.45730148  T        3      -0.00205831       0.00065104       0.00011009
Si       9.59622341       5.54779600      17.45802272  T        3      -0.00053655       0.00022554       0.00017312
Si      -0.00316341      -0.05769977      18.31998608  T        2      -0.00053173       0.00329128       0.00101005
Si       3.83692530      -0.05870808      18.31797629  T        2      -0.00118541       0.00130222      -0.00243414
Si       7.67513457      -0.05800253      18.32015851  T        2      -0.00088336       0.00194350      -0.00050414
Si       1.91623080       3.36916062      18.34797333  T        2       0.00022065       0.00306829      -0.00074799
Si       5.75603138       3.36956705      18.34723041  T        2      -0.00152741       0.00088560       0.00030359
Si       9.59593199       3.36955714      18.34013066  T        2      -0.00099209       0.00218283       0.00439724
Si      -0.00658846      -0.93355376      20.56796876  T        1       0.00024772       0.00300488       0.00089454
Si       3.83618737      -0.93529327      20.56101838  T        1       0.00030067       0.01019775       0.00042074
Si       7.66305846      -0.93452862      20.56535771  T        1       0.00297301       0.00631986       0.00045916
Si       1.90926869       4.29160717      20.57886729  T        1       0.00058425       0.00274901      -0.00056415
Si       5.75498023       4.28892110      20.57940024  T        1       0.00185132       0.00566999      -0.00103639
Si       9.58894515       4.27693409      20.56284175  T        1       0.00062895       0.01033897       0.00269340
F        9.54874779       5.94749467      23.15396474  T        0       0.04591063       0.02259119       0.00453211
H        9.86869072       6.31469687      23.97086970  T        0      -0.02162220      -0.00778413       0.03149808
38
Lattice="11.518769465528859 0.0 0.0 3.839589821842953 6.650364651656328 0.0 0.0 0.0 32.62128289467409" Properties=species:S:1:pos:R:3:move_mask:L:1:tags:I:1:forces:R:3 surface=Si111 species=HF site=hollow orientation=parallel height_A=1.9 substrate_atoms=36 calculation_kind="Rigid evaluated approach scan; not NEB" energy=-185.02221600138935 pbc="T T F"
Si       1.91979491       1.10839411      12.00000000  F        6       0.00021452       0.00758852       0.15807924
Si       5.75938473       1.10839411      12.00000000  F        6       0.00009768       0.00761476       0.15846369
Si       9.59897455       1.10839411      12.00000000  F        6       0.00006659       0.00775827       0.15801385
Si       3.83958982       4.43357643      12.00000000  F        6       0.00006155      -0.00736174       0.16358530
Si       7.67917964       4.43357643      12.00000000  F        6       0.00022062      -0.00745244       0.16339257
Si      11.51876947       4.43357643      12.00000000  F        6       0.00002751      -0.00742931       0.16340656
Si       1.91979491       1.10839411      14.35125897  F        5      -0.00067152      -0.02454254      -0.28761711
Si       5.75938473       1.10839411      14.35125897  F        5      -0.00047956      -0.02349180      -0.29017476
Si       9.59897455       1.10839411      14.35125897  F        5       0.00059837      -0.02536204      -0.28645971
Si       3.83958982       4.43357643      14.35125897  F        5      -0.00045283       0.02115321      -0.29618552
Si       7.67917964       4.43357643      14.35125897  F        5      -0.00132840       0.02100976      -0.29758007
Si      11.51876947       4.43357643      14.35125897  F        5       0.00103098       0.02068665      -0.29810523
Si      -0.00000000       2.21678822      15.13501196  F        4      -0.00108091      -0.02926701       0.55664404
Si       3.83958982       2.21678822      15.13501196  F        4      -0.00397167      -0.02624789       0.56229487
Si       7.67917964       2.21678822      15.13501196  F        4      -0.00614347      -0.02954327       0.56032434
Si       1.91979491       5.54197054      15.13501196  F        4      -0.00296644       0.00553918      -0.30735228
Si       5.75938473       5.54197054      15.13501196  F        4      -0.00442278       0.00549821      -0.31667346
Si       9.59897455       5.54197054      15.13501196  F        4      -0.00179277       0.00779846      -0.30600863
Si      -0.00274061       2.20912617      17.57799269  T        3      -0.00069912       0.00321414       0.00108963
Si       3.83653783       2.20875084      17.57935724  T        3      -0.00106193       0.00111521      -0.00093916
Si       7.67615261       2.20886210      17.57868014  T        3      -0.00055932       0.00208369       0.00080243
Si       1.91674426       5.54477212      17.45832264  T        3      -0.00008670       0.00315541      -0.00013976
Si       5.75606325       5.54488633      17.45730372  T        3      -0.00196100       0.00073576       0.00011041
Si       9.59621333       5.54779491      17.45802548  T        3      -0.00053120       0.00035683       0.00021633
Si      -0.00317398      -0.05763708      18.32000645  T        2      -0.00050550       0.00321531       0.00095706
Si       3.83690230      -0.05868764      18.31792664  T        2      -0.00113955       0.00138865      -0.00230560
Si       7.67511687      -0.05796686      18.32014891  T        2      -0.00084689       0.00193362      -0.00049797
Si       1.91623665       3.36921857      18.34795797  T        2       0.00016800       0.00300932      -0.00069738
Si       5.75600051       3.36957967      18.34723488  T        2      -0.00143242       0.00098598       0.00032941
Si       9.59591245       3.36959478      18.34021456  T        2      -0.00095377       0.00224059       0.00426164
Si      -0.00658392      -0.93349927      20.56798780  T        1       0.00024634       0.00301599       0.00081613
Si       3.83619367      -0.93509820      20.56102418  T        1       0.00022312       0.00992518       0.00037030
Si       7.66311521      -0.93441173      20.56536689  T        1       0.00292293       0.00625706       0.00040654
Si       1.90928077       4.29165545      20.57885516  T        1       0.00053747       0.00279635      -0.00051736
Si       5.75501615       4.28902401      20.57938003  T        1       0.00179177       0.00565819      -0.00099423
Si       9.58895503       4.27713071      20.56289740  T        1       0.00068644       0.01002636       0.00235484
F        9.54948342       5.94778120      23.15376072  T        0       0.05454661       0.03296355       0.02806476
H        9.86840101       6.31467869      23.97172938  T        0      -0.03035276      -0.01802620       0.00826428
38
Lattice="11.518769465528859 0.0 0.0 3.839589821842953 6.650364651656328 0.0 0.0 0.0 32.62128289467409" Properties=species:S:1:pos:R:3:move_mask:L:1:tags:I:1:forces:R:3 surface=Si111 species=HF site=hollow orientation=parallel height_A=1.9 substrate_atoms=36 calculation_kind="Rigid evaluated approach scan; not NEB" energy=-185.02230885016667 pbc="T T F"
Si       1.91979491       1.10839411      12.00000000  F        6       0.00021604       0.00758731       0.15807823
Si       5.75938473       1.10839411      12.00000000  F        6       0.00009790       0.00761334       0.15846284
Si       9.59897455       1.10839411      12.00000000  F        6       0.00006744       0.00775543       0.15801615
Si       3.83958982       4.43357643      12.00000000  F        6       0.00006350      -0.00736363       0.16358573
Si       7.67917964       4.43357643      12.00000000  F        6       0.00021865      -0.00745212       0.16339213
Si      11.51876947       4.43357643      12.00000000  F        6       0.00002954      -0.00743098       0.16340906
Si       1.91979491       1.10839411      14.35125897  F        5      -0.00066760      -0.02454123      -0.28759221
Si       5.75938473       1.10839411      14.35125897  F        5      -0.00048563      -0.02348488      -0.29014736
Si       9.59897455       1.10839411      14.35125897  F        5       0.00059625      -0.02535766      -0.28646164
Si       3.83958982       4.43357643      14.35125897  F        5      -0.00045617       0.02115068      -0.29619676
Si       7.67917964       4.43357643      14.35125897  F        5      -0.00132454       0.02100588      -0.29757599
Si      11.51876947       4.43357643      14.35125897  F        5       0.00102411       0.02069148      -0.29811682
Si      -0.00000000       2.21678822      15.13501196  F        4      -0.00114616      -0.02915717       0.55680148
Si       3.83958982       2.21678822      15.13501196  F        4      -0.00399039      -0.02619848       0.56216773
Si       7.67917964       2.21678822      15.13501196  F        4      -0.00612806      -0.02945007       0.56044297
Si       1.91979491       5.54197054      15.13501196  F        4      -0.00295335       0.00561915      -0.30738500
Si       5.75938473       5.54197054      15.13501196  F        4      -0.00450215       0.00549737      -0.31666096
Si       9.59897455       5.54197054      15.13501196  F        4      -0.00178776       0.00773973      -0.30597460
Si      -0.00275693       2.20920297      17.57802073  T        3      -0.00068812       0.00310570       0.00101443
Si       3.83651204       2.20876936      17.57933438  T        3      -0.00100945       0.00124446      -0.00088713
Si       7.67613883       2.20890911      17.57870202  T        3      -0.00052427       0.00207660       0.00073012
Si       1.91674163       5.54484644      17.45831918  T        3      -0.00007516       0.00306076      -0.00013427
Si       5.75601467       5.54489801      17.45730640  T        3      -0.00184236       0.00083725       0.00010805
Si       9.59620112       5.54779528      17.45802912  T        3      -0.00052210       0.00051450       0.00023598
Si      -0.00318658      -0.05756148      18.32003066  T        2      -0.00047961       0.00312552       0.00088778
Si       3.83687472      -0.05866160      18.31786773  T        2      -0.00108849       0.00150062      -0.00212695
Si       7.67509576      -0.05792341      18.32013731  T        2      -0.00078870       0.00193291      -0.00048703
Si       1.91624317       3.36928862      18.34793981  T        2       0.00010905       0.00294142      -0.00063522
Si       5.75596390       3.36959628      18.34724069  T        2      -0.00132716       0.00109898       0.00035541
Si       9.59588909       3.36964144      18.34031559  T        2      -0.00090464       0.00229744       0.00410305
Si      -0.00657840      -0.93343265      20.56801011  T        1       0.00023712       0.00302990       0.00072792
Si       3.83620087      -0.93486326      20.56103147  T        1       0.00020618       0.00961496       0.00042664
Si       7.66318370      -0.93426969      20.56537770  T        1       0.00283423       0.00619168       0.00037772
Si       1.90929501       4.29171498      20.57884096  T        1       0.00048848       0.00285154      -0.00045855
Si       5.75505926       4.28914968      20.57935583  T        1       0.00171421       0.00564573      -0.00094543
Si       9.58896767       4.27736762      20.56296249  T        1       0.00073783       0.00973889       0.00214717
F        9.55043906       5.94820107      23.15367136  T        0       0.05791314       0.03723625       0.03804755
H        9.86798856       6.31458724      23.97262050  T        0      -0.03386179      -0.02226922      -0.00173223
38
Lattice="11.518769465528859 0.0 0.0 3.839589821842953 6.650364651656328 0.0 0.0 0.0 32.62128289467409" Properties=species:S:1:pos:R:3:move_mask:L:1:tags:I:1:forces:R:3 surface=Si111 species=HF site=hollow orientation=parallel height_A=1.9 substrate_atoms=36 calculation_kind="Rigid evaluated approach scan; not NEB" energy=-185.02243616624662 pbc="T T F"
Si       1.91979491       1.10839411      12.00000000  F        6       0.00021784       0.00758579       0.15807684
Si       5.75938473       1.10839411      12.00000000  F        6       0.00009814       0.00761159       0.15846167
Si       9.59897455       1.10839411      12.00000000  F        6       0.00006844       0.00775201       0.15801883
Si       3.83958982       4.43357643      12.00000000  F        6       0.00006580      -0.00736590       0.16358590
Si       7.67917964       4.43357643      12.00000000  F        6       0.00021634      -0.00745177       0.16339163
Si      11.51876947       4.43357643      12.00000000  F        6       0.00003195      -0.00743299       0.16341183
Si       1.91979491       1.10839411      14.35125897  F        5      -0.00066297      -0.02453975      -0.28756283
Si       5.75938473       1.10839411      14.35125897  F        5      -0.00049247      -0.02347712      -0.29011495
Si       9.59897455       1.10839411      14.35125897  F        5       0.00059342      -0.02535216      -0.28646449
Si       3.83958982       4.43357643      14.35125897  F        5      -0.00045974       0.02114798      -0.29621032
Si       7.67917964       4.43357643      14.35125897  F        5      -0.00131901       0.02100160      -0.29756912
Si      11.51876947       4.43357643      14.35125897  F        5       0.00101466       0.02069760      -0.29812836
Si      -0.00000000       2.21678822      15.13501196  F        4      -0.00122380      -0.02902528       0.55698390
Si       3.83958982       2.21678822      15.13501196  F        4      -0.00401226      -0.02613677       0.56201765
Si       7.67917964       2.21678822      15.13501196  F        4      -0.00610964      -0.02933701       0.56057687
Si       1.91979491       5.54197054      15.13501196  F        4      -0.00293891       0.00571403      -0.30742301
Si       5.75938473       5.54197054      15.13501196  F        4      -0.00459423       0.00549784      -0.31664407
Si       9.59897455       5.54197054      15.13501196  F        4      -0.00178229       0.00767142      -0.30592916
Si      -0.00277642       2.20929413      17.57805345  T        3      -0.00067718       0.00298720       0.00093381
Si       3.83648158       2.20879363      17.57930743  T        3      -0.00094495       0.00138559      -0.00081383
Si       7.67612263       2.20896572      17.57872727  T        3      -0.00048175       0.00207018       0.00065922
Si       1.91673866       5.54493489      17.45831510  T        3      -0.00006624       0.00294858      -0.00012769
Si       5.75595758       5.54491356      17.45730959  T        3      -0.00169961       0.00095706       0.00010205
Si       9.59618649       5.54779805      17.45803385  T        3      -0.00050790       0.00070078       0.00021933
Si      -0.00320139      -0.05747143      18.32005897  T        2      -0.00045593       0.00302121       0.00079862
Si       3.83684212      -0.05862862      18.31779901  T        2      -0.00103282       0.00164303      -0.00188560
Si       7.67507101      -0.05787103      18.32012345  T        2      -0.00070212       0.00194602      -0.00046961
Si       1.91625018       3.36937226      18.34791872  T        2       0.00004485       0.00286461      -0.00055997
Si       5.75592116       3.36961797      18.34724814  T        2      -0.00121350       0.00122328       0.00038001
Si       9.59586154       3.36969873      18.34043556  T        2      -0.00084264       0.00234932       0.00392104
Si      -0.00657177      -0.93335203      20.56803577  T        1       0.00021683       0.00304708       0.00063115
Si       3.83620901      -0.93458390      20.56104074  T        1       0.00028049       0.00926922       0.00063775
Si       7.66326529      -0.93409902      20.56539026  T        1       0.00269384       0.00612679       0.00038613
Si       1.90931150       4.29178769      20.57882465  T        1       0.00043914       0.00291491      -0.00038563
Si       5.75511030       4.28930145      20.57932727  T        1       0.00161510       0.00563266      -0.00088981
Si       9.58898373       4.27764952      20.56303747  T        1       0.00077690       0.00950717       0.00214796
F        9.55166291       5.94879369      23.15375929  T        0       0.05335101       0.03222309       0.02720917
H        9.86741908       6.31439224      23.97350222  T        0      -0.02950478      -0.01737888       0.00862709
38
Lattice="11.518769465528859 0.0 0.0 3.839589821842953 6.650364651656328 0.0 0.0 0.0 32.62128289467409" Properties=species:S:1:pos:R:3:move_mask:L:1:tags:I:1:forces:R:3 surface=Si111 species=HF site=hollow orientation=parallel height_A=1.9 substrate_atoms=36 calculation_kind="Rigid evaluated approach scan; not NEB" energy=-185.02258739133498 pbc="T T F"
Si       1.91979491       1.10839411      12.00000000  F        6       0.00021995       0.00758388       0.15807503
Si       5.75938473       1.10839411      12.00000000  F        6       0.00009841       0.00760940       0.15846023
Si       9.59897455       1.10839411      12.00000000  F        6       0.00006964       0.00774785       0.15802199
Si       3.83958982       4.43357643      12.00000000  F        6       0.00006849      -0.00736867       0.16358580
Si       7.67917964       4.43357643      12.00000000  F        6       0.00021362      -0.00745143       0.16339112
Si      11.51876947       4.43357643      12.00000000  F        6       0.00003482      -0.00743543       0.16341494
Si       1.91979491       1.10839411      14.35125897  F        5      -0.00065743      -0.02453795      -0.28752792
Si       5.75938473       1.10839411      14.35125897  F        5      -0.00050025      -0.02346806      -0.29007652
Si       9.59897455       1.10839411      14.35125897  F        5       0.00058969      -0.02534507      -0.28646817
Si       3.83958982       4.43357643      14.35125897  F        5      -0.00046359       0.02114506      -0.29622667
Si       7.67917964       4.43357643      14.35125897  F        5      -0.00131175       0.02099670      -0.29755931
Si      11.51876947       4.43357643      14.35125897  F        5       0.00100234       0.02070502      -0.29813997
Si      -0.00000000       2.21678822      15.13501196  F        4      -0.00131655      -0.02886643       0.55719578
Si       3.83958982       2.21678822      15.13501196  F        4      -0.00403791      -0.02605888       0.56184069
Si       7.67917964       2.21678822      15.13501196  F        4      -0.00608746      -0.02919932       0.56072865
Si       1.91979491       5.54197054      15.13501196  F        4      -0.00292257       0.00582690      -0.30746765
Si       5.75938473       5.54197054      15.13501196  F        4      -0.00470128       0.00550077      -0.31662220
Si       9.59897455       5.54197054      15.13501196  F        4      -0.00177664       0.00759307      -0.30587030
Si      -0.00279990       2.20940285      17.57809166  T        3      -0.00066732       0.00285838       0.00084782
Si       3.83644556       2.20882607      17.57927569  T        3      -0.00086585       0.00154032      -0.00071685
Si       7.67610360       2.20903452      17.57875640  T        3      -0.00042923       0.00206733       0.00059189
Si       1.91673530       5.54504069      17.45831026  T        3      -0.00006038       0.00281586      -0.00012114
Si       5.75589050       5.54493476      17.45731337  T        3      -0.00152660       0.00109746       0.00009438
Si       9.59616888       5.54780494      17.45803987  T        3      -0.00048854       0.00091594       0.00017147
Si      -0.00321889      -0.05736361      18.32009198  T        2      -0.00043411       0.00290090       0.00068707
Si       3.83680343      -0.05858596      18.31771921  T        2      -0.00096894       0.00181844      -0.00157872
Si       7.67504214      -0.05780719      18.32010684  T        2      -0.00058637       0.00197446      -0.00044633
Si       1.91625746       3.36947275      18.34789434  T        2      -0.00002572       0.00277735      -0.00046887
Si       5.75587128       3.36964687      18.34725782  T        2      -0.00108670       0.00136188       0.00040230
Si       9.59582905       3.36976984      18.34057861  T        2      -0.00076674       0.00239663       0.00370476
Si      -0.00656387      -0.93325347      20.56806515  T        1       0.00018373       0.00306991       0.00052415
Si       3.83621881      -0.93425001      20.56105376  T        1       0.00044020       0.00887926       0.00099169
Si       7.66336273      -0.93389231      20.56540508  T        1       0.00250127       0.00605890       0.00042877
Si       1.90933057       4.29187757      20.57880607  T        1       0.00038670       0.00298758      -0.00029794
Si       5.75517083       4.28948637      20.57929347  T        1       0.00149230       0.00561208      -0.00082459
Si       9.58900436       4.27798736      20.56312509  T        1       0.00080750       0.00931156       0.00233471
F        9.55320083       5.94957607      23.15400766  T        0       0.04174140       0.01887379      -0.00248314
H        9.86667585       6.31409483      23.97443439  T        0      -0.01816814      -0.00429547       0.03740304
38
Lattice="11.518769465528859 0.0 0.0 3.839589821842953 6.650364651656328 0.0 0.0 0.0 32.62128289467409" Properties=species:S:1:pos:R:3:move_mask:L:1:tags:I:1:forces:R:3 surface=Si111 species=HF site=hollow orientation=parallel height_A=1.9 substrate_atoms=36 calculation_kind="Rigid evaluated approach scan; not NEB" energy=-185.02275120196538 pbc="T T F"
Si       1.91979491       1.10839411      12.00000000  F        6       0.00022240       0.00758150       0.15807291
Si       5.75938473       1.10839411      12.00000000  F        6       0.00009871       0.00760668       0.15845876
Si       9.59897455       1.10839411      12.00000000  F        6       0.00007116       0.00774268       0.15802587
Si       3.83958982       4.43357643      12.00000000  F        6       0.00007162      -0.00737211       0.16358566
Si       7.67917964       4.43357643      12.00000000  F        6       0.00021038      -0.00745117       0.16339078
Si      11.51876947       4.43357643      12.00000000  F        6       0.00003830      -0.00743844       0.16341858
Si       1.91979491       1.10839411      14.35125897  F        5      -0.00065064      -0.02453543      -0.28748587
Si       5.75938473       1.10839411      14.35125897  F        5      -0.00050939      -0.02345656      -0.29003074
Si       9.59897455       1.10839411      14.35125897  F        5       0.00058492      -0.02533563      -0.28647188
Si       3.83958982       4.43357643      14.35125897  F        5      -0.00046788       0.02114171      -0.29624638
Si       7.67917964       4.43357643      14.35125897  F        5      -0.00130343       0.02099048      -0.29754771
Si      11.51876947       4.43357643      14.35125897  F        5       0.00098771       0.02071336      -0.29815300
Si      -0.00000000       2.21678822      15.13501196  F        4      -0.00142816      -0.02867427       0.55744413
Si       3.83958982       2.21678822      15.13501196  F        4      -0.00406832      -0.02595912       0.56163217
Si       7.67917964       2.21678822      15.13501196  F        4      -0.00606033      -0.02903082       0.56090402
Si       1.91979491       5.54197054      15.13501196  F        4      -0.00290277       0.00596186      -0.30752142
Si       5.75938473       5.54197054      15.13501196  F        4      -0.00482679       0.00550820      -0.31659579
Si       9.59897455       5.54197054      15.13501196  F        4      -0.00177156       0.00750547      -0.30579810
Si      -0.00282858       2.20953383      17.57813647  T        3      -0.00066061       0.00271693       0.00075436
Si       3.83640280       2.20887049      17.57923836  T        3      -0.00076946       0.00171512      -0.00060050
Si       7.67608123       2.20911940      17.57879014  T        3      -0.00036222       0.00207491       0.00052687
Si       1.91673147       5.54516842      17.45830448  T        3      -0.00005605       0.00265931      -0.00011777
Si       5.75581152       5.54496449      17.45731788  T        3      -0.00131449       0.00125969       0.00009252
Si       9.59614746       5.54781895      17.45804723  T        3      -0.00046679       0.00115288       0.00013437
Si      -0.00323976      -0.05723320      18.32013034  T        2      -0.00040969       0.00276365       0.00055486
Si       3.83675721      -0.05852915      18.31762709  T        2      -0.00088615       0.00202103      -0.00122864
Si       7.67500869      -0.05772799      18.32008674  T        2      -0.00045451       0.00201240      -0.00042320
Si       1.91626454       3.36959487      18.34786631  T        2      -0.00010662       0.00267652      -0.00035877
Si       5.75581294       3.36968637      18.34727064  T        2      -0.00093183       0.00152372       0.00042249
Si       9.59579058       3.36985961      18.34075050  T        2      -0.00067928       0.00244840       0.00342837
Si      -0.00655454      -0.93313102      20.56809861  T        1       0.00014004       0.00310366       0.00040138
Si       3.83623203      -0.93384697      20.56107449  T        1       0.00060526       0.00842183       0.00135274
Si       7.66347964      -0.93363843      20.56542325  T        1       0.00228678       0.00597281       0.00046413
Si       1.90935266       4.29199069      20.57878517  T        1       0.00032060       0.00307063      -0.00019929
Si       5.75524299       4.28971497      20.57925325  T        1       0.00134842       0.00556452      -0.00074336
Si       9.58903128       4.27839769      20.56323089  T        1       0.00085119       0.00903681       0.00248221
F        9.55506377       5.95050546      23.15423687  T        0       0.03116807       0.00671030      -0.02959598
H        9.86579112       6.31376391      23.97565757  T        0      -0.00791860       0.00759647       0.06357123
38
Lattice="11.518769465528859 0.0 0.0 3.839589821842953 6.650364651656328 0.0 0.0 0.0 32.62128289467409" Properties=species:S:1:pos:R:3:move_mask:L:1:tags:I:1:forces:R:3 surface=Si111 species=HF site=hollow orientation=parallel height_A=1.9 substrate_atoms=36 calculation_kind="Rigid evaluated approach scan; not NEB" energy=-185.02295900952046 pbc="T T F"
Si       1.91979491       1.10839411      12.00000000  F        6       0.00022513       0.00757860       0.15807070
Si       5.75938473       1.10839411      12.00000000  F        6       0.00009904       0.00760338       0.15845764
Si       9.59897455       1.10839411      12.00000000  F        6       0.00007304       0.00773638       0.15803058
Si       3.83958982       4.43357643      12.00000000  F        6       0.00007516      -0.00737630       0.16358578
Si       7.67917964       4.43357643      12.00000000  F        6       0.00020661      -0.00745109       0.16339085
Si      11.51876947       4.43357643      12.00000000  F        6       0.00004245      -0.00744211       0.16342286
Si       1.91979491       1.10839411      14.35125897  F        5      -0.00064241      -0.02453185      -0.28743610
Si       5.75938473       1.10839411      14.35125897  F        5      -0.00052016      -0.02344165      -0.28997747
Si       9.59897455       1.10839411      14.35125897  F        5       0.00057917      -0.02532335      -0.28647448
Si       3.83958982       4.43357643      14.35125897  F        5      -0.00047274       0.02113779      -0.29626937
Si       7.67917964       4.43357643      14.35125897  F        5      -0.00129524       0.02098238      -0.29753638
Si      11.51876947       4.43357643      14.35125897  F        5       0.00097204       0.02072183      -0.29816893
Si      -0.00000000       2.21678822      15.13501196  F        4      -0.00155929      -0.02844766       0.55772982
Si       3.83958982       2.21678822      15.13501196  F        4      -0.00410365      -0.02583435       0.56139389
Si       7.67917964       2.21678822      15.13501196  F        4      -0.00602775      -0.02882980       0.56110552
Si       1.91979491       5.54197054      15.13501196  F        4      -0.00287825       0.00611926      -0.30758600
Si       5.75938473       5.54197054      15.13501196  F        4      -0.00497073       0.00552226      -0.31656590
Si       9.59897455       5.54197054      15.13501196  F        4      -0.00176811       0.00741243      -0.30571498
Si      -0.00286298       2.20968840      17.57818785  T        3      -0.00065819       0.00256261       0.00065188
Si       3.83635336       2.20892975      17.57919581  T        3      -0.00065630       0.00191375      -0.00047534
Si       7.67605570       2.20922228      17.57882847  T        3      -0.00027861       0.00209905       0.00046065
Si       1.91672715       5.54531924      17.45829768  T        3      -0.00005086       0.00248057      -0.00012084
Si       5.75572112       5.54500510      17.45732321  T        3      -0.00106112       0.00144039       0.00010496
Si       9.59612199       5.54784291      17.45805576  T        3      -0.00044638       0.00139678       0.00016215
Si      -0.00326420      -0.05707881      18.32017353  T        2      -0.00037720       0.00261256       0.00040912
Si       3.83670328      -0.05845486      18.31752426  T        2      -0.00077365       0.00223535      -0.00087549
Si       7.67497128      -0.05763134      18.32006298  T        2      -0.00032826       0.00204938      -0.00040881
Si       1.91627072       3.36974021      18.34783514  T        2      -0.00020028       0.00256124      -0.00023014
Si       5.75574649       3.36973904      18.34728712  T        2      -0.00073612       0.00171474       0.00044138
Si       9.59574620       3.36997059      18.34095217  T        2      -0.00058614       0.00251649       0.00307394
Si      -0.00654398      -0.93298166      20.56813558  T        1       0.00009124       0.00315240       0.00025962
Si       3.83625048      -0.93337083      20.56110690  T        1       0.00066901       0.00788181       0.00153929
Si       7.66361642      -0.93333274      20.56544543  T        1       0.00209883       0.00585223       0.00043242
Si       1.90937754       4.29213043      20.57876252  T        1       0.00023018       0.00316263      -0.00009771
Si       5.75532686       4.28999182      20.57920656  T        1       0.00119193       0.00547017      -0.00064132
Si       9.58906556       4.27888645      20.56335822  T        1       0.00093203       0.00854779       0.00229880
F        9.55719784       5.95149402      23.15421164  T        0       0.03207922       0.00826878      -0.02545115
H        9.86483689       6.31349788      23.97742987  T        0      -0.00917363       0.00594517       0.05900854
38
Lattice="11.518769465528859 0.0 0.0 3.839589821842953 6.650364651656328 0.0 0.0 0.0 32.62128289467409" Properties=species:S:1:pos:R:3:move_mask:L:1:tags:I:1:forces:R:3 surface=Si111 species=HF site=hollow orientation=parallel height_A=1.9 substrate_atoms=36 calculation_kind="Rigid evaluated approach scan; not NEB" energy=-185.0232070253054 pbc="T T F"
Si       1.91979491       1.10839411      12.00000000  F        6       0.00022806       0.00757502       0.15806835
Si       5.75938473       1.10839411      12.00000000  F        6       0.00009945       0.00759933       0.15845702
Si       9.59897455       1.10839411      12.00000000  F        6       0.00007536       0.00772869       0.15803623
Si       3.83958982       4.43357643      12.00000000  F        6       0.00007914      -0.00738141       0.16358617
Si       7.67917964       4.43357643      12.00000000  F        6       0.00020230      -0.00745137       0.16339153
Si      11.51876947       4.43357643      12.00000000  F        6       0.00004730      -0.00744657       0.16342779
Si       1.91979491       1.10839411      14.35125897  F        5      -0.00063245      -0.02452693      -0.28737736
Si       5.75938473       1.10839411      14.35125897  F        5      -0.00053272      -0.02342280      -0.28991575
Si       9.59897455       1.10839411      14.35125897  F        5       0.00057219      -0.02530752      -0.28647557
Si       3.83958982       4.43357643      14.35125897  F        5      -0.00047805       0.02113348      -0.29629598
Si       7.67917964       4.43357643      14.35125897  F        5      -0.00128722       0.02097245      -0.29752524
Si      11.51876947       4.43357643      14.35125897  F        5       0.00095509       0.02073040      -0.29818740
Si      -0.00000000       2.21678822      15.13501196  F        4      -0.00171268      -0.02818030       0.55805522
Si       3.83958982       2.21678822      15.13501196  F        4      -0.00414415      -0.02567719       0.56112610
Si       7.67917964       2.21678822      15.13501196  F        4      -0.00598859      -0.02858903       0.56133489
Si       1.91979491       5.54197054      15.13501196  F        4      -0.00284881       0.00630162      -0.30766419
Si       5.75938473       5.54197054      15.13501196  F        4      -0.00513250       0.00554669      -0.31652936
Si       9.59897455       5.54197054      15.13501196  F        4      -0.00176782       0.00731734      -0.30561533
Si      -0.00290443       2.20987045      17.57824625  T        3      -0.00065879       0.00239872       0.00054168
Si       3.83629685       2.20900938      17.57914813  T        3      -0.00052435       0.00213340      -0.00033996
Si       7.67602716       2.20934760      17.57887176  T        3      -0.00017708       0.00214286       0.00039561
Si       1.91672228       5.54549665      17.45828959  T        3      -0.00004599       0.00227953      -0.00013168
Si       5.75561926       5.54506105      17.45732965  T        3      -0.00076241       0.00164017       0.00013442
Si       9.59609174       5.54788170      17.45806602  T        3      -0.00042534       0.00164297       0.00025984
Si      -0.00329268      -0.05689641      18.32022116  T        2      -0.00033668       0.00244949       0.00024798
Si       3.83664104      -0.05835676      18.31741192  T        2      -0.00062442       0.00245728      -0.00051938
Si       7.67493031      -0.05751279      18.32003483  T        2      -0.00020966       0.00208710      -0.00040482
Si       1.91627479       3.36991300      18.34780147  T        2      -0.00030452       0.00243196      -0.00008113
Si       5.75567209       3.36980997      18.34730830  T        2      -0.00049765       0.00193442       0.00045724
Si       9.59569552       3.37010845      18.34118684  T        2      -0.00048710       0.00260250       0.00264017
Si      -0.00653244      -0.93279860      20.56817538  T        1       0.00003511       0.00321821       0.00010087
Si       3.83627605      -0.93281018      20.56115567  T        1       0.00062625       0.00725655       0.00153886
Si       7.66377573      -0.93296443      20.56547225  T        1       0.00194164       0.00569347       0.00032523
Si       1.90940492       4.29230394      20.57873878  T        1       0.00011377       0.00326228       0.00000522
Si       5.75542355       4.29032719      20.57915299  T        1       0.00102244       0.00531850      -0.00051606
Si       9.58910978       4.27946678      20.56351016  T        1       0.00105222       0.00782558       0.00176345
F        9.55967634       5.95257246      23.15391731  T        0       0.04489478       0.02435447       0.01238963
H        9.86378330       6.31329403      23.97983035  T        0      -0.02236611      -0.01005137       0.02129570
38
Lattice="11.518769465528859 0.0 0.0 3.839589821842953 6.650364651656328 0.0 0.0 0.0 32.62128289467409" Properties=species:S:1:pos:R:3:move_mask:L:1:tags:I:1:forces:R:3 surface=Si111 species=HF site=hollow orientation=parallel height_A=1.9 substrate_atoms=36 calculation_kind="Rigid evaluated approach scan; not NEB" energy=-185.02348430498594 pbc="T T F"
Si       1.91979491       1.10839411      12.00000000  F        6       0.00023114       0.00757042       0.15806534
Si       5.75938473       1.10839411      12.00000000  F        6       0.00010002       0.00759423       0.15845655
Si       9.59897455       1.10839411      12.00000000  F        6       0.00007815       0.00771934       0.15804274
Si       3.83958982       4.43357643      12.00000000  F        6       0.00008358      -0.00738763       0.16358617
Si       7.67917964       4.43357643      12.00000000  F        6       0.00019745      -0.00745227       0.16339291
Si      11.51876947       4.43357643      12.00000000  F        6       0.00005287      -0.00745203       0.16343311
Si       1.91979491       1.10839411      14.35125897  F        5      -0.00062045      -0.02452071      -0.28730813
Si       5.75938473       1.10839411      14.35125897  F        5      -0.00054686      -0.02340069      -0.28984392
Si       9.59897455       1.10839411      14.35125897  F        5       0.00056330      -0.02528746      -0.28647622
Si       3.83958982       4.43357643      14.35125897  F        5      -0.00048317       0.02112960      -0.29632681
Si       7.67917964       4.43357643      14.35125897  F        5      -0.00127720       0.02096207      -0.29751025
Si      11.51876947       4.43357643      14.35125897  F        5       0.00093390       0.02074037      -0.29820424
Si      -0.00000000       2.21678822      15.13501196  F        4      -0.00189237      -0.02786024       0.55842076
Si       3.83958982       2.21678822      15.13501196  F        4      -0.00418961      -0.02547505       0.56083040
Si       7.67917964       2.21678822      15.13501196  F        4      -0.00594119      -0.02829452       0.56158924
Si       1.91979491       5.54197054      15.13501196  F        4      -0.00281681       0.00651276      -0.30775980
Si       5.75938473       5.54197054      15.13501196  F        4      -0.00530797       0.00558769      -0.31647512
Si       9.59897455       5.54197054      15.13501196  F        4      -0.00177294       0.00722381      -0.30547939
Si      -0.00295502       2.21008587      17.57831224  T        3      -0.00065584       0.00223660       0.00043126
Si       3.83623298       2.20911840      17.57909564  T        3      -0.00036904       0.00235595      -0.00017203
Si       7.67599611       2.20950261      17.57892061  T        3      -0.00006018       0.00220145       0.00034561
Si       1.91671676       5.54570579      17.45827967  T        3      -0.00004923       0.00205597      -0.00014746
Si       5.75550665       5.54513958      17.45733795  T        3      -0.00041571       0.00186457       0.00017156
Si       9.59605557       5.54794304      17.45807986  T        3      -0.00039075       0.00190495       0.00033127
Si      -0.00332585      -0.05667994      18.32027234  T        2      -0.00029907       0.00227593       0.00005442
Si       3.83657006      -0.05822477      18.31729210  T        2      -0.00044358       0.00270306      -0.00008771
Si       7.67488633      -0.05736533      18.32000106  T        2      -0.00006345       0.00215037      -0.00039754
Si       1.91627472       3.37011957      18.34776657  T        2      -0.00040626       0.00229284       0.00009140
Si       5.75559064       3.36990754      18.34733579  T        2      -0.00023967       0.00216692       0.00046480
Si       9.59563801       3.37028231      18.34145836  T        2      -0.00037106       0.00268556       0.00216695
Si      -0.00652038      -0.93257099      20.56821670  T        1      -0.00004306       0.00329680      -0.00006032
Si       3.83631026      -0.93214853      20.56122560  T        1       0.00067256       0.00657687       0.00167377
Si       7.66396209      -0.93251712      20.56550359  T        1       0.00173065       0.00552161       0.00024317
Si       1.90943394       4.29252258      20.57871503  T        1      -0.00001199       0.00336909       0.00012081
Si       5.75553452       4.29073631      20.57909218  T        1       0.00082645       0.00512334      -0.00037154
Si       9.58916852       4.28015594      20.56368670  T        1       0.00116972       0.00709623       0.00140600
F        9.56277623       5.95398706      23.15379107  T        0       0.05091565       0.03254787       0.03274804
H        9.86242076       6.31295228      23.98252985  T        0      -0.02888799      -0.01833570       0.00055419
38
Lattice="11.518769465528859 0.0 0.0 3.839589821842953 6.650364651656328 0.0 0.0 0.0 32.62128289467409" Properties=species:S:1:pos:R:3:move_mask:L:1:tags:I:1:forces:R:3 surface=Si111 species=HF site=hollow orientation=parallel height_A=1.9 substrate_atoms=36 calculation_kind="Rigid evaluated approach scan; not NEB" energy=-185.0238265821643 pbc="T T F"
Si       1.91979491       1.10839411      12.00000000  F        6       0.00023417       0.00756455       0.15806137
Si       5.75938473       1.10839411      12.00000000  F        6       0.00010086       0.00758786       0.15845605
Si       9.59897455       1.10839411      12.00000000  F        6       0.00008137       0.00770824       0.15804989
Si       3.83958982       4.43357643      12.00000000  F        6       0.00008844      -0.00739502       0.16358534
Si       7.67917964       4.43357643      12.00000000  F        6       0.00019218      -0.00745410       0.16339511
Si      11.51876947       4.43357643      12.00000000  F        6       0.00005900      -0.00745856       0.16343854
Si       1.91979491       1.10839411      14.35125897  F        5      -0.00060628      -0.02451324      -0.28722826
Si       5.75938473       1.10839411      14.35125897  F        5      -0.00056229      -0.02337626      -0.28976188
Si       9.59897455       1.10839411      14.35125897  F        5       0.00055222      -0.02526305      -0.28647689
Si       3.83958982       4.43357643      14.35125897  F        5      -0.00048755       0.02112707      -0.29636130
Si       7.67917964       4.43357643      14.35125897  F        5      -0.00126388       0.02095285      -0.29748914
Si      11.51876947       4.43357643      14.35125897  F        5       0.00090691       0.02075255      -0.29821615
Si      -0.00000000       2.21678822      15.13501196  F        4      -0.00209795      -0.02748289       0.55882010
Si       3.83958982       2.21678822      15.13501196  F        4      -0.00423869      -0.02522020       0.56051767
Si       7.67917964       2.21678822      15.13501196  F        4      -0.00588478      -0.02793907       0.56186402
Si       1.91979491       5.54197054      15.13501196  F        4      -0.00278502       0.00675116      -0.30787622
Si       5.75938473       5.54197054      15.13501196  F        4      -0.00548836       0.00565116      -0.31639228
Si       9.59897455       5.54197054      15.13501196  F        4      -0.00178589       0.00713883      -0.30529156
Si      -0.00301574       2.21033605      17.57838504  T        3      -0.00064089       0.00208632       0.00032557
Si       3.83616326       2.20926352      17.57904032  T        3      -0.00019135       0.00256351       0.00003815
Si       7.67596401       2.20969158      17.57897489  T        3       0.00006585       0.00226677       0.00031607
Si       1.91671048       5.54594694      17.45826747  T        3      -0.00006495       0.00181679      -0.00016454
Si       5.75538726       5.54524664      17.45734888  T        3      -0.00002927       0.00211292       0.00020831
Si       9.59601335       5.54803345      17.45809877  T        3      -0.00033168       0.00218880       0.00030230
Si      -0.00336370      -0.05642811      18.32032456  T        2      -0.00027129       0.00209722      -0.00017813
Si       3.83649206      -0.05805134      18.31717043  T        2      -0.00023842       0.00297554       0.00045965
Si       7.67484120      -0.05718472      18.31996114  T        2       0.00013052       0.00225315      -0.00037557
Si       1.91626851       3.37036172      18.34773289  T        2      -0.00049161       0.00214944       0.00028404
Si       5.75550521       3.37003831      18.34737044  T        2       0.00001414       0.00239621       0.00046372
Si       9.59557464       3.37049754      18.34176384  T        2      -0.00023185       0.00275008       0.00170438
Si      -0.00650891      -0.93229253      20.56825729  T        1      -0.00014824       0.00337960      -0.00020912
Si       3.83635478      -0.93138454      20.56132115  T        1       0.00094243       0.00587639       0.00216949
Si       7.66417544      -0.93198438      20.56553875  T        1       0.00140856       0.00535816       0.00026213
Si       1.90946292       4.29279312      20.57869300  T        1      -0.00013367       0.00348207       0.00025626
Si       5.75565848       4.29122469      20.57902549  T        1       0.00060252       0.00490402      -0.00021282
Si       9.58924520       4.28095542      20.56388528  T        1       0.00125342       0.00653927       0.00161554
F        9.56665950       5.95589992      23.15415927  T        0       0.03743945       0.01691859      -0.00203603
H        9.86061553       6.31233185      23.98524969  T        0      -0.01609816      -0.00324675       0.03367615
38
Lattice="11.518769465528859 0.0 0.0 3.839589821842953 6.650364651656328 0.0 0.0 0.0 32.62128289467409" Properties=species:S:1:pos:R:3:move_mask:L:1:tags:I:1:forces:R:3 surface=Si111 species=HF site=hollow orientation=parallel height_A=1.9 substrate_atoms=36 calculation_kind="Rigid evaluated approach scan; not NEB" energy=-185.02420524654514 pbc="T T F"
Si       1.91979491       1.10839411      12.00000000  F        6       0.00023666       0.00755695       0.15805689
Si       5.75938473       1.10839411      12.00000000  F        6       0.00010215       0.00757985       0.15845660
Si       9.59897455       1.10839411      12.00000000  F        6       0.00008523       0.00769474       0.15805797
Si       3.83958982       4.43357643      12.00000000  F        6       0.00009366      -0.00740399       0.16358449
Si       7.67917964       4.43357643      12.00000000  F        6       0.00018652      -0.00745762       0.16339905
Si      11.51876947       4.43357643      12.00000000  F        6       0.00006568      -0.00746658       0.16344433
Si       1.91979491       1.10839411      14.35125897  F        5      -0.00058902      -0.02450329      -0.28713457
Si       5.75938473       1.10839411      14.35125897  F        5      -0.00058006      -0.02334688      -0.28966804
Si       9.59897455       1.10839411      14.35125897  F        5       0.00053908      -0.02523255      -0.28647377
Si       3.83958982       4.43357643      14.35125897  F        5      -0.00049137       0.02112637      -0.29639827
Si       7.67917964       4.43357643      14.35125897  F        5      -0.00125019       0.02094487      -0.29746746
Si      11.51876947       4.43357643      14.35125897  F        5       0.00087732       0.02076530      -0.29822627
Si      -0.00000000       2.21678822      15.13501196  F        4      -0.00233299      -0.02703481       0.55925738
Si       3.83958982       2.21678822      15.13501196  F        4      -0.00429077      -0.02489259       0.56020571
Si       7.67917964       2.21678822      15.13501196  F        4      -0.00581580      -0.02750534       0.56217322
Si       1.91979491       5.54197054      15.13501196  F        4      -0.00275182       0.00701855      -0.30802751
Si       5.75938473       5.54197054      15.13501196  F        4      -0.00566486       0.00575169      -0.31626758
Si       9.59897455       5.54197054      15.13501196  F        4      -0.00181306       0.00708157      -0.30504092
Si      -0.00309000       2.21063055      17.57846494  T        3      -0.00060626       0.00194751       0.00021630
Si       3.83608922       2.20946223      17.57898548  T        3       0.00000537       0.00275972       0.00025905
Si       7.67593310       2.20992826      17.57903598  T        3       0.00020181       0.00234539       0.00028404
Si       1.91670283       5.54622681      17.45825182  T        3      -0.00008489       0.00157451      -0.00018603
Si       5.75526661       5.54539779      17.45736416  T        3       0.00039177       0.00237614       0.00026092
Si       9.59596406       5.54816944      17.45812401  T        3      -0.00024786       0.00246219       0.00028875
Si      -0.00340733      -0.05613172      18.32037340  T        2      -0.00023638       0.00192430      -0.00042666
Si       3.83640873      -0.05781569      18.31705756  T        2       0.00002151       0.00322260       0.00102303
Si       7.67479852      -0.05695673      18.31991326  T        2       0.00031557       0.00236384      -0.00035771
Si       1.91625214       3.37064945      18.34770489  T        2      -0.00055773       0.00200237       0.00049025
Si       5.75541960       3.37021913      18.34741482  T        2       0.00028543       0.00263275       0.00046239
Si       9.59550615       3.37077057      18.34210607  T        2      -0.00008090       0.00282693       0.00124713
Si      -0.00650044      -0.93194296      20.56829379  T        1      -0.00025880       0.00346624      -0.00034924
Si       3.83641896      -0.93049539      20.56146190  T        1       0.00117974       0.00511506       0.00260914
Si       7.66441895      -0.93133839      20.56557950  T        1       0.00108665       0.00516270       0.00024625
Si       1.90948929       4.29313684      20.57867613  T        1      -0.00027275       0.00359558       0.00039196
Si       5.75579552       4.29181672      20.57895405  T        1       0.00037455       0.00462274      -0.00003078
Si       9.58934811       4.28189390      20.56411821  T        1       0.00136088       0.00584149       0.00171323
F        9.57133486       5.95817158      23.15448752  T        0       0.02769937       0.00570621      -0.02661748
H        9.85846897       6.31164121      23.98867786  T        0      -0.00718344       0.00737547       0.05654423
38
Lattice="11.518769465528859 0.0 0.0 3.839589821842953 6.650364651656328 0.0 0.0 0.0 32.62128289467409" Properties=species:S:1:pos:R:3:move_mask:L:1:tags:I:1:forces:R:3 surface=Si111 species=HF site=hollow orientation=parallel height_A=1.9 substrate_atoms=36 calculation_kind="Rigid evaluated approach scan; not NEB" energy=-185.02464282805227 pbc="T T F"
Si       1.91979491       1.10839411      12.00000000  F        6       0.00023806       0.00754737       0.15805255
Si       5.75938473       1.10839411      12.00000000  F        6       0.00010406       0.00757008       0.15845922
Si       9.59897455       1.10839411      12.00000000  F        6       0.00008975       0.00767861       0.15806701
Si       3.83958982       4.43357643      12.00000000  F        6       0.00009906      -0.00741468       0.16358456
Si       7.67917964       4.43357643      12.00000000  F        6       0.00018062      -0.00746350       0.16340552
Si      11.51876947       4.43357643      12.00000000  F        6       0.00007267      -0.00747623       0.16345060
Si       1.91979491       1.10839411      14.35125897  F        5      -0.00056821      -0.02448994      -0.28702661
Si       5.75938473       1.10839411      14.35125897  F        5      -0.00060086      -0.02331090      -0.28956333
Si       9.59897455       1.10839411      14.35125897  F        5       0.00052457      -0.02519529      -0.28646277
Si       3.83958982       4.43357643      14.35125897  F        5      -0.00049486       0.02112809      -0.29643468
Si       7.67917964       4.43357643      14.35125897  F        5      -0.00123950       0.02093856      -0.29745185
Si      11.51876947       4.43357643      14.35125897  F        5       0.00084951       0.02077661      -0.29823855
Si      -0.00000000       2.21678822      15.13501196  F        4      -0.00259386      -0.02651468       0.55972634
Si       3.83958982       2.21678822      15.13501196  F        4      -0.00434345      -0.02448337       0.55992223
Si       7.67917964       2.21678822      15.13501196  F        4      -0.00573221      -0.02698823       0.56252509
Si       1.91979491       5.54197054      15.13501196  F        4      -0.00271658       0.00730905      -0.30822495
Si       5.75938473       5.54197054      15.13501196  F        4      -0.00582335       0.00590073      -0.31608799
Si       9.59897455       5.54197054      15.13501196  F        4      -0.00185948       0.00707133      -0.30472476
Si      -0.00317850       2.21097118      17.57855027  T        3      -0.00054730       0.00181798       0.00009527
Si       3.83601483       2.20972491      17.57893619  T        3       0.00021167       0.00294685       0.00045005
Si       7.67590657       2.21021973      17.57910390  T        3       0.00034558       0.00243790       0.00022010
Si       1.91669320       5.54654424      17.45823185  T        3      -0.00009710       0.00134861      -0.00021005
Si       5.75515411       5.54560391      17.45738547  T        3       0.00082627       0.00263722       0.00033941
Si       9.59590882       5.54836224      17.45815597  T        3      -0.00014244       0.00268939       0.00041229
Si      -0.00345662      -0.05578973      18.32041286  T        2      -0.00017607       0.00176959      -0.00065554
Si       3.83632537      -0.05750531      18.31696723  T        2       0.00035427       0.00338737       0.00148545
Si       7.67476273      -0.05667357      18.31985695  T        2       0.00043261       0.00244239      -0.00036672
Si       1.91622299       3.37098451      18.34768785  T        2      -0.00060327       0.00185656       0.00069578
Si       5.75533994       3.37046094      18.34746999  T        2       0.00058788       0.00288238       0.00047086
Si       9.59543538       3.37110957      18.34247881  T        2       0.00006751       0.00294122       0.00079468
Si      -0.00649779      -0.93151240      20.56832259  T        1      -0.00034575       0.00354938      -0.00048564
Si       3.83651035      -0.92948436      20.56166283  T        1       0.00112145       0.00426240       0.00256182
Si       7.66468870      -0.93057098      20.56562611  T        1       0.00089694       0.00489661       0.00003373
Si       1.90950964       4.29356444      20.57866806  T        1      -0.00044214       0.00369946       0.00050427
Si       5.75594194       4.29251755      20.57888146  T        1       0.00017164       0.00426146       0.00017865
Si       9.58948259       4.28297109      20.56439154  T        1       0.00153982       0.00471849       0.00100712
F        9.57666934       5.96058731      23.15421297  T        0       0.04427638       0.02796894       0.02927287
H        9.85614556       6.31111380      23.99341273  T        0      -0.02466388      -0.01509779       0.00021798
38
Lattice="11.518769465528859 0.0 0.0 3.839589821842953 6.650364651656328 0.0 0.0 0.0 32.62128289467409" Properties=species:S:1:pos:R:3:move_mask:L:1:tags:I:1:forces:R:3 surface=Si111 species=HF site=hollow orientation=parallel height_A=1.9 substrate_atoms=36 calculation_kind="Rigid evaluated approach scan; not NEB" energy=-185.02513730495016 pbc="T T F"
Si       1.91979491       1.10839411      12.00000000  F        6       0.00023776       0.00753495       0.15804717
Si       5.75938473       1.10839411      12.00000000  F        6       0.00010688       0.00755788       0.15846268
Si       9.59897455       1.10839411      12.00000000  F        6       0.00009473       0.00765958       0.15807619
Si       3.83958982       4.43357643      12.00000000  F        6       0.00010457      -0.00742727       0.16358370
Si       7.67917964       4.43357643      12.00000000  F        6       0.00017471      -0.00747265       0.16341456
Si      11.51876947       4.43357643      12.00000000  F        6       0.00007943      -0.00748775       0.16345622
Si       1.91979491       1.10839411      14.35125897  F        5      -0.00054365      -0.02447365      -0.28690422
Si       5.75938473       1.10839411      14.35125897  F        5      -0.00062334      -0.02327251      -0.28944686
Si       9.59897455       1.10839411      14.35125897  F        5       0.00050780      -0.02515112      -0.28644599
Si       3.83958982       4.43357643      14.35125897  F        5      -0.00049632       0.02113561      -0.29646700
Si       7.67917964       4.43357643      14.35125897  F        5      -0.00122559       0.02094000      -0.29743226
Si      11.51876947       4.43357643      14.35125897  F        5       0.00081670       0.02079029      -0.29824121
Si      -0.00000000       2.21678822      15.13501196  F        4      -0.00287849      -0.02590244       0.56020728
Si       3.83958982       2.21678822      15.13501196  F        4      -0.00439115      -0.02396990       0.55970387
Si       7.67917964       2.21678822      15.13501196  F        4      -0.00563013      -0.02636050       0.56290197
Si       1.91979491       5.54197054      15.13501196  F        4      -0.00269040       0.00761887      -0.30848046
Si       5.75938473       5.54197054      15.13501196  F        4      -0.00593269       0.00611774      -0.31580625
Si       9.59897455       5.54197054      15.13501196  F        4      -0.00193078       0.00712535      -0.30428840
Si      -0.00328278       2.21136456      17.57863885  T        3      -0.00044526       0.00172725      -0.00001438
Si       3.83594575       2.21007100      17.57889898  T        3       0.00042599       0.00306209       0.00065632
Si       7.67588941       2.21058076      17.57917841  T        3       0.00048050       0.00251045       0.00015595
Si       1.91668081       5.54690127      17.45820592  T        3      -0.00011217       0.00115876      -0.00021629
Si       5.75506364       5.54588446      17.45741631  T        3       0.00124284       0.00289252       0.00040079
Si       9.59584925       5.54863082      17.45819957  T        3       0.00001925       0.00290967       0.00035558
Si      -0.00351113      -0.05539631      18.32043447  T        2      -0.00011628       0.00164096      -0.00088445
Si       3.83625119      -0.05709899      18.31691732  T        2       0.00069983       0.00351351       0.00202653
Si       7.67473865      -0.05632081      18.31979008  T        2       0.00058848       0.00254955      -0.00035135
Si       1.91617694       3.37137335      18.34768992  T        2      -0.00058277       0.00173080       0.00088615
Si       5.75527596       3.37078422      18.34753859  T        2       0.00083016       0.00308903       0.00048816
Si       9.59536598       3.37153239      18.34287624  T        2       0.00024504       0.00300311       0.00049668
Si      -0.00650469      -0.93098055      20.56833816  T        1      -0.00042307       0.00358912      -0.00057391
Si       3.83663342      -0.92834809      20.56193608  T        1       0.00134711       0.00343113       0.00300130
Si       7.66498522      -0.92966257      20.56567398  T        1       0.00056810       0.00465084      -0.00001753
Si       1.90951790       4.29409748      20.57867388  T        1      -0.00057645       0.00379497       0.00063155
Si       5.75609417       4.29334134      20.57881328  T        1      -0.00002105       0.00392577       0.00039500
Si       9.58966065       4.28418661      20.56469472  T        1       0.00165521       0.00395981       0.00118834
F        9.58326717       5.96379414      23.15474600  T        0       0.03292282       0.01476753       0.00091198
H        9.85312313       6.31016499      23.99818808  T        0      -0.01452833      -0.00286931       0.02612258
