41
Lattice="11.518769465528859 0.0 0.0 3.839589821842953 6.650364651656328 0.0 0.0 0.0 32.62128289467409" Properties=species:S:1:pos:R:3:move_mask:L:1:tags:I:1 surface=Si111 species=SiCl4 site=bridge_Si_Si orientation=upright height_A=6.5 substrate_atoms=36 calculation_kind="Rigid evaluated approach scan; not NEB" energy=-186.2334299664767 pbc="T T F"
Si       1.91979491       1.10839411      12.00000000  F        6
Si       5.75938473       1.10839411      12.00000000  F        6
Si       9.59897455       1.10839411      12.00000000  F        6
Si       3.83958982       4.43357643      12.00000000  F        6
Si       7.67917964       4.43357643      12.00000000  F        6
Si      11.51876947       4.43357643      12.00000000  F        6
Si       1.91979491       1.10839411      14.35125897  F        5
Si       5.75938473       1.10839411      14.35125897  F        5
Si       9.59897455       1.10839411      14.35125897  F        5
Si       3.83958982       4.43357643      14.35125897  F        5
Si       7.67917964       4.43357643      14.35125897  F        5
Si      11.51876947       4.43357643      14.35125897  F        5
Si      -0.00000000       2.21678822      15.13501196  F        4
Si       3.83958982       2.21678822      15.13501196  F        4
Si       7.67917964       2.21678822      15.13501196  F        4
Si       1.91979491       5.54197054      15.13501196  F        4
Si       5.75938473       5.54197054      15.13501196  F        4
Si       9.59897455       5.54197054      15.13501196  F        4
Si      -0.00000000       2.21678822      17.48627093  F        3
Si       3.83958982       2.21678822      17.48627093  F        3
Si       7.67917964       2.21678822      17.48627093  F        3
Si       1.91979491       5.54197054      17.48627093  F        3
Si       5.75938473       5.54197054      17.48627093  F        3
Si       9.59897455       5.54197054      17.48627093  F        3
Si       0.00000000       0.00000000      18.27002392  F        2
Si       3.83958982       0.00000000      18.27002392  F        2
Si       7.67917964       0.00000000      18.27002392  F        2
Si       1.91979491       3.32518233      18.27002392  F        2
Si       5.75938473       3.32518233      18.27002392  F        2
Si       9.59897455       3.32518233      18.27002392  F        2
Si       0.00000000       0.00000000      20.62128289  F        1
Si       3.83958982       0.00000000      20.62128289  F        1
Si       7.67917964       0.00000000      20.62128289  F        1
Si       1.91979491       3.32518233      20.62128289  F        1
Si       5.75938473       3.32518233      20.62128289  F        1
Si       9.59897455       3.32518233      20.62128289  F        1
Si       8.63907709       4.98777349      29.15569593  T        0
Cl       8.63907709       4.98777349      27.12128289  T        0
Cl      10.55714010       4.98777349      29.83383361  T        0
Cl       7.68004559       6.64886478      29.83383361  T        0
Cl       7.68004559       3.32668220      29.83383361  T        0
41
Lattice="11.518769465528859 0.0 0.0 3.839589821842953 6.650364651656328 0.0 0.0 0.0 32.62128289467409" Properties=species:S:1:pos:R:3:move_mask:L:1:tags:I:1 surface=Si111 species=SiCl4 site=bridge_Si_Si orientation=upright height_A=5.0 substrate_atoms=36 calculation_kind="Rigid evaluated approach scan; not NEB" energy=-186.2334299664767 pbc="T T F"
Si       1.91979491       1.10839411      12.00000000  F        6
Si       5.75938473       1.10839411      12.00000000  F        6
Si       9.59897455       1.10839411      12.00000000  F        6
Si       3.83958982       4.43357643      12.00000000  F        6
Si       7.67917964       4.43357643      12.00000000  F        6
Si      11.51876947       4.43357643      12.00000000  F        6
Si       1.91979491       1.10839411      14.35125897  F        5
Si       5.75938473       1.10839411      14.35125897  F        5
Si       9.59897455       1.10839411      14.35125897  F        5
Si       3.83958982       4.43357643      14.35125897  F        5
Si       7.67917964       4.43357643      14.35125897  F        5
Si      11.51876947       4.43357643      14.35125897  F        5
Si      -0.00000000       2.21678822      15.13501196  F        4
Si       3.83958982       2.21678822      15.13501196  F        4
Si       7.67917964       2.21678822      15.13501196  F        4
Si       1.91979491       5.54197054      15.13501196  F        4
Si       5.75938473       5.54197054      15.13501196  F        4
Si       9.59897455       5.54197054      15.13501196  F        4
Si      -0.00000000       2.21678822      17.48627093  F        3
Si       3.83958982       2.21678822      17.48627093  F        3
Si       7.67917964       2.21678822      17.48627093  F        3
Si       1.91979491       5.54197054      17.48627093  F        3
Si       5.75938473       5.54197054      17.48627093  F        3
Si       9.59897455       5.54197054      17.48627093  F        3
Si       0.00000000       0.00000000      18.27002392  F        2
Si       3.83958982       0.00000000      18.27002392  F        2
Si       7.67917964       0.00000000      18.27002392  F        2
Si       1.91979491       3.32518233      18.27002392  F        2
Si       5.75938473       3.32518233      18.27002392  F        2
Si       9.59897455       3.32518233      18.27002392  F        2
Si       0.00000000       0.00000000      20.62128289  F        1
Si       3.83958982       0.00000000      20.62128289  F        1
Si       7.67917964       0.00000000      20.62128289  F        1
Si       1.91979491       3.32518233      20.62128289  F        1
Si       5.75938473       3.32518233      20.62128289  F        1
Si       9.59897455       3.32518233      20.62128289  F        1
Si       8.63907709       4.98777349      27.65569593  T        0
Cl       8.63907709       4.98777349      25.62128289  T        0
Cl      10.55714010       4.98777349      28.33383361  T        0
Cl       7.68004559       6.64886478      28.33383361  T        0
Cl       7.68004559       3.32668220      28.33383361  T        0
41
Lattice="11.518769465528859 0.0 0.0 3.839589821842953 6.650364651656328 0.0 0.0 0.0 32.62128289467409" Properties=species:S:1:pos:R:3:move_mask:L:1:tags:I:1 surface=Si111 species=SiCl4 site=bridge_Si_Si orientation=upright height_A=4.0 substrate_atoms=36 calculation_kind="Rigid evaluated approach scan; not NEB" energy=-186.20731117582298 pbc="T T F"
Si       1.91979491       1.10839411      12.00000000  F        6
Si       5.75938473       1.10839411      12.00000000  F        6
Si       9.59897455       1.10839411      12.00000000  F        6
Si       3.83958982       4.43357643      12.00000000  F        6
Si       7.67917964       4.43357643      12.00000000  F        6
Si      11.51876947       4.43357643      12.00000000  F        6
Si       1.91979491       1.10839411      14.35125897  F        5
Si       5.75938473       1.10839411      14.35125897  F        5
Si       9.59897455       1.10839411      14.35125897  F        5
Si       3.83958982       4.43357643      14.35125897  F        5
Si       7.67917964       4.43357643      14.35125897  F        5
Si      11.51876947       4.43357643      14.35125897  F        5
Si      -0.00000000       2.21678822      15.13501196  F        4
Si       3.83958982       2.21678822      15.13501196  F        4
Si       7.67917964       2.21678822      15.13501196  F        4
Si       1.91979491       5.54197054      15.13501196  F        4
Si       5.75938473       5.54197054      15.13501196  F        4
Si       9.59897455       5.54197054      15.13501196  F        4
Si      -0.00000000       2.21678822      17.48627093  F        3
Si       3.83958982       2.21678822      17.48627093  F        3
Si       7.67917964       2.21678822      17.48627093  F        3
Si       1.91979491       5.54197054      17.48627093  F        3
Si       5.75938473       5.54197054      17.48627093  F        3
Si       9.59897455       5.54197054      17.48627093  F        3
Si       0.00000000       0.00000000      18.27002392  F        2
Si       3.83958982       0.00000000      18.27002392  F        2
Si       7.67917964       0.00000000      18.27002392  F        2
Si       1.91979491       3.32518233      18.27002392  F        2
Si       5.75938473       3.32518233      18.27002392  F        2
Si       9.59897455       3.32518233      18.27002392  F        2
Si       0.00000000       0.00000000      20.62128289  F        1
Si       3.83958982       0.00000000      20.62128289  F        1
Si       7.67917964       0.00000000      20.62128289  F        1
Si       1.91979491       3.32518233      20.62128289  F        1
Si       5.75938473       3.32518233      20.62128289  F        1
Si       9.59897455       3.32518233      20.62128289  F        1
Si       8.63907709       4.98777349      26.65569593  T        0
Cl       8.63907709       4.98777349      24.62128289  T        0
Cl      10.55714010       4.98777349      27.33383361  T        0
Cl       7.68004559       6.64886478      27.33383361  T        0
Cl       7.68004559       3.32668220      27.33383361  T        0
41
Lattice="11.518769465528859 0.0 0.0 3.839589821842953 6.650364651656328 0.0 0.0 0.0 32.62128289467409" Properties=species:S:1:pos:R:3:move_mask:L:1:tags:I:1 surface=Si111 species=SiCl4 site=bridge_Si_Si orientation=upright height_A=3.25 substrate_atoms=36 calculation_kind="Rigid evaluated approach scan; not NEB" energy=-186.32762218411432 pbc="T T F"
Si       1.91979491       1.10839411      12.00000000  F        6
Si       5.75938473       1.10839411      12.00000000  F        6
Si       9.59897455       1.10839411      12.00000000  F        6
Si       3.83958982       4.43357643      12.00000000  F        6
Si       7.67917964       4.43357643      12.00000000  F        6
Si      11.51876947       4.43357643      12.00000000  F        6
Si       1.91979491       1.10839411      14.35125897  F        5
Si       5.75938473       1.10839411      14.35125897  F        5
Si       9.59897455       1.10839411      14.35125897  F        5
Si       3.83958982       4.43357643      14.35125897  F        5
Si       7.67917964       4.43357643      14.35125897  F        5
Si      11.51876947       4.43357643      14.35125897  F        5
Si      -0.00000000       2.21678822      15.13501196  F        4
Si       3.83958982       2.21678822      15.13501196  F        4
Si       7.67917964       2.21678822      15.13501196  F        4
Si       1.91979491       5.54197054      15.13501196  F        4
Si       5.75938473       5.54197054      15.13501196  F        4
Si       9.59897455       5.54197054      15.13501196  F        4
Si      -0.00000000       2.21678822      17.48627093  F        3
Si       3.83958982       2.21678822      17.48627093  F        3
Si       7.67917964       2.21678822      17.48627093  F        3
Si       1.91979491       5.54197054      17.48627093  F        3
Si       5.75938473       5.54197054      17.48627093  F        3
Si       9.59897455       5.54197054      17.48627093  F        3
Si       0.00000000       0.00000000      18.27002392  F        2
Si       3.83958982       0.00000000      18.27002392  F        2
Si       7.67917964       0.00000000      18.27002392  F        2
Si       1.91979491       3.32518233      18.27002392  F        2
Si       5.75938473       3.32518233      18.27002392  F        2
Si       9.59897455       3.32518233      18.27002392  F        2
Si       0.00000000       0.00000000      20.62128289  F        1
Si       3.83958982       0.00000000      20.62128289  F        1
Si       7.67917964       0.00000000      20.62128289  F        1
Si       1.91979491       3.32518233      20.62128289  F        1
Si       5.75938473       3.32518233      20.62128289  F        1
Si       9.59897455       3.32518233      20.62128289  F        1
Si       8.63907709       4.98777349      25.90569593  T        0
Cl       8.63907709       4.98777349      23.87128289  T        0
Cl      10.55714010       4.98777349      26.58383361  T        0
Cl       7.68004559       6.64886478      26.58383361  T        0
Cl       7.68004559       3.32668220      26.58383361  T        0
41
Lattice="11.518769465528859 0.0 0.0 3.839589821842953 6.650364651656328 0.0 0.0 0.0 32.62128289467409" Properties=species:S:1:pos:R:3:move_mask:L:1:tags:I:1 surface=Si111 species=SiCl4 site=bridge_Si_Si orientation=upright height_A=2.75 substrate_atoms=36 calculation_kind="Rigid evaluated approach scan; not NEB" energy=-186.61475253880926 pbc="T T F"
Si       1.91979491       1.10839411      12.00000000  F        6
Si       5.75938473       1.10839411      12.00000000  F        6
Si       9.59897455       1.10839411      12.00000000  F        6
Si       3.83958982       4.43357643      12.00000000  F        6
Si       7.67917964       4.43357643      12.00000000  F        6
Si      11.51876947       4.43357643      12.00000000  F        6
Si       1.91979491       1.10839411      14.35125897  F        5
Si       5.75938473       1.10839411      14.35125897  F        5
Si       9.59897455       1.10839411      14.35125897  F        5
Si       3.83958982       4.43357643      14.35125897  F        5
Si       7.67917964       4.43357643      14.35125897  F        5
Si      11.51876947       4.43357643      14.35125897  F        5
Si      -0.00000000       2.21678822      15.13501196  F        4
Si       3.83958982       2.21678822      15.13501196  F        4
Si       7.67917964       2.21678822      15.13501196  F        4
Si       1.91979491       5.54197054      15.13501196  F        4
Si       5.75938473       5.54197054      15.13501196  F        4
Si       9.59897455       5.54197054      15.13501196  F        4
Si      -0.00000000       2.21678822      17.48627093  F        3
Si       3.83958982       2.21678822      17.48627093  F        3
Si       7.67917964       2.21678822      17.48627093  F        3
Si       1.91979491       5.54197054      17.48627093  F        3
Si       5.75938473       5.54197054      17.48627093  F        3
Si       9.59897455       5.54197054      17.48627093  F        3
Si       0.00000000       0.00000000      18.27002392  F        2
Si       3.83958982       0.00000000      18.27002392  F        2
Si       7.67917964       0.00000000      18.27002392  F        2
Si       1.91979491       3.32518233      18.27002392  F        2
Si       5.75938473       3.32518233      18.27002392  F        2
Si       9.59897455       3.32518233      18.27002392  F        2
Si       0.00000000       0.00000000      20.62128289  F        1
Si       3.83958982       0.00000000      20.62128289  F        1
Si       7.67917964       0.00000000      20.62128289  F        1
Si       1.91979491       3.32518233      20.62128289  F        1
Si       5.75938473       3.32518233      20.62128289  F        1
Si       9.59897455       3.32518233      20.62128289  F        1
Si       8.63907709       4.98777349      25.40569593  T        0
Cl       8.63907709       4.98777349      23.37128289  T        0
Cl      10.55714010       4.98777349      26.08383361  T        0
Cl       7.68004559       6.64886478      26.08383361  T        0
Cl       7.68004559       3.32668220      26.08383361  T        0
41
Lattice="11.518769465528859 0.0 0.0 3.839589821842953 6.650364651656328 0.0 0.0 0.0 32.62128289467409" Properties=species:S:1:pos:R:3:move_mask:L:1:tags:I:1 surface=Si111 species=SiCl4 site=bridge_Si_Si orientation=upright height_A=2.25 substrate_atoms=36 calculation_kind="Rigid evaluated approach scan; not NEB" energy=-186.80583201338405 pbc="T T F"
Si       1.91979491       1.10839411      12.00000000  F        6
Si       5.75938473       1.10839411      12.00000000  F        6
Si       9.59897455       1.10839411      12.00000000  F        6
Si       3.83958982       4.43357643      12.00000000  F        6
Si       7.67917964       4.43357643      12.00000000  F        6
Si      11.51876947       4.43357643      12.00000000  F        6
Si       1.91979491       1.10839411      14.35125897  F        5
Si       5.75938473       1.10839411      14.35125897  F        5
Si       9.59897455       1.10839411      14.35125897  F        5
Si       3.83958982       4.43357643      14.35125897  F        5
Si       7.67917964       4.43357643      14.35125897  F        5
Si      11.51876947       4.43357643      14.35125897  F        5
Si      -0.00000000       2.21678822      15.13501196  F        4
Si       3.83958982       2.21678822      15.13501196  F        4
Si       7.67917964       2.21678822      15.13501196  F        4
Si       1.91979491       5.54197054      15.13501196  F        4
Si       5.75938473       5.54197054      15.13501196  F        4
Si       9.59897455       5.54197054      15.13501196  F        4
Si      -0.00000000       2.21678822      17.48627093  F        3
Si       3.83958982       2.21678822      17.48627093  F        3
Si       7.67917964       2.21678822      17.48627093  F        3
Si       1.91979491       5.54197054      17.48627093  F        3
Si       5.75938473       5.54197054      17.48627093  F        3
Si       9.59897455       5.54197054      17.48627093  F        3
Si       0.00000000       0.00000000      18.27002392  F        2
Si       3.83958982       0.00000000      18.27002392  F        2
Si       7.67917964       0.00000000      18.27002392  F        2
Si       1.91979491       3.32518233      18.27002392  F        2
Si       5.75938473       3.32518233      18.27002392  F        2
Si       9.59897455       3.32518233      18.27002392  F        2
Si       0.00000000       0.00000000      20.62128289  F        1
Si       3.83958982       0.00000000      20.62128289  F        1
Si       7.67917964       0.00000000      20.62128289  F        1
Si       1.91979491       3.32518233      20.62128289  F        1
Si       5.75938473       3.32518233      20.62128289  F        1
Si       9.59897455       3.32518233      20.62128289  F        1
Si       8.63907709       4.98777349      24.90569593  T        0
Cl       8.63907709       4.98777349      22.87128289  T        0
Cl      10.55714010       4.98777349      25.58383361  T        0
Cl       7.68004559       6.64886478      25.58383361  T        0
Cl       7.68004559       3.32668220      25.58383361  T        0
41
Lattice="11.518769465528859 0.0 0.0 3.839589821842953 6.650364651656328 0.0 0.0 0.0 32.62128289467409" Properties=species:S:1:pos:R:3:move_mask:L:1:tags:I:1 surface=Si111 species=SiCl4 site=bridge_Si_Si orientation=upright height_A=1.9 substrate_atoms=36 calculation_kind="Rigid evaluated approach scan; not NEB" energy=-186.6152721550997 pbc="T T F"
Si       1.91979491       1.10839411      12.00000000  F        6
Si       5.75938473       1.10839411      12.00000000  F        6
Si       9.59897455       1.10839411      12.00000000  F        6
Si       3.83958982       4.43357643      12.00000000  F        6
Si       7.67917964       4.43357643      12.00000000  F        6
Si      11.51876947       4.43357643      12.00000000  F        6
Si       1.91979491       1.10839411      14.35125897  F        5
Si       5.75938473       1.10839411      14.35125897  F        5
Si       9.59897455       1.10839411      14.35125897  F        5
Si       3.83958982       4.43357643      14.35125897  F        5
Si       7.67917964       4.43357643      14.35125897  F        5
Si      11.51876947       4.43357643      14.35125897  F        5
Si      -0.00000000       2.21678822      15.13501196  F        4
Si       3.83958982       2.21678822      15.13501196  F        4
Si       7.67917964       2.21678822      15.13501196  F        4
Si       1.91979491       5.54197054      15.13501196  F        4
Si       5.75938473       5.54197054      15.13501196  F        4
Si       9.59897455       5.54197054      15.13501196  F        4
Si      -0.00000000       2.21678822      17.48627093  F        3
Si       3.83958982       2.21678822      17.48627093  F        3
Si       7.67917964       2.21678822      17.48627093  F        3
Si       1.91979491       5.54197054      17.48627093  F        3
Si       5.75938473       5.54197054      17.48627093  F        3
Si       9.59897455       5.54197054      17.48627093  F        3
Si       0.00000000       0.00000000      18.27002392  F        2
Si       3.83958982       0.00000000      18.27002392  F        2
Si       7.67917964       0.00000000      18.27002392  F        2
Si       1.91979491       3.32518233      18.27002392  F        2
Si       5.75938473       3.32518233      18.27002392  F        2
Si       9.59897455       3.32518233      18.27002392  F        2
Si       0.00000000       0.00000000      20.62128289  F        1
Si       3.83958982       0.00000000      20.62128289  F        1
Si       7.67917964       0.00000000      20.62128289  F        1
Si       1.91979491       3.32518233      20.62128289  F        1
Si       5.75938473       3.32518233      20.62128289  F        1
Si       9.59897455       3.32518233      20.62128289  F        1
Si       8.63907709       4.98777349      24.55569593  T        0
Cl       8.63907709       4.98777349      22.52128289  T        0
Cl      10.55714010       4.98777349      25.23383361  T        0
Cl       7.68004559       6.64886478      25.23383361  T        0
Cl       7.68004559       3.32668220      25.23383361  T        0
41
Lattice="11.518769465528859 0.0 0.0 3.839589821842953 6.650364651656328 0.0 0.0 0.0 32.62128289467409" Properties=species:S:1:pos:R:3:move_mask:L:1:tags:I:1 surface=Si111 species=SiCl4 site=bridge_Si_Si orientation=upright height_A=1.6 substrate_atoms=36 calculation_kind="Rigid evaluated approach scan; not NEB" energy=-186.42122582086313 pbc="T T F"
Si       1.91979491       1.10839411      12.00000000  F        6
Si       5.75938473       1.10839411      12.00000000  F        6
Si       9.59897455       1.10839411      12.00000000  F        6
Si       3.83958982       4.43357643      12.00000000  F        6
Si       7.67917964       4.43357643      12.00000000  F        6
Si      11.51876947       4.43357643      12.00000000  F        6
Si       1.91979491       1.10839411      14.35125897  F        5
Si       5.75938473       1.10839411      14.35125897  F        5
Si       9.59897455       1.10839411      14.35125897  F        5
Si       3.83958982       4.43357643      14.35125897  F        5
Si       7.67917964       4.43357643      14.35125897  F        5
Si      11.51876947       4.43357643      14.35125897  F        5
Si      -0.00000000       2.21678822      15.13501196  F        4
Si       3.83958982       2.21678822      15.13501196  F        4
Si       7.67917964       2.21678822      15.13501196  F        4
Si       1.91979491       5.54197054      15.13501196  F        4
Si       5.75938473       5.54197054      15.13501196  F        4
Si       9.59897455       5.54197054      15.13501196  F        4
Si      -0.00000000       2.21678822      17.48627093  F        3
Si       3.83958982       2.21678822      17.48627093  F        3
Si       7.67917964       2.21678822      17.48627093  F        3
Si       1.91979491       5.54197054      17.48627093  F        3
Si       5.75938473       5.54197054      17.48627093  F        3
Si       9.59897455       5.54197054      17.48627093  F        3
Si       0.00000000       0.00000000      18.27002392  F        2
Si       3.83958982       0.00000000      18.27002392  F        2
Si       7.67917964       0.00000000      18.27002392  F        2
Si       1.91979491       3.32518233      18.27002392  F        2
Si       5.75938473       3.32518233      18.27002392  F        2
Si       9.59897455       3.32518233      18.27002392  F        2
Si       0.00000000       0.00000000      20.62128289  F        1
Si       3.83958982       0.00000000      20.62128289  F        1
Si       7.67917964       0.00000000      20.62128289  F        1
Si       1.91979491       3.32518233      20.62128289  F        1
Si       5.75938473       3.32518233      20.62128289  F        1
Si       9.59897455       3.32518233      20.62128289  F        1
Si       8.63907709       4.98777349      24.25569593  T        0
Cl       8.63907709       4.98777349      22.22128289  T        0
Cl      10.55714010       4.98777349      24.93383361  T        0
Cl       7.68004559       6.64886478      24.93383361  T        0
Cl       7.68004559       3.32668220      24.93383361  T        0
41
Lattice="11.518769465528859 0.0 0.0 3.839589821842953 6.650364651656328 0.0 0.0 0.0 32.62128289467409" Properties=species:S:1:pos:R:3:move_mask:L:1:tags:I:1 surface=Si111 species=SiCl4 site=bridge_Si_Si orientation=upright height_A=1.3 substrate_atoms=36 calculation_kind="Rigid evaluated approach scan; not NEB" energy=-186.30629167160922 pbc="T T F"
Si       1.91979491       1.10839411      12.00000000  F        6
Si       5.75938473       1.10839411      12.00000000  F        6
Si       9.59897455       1.10839411      12.00000000  F        6
Si       3.83958982       4.43357643      12.00000000  F        6
Si       7.67917964       4.43357643      12.00000000  F        6
Si      11.51876947       4.43357643      12.00000000  F        6
Si       1.91979491       1.10839411      14.35125897  F        5
Si       5.75938473       1.10839411      14.35125897  F        5
Si       9.59897455       1.10839411      14.35125897  F        5
Si       3.83958982       4.43357643      14.35125897  F        5
Si       7.67917964       4.43357643      14.35125897  F        5
Si      11.51876947       4.43357643      14.35125897  F        5
Si      -0.00000000       2.21678822      15.13501196  F        4
Si       3.83958982       2.21678822      15.13501196  F        4
Si       7.67917964       2.21678822      15.13501196  F        4
Si       1.91979491       5.54197054      15.13501196  F        4
Si       5.75938473       5.54197054      15.13501196  F        4
Si       9.59897455       5.54197054      15.13501196  F        4
Si      -0.00000000       2.21678822      17.48627093  F        3
Si       3.83958982       2.21678822      17.48627093  F        3
Si       7.67917964       2.21678822      17.48627093  F        3
Si       1.91979491       5.54197054      17.48627093  F        3
Si       5.75938473       5.54197054      17.48627093  F        3
Si       9.59897455       5.54197054      17.48627093  F        3
Si       0.00000000       0.00000000      18.27002392  F        2
Si       3.83958982       0.00000000      18.27002392  F        2
Si       7.67917964       0.00000000      18.27002392  F        2
Si       1.91979491       3.32518233      18.27002392  F        2
Si       5.75938473       3.32518233      18.27002392  F        2
Si       9.59897455       3.32518233      18.27002392  F        2
Si       0.00000000       0.00000000      20.62128289  F        1
Si       3.83958982       0.00000000      20.62128289  F        1
Si       7.67917964       0.00000000      20.62128289  F        1
Si       1.91979491       3.32518233      20.62128289  F        1
Si       5.75938473       3.32518233      20.62128289  F        1
Si       9.59897455       3.32518233      20.62128289  F        1
Si       8.63907709       4.98777349      23.95569593  T        0
Cl       8.63907709       4.98777349      21.92128289  T        0
Cl      10.55714010       4.98777349      24.63383361  T        0
Cl       7.68004559       6.64886478      24.63383361  T        0
Cl       7.68004559       3.32668220      24.63383361  T        0
