33
Lattice="7.6044 0.0 0.0 -3.802199999999998 6.585603580538386 0.0 0.0 -0.0 28.35945" Properties=species:S:1:pos:R:3:move_mask:L:1:spacegroup_kinds:I:1:tags:I:1:forces:R:3 spacegroup="P 63/m" unit_cell=conventional occupancy="_JSON {\"0\": {\"Si\": 1.0}, \"1\": {\"N\": 1.0}, \"2\": {\"N\": 1.0}}" surface=beta_Si3N4_001 species=SiCl4 height_A=6.5 substrate_atoms=28 calculation_kind="Rigid approach energy evaluation; not NEB or TS" energy=-229.4473181852863 pbc="T T F"
Si       5.18010587       1.14956320      12.00000000  F        0        2       1.71433257       1.23128057       1.44813123
Si      -1.37790587       5.43604038      13.45315000  F        0        2      -0.07773089       0.46666682      -1.50583478
Si       4.01879613       3.91132168      12.00000000  F        0        2      -1.92360808       0.86894036       1.44804711
Si      -0.21659613       2.67428190      13.45315000  F        0        2      -0.36507877      -0.30057371      -1.50589254
Si       2.20769800       1.52471870      12.00000000  F        0        2       0.20862335      -2.10064850       1.44820179
Si       1.59450200       5.06088488      13.45315000  F        0        2       0.44364014      -0.16560437      -1.50586542
N       -1.02370433       2.17482973      12.00000000  F        1        2      -0.59853549      -0.65572339       0.11065544
N        4.82590433       4.41077385      13.45315000  F        1        2       0.47556813      -0.04438601      -0.36872699
N        2.43059437       4.61163476      12.00000000  F        1        2       0.86723752      -0.19036310       0.11060084
N        1.37160563       1.97396882      13.45315000  F        1        2      -0.19953945       0.43394852      -0.36878823
N       -1.40689004       6.38474267      12.00000000  F        1        2      -0.26879770       0.84608230       0.11061521
N        5.20909004       0.20086091      13.45315000  F        1        2      -0.27604702      -0.38955900      -0.36876148
N        3.80216198       2.19517924      12.00000000  F        2        2       0.00086470       0.00049411      -1.73788822
N        0.00003802       4.39042434      13.45315000  F        2        2      -0.00108137      -0.00062939       0.57463032
Si       5.18010587       1.14956320      14.90630000  F        0        1       0.07773089      -0.46666682       1.50583478
Si      -1.37790587       5.43604038      16.35945000  F        0        1      -1.71433257      -1.23128057      -1.44813123
Si       4.01879613       3.91132168      14.90630000  F        0        1       0.36507877       0.30057371       1.50589254
Si      -0.21659613       2.67428190      16.35945000  F        0        1       1.92360808      -0.86894036      -1.44804711
Si       2.20769800       1.52471870      14.90630000  F        0        1      -0.44364014       0.16560437       1.50586542
Si       1.59450200       5.06088488      16.35945000  F        0        1      -0.20862335       2.10064850      -1.44820179
N       -1.02370433       2.17482973      14.90630000  F        1        1      -0.47556813       0.04438601       0.36872699
N        4.82590433       4.41077385      16.35945000  F        1        1       0.59853549       0.65572339      -0.11065544
N        2.43059437       4.61163476      14.90630000  F        1        1       0.19953945      -0.43394852       0.36878823
N        1.37160563       1.97396882      16.35945000  F        1        1      -0.86723752       0.19036310      -0.11060084
N       -1.40689004       6.38474267      14.90630000  F        1        1       0.27604702       0.38955900       0.36876148
N        5.20909004       0.20086091      16.35945000  F        1        1       0.26879770      -0.84608230      -0.11061521
N        3.80216198       2.19517924      14.90630000  F        2        1       0.00108137       0.00062939      -0.57463032
N        0.00003802       4.39042434      16.35945000  F        2        1      -0.00086470      -0.00049411       1.73788822
Si       2.20769800       1.52471870      24.89386304  F        0        0      -0.00000000      -0.00000000       0.00000000
Cl       2.20769800       1.52471870      22.85945000  F        0        0       0.00000000      -0.00000000      -0.00860048
Cl       4.12576101       1.52471870      25.57200072  F        0        0       0.00810861      -0.00000000       0.00286683
Cl       1.24866650       3.18580999      25.57200072  F        0        0      -0.00405430       0.00702226       0.00286683
Cl       1.24866650      -0.13637259      25.57200072  F        0        0      -0.00405430      -0.00702226       0.00286683
33
Lattice="7.6044 0.0 0.0 -3.802199999999998 6.585603580538386 0.0 0.0 -0.0 28.35945" Properties=species:S:1:pos:R:3:move_mask:L:1:spacegroup_kinds:I:1:tags:I:1:forces:R:3 spacegroup="P 63/m" unit_cell=conventional occupancy="_JSON {\"0\": {\"Si\": 1.0}, \"1\": {\"N\": 1.0}, \"2\": {\"N\": 1.0}}" surface=beta_Si3N4_001 species=SiCl4 height_A=5.0 substrate_atoms=28 calculation_kind="Rigid approach energy evaluation; not NEB or TS" energy=-229.4473181852863 pbc="T T F"
Si       5.18010587       1.14956320      12.00000000  F        0        2       1.71433257       1.23128057       1.44813123
Si      -1.37790587       5.43604038      13.45315000  F        0        2      -0.07773089       0.46666682      -1.50583478
Si       4.01879613       3.91132168      12.00000000  F        0        2      -1.92360808       0.86894036       1.44804711
Si      -0.21659613       2.67428190      13.45315000  F        0        2      -0.36507877      -0.30057371      -1.50589254
Si       2.20769800       1.52471870      12.00000000  F        0        2       0.20862335      -2.10064850       1.44820179
Si       1.59450200       5.06088488      13.45315000  F        0        2       0.44364014      -0.16560437      -1.50586542
N       -1.02370433       2.17482973      12.00000000  F        1        2      -0.59853549      -0.65572339       0.11065544
N        4.82590433       4.41077385      13.45315000  F        1        2       0.47556813      -0.04438601      -0.36872699
N        2.43059437       4.61163476      12.00000000  F        1        2       0.86723752      -0.19036310       0.11060084
N        1.37160563       1.97396882      13.45315000  F        1        2      -0.19953945       0.43394852      -0.36878823
N       -1.40689004       6.38474267      12.00000000  F        1        2      -0.26879770       0.84608230       0.11061521
N        5.20909004       0.20086091      13.45315000  F        1        2      -0.27604702      -0.38955900      -0.36876148
N        3.80216198       2.19517924      12.00000000  F        2        2       0.00086470       0.00049411      -1.73788822
N        0.00003802       4.39042434      13.45315000  F        2        2      -0.00108137      -0.00062939       0.57463032
Si       5.18010587       1.14956320      14.90630000  F        0        1       0.07773089      -0.46666682       1.50583478
Si      -1.37790587       5.43604038      16.35945000  F        0        1      -1.71433257      -1.23128057      -1.44813123
Si       4.01879613       3.91132168      14.90630000  F        0        1       0.36507877       0.30057371       1.50589254
Si      -0.21659613       2.67428190      16.35945000  F        0        1       1.92360808      -0.86894036      -1.44804711
Si       2.20769800       1.52471870      14.90630000  F        0        1      -0.44364014       0.16560437       1.50586542
Si       1.59450200       5.06088488      16.35945000  F        0        1      -0.20862335       2.10064850      -1.44820179
N       -1.02370433       2.17482973      14.90630000  F        1        1      -0.47556813       0.04438601       0.36872699
N        4.82590433       4.41077385      16.35945000  F        1        1       0.59853549       0.65572339      -0.11065544
N        2.43059437       4.61163476      14.90630000  F        1        1       0.19953945      -0.43394852       0.36878823
N        1.37160563       1.97396882      16.35945000  F        1        1      -0.86723752       0.19036310      -0.11060084
N       -1.40689004       6.38474267      14.90630000  F        1        1       0.27604702       0.38955900       0.36876148
N        5.20909004       0.20086091      16.35945000  F        1        1       0.26879770      -0.84608230      -0.11061521
N        3.80216198       2.19517924      14.90630000  F        2        1       0.00108137       0.00062939      -0.57463032
N        0.00003802       4.39042434      16.35945000  F        2        1      -0.00086470      -0.00049411       1.73788822
Si       2.20769800       1.52471870      23.39386304  F        0        0      -0.00000000      -0.00000000       0.00000000
Cl       2.20769800       1.52471870      21.35945000  F        0        0       0.00000000      -0.00000000      -0.00860048
Cl       4.12576101       1.52471870      24.07200072  F        0        0       0.00810861      -0.00000000       0.00286683
Cl       1.24866650       3.18580999      24.07200072  F        0        0      -0.00405430       0.00702226       0.00286683
Cl       1.24866650      -0.13637259      24.07200072  F        0        0      -0.00405430      -0.00702226       0.00286683
33
Lattice="7.6044 0.0 0.0 -3.802199999999998 6.585603580538386 0.0 0.0 -0.0 28.35945" Properties=species:S:1:pos:R:3:move_mask:L:1:spacegroup_kinds:I:1:tags:I:1:forces:R:3 spacegroup="P 63/m" unit_cell=conventional occupancy="_JSON {\"0\": {\"Si\": 1.0}, \"1\": {\"N\": 1.0}, \"2\": {\"N\": 1.0}}" surface=beta_Si3N4_001 species=SiCl4 height_A=4.0 substrate_atoms=28 calculation_kind="Rigid approach energy evaluation; not NEB or TS" energy=-229.44892118880165 pbc="T T F"
Si       5.18010587       1.14956320      12.00000000  F        0        2       1.71436000       1.23155117       1.44873213
Si      -1.37790587       5.43604038      13.45315000  F        0        2      -0.07702896       0.46613936      -1.50790792
Si       4.01879613       3.91132168      12.00000000  F        0        2      -1.92383111       0.86926979       1.44852878
Si      -0.21659613       2.67428190      13.45315000  F        0        2      -0.36489392      -0.29972199      -1.50517495
Si       2.20769800       1.52471870      12.00000000  F        0        2       0.20629370      -2.09937803       1.44837397
Si       1.59450200       5.06088488      13.45315000  F        0        2       0.44298328      -0.16782837      -1.50702533
N       -1.02370433       2.17482973      12.00000000  F        1        2      -0.59923124      -0.65556227       0.11015064
N        4.82590433       4.41077385      13.45315000  F        1        2       0.47420952      -0.04449675      -0.37012155
N        2.43059437       4.61163476      12.00000000  F        1        2       0.86713307      -0.18930737       0.11025193
N        1.37160563       1.97396882      13.45315000  F        1        2      -0.19530153       0.43142029      -0.37090512
N       -1.40689004       6.38474267      12.00000000  F        1        2      -0.26785886       0.84528835       0.11003408
N        5.20909004       0.20086091      13.45315000  F        1        2      -0.27611054      -0.38901984      -0.37004512
N        3.80216198       2.19517924      12.00000000  F        2        2       0.00110070      -0.00009859      -1.73883869
N        0.00003802       4.39042434      13.45315000  F        2        2      -0.00187877       0.00201862       0.57023819
Si       5.18010587       1.14956320      14.90630000  F        0        1       0.08080008      -0.46575356       1.50837190
Si      -1.37790587       5.43604038      16.35945000  F        0        1      -1.71485914      -1.24707020      -1.46054641
Si       4.01879613       3.91132168      14.90630000  F        0        1       0.36315793       0.29791488       1.50742306
Si      -0.21659613       2.67428190      16.35945000  F        0        1       1.91312018      -0.86316863      -1.47903613
Si       2.20769800       1.52471870      14.90630000  F        0        1      -0.43525768       0.16352757       1.48283201
Si       1.59450200       5.06088488      16.35945000  F        0        1      -0.20313838       2.10857920      -1.44660420
N       -1.02370433       2.17482973      14.90630000  F        1        1      -0.47155093       0.04282685       0.37616776
N        4.82590433       4.41077385      16.35945000  F        1        1       0.59903483       0.65908733      -0.11282631
N        2.43059437       4.61163476      14.90630000  F        1        1       0.19530139      -0.43597737       0.37442731
N        1.37160563       1.97396882      16.35945000  F        1        1      -0.87026888       0.18965347      -0.07969059
N       -1.40689004       6.38474267      14.90630000  F        1        1       0.27526121       0.39451911       0.37363639
N        5.20909004       0.20086091      16.35945000  F        1        1       0.26595180      -0.84694474      -0.11229151
N        3.80216198       2.19517924      14.90630000  F        2        1      -0.00571770      -0.00165750      -0.57052670
N        0.00003802       4.39042434      16.35945000  F        2        1       0.00242475      -0.00271104       1.74263500
Si       2.20769800       1.52471870      22.39386304  F        0        0      -0.00148518       0.00028168      -0.07198667
Cl       2.20769800       1.52471870      20.35945000  F        0        0       0.00529833       0.00740610       0.05462475
Cl       4.12576101       1.52471870      23.07200072  F        0        0       0.02060369      -0.00035258       0.01307480
Cl       1.24866650       3.18580999      23.07200072  F        0        0      -0.00937253       0.01665431       0.01197997
Cl       1.24866650      -0.13637259      23.07200072  F        0        0      -0.00924907      -0.01708924       0.01204454
33
Lattice="7.6044 0.0 0.0 -3.802199999999998 6.585603580538386 0.0 0.0 -0.0 28.35945" Properties=species:S:1:pos:R:3:move_mask:L:1:spacegroup_kinds:I:1:tags:I:1:forces:R:3 spacegroup="P 63/m" unit_cell=conventional occupancy="_JSON {\"0\": {\"Si\": 1.0}, \"1\": {\"N\": 1.0}, \"2\": {\"N\": 1.0}}" surface=beta_Si3N4_001 species=SiCl4 height_A=3.25 substrate_atoms=28 calculation_kind="Rigid approach energy evaluation; not NEB or TS" energy=-229.41342768295692 pbc="T T F"
Si       5.18010587       1.14956320      12.00000000  F        0        2       1.71798987       1.23621948       1.45155692
Si      -1.37790587       5.43604038      13.45315000  F        0        2      -0.07785245       0.45038419      -1.52222579
Si       4.01879613       3.91132168      12.00000000  F        0        2      -1.92715596       0.86839775       1.45397887
Si      -0.21659613       2.67428190      13.45315000  F        0        2      -0.36819243      -0.29134177      -1.51910804
Si       2.20769800       1.52471870      12.00000000  F        0        2       0.21040211      -2.09895068       1.44189676
Si       1.59450200       5.06088488      13.45315000  F        0        2       0.44653087      -0.16680153      -1.51193070
N       -1.02370433       2.17482973      12.00000000  F        1        2      -0.60228262      -0.65709707       0.10714147
N        4.82590433       4.41077385      13.45315000  F        1        2       0.47031188      -0.03974667      -0.37586149
N        2.43059437       4.61163476      12.00000000  F        1        2       0.86739339      -0.18706549       0.10735125
N        1.37160563       1.97396882      13.45315000  F        1        2      -0.18835685       0.42739216      -0.37008414
N       -1.40689004       6.38474267      12.00000000  F        1        2      -0.26674936       0.84374855       0.10235096
N        5.20909004       0.20086091      13.45315000  F        1        2      -0.27502112      -0.38428816      -0.37171596
N        3.80216198       2.19517924      12.00000000  F        2        2      -0.00186572      -0.00287648      -1.74599437
N        0.00003802       4.39042434      13.45315000  F        2        2      -0.00359735       0.00687560       0.55840075
Si       5.18010587       1.14956320      14.90630000  F        0        1       0.07667230      -0.45346541       1.49816493
Si      -1.37790587       5.43604038      16.35945000  F        0        1      -1.70744436      -1.22949387      -1.40961315
Si       4.01879613       3.91132168      14.90630000  F        0        1       0.36478914       0.28711034       1.50034745
Si      -0.21659613       2.67428190      16.35945000  F        0        1       1.95856243      -0.89413272      -1.46298887
Si       2.20769800       1.52471870      14.90630000  F        0        1      -0.42775624       0.17379273       1.39665685
Si       1.59450200       5.06088488      16.35945000  F        0        1      -0.17563839       2.11986733      -1.44590858
N       -1.02370433       2.17482973      14.90630000  F        1        1      -0.46200258       0.03265804       0.39997590
N        4.82590433       4.41077385      16.35945000  F        1        1       0.58161621       0.65231303      -0.12088544
N        2.43059437       4.61163476      14.90630000  F        1        1       0.18300916      -0.44382847       0.38928730
N        1.37160563       1.97396882      16.35945000  F        1        1      -0.87298097       0.18017773      -0.03317337
N       -1.40689004       6.38474267      14.90630000  F        1        1       0.27420259       0.40494276       0.38457446
N        5.20909004       0.20086091      16.35945000  F        1        1       0.25485168      -0.85717365      -0.10383159
N        3.80216198       2.19517924      14.90630000  F        2        1      -0.02819286      -0.01188903      -0.57316898
N        0.00003802       4.39042434      16.35945000  F        2        1       0.00982571      -0.00906138       1.72646071
Si       2.20769800       1.52471870      21.64386304  F        0        0       0.01810791      -0.01172888      -0.04480985
Cl       2.20769800       1.52471870      19.60945000  F        0        0      -0.05681062       0.05262630       0.00594880
Cl       4.12576101       1.52471870      22.32200072  F        0        0       0.04052514       0.00046880       0.03697140
Cl       1.24866650       3.18580999      22.32200072  F        0        0      -0.01680522       0.02766683       0.02661096
Cl       1.24866650      -0.13637259      22.32200072  F        0        0      -0.01608527      -0.02570036       0.02362460
33
Lattice="7.6044 0.0 0.0 -3.802199999999998 6.585603580538386 0.0 0.0 -0.0 28.35945" Properties=species:S:1:pos:R:3:move_mask:L:1:spacegroup_kinds:I:1:tags:I:1:forces:R:3 spacegroup="P 63/m" unit_cell=conventional occupancy="_JSON {\"0\": {\"Si\": 1.0}, \"1\": {\"N\": 1.0}, \"2\": {\"N\": 1.0}}" surface=beta_Si3N4_001 species=SiCl4 height_A=2.75 substrate_atoms=28 calculation_kind="Rigid approach energy evaluation; not NEB or TS" energy=-229.3827058452946 pbc="T T F"
Si       5.18010587       1.14956320      12.00000000  F        0        2       1.72319128       1.23497087       1.44856432
Si      -1.37790587       5.43604038      13.45315000  F        0        2      -0.08138448       0.43364305      -1.53983420
Si       4.01879613       3.91132168      12.00000000  F        0        2      -1.92835296       0.87691138       1.45641937
Si      -0.21659613       2.67428190      13.45315000  F        0        2      -0.38189098      -0.27609027      -1.54145642
Si       2.20769800       1.52471870      12.00000000  F        0        2       0.21688500      -2.10451634       1.41535481
Si       1.59450200       5.06088488      13.45315000  F        0        2       0.43896281      -0.16282701      -1.51120612
N       -1.02370433       2.17482973      12.00000000  F        1        2      -0.60421151      -0.65704535       0.10590548
N        4.82590433       4.41077385      13.45315000  F        1        2       0.47011544      -0.03899291      -0.38334953
N        2.43059437       4.61163476      12.00000000  F        1        2       0.86830910      -0.18747683       0.09712373
N        1.37160563       1.97396882      13.45315000  F        1        2      -0.18214595       0.42899466      -0.37693051
N       -1.40689004       6.38474267      12.00000000  F        1        2      -0.26931200       0.84981621       0.09721416
N        5.20909004       0.20086091      13.45315000  F        1        2      -0.27098808      -0.37828810      -0.37354351
N        3.80216198       2.19517924      12.00000000  F        2        2      -0.00673970      -0.00431353      -1.75612758
N        0.00003802       4.39042434      13.45315000  F        2        2       0.00056027       0.00396381       0.55190918
Si       5.18010587       1.14956320      14.90630000  F        0        1       0.08488543      -0.48561893       1.50645034
Si      -1.37790587       5.43604038      16.35945000  F        0        1      -1.71522596      -1.20692254      -1.30326150
Si       4.01879613       3.91132168      14.90630000  F        0        1       0.38522771       0.31380921       1.51557408
Si      -0.21659613       2.67428190      16.35945000  F        0        1       1.96285505      -0.87835025      -1.43728656
Si       2.20769800       1.52471870      14.90630000  F        0        1      -0.38957342       0.14135744       1.37165241
Si       1.59450200       5.06088488      16.35945000  F        0        1      -0.17696452       2.16376353      -1.43536076
N       -1.02370433       2.17482973      14.90630000  F        1        1      -0.44387009       0.01717499       0.42771727
N        4.82590433       4.41077385      16.35945000  F        1        1       0.60482058       0.65613550      -0.13689448
N        2.43059437       4.61163476      14.90630000  F        1        1       0.16971902      -0.47854141       0.38901433
N        1.37160563       1.97396882      16.35945000  F        1        1      -0.88078074       0.22737604      -0.15586868
N       -1.40689004       6.38474267      14.90630000  F        1        1       0.25529379       0.43110617       0.40117593
N        5.20909004       0.20086091      16.35945000  F        1        1       0.24681479      -0.87205455      -0.09222709
N        3.80216198       2.19517924      14.90630000  F        2        1      -0.05776130      -0.01257577      -0.57325822
N        0.00003802       4.39042434      16.35945000  F        2        1       0.02940207      -0.03303480       1.72759872
Si       2.20769800       1.52471870      21.14386304  F        0        0       0.06236077      -0.04052011       0.08901629
Cl       2.20769800       1.52471870      19.10945000  F        0        0      -0.14550968       0.03560109      -0.05010845
Cl       4.12576101       1.52471870      21.82200072  F        0        0       0.07054788       0.00333591       0.04281348
Cl       1.24866650       3.18580999      21.82200072  F        0        0      -0.02667850       0.03846094       0.01088565
Cl       1.24866650      -0.13637259      21.82200072  F        0        0      -0.02856113      -0.03925206       0.01232408
33
Lattice="7.6044 0.0 0.0 -3.802199999999998 6.585603580538386 0.0 0.0 -0.0 28.35945" Properties=species:S:1:pos:R:3:move_mask:L:1:spacegroup_kinds:I:1:tags:I:1:forces:R:3 spacegroup="P 63/m" unit_cell=conventional occupancy="_JSON {\"0\": {\"Si\": 1.0}, \"1\": {\"N\": 1.0}, \"2\": {\"N\": 1.0}}" surface=beta_Si3N4_001 species=SiCl4 height_A=2.25 substrate_atoms=28 calculation_kind="Rigid approach energy evaluation; not NEB or TS" energy=-229.07377435185344 pbc="T T F"
Si       5.18010587       1.14956320      12.00000000  F        0        2       1.72524617       1.22351658       1.42761893
Si      -1.37790587       5.43604038      13.45315000  F        0        2      -0.08640154       0.42443550      -1.54362503
Si       4.01879613       3.91132168      12.00000000  F        0        2      -1.92865688       0.88755005       1.44064528
Si      -0.21659613       2.67428190      13.45315000  F        0        2      -0.42564782      -0.24530313      -1.59514304
Si       2.20769800       1.52471870      12.00000000  F        0        2       0.21814673      -2.10087618       1.38223951
Si       1.59450200       5.06088488      13.45315000  F        0        2       0.43900449      -0.16977140      -1.50341135
N       -1.02370433       2.17482973      12.00000000  F        1        2      -0.61184212      -0.65788053       0.10540204
N        4.82590433       4.41077385      13.45315000  F        1        2       0.46861187      -0.04759016      -0.38415150
N        2.43059437       4.61163476      12.00000000  F        1        2       0.86933507      -0.19250290       0.09337764
N        1.37160563       1.97396882      13.45315000  F        1        2      -0.18400731       0.43311133      -0.34118926
N       -1.40689004       6.38474267      12.00000000  F        1        2      -0.26887109       0.85670337       0.10402790
N        5.20909004       0.20086091      13.45315000  F        1        2      -0.26775281      -0.36830470      -0.36841060
N        3.80216198       2.19517924      12.00000000  F        2        2      -0.00870952      -0.00470222      -1.74260995
N        0.00003802       4.39042434      13.45315000  F        2        2       0.00386488       0.00550313       0.54039350
Si       5.18010587       1.14956320      14.90630000  F        0        1       0.10480585      -0.55255206       1.53123110
Si      -1.37790587       5.43604038      16.35945000  F        0        1      -1.70269400      -1.30487961      -1.30278268
Si       4.01879613       3.91132168      14.90630000  F        0        1       0.40180506       0.35837175       1.52882456
Si      -0.21659613       2.67428190      16.35945000  F        0        1       1.79240806      -0.87410314      -1.29456358
Si       2.20769800       1.52471870      14.90630000  F        0        1      -0.34287202       0.09003831       1.20437539
Si       1.59450200       5.06088488      16.35945000  F        0        1      -0.18840316       2.20067366      -1.41380563
N       -1.02370433       2.17482973      14.90630000  F        1        1      -0.36386548      -0.02401493       0.38410591
N        4.82590433       4.41077385      16.35945000  F        1        1       0.59025960       0.65019108      -0.07199698
N        2.43059437       4.61163476      14.90630000  F        1        1       0.18869450      -0.49625428       0.35377868
N        1.37160563       1.97396882      16.35945000  F        1        1      -1.36607161       0.58338851      -1.51846114
N       -1.40689004       6.38474267      14.90630000  F        1        1       0.25886395       0.44972303       0.41703995
N        5.20909004       0.20086091      16.35945000  F        1        1       0.23046643      -0.89783155      -0.09248802
N        3.80216198       2.19517924      14.90630000  F        2        1      -0.04870558       0.00472239      -0.53747079
N        0.00003802       4.39042434      16.35945000  F        2        1       0.06732883       0.03189712       1.75773260
Si       2.20769800       1.52471870      20.64386304  F        0        0       0.07890552      -0.06256002       0.17754661
Cl       2.20769800       1.52471870      18.60945000  F        0        0       0.34730825      -0.20114098       1.30180335
Cl       4.12576101       1.52471870      21.32200072  F        0        0       0.12433606       0.00721909       0.00407550
Cl       1.24866650       3.18580999      21.32200072  F        0        0      -0.05104918       0.07901122      -0.02367064
Cl       1.24866650      -0.13637259      21.32200072  F        0        0      -0.06384121      -0.08578832      -0.02043828
33
Lattice="7.6044 0.0 0.0 -3.802199999999998 6.585603580538386 0.0 0.0 -0.0 28.35945" Properties=species:S:1:pos:R:3:move_mask:L:1:spacegroup_kinds:I:1:tags:I:1:forces:R:3 spacegroup="P 63/m" unit_cell=conventional occupancy="_JSON {\"0\": {\"Si\": 1.0}, \"1\": {\"N\": 1.0}, \"2\": {\"N\": 1.0}}" surface=beta_Si3N4_001 species=SiCl4 height_A=1.9 substrate_atoms=28 calculation_kind="Rigid approach energy evaluation; not NEB or TS" energy=-228.49907920393343 pbc="T T F"
Si       5.18010587       1.14956320      12.00000000  F        0        2       1.72352212       1.21246542       1.40082126
Si      -1.37790587       5.43604038      13.45315000  F        0        2      -0.09612880       0.40937793      -1.58997110
Si       4.01879613       3.91132168      12.00000000  F        0        2      -1.93006084       0.89530859       1.41656494
Si      -0.21659613       2.67428190      13.45315000  F        0        2      -0.52092052      -0.17754396      -1.74764985
Si       2.20769800       1.52471870      12.00000000  F        0        2       0.24931369      -2.11225688       1.31437202
Si       1.59450200       5.06088488      13.45315000  F        0        2       0.45695103      -0.16755932      -1.50449319
N       -1.02370433       2.17482973      12.00000000  F        1        2      -0.60169340      -0.65957988       0.12552985
N        4.82590433       4.41077385      13.45315000  F        1        2       0.46595744      -0.04691597      -0.36789668
N        2.43059437       4.61163476      12.00000000  F        1        2       0.86620271      -0.20086765       0.10860550
N        1.37160563       1.97396882      13.45315000  F        1        2      -0.21646941       0.43022192      -0.05280150
N       -1.40689004       6.38474267      12.00000000  F        1        2      -0.27181203       0.86739404       0.13591489
N        5.20909004       0.20086091      13.45315000  F        1        2      -0.27244516      -0.36023154      -0.33998237
N        3.80216198       2.19517924      12.00000000  F        2        2      -0.01986268      -0.00578875      -1.71206325
N        0.00003802       4.39042434      13.45315000  F        2        2       0.00115931       0.00209796       0.54916410
Si       5.18010587       1.14956320      14.90630000  F        0        1       0.12880981      -0.64478441       1.50993976
Si      -1.37790587       5.43604038      16.35945000  F        0        1      -1.72195893      -1.59774985      -1.42488782
Si       4.01879613       3.91132168      14.90630000  F        0        1       0.42815115       0.46498750       1.53493402
Si      -0.21659613       2.67428190      16.35945000  F        0        1       1.40104432      -0.78396655      -1.12305742
Si       2.20769800       1.52471870      14.90630000  F        0        1      -0.08665738      -0.04779744       0.93460500
Si       1.59450200       5.06088488      16.35945000  F        0        1      -0.15783628       2.28448834      -1.40781015
N       -1.02370433       2.17482973      14.90630000  F        1        1      -0.09789649      -0.03031796       0.42397433
N        4.82590433       4.41077385      16.35945000  F        1        1       0.60600328       0.65514217      -0.09504758
N        2.43059437       4.61163476      14.90630000  F        1        1       0.21744063      -0.48638711       0.30658513
N        1.37160563       1.97396882      16.35945000  F        1        1      -1.58948116       0.57888438      -1.50009639
N       -1.40689004       6.38474267      14.90630000  F        1        1       0.26510567       0.53609406       0.47302649
N        5.20909004       0.20086091      16.35945000  F        1        1       0.21039933      -0.90984645      -0.09767227
N        3.80216198       2.19517924      14.90630000  F        2        1      -0.07317261      -0.02236244      -0.48727502
N        0.00003802       4.39042434      16.35945000  F        2        1       0.09176580       0.05260754       1.74504253
Si       2.20769800       1.52471870      20.29386304  F        0        0       0.01050464      -0.06813432       0.67481059
Cl       2.20769800       1.52471870      18.25945000  F        0        0       0.52799868      -0.08238742       1.16577000
Cl       4.12576101       1.52471870      20.97200072  F        0        0       0.08996874      -0.00086289      -0.12832271
Cl       1.24866650       3.18580999      20.97200072  F        0        0      -0.04078239       0.06472789      -0.09931215
Cl       1.24866650      -0.13637259      20.97200072  F        0        0      -0.04312028      -0.04845697      -0.14132094
33
Lattice="7.6044 0.0 0.0 -3.802199999999998 6.585603580538386 0.0 0.0 -0.0 28.35945" Properties=species:S:1:pos:R:3:move_mask:L:1:spacegroup_kinds:I:1:tags:I:1:forces:R:3 spacegroup="P 63/m" unit_cell=conventional occupancy="_JSON {\"0\": {\"Si\": 1.0}, \"1\": {\"N\": 1.0}, \"2\": {\"N\": 1.0}}" surface=beta_Si3N4_001 species=SiCl4 height_A=1.6 substrate_atoms=28 calculation_kind="Rigid approach energy evaluation; not NEB or TS" energy=-228.06112951709468 pbc="T T F"
Si       5.18010587       1.14956320      12.00000000  F        0        2       1.73162906       1.20596813       1.37322624
Si      -1.37790587       5.43604038      13.45315000  F        0        2      -0.09274299       0.35434421      -1.67507114
Si       4.01879613       3.91132168      12.00000000  F        0        2      -1.92796419       0.90562170       1.38838513
Si      -0.21659613       2.67428190      13.45315000  F        0        2      -0.62205756      -0.07323242      -1.95289857
Si       2.20769800       1.52471870      12.00000000  F        0        2       0.30104327      -2.13513852       1.21129857
Si       1.59450200       5.06088488      13.45315000  F        0        2       0.46008570      -0.16078790      -1.52932399
N       -1.02370433       2.17482973      12.00000000  F        1        2      -0.57361477      -0.65692466       0.17634066
N        4.82590433       4.41077385      13.45315000  F        1        2       0.45366298      -0.03589026      -0.33855601
N        2.43059437       4.61163476      12.00000000  F        1        2       0.86138235      -0.21177984       0.13306209
N        1.37160563       1.97396882      13.45315000  F        1        2      -0.23570072       0.39551801       0.43718664
N       -1.40689004       6.38474267      12.00000000  F        1        2      -0.28095438       0.88599902       0.18290991
N        5.20909004       0.20086091      13.45315000  F        1        2      -0.26780550      -0.32943657      -0.28696768
N        3.80216198       2.19517924      12.00000000  F        2        2      -0.03916180      -0.01132133      -1.68256458
N        0.00003802       4.39042434      13.45315000  F        2        2      -0.01336393      -0.00345723       0.52688889
Si       5.18010587       1.14956320      14.90630000  F        0        1       0.07393068      -0.79317424       1.52270123
Si      -1.37790587       5.43604038      16.35945000  F        0        1      -1.68462886      -2.06450352      -1.60143172
Si       4.01879613       3.91132168      14.90630000  F        0        1       0.46475693       0.58031205       1.56464803
Si      -0.21659613       2.67428190      16.35945000  F        0        1       0.26671332      -0.23649018      -1.04713037
Si       2.20769800       1.52471870      14.90630000  F        0        1       0.48300511      -0.30687394      -0.00616691
Si       1.59450200       5.06088488      16.35945000  F        0        1      -0.13572123       2.53530532      -1.39539830
N       -1.02370433       2.17482973      14.90630000  F        1        1       0.33545619      -0.02023131       0.67395435
N        4.82590433       4.41077385      16.35945000  F        1        1       0.65940490       0.70217756      -0.12119406
N        2.43059437       4.61163476      14.90630000  F        1        1       0.19323523      -0.55346886       0.34243535
N        1.37160563       1.97396882      16.35945000  F        1        1      -1.39296502       0.40361298      -1.25276758
N       -1.40689004       6.38474267      14.90630000  F        1        1       0.15184196       0.78502966       0.64537278
N        5.20909004       0.20086091      16.35945000  F        1        1       0.19094475      -0.95158627      -0.11922258
N        3.80216198       2.19517924      14.90630000  F        2        1      -0.25975492      -0.05849952      -0.40007639
N        0.00003802       4.39042434      16.35945000  F        2        1       0.19750419      -0.18776482       1.61796962
Si       2.20769800       1.52471870      19.99386304  F        0        0      -0.04513216      -0.07313466       1.03681004
Cl       2.20769800       1.52471870      17.95945000  F        0        0       0.78784842       0.06720460       0.97845239
Cl       4.12576101       1.52471870      20.67200072  F        0        0       0.04062570      -0.00203412      -0.22455290
Cl       1.24866650       3.18580999      20.67200072  F        0        0      -0.03462240       0.08619461      -0.05566052
Cl       1.24866650      -0.13637259      20.67200072  F        0        0      -0.04688030      -0.04155768      -0.12265861
33
Lattice="7.6044 0.0 0.0 -3.802199999999998 6.585603580538386 0.0 0.0 -0.0 28.35945" Properties=species:S:1:pos:R:3:move_mask:L:1:spacegroup_kinds:I:1:tags:I:1:forces:R:3 spacegroup="P 63/m" unit_cell=conventional occupancy="_JSON {\"0\": {\"Si\": 1.0}, \"1\": {\"N\": 1.0}, \"2\": {\"N\": 1.0}}" surface=beta_Si3N4_001 species=SiCl4 height_A=1.3 substrate_atoms=28 calculation_kind="Rigid approach energy evaluation; not NEB or TS" energy=-227.48572656698008 pbc="T T F"
Si       5.18010587       1.14956320      12.00000000  F        0        2       1.72684644       1.20431770       1.36008828
Si      -1.37790587       5.43604038      13.45315000  F        0        2      -0.08121256       0.27702881      -1.79062560
Si       4.01879613       3.91132168      12.00000000  F        0        2      -1.93267454       0.90185637       1.37986584
Si      -0.21659613       2.67428190      13.45315000  F        0        2      -0.64808240      -0.00315156      -2.09038456
Si       2.20769800       1.52471870      12.00000000  F        0        2       0.34413470      -2.15620193       1.10591714
Si       1.59450200       5.06088488      13.45315000  F        0        2       0.45034840      -0.14597711      -1.57541109
N       -1.02370433       2.17482973      12.00000000  F        1        2      -0.55072033      -0.65607685       0.20779165
N        4.82590433       4.41077385      13.45315000  F        1        2       0.44712915      -0.01795923      -0.31015416
N        2.43059437       4.61163476      12.00000000  F        1        2       0.86034259      -0.22086667       0.15130809
N        1.37160563       1.97396882      13.45315000  F        1        2      -0.20581069       0.34016199       0.61265726
N       -1.40689004       6.38474267      12.00000000  F        1        2      -0.29188703       0.90034614       0.23564303
N        5.20909004       0.20086091      13.45315000  F        1        2      -0.26538088      -0.29774032      -0.25492010
N        3.80216198       2.19517924      12.00000000  F        2        2      -0.05144507      -0.01265388      -1.66652220
N        0.00003802       4.39042434      13.45315000  F        2        2      -0.04212894       0.01712580       0.48657672
Si       5.18010587       1.14956320      14.90630000  F        0        1       0.06110269      -0.92467918       1.50647815
Si      -1.37790587       5.43604038      16.35945000  F        0        1      -1.65924965      -2.50257833      -1.64348905
Si       4.01879613       3.91132168      14.90630000  F        0        1       0.53518293       0.70332021       1.54611691
Si      -0.21659613       2.67428190      16.35945000  F        0        1      -0.65394332       0.17395764      -0.92593366
Si       2.20769800       1.52471870      14.90630000  F        0        1       0.71476453      -0.38049863      -1.33881393
Si       1.59450200       5.06088488      16.35945000  F        0        1      -0.12953520       2.77139599      -1.38562105
N       -1.02370433       2.17482973      14.90630000  F        1        1       0.52473427       0.01697400       0.78963297
N        4.82590433       4.41077385      16.35945000  F        1        1       0.70749792       0.73952110      -0.11197826
N        2.43059437       4.61163476      14.90630000  F        1        1       0.19167702      -0.61001190       0.37135032
N        1.37160563       1.97396882      16.35945000  F        1        1      -1.62155290       0.61584880      -1.73509072
N       -1.40689004       6.38474267      14.90630000  F        1        1       0.03884262       1.04378128       0.88093261
N        5.20909004       0.20086091      16.35945000  F        1        1       0.17773888      -0.98723366      -0.10957920
N        3.80216198       2.19517924      14.90630000  F        2        1      -0.46609754      -0.07218448      -0.30590789
N        0.00003802       4.39042434      16.35945000  F        2        1       0.29733044      -0.42142598       1.57110228
Si       2.20769800       1.52471870      19.69386304  F        0        0      -0.04940420      -0.08331833       1.22943041
Cl       2.20769800       1.52471870      17.65945000  F        0        0       1.71860376      -0.27439138       2.47060409
Cl       4.12576101       1.52471870      20.37200072  F        0        0      -0.01716675       0.00079848      -0.31576611
Cl       1.24866650       3.18580999      20.37200072  F        0        0      -0.07773047       0.11925582      -0.16785782
Cl       1.24866650      -0.13637259      20.37200072  F        0        0      -0.05225386      -0.05874071      -0.17744033
