38
Lattice="11.518769465528859 0.0 0.0 0.0 7.679179643685906 0.0 0.0 0.0 30.7875" Properties=species:S:1:pos:R:3:move_mask:L:1:tags:I:1:forces:R:3 surface=Si100 species=F2 site=bridge_Si_Si orientation=parallel height_A=6.5 substrate_atoms=36 calculation_kind="Rigid evaluated approach scan; not NEB" energy=-183.06452351256468 pbc="T T F"
Si       0.00000000       0.00000000      12.00000000  F        6      -0.00000004       0.00000000       0.24903484
Si       3.83958982       0.00000000      12.00000000  F        6      -0.00000000       0.00000000       0.24903482
Si       7.67917964       0.00000000      12.00000000  F        6       0.00000000       0.00000000       0.24903482
Si       0.00000000       3.83958982      12.00000000  F        6      -0.00000004      -0.00000000       0.24903484
Si       3.83958982       3.83958982      12.00000000  F        6      -0.00000000      -0.00000000       0.24903482
Si       7.67917964       3.83958982      12.00000000  F        6       0.00000000      -0.00000000       0.24903482
Si       1.91979491       0.00000000      13.35750000  F        5       0.00000000      -0.00000002      -0.52822352
Si       5.75938473       0.00000000      13.35750000  F        5       0.00000000      -0.00000002      -0.52822353
Si       9.59897455       0.00000000      13.35750000  F        5       0.00000003      -0.00000002      -0.52822354
Si       1.91979491       3.83958982      13.35750000  F        5       0.00000000       0.00000000      -0.52822354
Si       5.75938473       3.83958982      13.35750000  F        5       0.00000000       0.00000000      -0.52822354
Si       9.59897455       3.83958982      13.35750000  F        5       0.00000003       0.00000000      -0.52822356
Si       1.91979491       1.91979491      14.71500000  F        4      -0.00000000       0.00000000       0.14537709
Si       5.75938473       1.91979491      14.71500000  F        4       0.00000000       0.00000000       0.14537709
Si       9.59897455       1.91979491      14.71500000  F        4       0.00000004       0.00000000       0.14537711
Si       1.91979491       5.75938473      14.71500000  F        4      -0.00000000       0.00000002       0.14537707
Si       5.75938473       5.75938473      14.71500000  F        4       0.00000000       0.00000002       0.14537707
Si       9.59897455       5.75938473      14.71500000  F        4       0.00000004       0.00000002       0.14537709
Si       0.00000000       1.91979491      16.07250000  F        3      -0.00000004       0.00000000      -0.14537711
Si       3.83958982       1.91979491      16.07250000  F        3      -0.00000000       0.00000000      -0.14537709
Si       7.67917964       1.91979491      16.07250000  F        3       0.00000000       0.00000000      -0.14537709
Si       0.00000000       5.75938473      16.07250000  F        3      -0.00000004       0.00000002      -0.14537709
Si       3.83958982       5.75938473      16.07250000  F        3      -0.00000000       0.00000002      -0.14537707
Si       7.67917964       5.75938473      16.07250000  F        3       0.00000000       0.00000002      -0.14537707
Si       0.00000000       0.00000000      17.43000000  F        2      -0.00000003      -0.00000002       0.52822354
Si       3.83958982       0.00000000      17.43000000  F        2      -0.00000000      -0.00000002       0.52822353
Si       7.67917964       0.00000000      17.43000000  F        2      -0.00000000      -0.00000002       0.52822352
Si       0.00000000       3.83958982      17.43000000  F        2      -0.00000003       0.00000000       0.52822356
Si       3.83958982       3.83958982      17.43000000  F        2      -0.00000000       0.00000000       0.52822354
Si       7.67917964       3.83958982      17.43000000  F        2      -0.00000000       0.00000000       0.52822354
Si       1.91979491       0.00000000      18.78750000  F        1      -0.00000000       0.00000000      -0.24903482
Si       5.75938473       0.00000000      18.78750000  F        1       0.00000000       0.00000000      -0.24903482
Si       9.59897455       0.00000000      18.78750000  F        1       0.00000004       0.00000000      -0.24903484
Si       1.91979491       3.83958982      18.78750000  F        1      -0.00000000      -0.00000000      -0.24903482
Si       5.75938473       3.83958982      18.78750000  F        1       0.00000000      -0.00000000      -0.24903482
Si       9.59897455       3.83958982      18.78750000  F        1       0.00000004      -0.00000000      -0.24903484
F        6.93889177       3.83958982      25.28750000  T        0       0.00152110       0.00000000       0.00000000
F        8.41946751       3.83958982      25.28750000  T        0      -0.00152110       0.00000000       0.00000000
38
Lattice="11.518769465528859 0.0 0.0 0.0 7.679179643685906 0.0 0.0 0.0 30.7875" Properties=species:S:1:pos:R:3:move_mask:L:1:tags:I:1:forces:R:3 surface=Si100 species=F2 site=bridge_Si_Si orientation=parallel height_A=5.0 substrate_atoms=36 calculation_kind="Rigid evaluated approach scan; not NEB" energy=-183.06452351256468 pbc="T T F"
Si       0.00000000       0.00000000      12.00000000  F        6      -0.00000004       0.00000000       0.24903484
Si       3.83958982       0.00000000      12.00000000  F        6      -0.00000000       0.00000000       0.24903482
Si       7.67917964       0.00000000      12.00000000  F        6       0.00000000       0.00000000       0.24903482
Si       0.00000000       3.83958982      12.00000000  F        6      -0.00000004      -0.00000000       0.24903484
Si       3.83958982       3.83958982      12.00000000  F        6      -0.00000000      -0.00000000       0.24903482
Si       7.67917964       3.83958982      12.00000000  F        6       0.00000000      -0.00000000       0.24903482
Si       1.91979491       0.00000000      13.35750000  F        5       0.00000000      -0.00000002      -0.52822352
Si       5.75938473       0.00000000      13.35750000  F        5       0.00000000      -0.00000002      -0.52822353
Si       9.59897455       0.00000000      13.35750000  F        5       0.00000003      -0.00000002      -0.52822354
Si       1.91979491       3.83958982      13.35750000  F        5       0.00000000       0.00000000      -0.52822354
Si       5.75938473       3.83958982      13.35750000  F        5       0.00000000       0.00000000      -0.52822354
Si       9.59897455       3.83958982      13.35750000  F        5       0.00000003       0.00000000      -0.52822356
Si       1.91979491       1.91979491      14.71500000  F        4      -0.00000000       0.00000000       0.14537709
Si       5.75938473       1.91979491      14.71500000  F        4       0.00000000       0.00000000       0.14537709
Si       9.59897455       1.91979491      14.71500000  F        4       0.00000004       0.00000000       0.14537711
Si       1.91979491       5.75938473      14.71500000  F        4      -0.00000000       0.00000002       0.14537707
Si       5.75938473       5.75938473      14.71500000  F        4       0.00000000       0.00000002       0.14537707
Si       9.59897455       5.75938473      14.71500000  F        4       0.00000004       0.00000002       0.14537709
Si       0.00000000       1.91979491      16.07250000  F        3      -0.00000004       0.00000000      -0.14537711
Si       3.83958982       1.91979491      16.07250000  F        3      -0.00000000       0.00000000      -0.14537709
Si       7.67917964       1.91979491      16.07250000  F        3       0.00000000       0.00000000      -0.14537709
Si       0.00000000       5.75938473      16.07250000  F        3      -0.00000004       0.00000002      -0.14537709
Si       3.83958982       5.75938473      16.07250000  F        3      -0.00000000       0.00000002      -0.14537707
Si       7.67917964       5.75938473      16.07250000  F        3       0.00000000       0.00000002      -0.14537707
Si       0.00000000       0.00000000      17.43000000  F        2      -0.00000003      -0.00000002       0.52822354
Si       3.83958982       0.00000000      17.43000000  F        2      -0.00000000      -0.00000002       0.52822353
Si       7.67917964       0.00000000      17.43000000  F        2      -0.00000000      -0.00000002       0.52822352
Si       0.00000000       3.83958982      17.43000000  F        2      -0.00000003       0.00000000       0.52822356
Si       3.83958982       3.83958982      17.43000000  F        2      -0.00000000       0.00000000       0.52822354
Si       7.67917964       3.83958982      17.43000000  F        2      -0.00000000       0.00000000       0.52822354
Si       1.91979491       0.00000000      18.78750000  F        1      -0.00000000       0.00000000      -0.24903482
Si       5.75938473       0.00000000      18.78750000  F        1       0.00000000       0.00000000      -0.24903482
Si       9.59897455       0.00000000      18.78750000  F        1       0.00000004       0.00000000      -0.24903484
Si       1.91979491       3.83958982      18.78750000  F        1      -0.00000000      -0.00000000      -0.24903482
Si       5.75938473       3.83958982      18.78750000  F        1       0.00000000      -0.00000000      -0.24903482
Si       9.59897455       3.83958982      18.78750000  F        1       0.00000004      -0.00000000      -0.24903484
F        6.93889177       3.83958982      23.78750000  T        0       0.00152110       0.00000000       0.00000000
F        8.41946751       3.83958982      23.78750000  T        0      -0.00152110       0.00000000       0.00000000
38
Lattice="11.518769465528859 0.0 0.0 0.0 7.679179643685906 0.0 0.0 0.0 30.7875" Properties=species:S:1:pos:R:3:move_mask:L:1:tags:I:1:forces:R:3 surface=Si100 species=F2 site=bridge_Si_Si orientation=parallel height_A=4.0 substrate_atoms=36 calculation_kind="Rigid evaluated approach scan; not NEB" energy=-183.1378539892312 pbc="T T F"
Si       0.00000000       0.00000000      12.00000000  F        6       0.00013750       0.00000000       0.24955967
Si       3.83958982       0.00000000      12.00000000  F        6      -0.00013754       0.00000000       0.24955965
Si       7.67917964       0.00000000      12.00000000  F        6       0.00000000       0.00000000       0.24988497
Si       0.00000000       3.83958982      12.00000000  F        6       0.00032055      -0.00000000       0.24878301
Si       3.83958982       3.83958982      12.00000000  F        6      -0.00032058      -0.00000000       0.24878299
Si       7.67917964       3.83958982      12.00000000  F        6       0.00000000      -0.00000000       0.24864651
Si       1.91979491       0.00000000      13.35750000  F        5       0.00000000      -0.00000002      -0.52642393
Si       5.75938473       0.00000000      13.35750000  F        5       0.00060010      -0.00000002      -0.52672523
Si       9.59897455       0.00000000      13.35750000  F        5      -0.00060006      -0.00000002      -0.52672524
Si       1.91979491       3.83958982      13.35750000  F        5       0.00000000       0.00000000      -0.52629222
Si       5.75938473       3.83958982      13.35750000  F        5       0.00063099       0.00000000      -0.52436861
Si       9.59897455       3.83958982      13.35750000  F        5      -0.00063096       0.00000000      -0.52436863
Si       1.91979491       1.91979491      14.71500000  F        4      -0.00000000      -0.00116661       0.15065594
Si       5.75938473       1.91979491      14.71500000  F        4       0.00377738      -0.00329600       0.14559451
Si       9.59897455       1.91979491      14.71500000  F        4      -0.00377734      -0.00329600       0.14559453
Si       1.91979491       5.75938473      14.71500000  F        4      -0.00000000       0.00116663       0.15065593
Si       5.75938473       5.75938473      14.71500000  F        4       0.00377738       0.00329603       0.14559449
Si       9.59897455       5.75938473      14.71500000  F        4      -0.00377734       0.00329603       0.14559451
Si       0.00000000       1.91979491      16.07250000  F        3      -0.00004262       0.00609591      -0.14401962
Si       3.83958982       1.91979491      16.07250000  F        3       0.00004258       0.00609591      -0.14401960
Si       7.67917964       1.91979491      16.07250000  F        3       0.00000000       0.00246432      -0.15832558
Si       0.00000000       5.75938473      16.07250000  F        3      -0.00004262      -0.00609589      -0.14401961
Si       3.83958982       5.75938473      16.07250000  F        3       0.00004258      -0.00609589      -0.14401959
Si       7.67917964       5.75938473      16.07250000  F        3       0.00000000      -0.00246430      -0.15832556
Si       0.00000000       0.00000000      17.43000000  F        2       0.00790114      -0.00000002       0.51697622
Si       3.83958982       0.00000000      17.43000000  F        2      -0.00790117      -0.00000002       0.51697620
Si       7.67917964       0.00000000      17.43000000  F        2      -0.00000000      -0.00000002       0.51240645
Si       0.00000000       3.83958982      17.43000000  F        2      -0.02387335       0.00000000       0.56700713
Si       3.83958982       3.83958982      17.43000000  F        2       0.02387332       0.00000000       0.56700711
Si       7.67917964       3.83958982      17.43000000  F        2      -0.00000000       0.00000000       0.61026264
Si       1.91979491       0.00000000      18.78750000  F        1      -0.00000000       0.00000000      -0.24877553
Si       5.75938473       0.00000000      18.78750000  F        1       0.00048766       0.00000000      -0.24399975
Si       9.59897455       0.00000000      18.78750000  F        1      -0.00048762       0.00000000      -0.24399977
Si       1.91979491       3.83958982      18.78750000  F        1      -0.00000000      -0.00000000      -0.24020529
Si       5.75938473       3.83958982      18.78750000  F        1       0.14439770      -0.00000000      -0.10850180
Si       9.59897455       3.83958982      18.78750000  F        1      -0.14439766      -0.00000000      -0.10850181
F        6.93889177       3.83958982      22.78750000  T        0       0.07874798       0.00000000      -0.21396255
F        8.41946751       3.83958982      22.78750000  T        0      -0.07874798       0.00000000      -0.21396255
38
Lattice="11.518769465528859 0.0 0.0 0.0 7.679179643685906 0.0 0.0 0.0 30.7875" Properties=species:S:1:pos:R:3:move_mask:L:1:tags:I:1:forces:R:3 surface=Si100 species=F2 site=bridge_Si_Si orientation=parallel height_A=3.25 substrate_atoms=36 calculation_kind="Rigid evaluated approach scan; not NEB" energy=-183.58354791817658 pbc="T T F"
Si       0.00000000       0.00000000      12.00000000  F        6       0.00097788       0.00000000       0.25055015
Si       3.83958982       0.00000000      12.00000000  F        6      -0.00097792       0.00000000       0.25055013
Si       7.67917964       0.00000000      12.00000000  F        6       0.00000000       0.00000000       0.25062263
Si       0.00000000       3.83958982      12.00000000  F        6       0.00131125      -0.00000000       0.24793447
Si       3.83958982       3.83958982      12.00000000  F        6      -0.00131129      -0.00000000       0.24793446
Si       7.67917964       3.83958982      12.00000000  F        6       0.00000000      -0.00000000       0.24669775
Si       1.91979491       0.00000000      13.35750000  F        5       0.00000000      -0.00000002      -0.52567224
Si       5.75938473       0.00000000      13.35750000  F        5       0.00123500      -0.00000002      -0.52735390
Si       9.59897455       0.00000000      13.35750000  F        5      -0.00123497      -0.00000002      -0.52735391
Si       1.91979491       3.83958982      13.35750000  F        5       0.00000000       0.00000000      -0.52445913
Si       5.75938473       3.83958982      13.35750000  F        5       0.00069163       0.00000000      -0.52161233
Si       9.59897455       3.83958982      13.35750000  F        5      -0.00069160       0.00000000      -0.52161235
Si       1.91979491       1.91979491      14.71500000  F        4      -0.00000000      -0.00457463       0.15322206
Si       5.75938473       1.91979491      14.71500000  F        4       0.00906102       0.00405327       0.17582841
Si       9.59897455       1.91979491      14.71500000  F        4      -0.00906098       0.00405327       0.17582843
Si       1.91979491       5.75938473      14.71500000  F        4      -0.00000000       0.00457466       0.15322205
Si       5.75938473       5.75938473      14.71500000  F        4       0.00906102      -0.00405324       0.17582840
Si       9.59897455       5.75938473      14.71500000  F        4      -0.00906098      -0.00405324       0.17582842
Si       0.00000000       1.91979491      16.07250000  F        3      -0.01158388       0.02659840      -0.13151393
Si       3.83958982       1.91979491      16.07250000  F        3       0.01158385       0.02659840      -0.13151391
Si       7.67917964       1.91979491      16.07250000  F        3       0.00000000       0.01963578      -0.16172580
Si       0.00000000       5.75938473      16.07250000  F        3      -0.01158388      -0.02659838      -0.13151391
Si       3.83958982       5.75938473      16.07250000  F        3       0.01158385      -0.02659838      -0.13151389
Si       7.67917964       5.75938473      16.07250000  F        3       0.00000000      -0.01963576      -0.16172578
Si       0.00000000       0.00000000      17.43000000  F        2       0.00449084      -0.00000002       0.50475995
Si       3.83958982       0.00000000      17.43000000  F        2      -0.00449087      -0.00000002       0.50475993
Si       7.67917964       0.00000000      17.43000000  F        2      -0.00000000      -0.00000002       0.49215354
Si       0.00000000       3.83958982      17.43000000  F        2       0.03177015       0.00000000       0.51132550
Si       3.83958982       3.83958982      17.43000000  F        2      -0.03177019       0.00000000       0.51132548
Si       7.67917964       3.83958982      17.43000000  F        2      -0.00000000       0.00000000       0.57317350
Si       1.91979491       0.00000000      18.78750000  F        1      -0.00000000       0.00000000      -0.24454453
Si       5.75938473       0.00000000      18.78750000  F        1       0.00022635       0.00000000      -0.23767328
Si       9.59897455       0.00000000      18.78750000  F        1      -0.00022631       0.00000000      -0.23767330
Si       1.91979491       3.83958982      18.78750000  F        1      -0.00000000      -0.00000000      -0.23606935
Si       5.75938473       3.83958982      18.78750000  F        1       0.25180972      -0.00000000      -0.00274349
Si       9.59897455       3.83958982      18.78750000  F        1      -0.25180968      -0.00000000      -0.00274351
F        6.93889177       3.83958982      22.03750000  T        0      -0.66712410       0.00000000      -0.32126336
F        8.41946751       3.83958982      22.03750000  T        0       0.66712410       0.00000000      -0.32126336
38
Lattice="11.518769465528859 0.0 0.0 0.0 7.679179643685906 0.0 0.0 0.0 30.7875" Properties=species:S:1:pos:R:3:move_mask:L:1:tags:I:1:forces:R:3 surface=Si100 species=F2 site=bridge_Si_Si orientation=parallel height_A=2.75 substrate_atoms=36 calculation_kind="Rigid evaluated approach scan; not NEB" energy=-184.14290380612397 pbc="T T F"
Si       0.00000000       0.00000000      12.00000000  F        6       0.00184411       0.00000000       0.25050601
Si       3.83958982       0.00000000      12.00000000  F        6      -0.00184415       0.00000000       0.25050599
Si       7.67917964       0.00000000      12.00000000  F        6       0.00000000       0.00000000       0.24885782
Si       0.00000000       3.83958982      12.00000000  F        6       0.00161811      -0.00000000       0.24705071
Si       3.83958982       3.83958982      12.00000000  F        6      -0.00161814      -0.00000000       0.24705069
Si       7.67917964       3.83958982      12.00000000  F        6       0.00000000      -0.00000000       0.24464923
Si       1.91979491       0.00000000      13.35750000  F        5       0.00000000      -0.00000002      -0.52866869
Si       5.75938473       0.00000000      13.35750000  F        5       0.00042303      -0.00000002      -0.53154246
Si       9.59897455       0.00000000      13.35750000  F        5      -0.00042300      -0.00000002      -0.53154248
Si       1.91979491       3.83958982      13.35750000  F        5       0.00000000       0.00000000      -0.52286039
Si       5.75938473       3.83958982      13.35750000  F        5      -0.00034465       0.00000000      -0.52119605
Si       9.59897455       3.83958982      13.35750000  F        5       0.00034468       0.00000000      -0.52119607
Si       1.91979491       1.91979491      14.71500000  F        4      -0.00000000      -0.00278583       0.14914956
Si       5.75938473       1.91979491      14.71500000  F        4       0.01604413       0.00861373       0.18872577
Si       9.59897455       1.91979491      14.71500000  F        4      -0.01604409       0.00861373       0.18872580
Si       1.91979491       5.75938473      14.71500000  F        4      -0.00000000       0.00278586       0.14914955
Si       5.75938473       5.75938473      14.71500000  F        4       0.01604413      -0.00861371       0.18872576
Si       9.59897455       5.75938473      14.71500000  F        4      -0.01604409      -0.00861371       0.18872578
Si       0.00000000       1.91979491      16.07250000  F        3      -0.02998373       0.05239502      -0.10871983
Si       3.83958982       1.91979491      16.07250000  F        3       0.02998370       0.05239502      -0.10871981
Si       7.67917964       1.91979491      16.07250000  F        3       0.00000000       0.03900013      -0.13347736
Si       0.00000000       5.75938473      16.07250000  F        3      -0.02998373      -0.05239500      -0.10871982
Si       3.83958982       5.75938473      16.07250000  F        3       0.02998370      -0.05239500      -0.10871980
Si       7.67917964       5.75938473      16.07250000  F        3       0.00000000      -0.03900011      -0.13347735
Si       0.00000000       0.00000000      17.43000000  F        2      -0.01031620      -0.00000002       0.52240339
Si       3.83958982       0.00000000      17.43000000  F        2       0.01031616      -0.00000002       0.52240337
Si       7.67917964       0.00000000      17.43000000  F        2      -0.00000000      -0.00000002       0.48901975
Si       0.00000000       3.83958982      17.43000000  F        2       0.08459737       0.00000000       0.44262314
Si       3.83958982       3.83958982      17.43000000  F        2      -0.08459741       0.00000000       0.44262312
Si       7.67917964       3.83958982      17.43000000  F        2      -0.00000000       0.00000000       0.61520588
Si       1.91979491       0.00000000      18.78750000  F        1      -0.00000000       0.00000000      -0.24767229
Si       5.75938473       0.00000000      18.78750000  F        1      -0.00001211       0.00000000      -0.24606375
Si       9.59897455       0.00000000      18.78750000  F        1       0.00001215       0.00000000      -0.24606377
Si       1.91979491       3.83958982      18.78750000  F        1      -0.00000000      -0.00000000      -0.24972935
Si       5.75938473       3.83958982      18.78750000  F        1       0.36822269      -0.00000000       0.49632468
Si       9.59897455       3.83958982      18.78750000  F        1      -0.36822265      -0.00000000       0.49632466
F        6.93889177       3.83958982      21.53750000  T        0      -0.89461486       0.00000000      -0.86019069
F        8.41946751       3.83958982      21.53750000  T        0       0.89461486       0.00000000      -0.86019069
38
Lattice="11.518769465528859 0.0 0.0 0.0 7.679179643685906 0.0 0.0 0.0 30.7875" Properties=species:S:1:pos:R:3:move_mask:L:1:tags:I:1:forces:R:3 surface=Si100 species=F2 site=bridge_Si_Si orientation=parallel height_A=2.25 substrate_atoms=36 calculation_kind="Rigid evaluated approach scan; not NEB" energy=-184.93296826661165 pbc="T T F"
Si       0.00000000       0.00000000      12.00000000  F        6       0.00301338       0.00000000       0.25144619
Si       3.83958982       0.00000000      12.00000000  F        6      -0.00301342       0.00000000       0.25144618
Si       7.67917964       0.00000000      12.00000000  F        6       0.00000000       0.00000000       0.24816333
Si       0.00000000       3.83958982      12.00000000  F        6       0.00228721      -0.00000000       0.24429111
Si       3.83958982       3.83958982      12.00000000  F        6      -0.00228725      -0.00000000       0.24429109
Si       7.67917964       3.83958982      12.00000000  F        6       0.00000000      -0.00000000       0.24005919
Si       1.91979491       0.00000000      13.35750000  F        5       0.00000000      -0.00000002      -0.53215643
Si       5.75938473       0.00000000      13.35750000  F        5      -0.00216566      -0.00000002      -0.53949358
Si       9.59897455       0.00000000      13.35750000  F        5       0.00216569      -0.00000002      -0.53949359
Si       1.91979491       3.83958982      13.35750000  F        5       0.00000000       0.00000000      -0.52401193
Si       5.75938473       3.83958982      13.35750000  F        5       0.00948686       0.00000000      -0.49911055
Si       9.59897455       3.83958982      13.35750000  F        5      -0.00948683       0.00000000      -0.49911057
Si       1.91979491       1.91979491      14.71500000  F        4      -0.00000000       0.00565231       0.14555870
Si       5.75938473       1.91979491      14.71500000  F        4       0.02951495       0.00898765       0.18370482
Si       9.59897455       1.91979491      14.71500000  F        4      -0.02951491       0.00898765       0.18370484
Si       1.91979491       5.75938473      14.71500000  F        4      -0.00000000      -0.00565229       0.14555868
Si       5.75938473       5.75938473      14.71500000  F        4       0.02951495      -0.00898763       0.18370481
Si       9.59897455       5.75938473      14.71500000  F        4      -0.02951491      -0.00898763       0.18370483
Si       0.00000000       1.91979491      16.07250000  F        3      -0.05269877       0.09056264      -0.07704442
Si       3.83958982       1.91979491      16.07250000  F        3       0.05269873       0.09056264      -0.07704440
Si       7.67917964       1.91979491      16.07250000  F        3       0.00000000       0.01571913      -0.17018216
Si       0.00000000       5.75938473      16.07250000  F        3      -0.05269877      -0.09056262      -0.07704441
Si       3.83958982       5.75938473      16.07250000  F        3       0.05269873      -0.09056262      -0.07704439
Si       7.67917964       5.75938473      16.07250000  F        3       0.00000000      -0.01571911      -0.17018214
Si       0.00000000       0.00000000      17.43000000  F        2      -0.03687660      -0.00000002       0.55755229
Si       3.83958982       0.00000000      17.43000000  F        2       0.03687656      -0.00000002       0.55755227
Si       7.67917964       0.00000000      17.43000000  F        2      -0.00000000      -0.00000002       0.47189477
Si       0.00000000       3.83958982      17.43000000  F        2       0.34889918       0.00000000       0.27328036
Si       3.83958982       3.83958982      17.43000000  F        2      -0.34889921       0.00000000       0.27328034
Si       7.67917964       3.83958982      17.43000000  F        2      -0.00000000       0.00000000       0.77468297
Si       1.91979491       0.00000000      18.78750000  F        1      -0.00000000       0.00000000      -0.25318366
Si       5.75938473       0.00000000      18.78750000  F        1       0.01516295       0.00000000      -0.21712015
Si       9.59897455       0.00000000      18.78750000  F        1      -0.01516291       0.00000000      -0.21712017
Si       1.91979491       3.83958982      18.78750000  F        1      -0.00000000      -0.00000000      -0.23429148
Si       5.75938473       3.83958982      18.78750000  F        1       0.20537605      -0.00000000      -0.02058297
Si       9.59897455       3.83958982      18.78750000  F        1      -0.20537600      -0.00000000      -0.02058299
F        6.93889177       3.83958982      21.03750000  T        0      -3.96101828       0.00000000      -0.33453839
F        8.41946751       3.83958982      21.03750000  T        0       3.96101828       0.00000000      -0.33453840
38
Lattice="11.518769465528859 0.0 0.0 0.0 7.679179643685906 0.0 0.0 0.0 30.7875" Properties=species:S:1:pos:R:3:move_mask:L:1:tags:I:1:forces:R:3 surface=Si100 species=F2 site=bridge_Si_Si orientation=parallel height_A=1.9 substrate_atoms=36 calculation_kind="Rigid evaluated approach scan; not NEB" energy=-184.89203592713736 pbc="T T F"
Si       0.00000000       0.00000000      12.00000000  F        6       0.00396956       0.00000000       0.25158007
Si       3.83958982       0.00000000      12.00000000  F        6      -0.00396959       0.00000000       0.25158005
Si       7.67917964       0.00000000      12.00000000  F        6       0.00000000       0.00000000       0.24933313
Si       0.00000000       3.83958982      12.00000000  F        6       0.00254973      -0.00000000       0.24221488
Si       3.83958982       3.83958982      12.00000000  F        6      -0.00254977      -0.00000000       0.24221486
Si       7.67917964       3.83958982      12.00000000  F        6       0.00000000      -0.00000000       0.24013267
Si       1.91979491       0.00000000      13.35750000  F        5       0.00000000      -0.00000002      -0.53278461
Si       5.75938473       0.00000000      13.35750000  F        5      -0.00387247      -0.00000002      -0.54434527
Si       9.59897455       0.00000000      13.35750000  F        5       0.00387250      -0.00000002      -0.54434529
Si       1.91979491       3.83958982      13.35750000  F        5       0.00000000       0.00000000      -0.54077718
Si       5.75938473       3.83958982      13.35750000  F        5       0.02097744       0.00000000      -0.48348270
Si       9.59897455       3.83958982      13.35750000  F        5      -0.02097741       0.00000000      -0.48348272
Si       1.91979491       1.91979491      14.71500000  F        4      -0.00000000       0.00554926       0.14253063
Si       5.75938473       1.91979491      14.71500000  F        4       0.03501669      -0.00466979       0.15603514
Si       9.59897455       1.91979491      14.71500000  F        4      -0.03501665      -0.00466979       0.15603516
Si       1.91979491       5.75938473      14.71500000  F        4      -0.00000000      -0.00554924       0.14253062
Si       5.75938473       5.75938473      14.71500000  F        4       0.03501669       0.00466982       0.15603513
Si       9.59897455       5.75938473      14.71500000  F        4      -0.03501665       0.00466982       0.15603515
Si       0.00000000       1.91979491      16.07250000  F        3      -0.05925241       0.14621031      -0.03835818
Si       3.83958982       1.91979491      16.07250000  F        3       0.05925237       0.14621031      -0.03835816
Si       7.67917964       1.91979491      16.07250000  F        3       0.00000000      -0.10847020      -0.26218408
Si       0.00000000       5.75938473      16.07250000  F        3      -0.05925241      -0.14621029      -0.03835817
Si       3.83958982       5.75938473      16.07250000  F        3       0.05925237      -0.14621029      -0.03835815
Si       7.67917964       5.75938473      16.07250000  F        3       0.00000000       0.10847023      -0.26218406
Si       0.00000000       0.00000000      17.43000000  F        2      -0.03141046      -0.00000002       0.56330943
Si       3.83958982       0.00000000      17.43000000  F        2       0.03141043      -0.00000002       0.56330941
Si       7.67917964       0.00000000      17.43000000  F        2      -0.00000000      -0.00000002       0.43731890
Si       0.00000000       3.83958982      17.43000000  F        2       0.56602165       0.00000000       0.16472395
Si       3.83958982       3.83958982      17.43000000  F        2      -0.56602167       0.00000000       0.16472394
Si       7.67917964       3.83958982      17.43000000  F        2      -0.00000000       0.00000000       0.82953856
Si       1.91979491       0.00000000      18.78750000  F        1      -0.00000000       0.00000000      -0.25175482
Si       5.75938473       0.00000000      18.78750000  F        1       0.02243210       0.00000000      -0.17329153
Si       9.59897455       0.00000000      18.78750000  F        1      -0.02243206       0.00000000      -0.17329155
Si       1.91979491       3.83958982      18.78750000  F        1      -0.00000000      -0.00000000      -0.22372098
Si       5.75938473       3.83958982      18.78750000  F        1       0.11928545      -0.00000000      -0.43566060
Si       9.59897455       3.83958982      18.78750000  F        1      -0.11928542      -0.00000000      -0.43566061
F        6.93889177       3.83958982      20.68750000  T        0      -7.92614250       0.00000000       0.19560849
F        8.41946751       3.83958982      20.68750000  T        0       7.92614250       0.00000000       0.19560849
38
Lattice="11.518769465528859 0.0 0.0 0.0 7.679179643685906 0.0 0.0 0.0 30.7875" Properties=species:S:1:pos:R:3:move_mask:L:1:tags:I:1:forces:R:3 surface=Si100 species=F2 site=bridge_Si_Si orientation=parallel height_A=1.6 substrate_atoms=36 calculation_kind="Rigid evaluated approach scan; not NEB" energy=-184.89694011299088 pbc="T T F"
Si       0.00000000       0.00000000      12.00000000  F        6       0.00632243       0.00000000       0.25235649
Si       3.83958982       0.00000000      12.00000000  F        6      -0.00632247       0.00000000       0.25235647
Si       7.67917964       0.00000000      12.00000000  F        6       0.00000000       0.00000000       0.24878339
Si       0.00000000       3.83958982      12.00000000  F        6       0.00468242      -0.00000000       0.23990788
Si       3.83958982       3.83958982      12.00000000  F        6      -0.00468246      -0.00000000       0.23990786
Si       7.67917964       3.83958982      12.00000000  F        6       0.00000000      -0.00000000       0.23796832
Si       1.91979491       0.00000000      13.35750000  F        5       0.00000000      -0.00000002      -0.53077187
Si       5.75938473       0.00000000      13.35750000  F        5      -0.00426316      -0.00000002      -0.54644773
Si       9.59897455       0.00000000      13.35750000  F        5       0.00426319      -0.00000002      -0.54644774
Si       1.91979491       3.83958982      13.35750000  F        5       0.00000000       0.00000000      -0.54268075
Si       5.75938473       3.83958982      13.35750000  F        5       0.02088198       0.00000000      -0.48161639
Si       9.59897455       3.83958982      13.35750000  F        5      -0.02088194       0.00000000      -0.48161641
Si       1.91979491       1.91979491      14.71500000  F        4      -0.00000000       0.00219744       0.13571401
Si       5.75938473       1.91979491      14.71500000  F        4       0.04109926      -0.00478201       0.15073558
Si       9.59897455       1.91979491      14.71500000  F        4      -0.04109922      -0.00478201       0.15073560
Si       1.91979491       5.75938473      14.71500000  F        4      -0.00000000      -0.00219742       0.13571400
Si       5.75938473       5.75938473      14.71500000  F        4       0.04109926       0.00478204       0.15073557
Si       9.59897455       5.75938473      14.71500000  F        4      -0.04109922       0.00478204       0.15073559
Si       0.00000000       1.91979491      16.07250000  F        3      -0.05768543       0.18891754      -0.00803246
Si       3.83958982       1.91979491      16.07250000  F        3       0.05768539       0.18891753      -0.00803244
Si       7.67917964       1.91979491      16.07250000  F        3       0.00000000      -0.28029261      -0.43888909
Si       0.00000000       5.75938473      16.07250000  F        3      -0.05768543      -0.18891751      -0.00803245
Si       3.83958982       5.75938473      16.07250000  F        3       0.05768539      -0.18891751      -0.00803243
Si       7.67917964       5.75938473      16.07250000  F        3       0.00000000       0.28029264      -0.43888907
Si       0.00000000       0.00000000      17.43000000  F        2      -0.03366491      -0.00000002       0.56544722
Si       3.83958982       0.00000000      17.43000000  F        2       0.03366488      -0.00000002       0.56544720
Si       7.67917964       0.00000000      17.43000000  F        2      -0.00000000      -0.00000003       0.42606589
Si       0.00000000       3.83958982      17.43000000  F        2       0.69118113       0.00000000       0.15166607
Si       3.83958982       3.83958982      17.43000000  F        2      -0.69118115       0.00000000       0.15166606
Si       7.67917964       3.83958982      17.43000000  F        2      -0.00000000       0.00000000       1.15925760
Si       1.91979491       0.00000000      18.78750000  F        1      -0.00000000       0.00000000      -0.23288623
Si       5.75938473       0.00000000      18.78750000  F        1       0.00523695       0.00000000      -0.15907674
Si       9.59897455       0.00000000      18.78750000  F        1      -0.00523691       0.00000000      -0.15907676
Si       1.91979491       3.83958982      18.78750000  F        1      -0.00000000      -0.00000000      -0.20041541
Si       5.75938473       3.83958982      18.78750000  F        1       0.73250815      -0.00000000      -0.01399823
Si       9.59897455       3.83958982      18.78750000  F        1      -0.73250811      -0.00000000      -0.01399824
F        6.93889177       3.83958982      20.38750000  T        0     -12.59772424       0.00000000      -0.27313016
F        8.41946751       3.83958982      20.38750000  T        0      12.59772424       0.00000000      -0.27313016
38
Lattice="11.518769465528859 0.0 0.0 0.0 7.679179643685906 0.0 0.0 0.0 30.7875" Properties=species:S:1:pos:R:3:move_mask:L:1:tags:I:1:forces:R:3 surface=Si100 species=F2 site=bridge_Si_Si orientation=parallel height_A=1.3 substrate_atoms=36 calculation_kind="Rigid evaluated approach scan; not NEB" energy=-185.02493319024464 pbc="T T F"
Si       0.00000000       0.00000000      12.00000000  F        6       0.00795588       0.00000000       0.25549461
Si       3.83958982       0.00000000      12.00000000  F        6      -0.00795592       0.00000000       0.25549459
Si       7.67917964       0.00000000      12.00000000  F        6       0.00000000       0.00000000       0.23725638
Si       0.00000000       3.83958982      12.00000000  F        6       0.00955485      -0.00000000       0.23644462
Si       3.83958982       3.83958982      12.00000000  F        6      -0.00955488      -0.00000000       0.23644460
Si       7.67917964       3.83958982      12.00000000  F        6       0.00000000      -0.00000000       0.22960926
Si       1.91979491       0.00000000      13.35750000  F        5       0.00000000      -0.00000002      -0.52697680
Si       5.75938473       0.00000000      13.35750000  F        5      -0.00395044      -0.00000002      -0.54190448
Si       9.59897455       0.00000000      13.35750000  F        5       0.00395048      -0.00000002      -0.54190450
Si       1.91979491       3.83958982      13.35750000  F        5       0.00000000       0.00000000      -0.51783722
Si       5.75938473       3.83958982      13.35750000  F        5       0.00033450       0.00000000      -0.50032915
Si       9.59897455       3.83958982      13.35750000  F        5      -0.00033447       0.00000000      -0.50032917
Si       1.91979491       1.91979491      14.71500000  F        4      -0.00000000       0.00164609       0.12658141
Si       5.75938473       1.91979491      14.71500000  F        4       0.05493985       0.00492656       0.18593694
Si       9.59897455       1.91979491      14.71500000  F        4      -0.05493981       0.00492656       0.18593696
Si       1.91979491       5.75938473      14.71500000  F        4      -0.00000000      -0.00164606       0.12658140
Si       5.75938473       5.75938473      14.71500000  F        4       0.05493985      -0.00492654       0.18593692
Si       9.59897455       5.75938473      14.71500000  F        4      -0.05493981      -0.00492654       0.18593694
Si       0.00000000       1.91979491      16.07250000  F        3      -0.05234579       0.18634337      -0.01293732
Si       3.83958982       1.91979491      16.07250000  F        3       0.05234575       0.18634337      -0.01293730
Si       7.67917964       1.91979491      16.07250000  F        3       0.00000000      -0.27654576      -0.59139162
Si       0.00000000       5.75938473      16.07250000  F        3      -0.05234579      -0.18634334      -0.01293731
Si       3.83958982       5.75938473      16.07250000  F        3       0.05234575      -0.18634334      -0.01293729
Si       7.67917964       5.75938473      16.07250000  F        3       0.00000000       0.27654578      -0.59139160
Si       0.00000000       0.00000000      17.43000000  F        2      -0.01049164      -0.00000002       0.53567000
Si       3.83958982       0.00000000      17.43000000  F        2       0.01049160      -0.00000002       0.53566998
Si       7.67917964       0.00000000      17.43000000  F        2      -0.00000000      -0.00000003       0.17383200
Si       0.00000000       3.83958982      17.43000000  F        2       0.69464318       0.00000000       0.12647467
Si       3.83958982       3.83958982      17.43000000  F        2      -0.69464321       0.00000000       0.12647466
Si       7.67917964       3.83958982      17.43000000  F        2      -0.00000000       0.00000000       0.19596780
Si       1.91979491       0.00000000      18.78750000  F        1      -0.00000000       0.00000000      -0.20306326
Si       5.75938473       0.00000000      18.78750000  F        1      -0.02294891       0.00000000      -0.08980119
Si       9.59897455       0.00000000      18.78750000  F        1       0.02294895       0.00000000      -0.08980120
Si       1.91979491       3.83958982      18.78750000  F        1      -0.00000001      -0.00000000      -0.14557474
Si       5.75938473       3.83958982      18.78750000  F        1       1.24386415      -0.00000000       0.06957977
Si       9.59897455       3.83958982      18.78750000  F        1      -1.24386411      -0.00000000       0.06957976
F        6.93889177       3.83958982      20.08750000  T        0     -15.52833709       0.00000000       0.30557546
F        8.41946751       3.83958982      20.08750000  T        0      15.52833709       0.00000000       0.30557546
