30
Lattice="7.6044 0.0 0.0 -3.802199999999998 6.585603580538386 0.0 0.0 -0.0 28.35945" Properties=species:S:1:pos:R:3:move_mask:L:1:spacegroup_kinds:I:1:tags:I:1:forces:R:3 spacegroup="P 63/m" unit_cell=conventional occupancy="_JSON {\"0\": {\"Si\": 1.0}, \"1\": {\"N\": 1.0}, \"2\": {\"N\": 1.0}}" surface=beta_Si3N4_001 species=H2 height_A=6.5 substrate_atoms=28 calculation_kind="Rigid approach energy evaluation; not NEB or TS" energy=-216.97446356040655 pbc="T T F"
Si       5.18010587       1.14956320      12.00000000  F        0        2       1.71433257       1.23128057       1.44813123
Si      -1.37790587       5.43604038      13.45315000  F        0        2      -0.07773089       0.46666682      -1.50583478
Si       4.01879613       3.91132168      12.00000000  F        0        2      -1.92360808       0.86894036       1.44804711
Si      -0.21659613       2.67428190      13.45315000  F        0        2      -0.36507877      -0.30057371      -1.50589254
Si       2.20769800       1.52471870      12.00000000  F        0        2       0.20862335      -2.10064850       1.44820179
Si       1.59450200       5.06088488      13.45315000  F        0        2       0.44364014      -0.16560437      -1.50586542
N       -1.02370433       2.17482973      12.00000000  F        1        2      -0.59853549      -0.65572339       0.11065544
N        4.82590433       4.41077385      13.45315000  F        1        2       0.47556813      -0.04438601      -0.36872699
N        2.43059437       4.61163476      12.00000000  F        1        2       0.86723752      -0.19036310       0.11060084
N        1.37160563       1.97396882      13.45315000  F        1        2      -0.19953945       0.43394852      -0.36878823
N       -1.40689004       6.38474267      12.00000000  F        1        2      -0.26879770       0.84608230       0.11061521
N        5.20909004       0.20086091      13.45315000  F        1        2      -0.27604702      -0.38955900      -0.36876148
N        3.80216198       2.19517924      12.00000000  F        2        2       0.00086470       0.00049411      -1.73788822
N        0.00003802       4.39042434      13.45315000  F        2        2      -0.00108137      -0.00062939       0.57463032
Si       5.18010587       1.14956320      14.90630000  F        0        1       0.07773089      -0.46666682       1.50583478
Si      -1.37790587       5.43604038      16.35945000  F        0        1      -1.71433257      -1.23128057      -1.44813123
Si       4.01879613       3.91132168      14.90630000  F        0        1       0.36507877       0.30057371       1.50589254
Si      -0.21659613       2.67428190      16.35945000  F        0        1       1.92360808      -0.86894036      -1.44804711
Si       2.20769800       1.52471870      14.90630000  F        0        1      -0.44364014       0.16560437       1.50586542
Si       1.59450200       5.06088488      16.35945000  F        0        1      -0.20862335       2.10064850      -1.44820179
N       -1.02370433       2.17482973      14.90630000  F        1        1      -0.47556813       0.04438601       0.36872699
N        4.82590433       4.41077385      16.35945000  F        1        1       0.59853549       0.65572339      -0.11065544
N        2.43059437       4.61163476      14.90630000  F        1        1       0.19953945      -0.43394852       0.36878823
N        1.37160563       1.97396882      16.35945000  F        1        1      -0.86723752       0.19036310      -0.11060084
N       -1.40689004       6.38474267      14.90630000  F        1        1       0.27604702       0.38955900       0.36876148
N        5.20909004       0.20086091      16.35945000  F        1        1       0.26879770      -0.84608230      -0.11061521
N        3.80216198       2.19517924      14.90630000  F        2        1       0.00108137       0.00062939      -0.57463032
N        0.00003802       4.39042434      16.35945000  F        2        1      -0.00086470      -0.00049411       1.73788822
H        2.20769800       1.52471870      22.85945000  F        0        0       0.00000000       0.00000000      -0.00400533
H        2.20769800       1.52471870      23.61025562  F        0        0       0.00000000       0.00000000       0.00400533
30
Lattice="7.6044 0.0 0.0 -3.802199999999998 6.585603580538386 0.0 0.0 -0.0 28.35945" Properties=species:S:1:pos:R:3:move_mask:L:1:spacegroup_kinds:I:1:tags:I:1:forces:R:3 spacegroup="P 63/m" unit_cell=conventional occupancy="_JSON {\"0\": {\"Si\": 1.0}, \"1\": {\"N\": 1.0}, \"2\": {\"N\": 1.0}}" surface=beta_Si3N4_001 species=H2 height_A=5.0 substrate_atoms=28 calculation_kind="Rigid approach energy evaluation; not NEB or TS" energy=-216.97446356040655 pbc="T T F"
Si       5.18010587       1.14956320      12.00000000  F        0        2       1.71433257       1.23128057       1.44813123
Si      -1.37790587       5.43604038      13.45315000  F        0        2      -0.07773089       0.46666682      -1.50583478
Si       4.01879613       3.91132168      12.00000000  F        0        2      -1.92360808       0.86894036       1.44804711
Si      -0.21659613       2.67428190      13.45315000  F        0        2      -0.36507877      -0.30057371      -1.50589254
Si       2.20769800       1.52471870      12.00000000  F        0        2       0.20862335      -2.10064850       1.44820179
Si       1.59450200       5.06088488      13.45315000  F        0        2       0.44364014      -0.16560437      -1.50586542
N       -1.02370433       2.17482973      12.00000000  F        1        2      -0.59853549      -0.65572339       0.11065544
N        4.82590433       4.41077385      13.45315000  F        1        2       0.47556813      -0.04438601      -0.36872699
N        2.43059437       4.61163476      12.00000000  F        1        2       0.86723752      -0.19036310       0.11060084
N        1.37160563       1.97396882      13.45315000  F        1        2      -0.19953945       0.43394852      -0.36878823
N       -1.40689004       6.38474267      12.00000000  F        1        2      -0.26879770       0.84608230       0.11061521
N        5.20909004       0.20086091      13.45315000  F        1        2      -0.27604702      -0.38955900      -0.36876148
N        3.80216198       2.19517924      12.00000000  F        2        2       0.00086470       0.00049411      -1.73788822
N        0.00003802       4.39042434      13.45315000  F        2        2      -0.00108137      -0.00062939       0.57463032
Si       5.18010587       1.14956320      14.90630000  F        0        1       0.07773089      -0.46666682       1.50583478
Si      -1.37790587       5.43604038      16.35945000  F        0        1      -1.71433257      -1.23128057      -1.44813123
Si       4.01879613       3.91132168      14.90630000  F        0        1       0.36507877       0.30057371       1.50589254
Si      -0.21659613       2.67428190      16.35945000  F        0        1       1.92360808      -0.86894036      -1.44804711
Si       2.20769800       1.52471870      14.90630000  F        0        1      -0.44364014       0.16560437       1.50586542
Si       1.59450200       5.06088488      16.35945000  F        0        1      -0.20862335       2.10064850      -1.44820179
N       -1.02370433       2.17482973      14.90630000  F        1        1      -0.47556813       0.04438601       0.36872699
N        4.82590433       4.41077385      16.35945000  F        1        1       0.59853549       0.65572339      -0.11065544
N        2.43059437       4.61163476      14.90630000  F        1        1       0.19953945      -0.43394852       0.36878823
N        1.37160563       1.97396882      16.35945000  F        1        1      -0.86723752       0.19036310      -0.11060084
N       -1.40689004       6.38474267      14.90630000  F        1        1       0.27604702       0.38955900       0.36876148
N        5.20909004       0.20086091      16.35945000  F        1        1       0.26879770      -0.84608230      -0.11061521
N        3.80216198       2.19517924      14.90630000  F        2        1       0.00108137       0.00062939      -0.57463032
N        0.00003802       4.39042434      16.35945000  F        2        1      -0.00086470      -0.00049411       1.73788822
H        2.20769800       1.52471870      21.35945000  F        0        0       0.00000000       0.00000000      -0.00400533
H        2.20769800       1.52471870      22.11025562  F        0        0       0.00000000       0.00000000       0.00400533
30
Lattice="7.6044 0.0 0.0 -3.802199999999998 6.585603580538386 0.0 0.0 -0.0 28.35945" Properties=species:S:1:pos:R:3:move_mask:L:1:spacegroup_kinds:I:1:tags:I:1:forces:R:3 spacegroup="P 63/m" unit_cell=conventional occupancy="_JSON {\"0\": {\"Si\": 1.0}, \"1\": {\"N\": 1.0}, \"2\": {\"N\": 1.0}}" surface=beta_Si3N4_001 species=H2 height_A=4.0 substrate_atoms=28 calculation_kind="Rigid approach energy evaluation; not NEB or TS" energy=-216.97338223848175 pbc="T T F"
Si       5.18010587       1.14956320      12.00000000  F        0        2       1.71426730       1.23182247       1.44845467
Si      -1.37790587       5.43604038      13.45315000  F        0        2      -0.07643296       0.46550045      -1.50857525
Si       4.01879613       3.91132168      12.00000000  F        0        2      -1.92364689       0.86864959       1.44798764
Si      -0.21659613       2.67428190      13.45315000  F        0        2      -0.36062608      -0.29986036      -1.50182146
Si       2.20769800       1.52471870      12.00000000  F        0        2       0.20968914      -2.10062304       1.44814528
Si       1.59450200       5.06088488      13.45315000  F        0        2       0.44285413      -0.16513519      -1.50615067
N       -1.02370433       2.17482973      12.00000000  F        1        2      -0.59721221      -0.65500281       0.11212198
N        4.82590433       4.41077385      13.45315000  F        1        2       0.47508266      -0.04451238      -0.36740018
N        2.43059437       4.61163476      12.00000000  F        1        2       0.86663542      -0.18953094       0.11035444
N        1.37160563       1.97396882      13.45315000  F        1        2      -0.19714959       0.43248067      -0.36103823
N       -1.40689004       6.38474267      12.00000000  F        1        2      -0.26876513       0.84571066       0.11073332
N        5.20909004       0.20086091      13.45315000  F        1        2      -0.27563474      -0.38956008      -0.36768593
N        3.80216198       2.19517924      12.00000000  F        2        2      -0.00006493      -0.00019031      -1.73863898
N        0.00003802       4.39042434      13.45315000  F        2        2      -0.00162917      -0.00175511       0.57482621
Si       5.18010587       1.14956320      14.90630000  F        0        1       0.07623128      -0.46679342       1.50211344
Si      -1.37790587       5.43604038      16.35945000  F        0        1      -1.71353519      -1.22723129      -1.43477621
Si       4.01879613       3.91132168      14.90630000  F        0        1       0.36561006       0.30277779       1.50075043
Si      -0.21659613       2.67428190      16.35945000  F        0        1       1.90714934      -0.85969284      -1.45784353
Si       2.20769800       1.52471870      14.90630000  F        0        1      -0.43808740       0.16601468       1.48445402
Si       1.59450200       5.06088488      16.35945000  F        0        1      -0.20488368       2.10678250      -1.44660845
N       -1.02370433       2.17482973      14.90630000  F        1        1      -0.47007470       0.04275408       0.37865354
N        4.82590433       4.41077385      16.35945000  F        1        1       0.60073241       0.65806868      -0.11051862
N        2.43059437       4.61163476      14.90630000  F        1        1       0.19744908      -0.43608318       0.37226661
N        1.37160563       1.97396882      16.35945000  F        1        1      -0.86337478       0.18216627      -0.10339978
N       -1.40689004       6.38474267      14.90630000  F        1        1       0.27175322       0.39377181       0.37588240
N        5.20909004       0.20086091      16.35945000  F        1        1       0.26859991      -0.84446334      -0.11058952
N        3.80216198       2.19517924      14.90630000  F        2        1      -0.00500563      -0.00136195      -0.56950204
N        0.00003802       4.39042434      16.35945000  F        2        1       0.00055508      -0.00809445       1.73729281
H        2.20769800       1.52471870      20.35945000  F        0        0       0.00879934      -0.01207169      -0.02345612
H        2.20769800       1.52471870      21.11025562  F        0        0      -0.00928531       0.00546273       0.00396817
30
Lattice="7.6044 0.0 0.0 -3.802199999999998 6.585603580538386 0.0 0.0 -0.0 28.35945" Properties=species:S:1:pos:R:3:move_mask:L:1:spacegroup_kinds:I:1:tags:I:1:forces:R:3 spacegroup="P 63/m" unit_cell=conventional occupancy="_JSON {\"0\": {\"Si\": 1.0}, \"1\": {\"N\": 1.0}, \"2\": {\"N\": 1.0}}" surface=beta_Si3N4_001 species=H2 height_A=3.25 substrate_atoms=28 calculation_kind="Rigid approach energy evaluation; not NEB or TS" energy=-216.98636148243958 pbc="T T F"
Si       5.18010587       1.14956320      12.00000000  F        0        2       1.71261645       1.23169296       1.44722739
Si      -1.37790587       5.43604038      13.45315000  F        0        2      -0.07389128       0.46662457      -1.52719058
Si       4.01879613       3.91132168      12.00000000  F        0        2      -1.92484922       0.86777831       1.44439381
Si      -0.21659613       2.67428190      13.45315000  F        0        2      -0.34306926      -0.30014743      -1.51148381
Si       2.20769800       1.52471870      12.00000000  F        0        2       0.21038649      -2.09863750       1.44551753
Si       1.59450200       5.06088488      13.45315000  F        0        2       0.44256285      -0.16553934      -1.50705827
N       -1.02370433       2.17482973      12.00000000  F        1        2      -0.59791358      -0.65375106       0.11770915
N        4.82590433       4.41077385      13.45315000  F        1        2       0.48297340      -0.05230189      -0.35622903
N        2.43059437       4.61163476      12.00000000  F        1        2       0.86570940      -0.18850367       0.11152892
N        1.37160563       1.97396882      13.45315000  F        1        2      -0.19246476       0.42887649      -0.35755368
N       -1.40689004       6.38474267      12.00000000  F        1        2      -0.26773348       0.84330658       0.11103113
N        5.20909004       0.20086091      13.45315000  F        1        2      -0.27109613      -0.38433801      -0.36391184
N        3.80216198       2.19517924      12.00000000  F        2        2       0.00043451      -0.00085741      -1.73852415
N        0.00003802       4.39042434      13.45315000  F        2        2      -0.01310110      -0.00460793       0.57539119
Si       5.18010587       1.14956320      14.90630000  F        0        1       0.06695937      -0.47530523       1.49478395
Si      -1.37790587       5.43604038      16.35945000  F        0        1      -1.72769996      -1.25241783      -1.42061652
Si       4.01879613       3.91132168      14.90630000  F        0        1       0.35802755       0.30567648       1.47999895
Si      -0.21659613       2.67428190      16.35945000  F        0        1       1.85033263      -0.83541358      -1.48535785
Si       2.20769800       1.52471870      14.90630000  F        0        1      -0.42860015       0.17294278       1.39932160
Si       1.59450200       5.06088488      16.35945000  F        0        1      -0.18963588       2.12203349      -1.44567677
N       -1.02370433       2.17482973      14.90630000  F        1        1      -0.46738236       0.05404097       0.39720334
N        4.82590433       4.41077385      16.35945000  F        1        1       0.63683263       0.66231542      -0.10241485
N        2.43059437       4.61163476      14.90630000  F        1        1       0.19515855      -0.43427180       0.38647894
N        1.37160563       1.97396882      16.35945000  F        1        1      -0.85878865       0.16736589      -0.10452150
N       -1.40689004       6.38474267      14.90630000  F        1        1       0.26810840       0.39317562       0.38970437
N        5.20909004       0.20086091      16.35945000  F        1        1       0.26674332      -0.84425571      -0.10823956
N        3.80216198       2.19517924      14.90630000  F        2        1      -0.00786256      -0.00420739      -0.55806179
N        0.00003802       4.39042434      16.35945000  F        2        1      -0.00889475      -0.01633748       1.72181065
H        2.20769800       1.52471870      19.60945000  F        0        0       0.01208052       0.02033926      -0.03301247
H        2.20769800       1.52471870      20.36025562  F        0        0       0.00405702      -0.02527555       0.09775174
30
Lattice="7.6044 0.0 0.0 -3.802199999999998 6.585603580538386 0.0 0.0 -0.0 28.35945" Properties=species:S:1:pos:R:3:move_mask:L:1:spacegroup_kinds:I:1:tags:I:1:forces:R:3 spacegroup="P 63/m" unit_cell=conventional occupancy="_JSON {\"0\": {\"Si\": 1.0}, \"1\": {\"N\": 1.0}, \"2\": {\"N\": 1.0}}" surface=beta_Si3N4_001 species=H2 height_A=2.75 substrate_atoms=28 calculation_kind="Rigid approach energy evaluation; not NEB or TS" energy=-216.92683072262855 pbc="T T F"
Si       5.18010587       1.14956320      12.00000000  F        0        2       1.71326162       1.23127902       1.44358025
Si      -1.37790587       5.43604038      13.45315000  F        0        2      -0.07132720       0.45633448      -1.55415797
Si       4.01879613       3.91132168      12.00000000  F        0        2      -1.92467896       0.86915344       1.43916809
Si      -0.21659613       2.67428190      13.45315000  F        0        2      -0.34273185      -0.29832638      -1.52563280
Si       2.20769800       1.52471870      12.00000000  F        0        2       0.20912975      -2.09789142       1.43225392
Si       1.59450200       5.06088488      13.45315000  F        0        2       0.44332686      -0.16759197      -1.52147031
N       -1.02370433       2.17482973      12.00000000  F        1        2      -0.60049596      -0.65472248       0.11785439
N        4.82590433       4.41077385      13.45315000  F        1        2       0.48674786      -0.05903505      -0.34383772
N        2.43059437       4.61163476      12.00000000  F        1        2       0.86428140      -0.18761733       0.11258590
N        1.37160563       1.97396882      13.45315000  F        1        2      -0.18099443       0.42226872      -0.36339022
N       -1.40689004       6.38474267      12.00000000  F        1        2      -0.26680993       0.84277863       0.11794885
N        5.20909004       0.20086091      13.45315000  F        1        2      -0.26990194      -0.37706658      -0.35160161
N        3.80216198       2.19517924      12.00000000  F        2        2      -0.00143831      -0.00174869      -1.73214616
N        0.00003802       4.39042434      13.45315000  F        2        2      -0.01915220       0.00028083       0.58139282
Si       5.18010587       1.14956320      14.90630000  F        0        1       0.08048180      -0.47983717       1.48363128
Si      -1.37790587       5.43604038      16.35945000  F        0        1      -1.75801552      -1.28888314      -1.42277610
Si       4.01879613       3.91132168      14.90630000  F        0        1       0.36239759       0.31735223       1.45945466
Si      -0.21659613       2.67428190      16.35945000  F        0        1       1.76378791      -0.82124066      -1.46855370
Si       2.20769800       1.52471870      14.90630000  F        0        1      -0.41018058       0.17776550       1.39302792
Si       1.59450200       5.06088488      16.35945000  F        0        1      -0.16975309       2.14191023      -1.44379991
N       -1.02370433       2.17482973      14.90630000  F        1        1      -0.47441326       0.05602116       0.39664859
N        4.82590433       4.41077385      16.35945000  F        1        1       0.65671696       0.66116457      -0.09100760
N        2.43059437       4.61163476      14.90630000  F        1        1       0.18907416      -0.42621075       0.40676345
N        1.37160563       1.97396882      16.35945000  F        1        1      -0.83674707       0.16055250      -0.13784898
N       -1.40689004       6.38474267      14.90630000  F        1        1       0.27673891       0.38104442       0.38195003
N        5.20909004       0.20086091      16.35945000  F        1        1       0.25498466      -0.85329109      -0.10747405
N        3.80216198       2.19517924      14.90630000  F        2        1      -0.00392442      -0.01003004      -0.55462283
N        0.00003802       4.39042434      16.35945000  F        2        1      -0.01683138       0.01130973       1.70498816
H        2.20769800       1.52471870      19.10945000  F        0        0       0.00198473       0.04144394       0.01537243
H        2.20769800       1.52471870      19.86025562  F        0        0       0.04448187      -0.04716666       0.13169924
30
Lattice="7.6044 0.0 0.0 -3.802199999999998 6.585603580538386 0.0 0.0 -0.0 28.35945" Properties=species:S:1:pos:R:3:move_mask:L:1:spacegroup_kinds:I:1:tags:I:1:forces:R:3 spacegroup="P 63/m" unit_cell=conventional occupancy="_JSON {\"0\": {\"Si\": 1.0}, \"1\": {\"N\": 1.0}, \"2\": {\"N\": 1.0}}" surface=beta_Si3N4_001 species=H2 height_A=2.25 substrate_atoms=28 calculation_kind="Rigid approach energy evaluation; not NEB or TS" energy=-216.80898068339695 pbc="T T F"
Si       5.18010587       1.14956320      12.00000000  F        0        2       1.71653539       1.23261241       1.43873084
Si      -1.37790587       5.43604038      13.45315000  F        0        2      -0.06699623       0.43557147      -1.59169700
Si       4.01879613       3.91132168      12.00000000  F        0        2      -1.92487998       0.87198995       1.43324449
Si      -0.21659613       2.67428190      13.45315000  F        0        2      -0.36073405      -0.28530686      -1.54107246
Si       2.20769800       1.52471870      12.00000000  F        0        2       0.21121854      -2.10094439       1.40550827
Si       1.59450200       5.06088488      13.45315000  F        0        2       0.44002943      -0.16578206      -1.54756898
N       -1.02370433       2.17482973      12.00000000  F        1        2      -0.60502797      -0.65871995       0.11794666
N        4.82590433       4.41077385      13.45315000  F        1        2       0.48256088      -0.05934931      -0.32680769
N        2.43059437       4.61163476      12.00000000  F        1        2       0.86270364      -0.18654172       0.11598757
N        1.37160563       1.97396882      13.45315000  F        1        2      -0.16478643       0.41402672      -0.37040419
N       -1.40689004       6.38474267      12.00000000  F        1        2      -0.26769123       0.84385937       0.13547108
N        5.20909004       0.20086091      13.45315000  F        1        2      -0.27031345      -0.36934586      -0.33423533
N        3.80216198       2.19517924      12.00000000  F        2        2      -0.00417670      -0.00105740      -1.72042438
N        0.00003802       4.39042434      13.45315000  F        2        2      -0.01581330       0.00967665       0.58926558
Si       5.18010587       1.14956320      14.90630000  F        0        1       0.10977319      -0.48750298       1.45953286
Si      -1.37790587       5.43604038      16.35945000  F        0        1      -1.78532929      -1.29104085      -1.40471769
Si       4.01879613       3.91132168      14.90630000  F        0        1       0.38651878       0.34006324       1.42367211
Si      -0.21659613       2.67428190      16.35945000  F        0        1       1.74531242      -0.86605144      -1.33607540
Si       2.20769800       1.52471870      14.90630000  F        0        1      -0.39810009       0.18662693       1.30997186
Si       1.59450200       5.06088488      16.35945000  F        0        1      -0.14781706       2.17103588      -1.44484945
N       -1.02370433       2.17482973      14.90630000  F        1        1      -0.48800891       0.03652182       0.37685160
N        4.82590433       4.41077385      16.35945000  F        1        1       0.65647317       0.66021270      -0.08633533
N        2.43059437       4.61163476      14.90630000  F        1        1       0.18111025      -0.42101997       0.42195592
N        1.37160563       1.97396882      16.35945000  F        1        1      -0.87085199       0.21079532      -0.43646742
N       -1.40689004       6.38474267      14.90630000  F        1        1       0.27520565       0.39808013       0.45678351
N        5.20909004       0.20086091      16.35945000  F        1        1       0.22399408      -0.85319068      -0.09421128
N        3.80216198       2.19517924      14.90630000  F        2        1      -0.01446574      -0.01223587      -0.51226531
N        0.00003802       4.39042434      16.35945000  F        2        1       0.00086751       0.03767051       1.69400526
H        2.20769800       1.52471870      18.60945000  F        0        0      -0.00819890      -0.01924100       0.14862442
H        2.20769800       1.52471870      19.36025562  F        0        0       0.10088839      -0.07141275       0.21957989
30
Lattice="7.6044 0.0 0.0 -3.802199999999998 6.585603580538386 0.0 0.0 -0.0 28.35945" Properties=species:S:1:pos:R:3:move_mask:L:1:spacegroup_kinds:I:1:tags:I:1:forces:R:3 spacegroup="P 63/m" unit_cell=conventional occupancy="_JSON {\"0\": {\"Si\": 1.0}, \"1\": {\"N\": 1.0}, \"2\": {\"N\": 1.0}}" surface=beta_Si3N4_001 species=H2 height_A=1.9 substrate_atoms=28 calculation_kind="Rigid approach energy evaluation; not NEB or TS" energy=-216.65666642804416 pbc="T T F"
Si       5.18010587       1.14956320      12.00000000  F        0        2       1.72020100       1.23410642       1.43567797
Si      -1.37790587       5.43604038      13.45315000  F        0        2      -0.06288469       0.42903289      -1.60921213
Si       4.01879613       3.91132168      12.00000000  F        0        2      -1.92616172       0.87522845       1.43339094
Si      -0.21659613       2.67428190      13.45315000  F        0        2      -0.38679705      -0.27341815      -1.56415392
Si       2.20769800       1.52471870      12.00000000  F        0        2       0.21630221      -2.10760680       1.38615044
Si       1.59450200       5.06088488      13.45315000  F        0        2       0.44294260      -0.16188249      -1.56430341
N       -1.02370433       2.17482973      12.00000000  F        1        2      -0.60559589      -0.66323779       0.12404037
N        4.82590433       4.41077385      13.45315000  F        1        2       0.48221096      -0.05601728      -0.32210822
N        2.43059437       4.61163476      12.00000000  F        1        2       0.86141321      -0.18561089       0.11783504
N        1.37160563       1.97396882      13.45315000  F        1        2      -0.16926360       0.42341930      -0.35707776
N       -1.40689004       6.38474267      12.00000000  F        1        2      -0.27049061       0.84286856       0.14819603
N        5.20909004       0.20086091      13.45315000  F        1        2      -0.26970004      -0.36412227      -0.32035443
N        3.80216198       2.19517924      12.00000000  F        2        2      -0.00468482       0.00103991      -1.70953529
N        0.00003802       4.39042434      13.45315000  F        2        2      -0.01038450       0.00933350       0.59923117
Si       5.18010587       1.14956320      14.90630000  F        0        1       0.13003899      -0.49289133       1.45233687
Si      -1.37790587       5.43604038      16.35945000  F        0        1      -1.80450145      -1.27410005      -1.39359612
Si       4.01879613       3.91132168      14.90630000  F        0        1       0.41339411       0.36799099       1.42366411
Si      -0.21659613       2.67428190      16.35945000  F        0        1       1.79454150      -0.94924766      -1.21026574
Si       2.20769800       1.52471870      14.90630000  F        0        1      -0.43054948       0.17502261       1.53026895
Si       1.59450200       5.06088488      16.35945000  F        0        1      -0.14958990       2.16878191      -1.44434028
N       -1.02370433       2.17482973      14.90630000  F        1        1      -0.50456420       0.00984247       0.31518291
N        4.82590433       4.41077385      16.35945000  F        1        1       0.64048641       0.64438259      -0.09923585
N        2.43059437       4.61163476      14.90630000  F        1        1       0.17759819      -0.41247480       0.41066960
N        1.37160563       1.97396882      16.35945000  F        1        1      -1.02543943       0.35332734      -0.90556766
N       -1.40689004       6.38474267      14.90630000  F        1        1       0.27839701       0.39671921       0.48802706
N        5.20909004       0.20086091      16.35945000  F        1        1       0.20712330      -0.83772555      -0.08784821
N        3.80216198       2.19517924      14.90630000  F        2        1      -0.01144827      -0.01084030      -0.47483253
N        0.00003802       4.39042434      16.35945000  F        2        1       0.01089686       0.09450332       1.70135250
H        2.20769800       1.52471870      18.25945000  F        0        0       0.10261385      -0.14877642      -0.06373006
H        2.20769800       1.52471870      19.01025562  F        0        0       0.15389544      -0.08764772       0.56013764
30
Lattice="7.6044 0.0 0.0 -3.802199999999998 6.585603580538386 0.0 0.0 -0.0 28.35945" Properties=species:S:1:pos:R:3:move_mask:L:1:spacegroup_kinds:I:1:tags:I:1:forces:R:3 spacegroup="P 63/m" unit_cell=conventional occupancy="_JSON {\"0\": {\"Si\": 1.0}, \"1\": {\"N\": 1.0}, \"2\": {\"N\": 1.0}}" surface=beta_Si3N4_001 species=H2 height_A=1.6 substrate_atoms=28 calculation_kind="Rigid approach energy evaluation; not NEB or TS" energy=-216.50974537465083 pbc="T T F"
Si       5.18010587       1.14956320      12.00000000  F        0        2       1.72479184       1.23340725       1.42798569
Si      -1.37790587       5.43604038      13.45315000  F        0        2      -0.05760377       0.43934125      -1.61379214
Si       4.01879613       3.91132168      12.00000000  F        0        2      -1.92766939       0.88289313       1.42625654
Si      -0.21659613       2.67428190      13.45315000  F        0        2      -0.41040821      -0.27594973      -1.54881685
Si       2.20769800       1.52471870      12.00000000  F        0        2       0.21353713      -2.11324497       1.37475953
Si       1.59450200       5.06088488      13.45315000  F        0        2       0.45079650      -0.15978311      -1.56915784
N       -1.02370433       2.17482973      12.00000000  F        1        2      -0.60380236      -0.66714076       0.13250313
N        4.82590433       4.41077385      13.45315000  F        1        2       0.47965609      -0.05142466      -0.32026810
N        2.43059437       4.61163476      12.00000000  F        1        2       0.86183880      -0.18947606       0.11861745
N        1.37160563       1.97396882      13.45315000  F        1        2      -0.19103740       0.43950962      -0.36029432
N       -1.40689004       6.38474267      12.00000000  F        1        2      -0.27180620       0.83938037       0.15192745
N        5.20909004       0.20086091      13.45315000  F        1        2      -0.26935152      -0.36074718      -0.31188207
N        3.80216198       2.19517924      12.00000000  F        2        2       0.00091797       0.00495189      -1.70493831
N        0.00003802       4.39042434      13.45315000  F        2        2      -0.00140368       0.00318781       0.61101143
Si       5.18010587       1.14956320      14.90630000  F        0        1       0.16064229      -0.48966503       1.45446162
Si      -1.37790587       5.43604038      16.35945000  F        0        1      -1.79288447      -1.32834059      -1.46294873
Si       4.01879613       3.91132168      14.90630000  F        0        1       0.43913676       0.39891849       1.43287027
Si      -0.21659613       2.67428190      16.35945000  F        0        1       1.88229805      -0.99153135      -1.30887492
Si       2.20769800       1.52471870      14.90630000  F        0        1      -0.53531089       0.18265571       1.74979260
Si       1.59450200       5.06088488      16.35945000  F        0        1      -0.17984506       2.13243390      -1.43930440
N       -1.02370433       2.17482973      14.90630000  F        1        1      -0.51524920      -0.02849521       0.27262539
N        4.82590433       4.41077385      16.35945000  F        1        1       0.61546925       0.63170185      -0.10866808
N        2.43059437       4.61163476      14.90630000  F        1        1       0.17270243      -0.42959381       0.41645432
N        1.37160563       1.97396882      16.35945000  F        1        1      -0.98739349       0.36890930      -0.78426766
N       -1.40689004       6.38474267      14.90630000  F        1        1       0.28791337       0.34497153       0.39710024
N        5.20909004       0.20086091      16.35945000  F        1        1       0.20450646      -0.82630740      -0.08097548
N        3.80216198       2.19517924      14.90630000  F        2        1       0.05221508       0.00733552      -0.55924599
N        0.00003802       4.39042434      16.35945000  F        2        1      -0.00644762       0.18767177       1.74493461
H        2.20769800       1.52471870      17.95945000  F        0        0       0.04946534      -0.15955203      -1.30332163
H        2.20769800       1.52471870      18.71025562  F        0        0       0.15432591      -0.02601749       1.76545628
30
Lattice="7.6044 0.0 0.0 -3.802199999999998 6.585603580538386 0.0 0.0 -0.0 28.35945" Properties=species:S:1:pos:R:3:move_mask:L:1:spacegroup_kinds:I:1:tags:I:1:forces:R:3 spacegroup="P 63/m" unit_cell=conventional occupancy="_JSON {\"0\": {\"Si\": 1.0}, \"1\": {\"N\": 1.0}, \"2\": {\"N\": 1.0}}" surface=beta_Si3N4_001 species=H2 height_A=1.3 substrate_atoms=28 calculation_kind="Rigid approach energy evaluation; not NEB or TS" energy=-216.31712535469165 pbc="T T F"
Si       5.18010587       1.14956320      12.00000000  F        0        2       1.72792166       1.22980789       1.41144474
Si      -1.37790587       5.43604038      13.45315000  F        0        2      -0.05176828       0.44982411      -1.62009787
Si       4.01879613       3.91132168      12.00000000  F        0        2      -1.93062992       0.89220187       1.40870700
Si      -0.21659613       2.67428190      13.45315000  F        0        2      -0.44110512      -0.26895716      -1.55321960
Si       2.20769800       1.52471870      12.00000000  F        0        2       0.21188214      -2.11780038       1.36158967
Si       1.59450200       5.06088488      13.45315000  F        0        2       0.45564616      -0.17536125      -1.56565883
N       -1.02370433       2.17482973      12.00000000  F        1        2      -0.59764662      -0.66842152       0.14955063
N        4.82590433       4.41077385      13.45315000  F        1        2       0.47453929      -0.04585691      -0.31693381
N        2.43059437       4.61163476      12.00000000  F        1        2       0.86227129      -0.19809013       0.12440124
N        1.37160563       1.97396882      13.45315000  F        1        2      -0.19047002       0.43409537      -0.21948056
N       -1.40689004       6.38474267      12.00000000  F        1        2      -0.27300712       0.83575107       0.15643814
N        5.20909004       0.20086091      13.45315000  F        1        2      -0.26899383      -0.35351759      -0.30326609
N        3.80216198       2.19517924      12.00000000  F        2        2       0.01055212       0.01024487      -1.69942816
N        0.00003802       4.39042434      13.45315000  F        2        2       0.00786985       0.00572226       0.60464498
Si       5.18010587       1.14956320      14.90630000  F        0        1       0.24335656      -0.53454143       1.41091965
Si      -1.37790587       5.43604038      16.35945000  F        0        1      -1.76955745      -1.52224859      -1.55357991
Si       4.01879613       3.91132168      14.90630000  F        0        1       0.50747610       0.49502152       1.41598932
Si      -0.21659613       2.67428190      16.35945000  F        0        1       1.74615483      -0.87484645      -1.46767247
Si       2.20769800       1.52471870      14.90630000  F        0        1      -0.57170158       0.14901438       1.47170294
Si       1.59450200       5.06088488      16.35945000  F        0        1      -0.19669113       2.17993271      -1.46199405
N       -1.02370433       2.17482973      14.90630000  F        1        1      -0.45782015      -0.05686798       0.27639117
N        4.82590433       4.41077385      16.35945000  F        1        1       0.58459156       0.62118863      -0.12232425
N        2.43059437       4.61163476      14.90630000  F        1        1       0.16044549      -0.45675453       0.42550218
N        1.37160563       1.97396882      16.35945000  F        1        1      -1.06241063       0.37952960      -0.94344841
N       -1.40689004       6.38474267      14.90630000  F        1        1       0.26512492       0.37788558       0.38078239
N        5.20909004       0.20086091      16.35945000  F        1        1       0.20635035      -0.83630443      -0.07603271
N        3.80216198       2.19517924      14.90630000  F        2        1       0.04906549       0.01250239      -0.56174319
N        0.00003802       4.39042434      16.35945000  F        2        1       0.03106048       0.18520841       1.79577548
H        2.20769800       1.52471870      17.65945000  F        0        0      -0.02989281      -0.05332716      -2.20479858
H        2.20769800       1.52471870      18.41025562  F        0        0       0.29738634      -0.09503515       3.27583894
