33
Lattice="7.6044 0.0 0.0 -3.802199999999998 6.585603580538386 0.0 0.0 -0.0 28.35945" Properties=species:S:1:pos:R:3:move_mask:L:1:spacegroup_kinds:I:1:tags:I:1 spacegroup="P 63/m" unit_cell=conventional occupancy="_JSON {\"0\": {\"Si\": 1.0}, \"1\": {\"N\": 1.0}, \"2\": {\"N\": 1.0}}" surface=beta_Si3N4_001 species=SiCl4 site=bridge_Si_N orientation=parallel height_A=6.5 substrate_atoms=28 calculation_kind="Rigid evaluated approach scan; not NEB" energy=-229.44731814377656 pbc="T T F"
Si       5.18010587       1.14956320      12.00000000  F        0        2
Si      -1.37790587       5.43604038      13.45315000  F        0        2
Si       4.01879613       3.91132168      12.00000000  F        0        2
Si      -0.21659613       2.67428190      13.45315000  F        0        2
Si       2.20769800       1.52471870      12.00000000  F        0        2
Si       1.59450200       5.06088488      13.45315000  F        0        2
N       -1.02370433       2.17482973      12.00000000  F        1        2
N        4.82590433       4.41077385      13.45315000  F        1        2
N        2.43059437       4.61163476      12.00000000  F        1        2
N        1.37160563       1.97396882      13.45315000  F        1        2
N       -1.40689004       6.38474267      12.00000000  F        1        2
N        5.20909004       0.20086091      13.45315000  F        1        2
N        3.80216198       2.19517924      12.00000000  F        2        2
N        0.00003802       4.39042434      13.45315000  F        2        2
Si       5.18010587       1.14956320      14.90630000  F        0        1
Si      -1.37790587       5.43604038      16.35945000  F        0        1
Si       4.01879613       3.91132168      14.90630000  F        0        1
Si      -0.21659613       2.67428190      16.35945000  F        0        1
Si       2.20769800       1.52471870      14.90630000  F        0        1
Si       1.59450200       5.06088488      16.35945000  F        0        1
N       -1.02370433       2.17482973      14.90630000  F        1        1
N        4.82590433       4.41077385      16.35945000  F        1        1
N        2.43059437       4.61163476      14.90630000  F        1        1
N        1.37160563       1.97396882      16.35945000  F        1        1
N       -1.40689004       6.38474267      14.90630000  F        1        1
N        5.20909004       0.20086091      16.35945000  F        1        1
N        3.80216198       2.19517924      14.90630000  F        2        1
N        0.00003802       4.39042434      16.35945000  F        2        1
Si       0.79727001       4.72565461      24.77751301  T        0        0
Cl      -1.23714303       4.72565461      24.77751301  T        0        0
Cl       1.47540769       4.72565461      22.85945000  T        0        0
Cl       1.47540769       6.38674590      25.73654451  T        0        0
Cl       1.47540769       3.06456332      25.73654451  T        0        0
33
Lattice="7.6044 0.0 0.0 -3.802199999999998 6.585603580538386 0.0 0.0 -0.0 28.35945" Properties=species:S:1:pos:R:3:move_mask:L:1:spacegroup_kinds:I:1:tags:I:1 spacegroup="P 63/m" unit_cell=conventional occupancy="_JSON {\"0\": {\"Si\": 1.0}, \"1\": {\"N\": 1.0}, \"2\": {\"N\": 1.0}}" surface=beta_Si3N4_001 species=SiCl4 site=bridge_Si_N orientation=parallel height_A=5.0 substrate_atoms=28 calculation_kind="Rigid evaluated approach scan; not NEB" energy=-229.44731814377656 pbc="T T F"
Si       5.18010587       1.14956320      12.00000000  F        0        2
Si      -1.37790587       5.43604038      13.45315000  F        0        2
Si       4.01879613       3.91132168      12.00000000  F        0        2
Si      -0.21659613       2.67428190      13.45315000  F        0        2
Si       2.20769800       1.52471870      12.00000000  F        0        2
Si       1.59450200       5.06088488      13.45315000  F        0        2
N       -1.02370433       2.17482973      12.00000000  F        1        2
N        4.82590433       4.41077385      13.45315000  F        1        2
N        2.43059437       4.61163476      12.00000000  F        1        2
N        1.37160563       1.97396882      13.45315000  F        1        2
N       -1.40689004       6.38474267      12.00000000  F        1        2
N        5.20909004       0.20086091      13.45315000  F        1        2
N        3.80216198       2.19517924      12.00000000  F        2        2
N        0.00003802       4.39042434      13.45315000  F        2        2
Si       5.18010587       1.14956320      14.90630000  F        0        1
Si      -1.37790587       5.43604038      16.35945000  F        0        1
Si       4.01879613       3.91132168      14.90630000  F        0        1
Si      -0.21659613       2.67428190      16.35945000  F        0        1
Si       2.20769800       1.52471870      14.90630000  F        0        1
Si       1.59450200       5.06088488      16.35945000  F        0        1
N       -1.02370433       2.17482973      14.90630000  F        1        1
N        4.82590433       4.41077385      16.35945000  F        1        1
N        2.43059437       4.61163476      14.90630000  F        1        1
N        1.37160563       1.97396882      16.35945000  F        1        1
N       -1.40689004       6.38474267      14.90630000  F        1        1
N        5.20909004       0.20086091      16.35945000  F        1        1
N        3.80216198       2.19517924      14.90630000  F        2        1
N        0.00003802       4.39042434      16.35945000  F        2        1
Si       0.79727001       4.72565461      23.27751301  T        0        0
Cl      -1.23714303       4.72565461      23.27751301  T        0        0
Cl       1.47540769       4.72565461      21.35945000  T        0        0
Cl       1.47540769       6.38674590      24.23654451  T        0        0
Cl       1.47540769       3.06456332      24.23654451  T        0        0
33
Lattice="7.6044 0.0 0.0 -3.802199999999998 6.585603580538386 0.0 0.0 -0.0 28.35945" Properties=species:S:1:pos:R:3:move_mask:L:1:spacegroup_kinds:I:1:tags:I:1 spacegroup="P 63/m" unit_cell=conventional occupancy="_JSON {\"0\": {\"Si\": 1.0}, \"1\": {\"N\": 1.0}, \"2\": {\"N\": 1.0}}" surface=beta_Si3N4_001 species=SiCl4 site=bridge_Si_N orientation=parallel height_A=4.0 substrate_atoms=28 calculation_kind="Rigid evaluated approach scan; not NEB" energy=-229.39403410075033 pbc="T T F"
Si       5.18010587       1.14956320      12.00000000  F        0        2
Si      -1.37790587       5.43604038      13.45315000  F        0        2
Si       4.01879613       3.91132168      12.00000000  F        0        2
Si      -0.21659613       2.67428190      13.45315000  F        0        2
Si       2.20769800       1.52471870      12.00000000  F        0        2
Si       1.59450200       5.06088488      13.45315000  F        0        2
N       -1.02370433       2.17482973      12.00000000  F        1        2
N        4.82590433       4.41077385      13.45315000  F        1        2
N        2.43059437       4.61163476      12.00000000  F        1        2
N        1.37160563       1.97396882      13.45315000  F        1        2
N       -1.40689004       6.38474267      12.00000000  F        1        2
N        5.20909004       0.20086091      13.45315000  F        1        2
N        3.80216198       2.19517924      12.00000000  F        2        2
N        0.00003802       4.39042434      13.45315000  F        2        2
Si       5.18010587       1.14956320      14.90630000  F        0        1
Si      -1.37790587       5.43604038      16.35945000  F        0        1
Si       4.01879613       3.91132168      14.90630000  F        0        1
Si      -0.21659613       2.67428190      16.35945000  F        0        1
Si       2.20769800       1.52471870      14.90630000  F        0        1
Si       1.59450200       5.06088488      16.35945000  F        0        1
N       -1.02370433       2.17482973      14.90630000  F        1        1
N        4.82590433       4.41077385      16.35945000  F        1        1
N        2.43059437       4.61163476      14.90630000  F        1        1
N        1.37160563       1.97396882      16.35945000  F        1        1
N       -1.40689004       6.38474267      14.90630000  F        1        1
N        5.20909004       0.20086091      16.35945000  F        1        1
N        3.80216198       2.19517924      14.90630000  F        2        1
N        0.00003802       4.39042434      16.35945000  F        2        1
Si       0.79727001       4.72565461      22.27751301  T        0        0
Cl      -1.23714303       4.72565461      22.27751301  T        0        0
Cl       1.47540769       4.72565461      20.35945000  T        0        0
Cl       1.47540769       6.38674590      23.23654451  T        0        0
Cl       1.47540769       3.06456332      23.23654451  T        0        0
33
Lattice="7.6044 0.0 0.0 -3.802199999999998 6.585603580538386 0.0 0.0 -0.0 28.35945" Properties=species:S:1:pos:R:3:move_mask:L:1:spacegroup_kinds:I:1:tags:I:1 spacegroup="P 63/m" unit_cell=conventional occupancy="_JSON {\"0\": {\"Si\": 1.0}, \"1\": {\"N\": 1.0}, \"2\": {\"N\": 1.0}}" surface=beta_Si3N4_001 species=SiCl4 site=bridge_Si_N orientation=parallel height_A=3.25 substrate_atoms=28 calculation_kind="Rigid evaluated approach scan; not NEB" energy=-229.3627122665069 pbc="T T F"
Si       5.18010587       1.14956320      12.00000000  F        0        2
Si      -1.37790587       5.43604038      13.45315000  F        0        2
Si       4.01879613       3.91132168      12.00000000  F        0        2
Si      -0.21659613       2.67428190      13.45315000  F        0        2
Si       2.20769800       1.52471870      12.00000000  F        0        2
Si       1.59450200       5.06088488      13.45315000  F        0        2
N       -1.02370433       2.17482973      12.00000000  F        1        2
N        4.82590433       4.41077385      13.45315000  F        1        2
N        2.43059437       4.61163476      12.00000000  F        1        2
N        1.37160563       1.97396882      13.45315000  F        1        2
N       -1.40689004       6.38474267      12.00000000  F        1        2
N        5.20909004       0.20086091      13.45315000  F        1        2
N        3.80216198       2.19517924      12.00000000  F        2        2
N        0.00003802       4.39042434      13.45315000  F        2        2
Si       5.18010587       1.14956320      14.90630000  F        0        1
Si      -1.37790587       5.43604038      16.35945000  F        0        1
Si       4.01879613       3.91132168      14.90630000  F        0        1
Si      -0.21659613       2.67428190      16.35945000  F        0        1
Si       2.20769800       1.52471870      14.90630000  F        0        1
Si       1.59450200       5.06088488      16.35945000  F        0        1
N       -1.02370433       2.17482973      14.90630000  F        1        1
N        4.82590433       4.41077385      16.35945000  F        1        1
N        2.43059437       4.61163476      14.90630000  F        1        1
N        1.37160563       1.97396882      16.35945000  F        1        1
N       -1.40689004       6.38474267      14.90630000  F        1        1
N        5.20909004       0.20086091      16.35945000  F        1        1
N        3.80216198       2.19517924      14.90630000  F        2        1
N        0.00003802       4.39042434      16.35945000  F        2        1
Si       0.79727001       4.72565461      21.52751301  T        0        0
Cl      -1.23714303       4.72565461      21.52751301  T        0        0
Cl       1.47540769       4.72565461      19.60945000  T        0        0
Cl       1.47540769       6.38674590      22.48654451  T        0        0
Cl       1.47540769       3.06456332      22.48654451  T        0        0
33
Lattice="7.6044 0.0 0.0 -3.802199999999998 6.585603580538386 0.0 0.0 -0.0 28.35945" Properties=species:S:1:pos:R:3:move_mask:L:1:spacegroup_kinds:I:1:tags:I:1 spacegroup="P 63/m" unit_cell=conventional occupancy="_JSON {\"0\": {\"Si\": 1.0}, \"1\": {\"N\": 1.0}, \"2\": {\"N\": 1.0}}" surface=beta_Si3N4_001 species=SiCl4 site=bridge_Si_N orientation=parallel height_A=2.75 substrate_atoms=28 calculation_kind="Rigid evaluated approach scan; not NEB" energy=-229.345373413551 pbc="T T F"
Si       5.18010587       1.14956320      12.00000000  F        0        2
Si      -1.37790587       5.43604038      13.45315000  F        0        2
Si       4.01879613       3.91132168      12.00000000  F        0        2
Si      -0.21659613       2.67428190      13.45315000  F        0        2
Si       2.20769800       1.52471870      12.00000000  F        0        2
Si       1.59450200       5.06088488      13.45315000  F        0        2
N       -1.02370433       2.17482973      12.00000000  F        1        2
N        4.82590433       4.41077385      13.45315000  F        1        2
N        2.43059437       4.61163476      12.00000000  F        1        2
N        1.37160563       1.97396882      13.45315000  F        1        2
N       -1.40689004       6.38474267      12.00000000  F        1        2
N        5.20909004       0.20086091      13.45315000  F        1        2
N        3.80216198       2.19517924      12.00000000  F        2        2
N        0.00003802       4.39042434      13.45315000  F        2        2
Si       5.18010587       1.14956320      14.90630000  F        0        1
Si      -1.37790587       5.43604038      16.35945000  F        0        1
Si       4.01879613       3.91132168      14.90630000  F        0        1
Si      -0.21659613       2.67428190      16.35945000  F        0        1
Si       2.20769800       1.52471870      14.90630000  F        0        1
Si       1.59450200       5.06088488      16.35945000  F        0        1
N       -1.02370433       2.17482973      14.90630000  F        1        1
N        4.82590433       4.41077385      16.35945000  F        1        1
N        2.43059437       4.61163476      14.90630000  F        1        1
N        1.37160563       1.97396882      16.35945000  F        1        1
N       -1.40689004       6.38474267      14.90630000  F        1        1
N        5.20909004       0.20086091      16.35945000  F        1        1
N        3.80216198       2.19517924      14.90630000  F        2        1
N        0.00003802       4.39042434      16.35945000  F        2        1
Si       0.79727001       4.72565461      21.02751301  T        0        0
Cl      -1.23714303       4.72565461      21.02751301  T        0        0
Cl       1.47540769       4.72565461      19.10945000  T        0        0
Cl       1.47540769       6.38674590      21.98654451  T        0        0
Cl       1.47540769       3.06456332      21.98654451  T        0        0
33
Lattice="7.6044 0.0 0.0 -3.802199999999998 6.585603580538386 0.0 0.0 -0.0 28.35945" Properties=species:S:1:pos:R:3:move_mask:L:1:spacegroup_kinds:I:1:tags:I:1 spacegroup="P 63/m" unit_cell=conventional occupancy="_JSON {\"0\": {\"Si\": 1.0}, \"1\": {\"N\": 1.0}, \"2\": {\"N\": 1.0}}" surface=beta_Si3N4_001 species=SiCl4 site=bridge_Si_N orientation=parallel height_A=2.25 substrate_atoms=28 calculation_kind="Rigid evaluated approach scan; not NEB" energy=-229.25053499609209 pbc="T T F"
Si       5.18010587       1.14956320      12.00000000  F        0        2
Si      -1.37790587       5.43604038      13.45315000  F        0        2
Si       4.01879613       3.91132168      12.00000000  F        0        2
Si      -0.21659613       2.67428190      13.45315000  F        0        2
Si       2.20769800       1.52471870      12.00000000  F        0        2
Si       1.59450200       5.06088488      13.45315000  F        0        2
N       -1.02370433       2.17482973      12.00000000  F        1        2
N        4.82590433       4.41077385      13.45315000  F        1        2
N        2.43059437       4.61163476      12.00000000  F        1        2
N        1.37160563       1.97396882      13.45315000  F        1        2
N       -1.40689004       6.38474267      12.00000000  F        1        2
N        5.20909004       0.20086091      13.45315000  F        1        2
N        3.80216198       2.19517924      12.00000000  F        2        2
N        0.00003802       4.39042434      13.45315000  F        2        2
Si       5.18010587       1.14956320      14.90630000  F        0        1
Si      -1.37790587       5.43604038      16.35945000  F        0        1
Si       4.01879613       3.91132168      14.90630000  F        0        1
Si      -0.21659613       2.67428190      16.35945000  F        0        1
Si       2.20769800       1.52471870      14.90630000  F        0        1
Si       1.59450200       5.06088488      16.35945000  F        0        1
N       -1.02370433       2.17482973      14.90630000  F        1        1
N        4.82590433       4.41077385      16.35945000  F        1        1
N        2.43059437       4.61163476      14.90630000  F        1        1
N        1.37160563       1.97396882      16.35945000  F        1        1
N       -1.40689004       6.38474267      14.90630000  F        1        1
N        5.20909004       0.20086091      16.35945000  F        1        1
N        3.80216198       2.19517924      14.90630000  F        2        1
N        0.00003802       4.39042434      16.35945000  F        2        1
Si       0.79727001       4.72565461      20.52751301  T        0        0
Cl      -1.23714303       4.72565461      20.52751301  T        0        0
Cl       1.47540769       4.72565461      18.60945000  T        0        0
Cl       1.47540769       6.38674590      21.48654451  T        0        0
Cl       1.47540769       3.06456332      21.48654451  T        0        0
33
Lattice="7.6044 0.0 0.0 -3.802199999999998 6.585603580538386 0.0 0.0 -0.0 28.35945" Properties=species:S:1:pos:R:3:move_mask:L:1:spacegroup_kinds:I:1:tags:I:1 spacegroup="P 63/m" unit_cell=conventional occupancy="_JSON {\"0\": {\"Si\": 1.0}, \"1\": {\"N\": 1.0}, \"2\": {\"N\": 1.0}}" surface=beta_Si3N4_001 species=SiCl4 site=bridge_Si_N orientation=parallel height_A=1.9 substrate_atoms=28 calculation_kind="Rigid evaluated approach scan; not NEB" energy=-228.40145596843087 pbc="T T F"
Si       5.18010587       1.14956320      12.00000000  F        0        2
Si      -1.37790587       5.43604038      13.45315000  F        0        2
Si       4.01879613       3.91132168      12.00000000  F        0        2
Si      -0.21659613       2.67428190      13.45315000  F        0        2
Si       2.20769800       1.52471870      12.00000000  F        0        2
Si       1.59450200       5.06088488      13.45315000  F        0        2
N       -1.02370433       2.17482973      12.00000000  F        1        2
N        4.82590433       4.41077385      13.45315000  F        1        2
N        2.43059437       4.61163476      12.00000000  F        1        2
N        1.37160563       1.97396882      13.45315000  F        1        2
N       -1.40689004       6.38474267      12.00000000  F        1        2
N        5.20909004       0.20086091      13.45315000  F        1        2
N        3.80216198       2.19517924      12.00000000  F        2        2
N        0.00003802       4.39042434      13.45315000  F        2        2
Si       5.18010587       1.14956320      14.90630000  F        0        1
Si      -1.37790587       5.43604038      16.35945000  F        0        1
Si       4.01879613       3.91132168      14.90630000  F        0        1
Si      -0.21659613       2.67428190      16.35945000  F        0        1
Si       2.20769800       1.52471870      14.90630000  F        0        1
Si       1.59450200       5.06088488      16.35945000  F        0        1
N       -1.02370433       2.17482973      14.90630000  F        1        1
N        4.82590433       4.41077385      16.35945000  F        1        1
N        2.43059437       4.61163476      14.90630000  F        1        1
N        1.37160563       1.97396882      16.35945000  F        1        1
N       -1.40689004       6.38474267      14.90630000  F        1        1
N        5.20909004       0.20086091      16.35945000  F        1        1
N        3.80216198       2.19517924      14.90630000  F        2        1
N        0.00003802       4.39042434      16.35945000  F        2        1
Si       0.79727001       4.72565461      20.17751301  T        0        0
Cl      -1.23714303       4.72565461      20.17751301  T        0        0
Cl       1.47540769       4.72565461      18.25945000  T        0        0
Cl       1.47540769       6.38674590      21.13654451  T        0        0
Cl       1.47540769       3.06456332      21.13654451  T        0        0
33
Lattice="7.6044 0.0 0.0 -3.802199999999998 6.585603580538386 0.0 0.0 -0.0 28.35945" Properties=species:S:1:pos:R:3:move_mask:L:1:spacegroup_kinds:I:1:tags:I:1 spacegroup="P 63/m" unit_cell=conventional occupancy="_JSON {\"0\": {\"Si\": 1.0}, \"1\": {\"N\": 1.0}, \"2\": {\"N\": 1.0}}" surface=beta_Si3N4_001 species=SiCl4 site=bridge_Si_N orientation=parallel height_A=1.6 substrate_atoms=28 calculation_kind="Rigid evaluated approach scan; not NEB" energy=-224.8147699630743 pbc="T T F"
Si       5.18010587       1.14956320      12.00000000  F        0        2
Si      -1.37790587       5.43604038      13.45315000  F        0        2
Si       4.01879613       3.91132168      12.00000000  F        0        2
Si      -0.21659613       2.67428190      13.45315000  F        0        2
Si       2.20769800       1.52471870      12.00000000  F        0        2
Si       1.59450200       5.06088488      13.45315000  F        0        2
N       -1.02370433       2.17482973      12.00000000  F        1        2
N        4.82590433       4.41077385      13.45315000  F        1        2
N        2.43059437       4.61163476      12.00000000  F        1        2
N        1.37160563       1.97396882      13.45315000  F        1        2
N       -1.40689004       6.38474267      12.00000000  F        1        2
N        5.20909004       0.20086091      13.45315000  F        1        2
N        3.80216198       2.19517924      12.00000000  F        2        2
N        0.00003802       4.39042434      13.45315000  F        2        2
Si       5.18010587       1.14956320      14.90630000  F        0        1
Si      -1.37790587       5.43604038      16.35945000  F        0        1
Si       4.01879613       3.91132168      14.90630000  F        0        1
Si      -0.21659613       2.67428190      16.35945000  F        0        1
Si       2.20769800       1.52471870      14.90630000  F        0        1
Si       1.59450200       5.06088488      16.35945000  F        0        1
N       -1.02370433       2.17482973      14.90630000  F        1        1
N        4.82590433       4.41077385      16.35945000  F        1        1
N        2.43059437       4.61163476      14.90630000  F        1        1
N        1.37160563       1.97396882      16.35945000  F        1        1
N       -1.40689004       6.38474267      14.90630000  F        1        1
N        5.20909004       0.20086091      16.35945000  F        1        1
N        3.80216198       2.19517924      14.90630000  F        2        1
N        0.00003802       4.39042434      16.35945000  F        2        1
Si       0.79727001       4.72565461      19.87751301  T        0        0
Cl      -1.23714303       4.72565461      19.87751301  T        0        0
Cl       1.47540769       4.72565461      17.95945000  T        0        0
Cl       1.47540769       6.38674590      20.83654451  T        0        0
Cl       1.47540769       3.06456332      20.83654451  T        0        0
33
Lattice="7.6044 0.0 0.0 -3.802199999999998 6.585603580538386 0.0 0.0 -0.0 28.35945" Properties=species:S:1:pos:R:3:move_mask:L:1:spacegroup_kinds:I:1:tags:I:1 spacegroup="P 63/m" unit_cell=conventional occupancy="_JSON {\"0\": {\"Si\": 1.0}, \"1\": {\"N\": 1.0}, \"2\": {\"N\": 1.0}}" surface=beta_Si3N4_001 species=SiCl4 site=bridge_Si_N orientation=parallel height_A=1.3 substrate_atoms=28 calculation_kind="Rigid evaluated approach scan; not NEB" energy=-211.96407410517048 pbc="T T F"
Si       5.18010587       1.14956320      12.00000000  F        0        2
Si      -1.37790587       5.43604038      13.45315000  F        0        2
Si       4.01879613       3.91132168      12.00000000  F        0        2
Si      -0.21659613       2.67428190      13.45315000  F        0        2
Si       2.20769800       1.52471870      12.00000000  F        0        2
Si       1.59450200       5.06088488      13.45315000  F        0        2
N       -1.02370433       2.17482973      12.00000000  F        1        2
N        4.82590433       4.41077385      13.45315000  F        1        2
N        2.43059437       4.61163476      12.00000000  F        1        2
N        1.37160563       1.97396882      13.45315000  F        1        2
N       -1.40689004       6.38474267      12.00000000  F        1        2
N        5.20909004       0.20086091      13.45315000  F        1        2
N        3.80216198       2.19517924      12.00000000  F        2        2
N        0.00003802       4.39042434      13.45315000  F        2        2
Si       5.18010587       1.14956320      14.90630000  F        0        1
Si      -1.37790587       5.43604038      16.35945000  F        0        1
Si       4.01879613       3.91132168      14.90630000  F        0        1
Si      -0.21659613       2.67428190      16.35945000  F        0        1
Si       2.20769800       1.52471870      14.90630000  F        0        1
Si       1.59450200       5.06088488      16.35945000  F        0        1
N       -1.02370433       2.17482973      14.90630000  F        1        1
N        4.82590433       4.41077385      16.35945000  F        1        1
N        2.43059437       4.61163476      14.90630000  F        1        1
N        1.37160563       1.97396882      16.35945000  F        1        1
N       -1.40689004       6.38474267      14.90630000  F        1        1
N        5.20909004       0.20086091      16.35945000  F        1        1
N        3.80216198       2.19517924      14.90630000  F        2        1
N        0.00003802       4.39042434      16.35945000  F        2        1
Si       0.79727001       4.72565461      19.57751301  T        0        0
Cl      -1.23714303       4.72565461      19.57751301  T        0        0
Cl       1.47540769       4.72565461      17.65945000  T        0        0
Cl       1.47540769       6.38674590      20.53654451  T        0        0
Cl       1.47540769       3.06456332      20.53654451  T        0        0
