41
Lattice="11.518769465528859 0.0 0.0 0.0 7.679179643685906 0.0 0.0 0.0 30.7875" Properties=species:S:1:pos:R:3:move_mask:L:1:tags:I:1:forces:R:3 surface=Si100 species=CH3F site=bridge_Si_Si orientation=flipped height_A=6.5 substrate_atoms=36 calculation_kind="Rigid evaluated approach scan; not NEB" energy=-204.25090419172574 pbc="T T F"
Si       0.00000000       0.00000000      12.00000000  F        6      -0.00000004       0.00000000       0.24903484
Si       3.83958982       0.00000000      12.00000000  F        6      -0.00000000       0.00000000       0.24903482
Si       7.67917964       0.00000000      12.00000000  F        6       0.00000000       0.00000000       0.24903482
Si       0.00000000       3.83958982      12.00000000  F        6      -0.00000004      -0.00000000       0.24903484
Si       3.83958982       3.83958982      12.00000000  F        6      -0.00000000      -0.00000000       0.24903482
Si       7.67917964       3.83958982      12.00000000  F        6       0.00000000      -0.00000000       0.24903482
Si       1.91979491       0.00000000      13.35750000  F        5       0.00000000      -0.00000002      -0.52822352
Si       5.75938473       0.00000000      13.35750000  F        5       0.00000000      -0.00000002      -0.52822353
Si       9.59897455       0.00000000      13.35750000  F        5       0.00000003      -0.00000002      -0.52822354
Si       1.91979491       3.83958982      13.35750000  F        5       0.00000000       0.00000000      -0.52822354
Si       5.75938473       3.83958982      13.35750000  F        5       0.00000000       0.00000000      -0.52822354
Si       9.59897455       3.83958982      13.35750000  F        5       0.00000003       0.00000000      -0.52822356
Si       1.91979491       1.91979491      14.71500000  F        4      -0.00000000       0.00000000       0.14537709
Si       5.75938473       1.91979491      14.71500000  F        4       0.00000000       0.00000000       0.14537709
Si       9.59897455       1.91979491      14.71500000  F        4       0.00000004       0.00000000       0.14537711
Si       1.91979491       5.75938473      14.71500000  F        4      -0.00000000       0.00000002       0.14537707
Si       5.75938473       5.75938473      14.71500000  F        4       0.00000000       0.00000002       0.14537707
Si       9.59897455       5.75938473      14.71500000  F        4       0.00000004       0.00000002       0.14537709
Si       0.00000000       1.91979491      16.07250000  F        3      -0.00000004       0.00000000      -0.14537711
Si       3.83958982       1.91979491      16.07250000  F        3      -0.00000000       0.00000000      -0.14537709
Si       7.67917964       1.91979491      16.07250000  F        3       0.00000000       0.00000000      -0.14537709
Si       0.00000000       5.75938473      16.07250000  F        3      -0.00000004       0.00000002      -0.14537709
Si       3.83958982       5.75938473      16.07250000  F        3      -0.00000000       0.00000002      -0.14537707
Si       7.67917964       5.75938473      16.07250000  F        3       0.00000000       0.00000002      -0.14537707
Si       0.00000000       0.00000000      17.43000000  F        2      -0.00000003      -0.00000002       0.52822354
Si       3.83958982       0.00000000      17.43000000  F        2      -0.00000000      -0.00000002       0.52822353
Si       7.67917964       0.00000000      17.43000000  F        2      -0.00000000      -0.00000002       0.52822352
Si       0.00000000       3.83958982      17.43000000  F        2      -0.00000003       0.00000000       0.52822356
Si       3.83958982       3.83958982      17.43000000  F        2      -0.00000000       0.00000000       0.52822354
Si       7.67917964       3.83958982      17.43000000  F        2      -0.00000000       0.00000000       0.52822354
Si       1.91979491       0.00000000      18.78750000  F        1      -0.00000000       0.00000000      -0.24903482
Si       5.75938473       0.00000000      18.78750000  F        1       0.00000000       0.00000000      -0.24903482
Si       9.59897455       0.00000000      18.78750000  F        1       0.00000004       0.00000000      -0.24903484
Si       1.91979491       3.83958982      18.78750000  F        1      -0.00000000      -0.00000000      -0.24903482
Si       5.75938473       3.83958982      18.78750000  F        1       0.00000000      -0.00000000      -0.24903482
Si       9.59897455       3.83958982      18.78750000  F        1       0.00000004      -0.00000000      -0.24903484
F        7.67917964       3.83958982      27.02687412  T        0      -0.00000000       0.00000000       0.00285954
C        7.67917964       3.83958982      25.60722199  T        0       0.00000019       0.00000000      -0.00319168
H        6.63241322       3.83958982      25.28750000  T        0       0.00125386      -0.00000000       0.00011068
H        8.20256285       4.74611614      25.28750000  T        0      -0.00062702      -0.00108610       0.00011073
H        8.20256285       2.93306350      25.28750000  T        0      -0.00062702       0.00108610       0.00011073
41
Lattice="11.518769465528859 0.0 0.0 0.0 7.679179643685906 0.0 0.0 0.0 30.7875" Properties=species:S:1:pos:R:3:move_mask:L:1:tags:I:1:forces:R:3 surface=Si100 species=CH3F site=bridge_Si_Si orientation=flipped height_A=5.0 substrate_atoms=36 calculation_kind="Rigid evaluated approach scan; not NEB" energy=-204.25090419172574 pbc="T T F"
Si       0.00000000       0.00000000      12.00000000  F        6      -0.00000004       0.00000000       0.24903484
Si       3.83958982       0.00000000      12.00000000  F        6      -0.00000000       0.00000000       0.24903482
Si       7.67917964       0.00000000      12.00000000  F        6       0.00000000       0.00000000       0.24903482
Si       0.00000000       3.83958982      12.00000000  F        6      -0.00000004      -0.00000000       0.24903484
Si       3.83958982       3.83958982      12.00000000  F        6      -0.00000000      -0.00000000       0.24903482
Si       7.67917964       3.83958982      12.00000000  F        6       0.00000000      -0.00000000       0.24903482
Si       1.91979491       0.00000000      13.35750000  F        5       0.00000000      -0.00000002      -0.52822352
Si       5.75938473       0.00000000      13.35750000  F        5       0.00000000      -0.00000002      -0.52822353
Si       9.59897455       0.00000000      13.35750000  F        5       0.00000003      -0.00000002      -0.52822354
Si       1.91979491       3.83958982      13.35750000  F        5       0.00000000       0.00000000      -0.52822354
Si       5.75938473       3.83958982      13.35750000  F        5       0.00000000       0.00000000      -0.52822354
Si       9.59897455       3.83958982      13.35750000  F        5       0.00000003       0.00000000      -0.52822356
Si       1.91979491       1.91979491      14.71500000  F        4      -0.00000000       0.00000000       0.14537709
Si       5.75938473       1.91979491      14.71500000  F        4       0.00000000       0.00000000       0.14537709
Si       9.59897455       1.91979491      14.71500000  F        4       0.00000004       0.00000000       0.14537711
Si       1.91979491       5.75938473      14.71500000  F        4      -0.00000000       0.00000002       0.14537707
Si       5.75938473       5.75938473      14.71500000  F        4       0.00000000       0.00000002       0.14537707
Si       9.59897455       5.75938473      14.71500000  F        4       0.00000004       0.00000002       0.14537709
Si       0.00000000       1.91979491      16.07250000  F        3      -0.00000004       0.00000000      -0.14537711
Si       3.83958982       1.91979491      16.07250000  F        3      -0.00000000       0.00000000      -0.14537709
Si       7.67917964       1.91979491      16.07250000  F        3       0.00000000       0.00000000      -0.14537709
Si       0.00000000       5.75938473      16.07250000  F        3      -0.00000004       0.00000002      -0.14537709
Si       3.83958982       5.75938473      16.07250000  F        3      -0.00000000       0.00000002      -0.14537707
Si       7.67917964       5.75938473      16.07250000  F        3       0.00000000       0.00000002      -0.14537707
Si       0.00000000       0.00000000      17.43000000  F        2      -0.00000003      -0.00000002       0.52822354
Si       3.83958982       0.00000000      17.43000000  F        2      -0.00000000      -0.00000002       0.52822353
Si       7.67917964       0.00000000      17.43000000  F        2      -0.00000000      -0.00000002       0.52822352
Si       0.00000000       3.83958982      17.43000000  F        2      -0.00000003       0.00000000       0.52822356
Si       3.83958982       3.83958982      17.43000000  F        2      -0.00000000       0.00000000       0.52822354
Si       7.67917964       3.83958982      17.43000000  F        2      -0.00000000       0.00000000       0.52822354
Si       1.91979491       0.00000000      18.78750000  F        1      -0.00000000       0.00000000      -0.24903482
Si       5.75938473       0.00000000      18.78750000  F        1       0.00000000       0.00000000      -0.24903482
Si       9.59897455       0.00000000      18.78750000  F        1       0.00000004       0.00000000      -0.24903484
Si       1.91979491       3.83958982      18.78750000  F        1      -0.00000000      -0.00000000      -0.24903482
Si       5.75938473       3.83958982      18.78750000  F        1       0.00000000      -0.00000000      -0.24903482
Si       9.59897455       3.83958982      18.78750000  F        1       0.00000004      -0.00000000      -0.24903484
F        7.67917964       3.83958982      25.52687412  T        0      -0.00000000      -0.00000000       0.00285954
C        7.67917964       3.83958982      24.10722199  T        0       0.00000019       0.00000000      -0.00319168
H        6.63241322       3.83958982      23.78750000  T        0       0.00125386      -0.00000000       0.00011068
H        8.20256285       4.74611614      23.78750000  T        0      -0.00062702      -0.00108610       0.00011073
H        8.20256285       2.93306350      23.78750000  T        0      -0.00062702       0.00108610       0.00011073
41
Lattice="11.518769465528859 0.0 0.0 0.0 7.679179643685906 0.0 0.0 0.0 30.7875" Properties=species:S:1:pos:R:3:move_mask:L:1:tags:I:1:forces:R:3 surface=Si100 species=CH3F site=bridge_Si_Si orientation=flipped height_A=4.0 substrate_atoms=36 calculation_kind="Rigid evaluated approach scan; not NEB" energy=-204.25195792931427 pbc="T T F"
Si       0.00000000       0.00000000      12.00000000  F        6      -0.00054299       0.00000000       0.24816245
Si       3.83958982       0.00000000      12.00000000  F        6       0.00042268       0.00000000       0.24833978
Si       7.67917964       0.00000000      12.00000000  F        6       0.00012025       0.00000000       0.24816140
Si       0.00000000       3.83958982      12.00000000  F        6      -0.00069111      -0.00000000       0.24948719
Si       3.83958982       3.83958982      12.00000000  F        6       0.00044467      -0.00000000       0.24934248
Si       7.67917964       3.83958982      12.00000000  F        6       0.00024636      -0.00000000       0.24978999
Si       1.91979491       0.00000000      13.35750000  F        5       0.00036629      -0.00000002      -0.52864062
Si       5.75938473       0.00000000      13.35750000  F        5      -0.00112159      -0.00000002      -0.52808032
Si       9.59897455       0.00000000      13.35750000  F        5       0.00075586      -0.00000002      -0.52762632
Si       1.91979491       3.83958982      13.35750000  F        5       0.00001778       0.00000000      -0.52648112
Si       5.75938473       3.83958982      13.35750000  F        5       0.00049375       0.00000000      -0.52458693
Si       9.59897455       3.83958982      13.35750000  F        5      -0.00051150       0.00000000      -0.52448874
Si       1.91979491       1.91979491      14.71500000  F        4       0.00027385       0.00144166       0.14612585
Si       5.75938473       1.91979491      14.71500000  F        4       0.00108694       0.00123164       0.14410889
Si       9.59897455       1.91979491      14.71500000  F        4      -0.00053250       0.00465928       0.14939953
Si       1.91979491       5.75938473      14.71500000  F        4       0.00027385      -0.00144163       0.14612584
Si       5.75938473       5.75938473      14.71500000  F        4       0.00108694      -0.00123162       0.14410888
Si       9.59897455       5.75938473      14.71500000  F        4      -0.00053250      -0.00465926       0.14939952
Si       0.00000000       1.91979491      16.07250000  F        3      -0.00213940       0.00312772      -0.14810509
Si       3.83958982       1.91979491      16.07250000  F        3      -0.00194849       0.00014045      -0.14705591
Si       7.67917964       1.91979491      16.07250000  F        3       0.00010680      -0.01767072      -0.16305384
Si       0.00000000       5.75938473      16.07250000  F        3      -0.00213940      -0.00312770      -0.14810508
Si       3.83958982       5.75938473      16.07250000  F        3      -0.00194849      -0.00014043      -0.14705590
Si       7.67917964       5.75938473      16.07250000  F        3       0.00010680       0.01767075      -0.16305383
Si       0.00000000       0.00000000      17.43000000  F        2       0.00233744      -0.00000002       0.53092156
Si       3.83958982       0.00000000      17.43000000  F        2      -0.00090754      -0.00000002       0.53269091
Si       7.67917964       0.00000000      17.43000000  F        2      -0.00151244      -0.00000002       0.53103890
Si       0.00000000       3.83958982      17.43000000  F        2      -0.03207458       0.00000000       0.54543079
Si       3.83958982       3.83958982      17.43000000  F        2       0.01597518       0.00000000       0.53459255
Si       7.67917964       3.83958982      17.43000000  F        2      -0.00122385       0.00000000       0.51754760
Si       1.91979491       0.00000000      18.78750000  F        1      -0.00060899       0.00000000      -0.25613325
Si       5.75938473       0.00000000      18.78750000  F        1       0.00258544       0.00000000      -0.24313356
Si       9.59897455       0.00000000      18.78750000  F        1      -0.00365804       0.00000000      -0.24094238
Si       1.91979491       3.83958982      18.78750000  F        1       0.00543500      -0.00000000      -0.25083190
Si       5.75938473       3.83958982      18.78750000  F        1       0.00445842      -0.00000000      -0.12815561
Si       9.59897455       3.83958982      18.78750000  F        1       0.01790251      -0.00000000      -0.18772589
F        7.67917964       3.83958982      24.52687412  T        0      -0.00893121       0.00000000      -0.00121658
C        7.67917964       3.83958982      23.10722199  T        0       0.00571759       0.00000000      -0.13318246
H        6.63241322       3.83958982      22.78750000  T        0       0.00582819      -0.00000000      -0.06488061
H        8.20256285       4.74611614      22.78750000  T        0      -0.00250898      -0.01808483       0.00888093
H        8.20256285       2.93306350      22.78750000  T        0      -0.00250898       0.01808483       0.00888093
41
Lattice="11.518769465528859 0.0 0.0 0.0 7.679179643685906 0.0 0.0 0.0 30.7875" Properties=species:S:1:pos:R:3:move_mask:L:1:tags:I:1:forces:R:3 surface=Si100 species=CH3F site=bridge_Si_Si orientation=flipped height_A=3.25 substrate_atoms=36 calculation_kind="Rigid evaluated approach scan; not NEB" energy=-204.40468207366823 pbc="T T F"
Si       0.00000000       0.00000000      12.00000000  F        6      -0.00137036       0.00000000       0.24812298
Si       3.83958982       0.00000000      12.00000000  F        6       0.00108127       0.00000000       0.24776531
Si       7.67917964       0.00000000      12.00000000  F        6       0.00028930       0.00000000       0.24840732
Si       0.00000000       3.83958982      12.00000000  F        6      -0.00130891      -0.00000000       0.24903917
Si       3.83958982       3.83958982      12.00000000  F        6       0.00116342      -0.00000000       0.24916398
Si       7.67917964       3.83958982      12.00000000  F        6       0.00014542      -0.00000000       0.24995994
Si       1.91979491       0.00000000      13.35750000  F        5      -0.00024787      -0.00000002      -0.52587104
Si       5.75938473       0.00000000      13.35750000  F        5      -0.00110626      -0.00000002      -0.52484612
Si       9.59897455       0.00000000      13.35750000  F        5       0.00135407      -0.00000002      -0.52472780
Si       1.91979491       3.83958982      13.35750000  F        5       0.00035956       0.00000000      -0.52290409
Si       5.75938473       3.83958982      13.35750000  F        5       0.00043789       0.00000000      -0.51991864
Si       9.59897455       3.83958982      13.35750000  F        5      -0.00079691       0.00000000      -0.51937218
Si       1.91979491       1.91979491      14.71500000  F        4      -0.00017008       0.00120214       0.15169193
Si       5.75938473       1.91979491      14.71500000  F        4       0.00543728      -0.00408448       0.13859578
Si       9.59897455       1.91979491      14.71500000  F        4      -0.00627439      -0.00530717       0.13894213
Si       1.91979491       5.75938473      14.71500000  F        4      -0.00017008      -0.00120211       0.15169192
Si       5.75938473       5.75938473      14.71500000  F        4       0.00543728       0.00408450       0.13859576
Si       9.59897455       5.75938473      14.71500000  F        4      -0.00627439       0.00530719       0.13894212
Si       0.00000000       1.91979491      16.07250000  F        3       0.00334795      -0.00196031      -0.13994369
Si       3.83958982       1.91979491      16.07250000  F        3      -0.00287617      -0.00051273      -0.14024366
Si       7.67917964       1.91979491      16.07250000  F        3      -0.00057138      -0.03505335      -0.17191257
Si       0.00000000       5.75938473      16.07250000  F        3       0.00334795       0.00196033      -0.13994368
Si       3.83958982       5.75938473      16.07250000  F        3      -0.00287617       0.00051275      -0.14024365
Si       7.67917964       5.75938473      16.07250000  F        3      -0.00057138       0.03505338      -0.17191256
Si       0.00000000       0.00000000      17.43000000  F        2      -0.00190124      -0.00000002       0.53011460
Si       3.83958982       0.00000000      17.43000000  F        2      -0.00199445      -0.00000002       0.52961587
Si       7.67917964       0.00000000      17.43000000  F        2      -0.00884348      -0.00000002       0.52365197
Si       0.00000000       3.83958982      17.43000000  F        2       0.00304117       0.00000000       0.51642583
Si       3.83958982       3.83958982      17.43000000  F        2      -0.00158361       0.00000000       0.51808324
Si       7.67917964       3.83958982      17.43000000  F        2       0.00304319       0.00000000       0.38768204
Si       1.91979491       0.00000000      18.78750000  F        1       0.00711676       0.00000000      -0.26299344
Si       5.75938473       0.00000000      18.78750000  F        1       0.00281084       0.00000000      -0.22732572
Si       9.59897455       0.00000000      18.78750000  F        1       0.01960838       0.00000000      -0.23583097
Si       1.91979491       3.83958982      18.78750000  F        1      -0.00243940      -0.00000000      -0.24087782
Si       5.75938473       3.83958982      18.78750000  F        1       0.05642508      -0.00000000      -0.08365328
Si       9.59897455       3.83958982      18.78750000  F        1      -0.07128124      -0.00000000      -0.06869094
F        7.67917964       3.83958982      23.77687412  T        0      -0.01176366       0.00000000      -0.14006310
C        7.67917964       3.83958982      22.35722199  T        0       0.02492762       0.00000000      -0.16021436
H        6.63241322       3.83958982      22.03750000  T        0      -0.00023565      -0.00000000       0.05045655
H        8.20256285       4.74611614      22.03750000  T        0      -0.00735868      -0.05657281       0.02727044
H        8.20256285       2.93306350      22.03750000  T        0      -0.00735868       0.05657281       0.02727044
41
Lattice="11.518769465528859 0.0 0.0 0.0 7.679179643685906 0.0 0.0 0.0 30.7875" Properties=species:S:1:pos:R:3:move_mask:L:1:tags:I:1:forces:R:3 surface=Si100 species=CH3F site=bridge_Si_Si orientation=flipped height_A=2.75 substrate_atoms=36 calculation_kind="Rigid evaluated approach scan; not NEB" energy=-204.42514396404854 pbc="T T F"
Si       0.00000000       0.00000000      12.00000000  F        6      -0.00202715       0.00000000       0.24617750
Si       3.83958982       0.00000000      12.00000000  F        6       0.00163205       0.00000000       0.24505179
Si       7.67917964       0.00000000      12.00000000  F        6       0.00039723       0.00000000       0.24785916
Si       0.00000000       3.83958982      12.00000000  F        6      -0.00268569      -0.00000000       0.24899548
Si       3.83958982       3.83958982      12.00000000  F        6       0.00244140      -0.00000000       0.24900794
Si       7.67917964       3.83958982      12.00000000  F        6       0.00024532      -0.00000000       0.25376075
Si       1.91979491       0.00000000      13.35750000  F        5      -0.00060009      -0.00000002      -0.52144762
Si       5.75938473       0.00000000      13.35750000  F        5      -0.00019579      -0.00000002      -0.52130989
Si       9.59897455       0.00000000      13.35750000  F        5       0.00078215      -0.00000002      -0.52093255
Si       1.91979491       3.83958982      13.35750000  F        5       0.00100114       0.00000000      -0.51992040
Si       5.75938473       3.83958982      13.35750000  F        5      -0.00064608       0.00000000      -0.52096712
Si       9.59897455       3.83958982      13.35750000  F        5      -0.00032727       0.00000000      -0.52095008
Si       1.91979491       1.91979491      14.71500000  F        4      -0.00215391       0.00315658       0.15342873
Si       5.75938473       1.91979491      14.71500000  F        4       0.00333677      -0.00135493       0.15586575
Si       9.59897455       1.91979491      14.71500000  F        4      -0.00167537      -0.00676281       0.14932606
Si       1.91979491       5.75938473      14.71500000  F        4      -0.00215391      -0.00315656       0.15342872
Si       5.75938473       5.75938473      14.71500000  F        4       0.00333677       0.00135495       0.15586574
Si       9.59897455       5.75938473      14.71500000  F        4      -0.00167537       0.00676283       0.14932605
Si       0.00000000       1.91979491      16.07250000  F        3      -0.00414735       0.00102810      -0.15129350
Si       3.83958982       1.91979491      16.07250000  F        3       0.00721868      -0.01136253      -0.15791230
Si       7.67917964       1.91979491      16.07250000  F        3      -0.01062441      -0.06151535      -0.19456047
Si       0.00000000       5.75938473      16.07250000  F        3      -0.00414735      -0.00102808      -0.15129348
Si       3.83958982       5.75938473      16.07250000  F        3       0.00721868       0.01136256      -0.15791229
Si       7.67917964       5.75938473      16.07250000  F        3      -0.01062441       0.06151538      -0.19456045
Si       0.00000000       0.00000000      17.43000000  F        2       0.00380504      -0.00000002       0.52496295
Si       3.83958982       0.00000000      17.43000000  F        2      -0.00661419      -0.00000002       0.52783072
Si       7.67917964       0.00000000      17.43000000  F        2      -0.02210848      -0.00000002       0.47581444
Si       0.00000000       3.83958982      17.43000000  F        2       0.06649459       0.00000000       0.45652345
Si       3.83958982       3.83958982      17.43000000  F        2      -0.08846230       0.00000000       0.45105944
Si       7.67917964       3.83958982      17.43000000  F        2       0.00121182       0.00000000       0.51017040
Si       1.91979491       0.00000000      18.78750000  F        1       0.01225961       0.00000000      -0.27093334
Si       5.75938473       0.00000000      18.78750000  F        1      -0.02510510       0.00000000      -0.25462458
Si       9.59897455       0.00000000      18.78750000  F        1       0.03044810       0.00000000      -0.20618471
Si       1.91979491       3.83958982      18.78750000  F        1      -0.00110858      -0.00000000      -0.19113553
Si       5.75938473       3.83958982      18.78750000  F        1       0.09123846      -0.00000000      -0.33483155
Si       9.59897455       3.83958982      18.78750000  F        1      -0.07735988      -0.00000000      -0.23990832
F        7.67917964       3.83958982      23.27687412  T        0      -0.01798600       0.00000000      -0.26870293
C        7.67917964       3.83958982      21.85722199  T        0       0.11701855      -0.00000000       0.21342313
H        6.63241322       3.83958982      21.53750000  T        0       0.03506640       0.00000000       0.19887981
H        8.20256285       4.74611614      21.53750000  T        0      -0.05136203      -0.04681000       0.06631155
H        8.20256285       2.93306350      21.53750000  T        0      -0.05136203       0.04681000       0.06631155
41
Lattice="11.518769465528859 0.0 0.0 0.0 7.679179643685906 0.0 0.0 0.0 30.7875" Properties=species:S:1:pos:R:3:move_mask:L:1:tags:I:1:forces:R:3 surface=Si100 species=CH3F site=bridge_Si_Si orientation=flipped height_A=2.25 substrate_atoms=36 calculation_kind="Rigid evaluated approach scan; not NEB" energy=-204.12960344208915 pbc="T T F"
Si       0.00000000       0.00000000      12.00000000  F        6      -0.00222532       0.00000000       0.24677955
Si       3.83958982       0.00000000      12.00000000  F        6       0.00250630       0.00000000       0.24723566
Si       7.67917964       0.00000000      12.00000000  F        6      -0.00027873       0.00000000       0.24840219
Si       0.00000000       3.83958982      12.00000000  F        6      -0.00276228      -0.00000000       0.25104182
Si       3.83958982       3.83958982      12.00000000  F        6       0.00284084      -0.00000000       0.25155969
Si       7.67917964       3.83958982      12.00000000  F        6      -0.00007799      -0.00000000       0.25525088
Si       1.91979491       0.00000000      13.35750000  F        5      -0.00040743      -0.00000002      -0.51967997
Si       5.75938473       0.00000000      13.35750000  F        5      -0.00177710      -0.00000002      -0.52124087
Si       9.59897455       0.00000000      13.35750000  F        5       0.00215350      -0.00000002      -0.52058795
Si       1.91979491       3.83958982      13.35750000  F        5       0.00250725       0.00000000      -0.52101704
Si       5.75938473       3.83958982      13.35750000  F        5      -0.01005739       0.00000000      -0.52980197
Si       9.59897455       3.83958982      13.35750000  F        5       0.00706377       0.00000000      -0.53557199
Si       1.91979491       1.91979491      14.71500000  F        4      -0.00145400       0.00687413       0.14997267
Si       5.75938473       1.91979491      14.71500000  F        4       0.00018804      -0.00366132       0.16708061
Si       9.59897455       1.91979491      14.71500000  F        4       0.00109115      -0.00480950       0.16718240
Si       1.91979491       5.75938473      14.71500000  F        4      -0.00145400      -0.00687411       0.14997266
Si       5.75938473       5.75938473      14.71500000  F        4       0.00018804       0.00366134       0.16708059
Si       9.59897455       5.75938473      14.71500000  F        4       0.00109115       0.00480952       0.16718239
Si       0.00000000       1.91979491      16.07250000  F        3      -0.00530115      -0.00551955      -0.16925499
Si       3.83958982       1.91979491      16.07250000  F        3       0.01143862      -0.01650605      -0.17489386
Si       7.67917964       1.91979491      16.07250000  F        3      -0.00425451      -0.10797514      -0.22186249
Si       0.00000000       5.75938473      16.07250000  F        3      -0.00530115       0.00551958      -0.16925498
Si       3.83958982       5.75938473      16.07250000  F        3       0.01143862       0.01650607      -0.17489385
Si       7.67917964       5.75938473      16.07250000  F        3      -0.00425451       0.10797516      -0.22186247
Si       0.00000000       0.00000000      17.43000000  F        2      -0.00655226      -0.00000002       0.54656304
Si       3.83958982       0.00000000      17.43000000  F        2       0.00010530      -0.00000002       0.53936929
Si       7.67917964       0.00000000      17.43000000  F        2       0.00229057      -0.00000002       0.38903721
Si       0.00000000       3.83958982      17.43000000  F        2       0.17762633       0.00000000       0.32600259
Si       3.83958982       3.83958982      17.43000000  F        2      -0.19908530       0.00000000       0.34451963
Si       7.67917964       3.83958982      17.43000000  F        2       0.02564033       0.00000000       0.70832738
Si       1.91979491       0.00000000      18.78750000  F        1      -0.00685903       0.00000000      -0.28369980
Si       5.75938473       0.00000000      18.78750000  F        1      -0.07205057       0.00000000      -0.28609704
Si       9.59897455       0.00000000      18.78750000  F        1       0.02242055       0.00000000      -0.25885574
Si       1.91979491       3.83958982      18.78750000  F        1       0.00876841      -0.00000000      -0.16308664
Si       5.75938473       3.83958982      18.78750000  F        1       0.03922740      -0.00000000      -0.46267602
Si       9.59897455       3.83958982      18.78750000  F        1      -0.03006481      -0.00000000      -0.42070390
F        7.67917964       3.83958982      22.77687412  T        0      -0.05450065      -0.00000000      -0.47785541
C        7.67917964       3.83958982      21.35722199  T        0       0.33444720      -0.00000000       0.52260716
H        6.63241322       3.83958982      21.03750000  T        0       0.03405979       0.00000000       0.33476375
H        8.20256285       4.74611614      21.03750000  T        0      -0.13918750      -0.00587811       0.22648290
H        8.20256285       2.93306350      21.03750000  T        0      -0.13918750       0.00587811       0.22648290
41
Lattice="11.518769465528859 0.0 0.0 0.0 7.679179643685906 0.0 0.0 0.0 30.7875" Properties=species:S:1:pos:R:3:move_mask:L:1:tags:I:1:forces:R:3 surface=Si100 species=CH3F site=bridge_Si_Si orientation=flipped height_A=1.9 substrate_atoms=36 calculation_kind="Rigid evaluated approach scan; not NEB" energy=-203.78099274623216 pbc="T T F"
Si       0.00000000       0.00000000      12.00000000  F        6      -0.00142784       0.00000000       0.24860871
Si       3.83958982       0.00000000      12.00000000  F        6       0.00227538       0.00000000       0.24958641
Si       7.67917964       0.00000000      12.00000000  F        6      -0.00087522       0.00000000       0.25131892
Si       0.00000000       3.83958982      12.00000000  F        6      -0.00211687      -0.00000000       0.25322119
Si       3.83958982       3.83958982      12.00000000  F        6       0.00255056      -0.00000000       0.25375334
Si       7.67917964       3.83958982      12.00000000  F        6      -0.00045099      -0.00000000       0.25692441
Si       1.91979491       0.00000000      13.35750000  F        5      -0.00107767      -0.00000002      -0.51693187
Si       5.75938473       0.00000000      13.35750000  F        5      -0.00196019      -0.00000002      -0.52413321
Si       9.59897455       0.00000000      13.35750000  F        5       0.00313643      -0.00000002      -0.52357287
Si       1.91979491       3.83958982      13.35750000  F        5       0.00224139       0.00000000      -0.52299554
Si       5.75938473       3.83958982      13.35750000  F        5      -0.00963456       0.00000000      -0.52231878
Si       9.59897455       3.83958982      13.35750000  F        5       0.00572544       0.00000000      -0.53322671
Si       1.91979491       1.91979491      14.71500000  F        4       0.00611572       0.00113171       0.14546530
Si       5.75938473       1.91979491      14.71500000  F        4      -0.00219094      -0.01777496       0.15071909
Si       9.59897455       1.91979491      14.71500000  F        4      -0.00095507      -0.01387826       0.16164128
Si       1.91979491       5.75938473      14.71500000  F        4       0.00611572      -0.00113168       0.14546529
Si       5.75938473       5.75938473      14.71500000  F        4      -0.00219094       0.01777499       0.15071908
Si       9.59897455       5.75938473      14.71500000  F        4      -0.00095507       0.01387828       0.16164127
Si       0.00000000       1.91979491      16.07250000  F        3       0.00213627       0.00045101      -0.17526063
Si       3.83958982       1.91979491      16.07250000  F        3       0.00538267       0.00105987      -0.17192463
Si       7.67917964       1.91979491      16.07250000  F        3       0.00564234      -0.11987985      -0.25696945
Si       0.00000000       5.75938473      16.07250000  F        3       0.00213627      -0.00045098      -0.17526062
Si       3.83958982       5.75938473      16.07250000  F        3       0.00538267      -0.00105984      -0.17192461
Si       7.67917964       5.75938473      16.07250000  F        3       0.00564234       0.11987988      -0.25696944
Si       0.00000000       0.00000000      17.43000000  F        2      -0.03048206      -0.00000002       0.54604672
Si       3.83958982       0.00000000      17.43000000  F        2       0.00685471      -0.00000002       0.52351920
Si       7.67917964       0.00000000      17.43000000  F        2       0.02077505      -0.00000002       0.34434683
Si       0.00000000       3.83958982      17.43000000  F        2       0.24841597       0.00000000       0.30803080
Si       3.83958982       3.83958982      17.43000000  F        2      -0.23666418       0.00000000       0.41077140
Si       7.67917964       3.83958982      17.43000000  F        2       0.01973461       0.00000000       0.85286077
Si       1.91979491       0.00000000      18.78750000  F        1      -0.01548535       0.00000000      -0.27773016
Si       5.75938473       0.00000000      18.78750000  F        1      -0.07199310       0.00000000      -0.23095971
Si       9.59897455       0.00000000      18.78750000  F        1       0.03796249       0.00000000      -0.27606113
Si       1.91979491       3.83958982      18.78750000  F        1       0.00705808      -0.00000000      -0.20869004
Si       5.75938473       3.83958982      18.78750000  F        1       0.02474302      -0.00000000      -0.60965676
Si       9.59897455       3.83958982      18.78750000  F        1       0.15440888      -0.00000000      -0.68640244
F        7.67917964       3.83958982      22.42687412  T        0      -0.08946550      -0.00000000      -0.53955526
C        7.67917964       3.83958982      21.00722199  T        0       0.65756251       0.00000000       0.92864395
H        6.63241322       3.83958982      20.68750000  T        0      -0.28097471      -0.00000000       0.21486614
H        8.20256285       4.74611614      20.68750000  T        0      -0.24154914       0.06357509       0.31119689
H        8.20256285       2.93306350      20.68750000  T        0      -0.24154914      -0.06357509       0.31119689
41
Lattice="11.518769465528859 0.0 0.0 0.0 7.679179643685906 0.0 0.0 0.0 30.7875" Properties=species:S:1:pos:R:3:move_mask:L:1:tags:I:1:forces:R:3 surface=Si100 species=CH3F site=bridge_Si_Si orientation=flipped height_A=1.6 substrate_atoms=36 calculation_kind="Rigid evaluated approach scan; not NEB" energy=-203.31001795744186 pbc="T T F"
Si       0.00000000       0.00000000      12.00000000  F        6      -0.00018460       0.00000000       0.25094455
Si       3.83958982       0.00000000      12.00000000  F        6       0.00124248       0.00000000       0.25115767
Si       7.67917964       0.00000000      12.00000000  F        6      -0.00117051       0.00000000       0.25653030
Si       0.00000000       3.83958982      12.00000000  F        6      -0.00159117      -0.00000000       0.25568845
Si       3.83958982       3.83958982      12.00000000  F        6       0.00227459      -0.00000000       0.25450484
Si       7.67917964       3.83958982      12.00000000  F        6      -0.00074485      -0.00000000       0.25822003
Si       1.91979491       0.00000000      13.35750000  F        5      -0.00176870      -0.00000002      -0.51465857
Si       5.75938473       0.00000000      13.35750000  F        5       0.00042033      -0.00000002      -0.52738373
Si       9.59897455       0.00000000      13.35750000  F        5       0.00203265      -0.00000002      -0.52808152
Si       1.91979491       3.83958982      13.35750000  F        5       0.00134654       0.00000000      -0.51871820
Si       5.75938473       3.83958982      13.35750000  F        5      -0.00776790       0.00000000      -0.51144770
Si       9.59897455       3.83958982      13.35750000  F        5       0.00386283       0.00000000      -0.52642324
Si       1.91979491       1.91979491      14.71500000  F        4       0.01225686      -0.00748678       0.14127659
Si       5.75938473       1.91979491      14.71500000  F        4      -0.00187169      -0.03478013       0.12950671
Si       9.59897455       1.91979491      14.71500000  F        4      -0.00422398      -0.02900154       0.14596051
Si       1.91979491       5.75938473      14.71500000  F        4       0.01225686       0.00748680       0.14127658
Si       5.75938473       5.75938473      14.71500000  F        4      -0.00187169       0.03478015       0.12950670
Si       9.59897455       5.75938473      14.71500000  F        4      -0.00422398       0.02900156       0.14596050
Si       0.00000000       1.91979491      16.07250000  F        3       0.01243809       0.01594542      -0.17105090
Si       3.83958982       1.91979491      16.07250000  F        3      -0.00444303       0.00962759      -0.15868033
Si       7.67917964       1.91979491      16.07250000  F        3       0.00856230      -0.10017841      -0.25322125
Si       0.00000000       5.75938473      16.07250000  F        3       0.01243809      -0.01594540      -0.17105088
Si       3.83958982       5.75938473      16.07250000  F        3      -0.00444303      -0.00962757      -0.15868032
Si       7.67917964       5.75938473      16.07250000  F        3       0.00856230       0.10017843      -0.25322123
Si       0.00000000       0.00000000      17.43000000  F        2      -0.04000446      -0.00000002       0.51572175
Si       3.83958982       0.00000000      17.43000000  F        2       0.01977615      -0.00000002       0.50121343
Si       7.67917964       0.00000000      17.43000000  F        2       0.02418400      -0.00000002       0.35630323
Si       0.00000000       3.83958982      17.43000000  F        2       0.20830197       0.00000000       0.43909974
Si       3.83958982       3.83958982      17.43000000  F        2      -0.28519080       0.00000000       0.52971849
Si       7.67917964       3.83958982      17.43000000  F        2       0.04932178       0.00000000       0.71539392
Si       1.91979491       0.00000000      18.78750000  F        1      -0.01395680       0.00000000      -0.26175243
Si       5.75938473       0.00000000      18.78750000  F        1      -0.13103729       0.00000000      -0.25295871
Si       9.59897455       0.00000000      18.78750000  F        1       0.08214197       0.00000000      -0.27429630
Si       1.91979491       3.83958982      18.78750000  F        1      -0.01755151      -0.00000000      -0.26383529
Si       5.75938473       3.83958982      18.78750000  F        1       0.05685951      -0.00000000      -1.06945502
Si       9.59897455       3.83958982      18.78750000  F        1       0.28397488      -0.00000000      -0.91140132
F        7.67917964       3.83958982      22.12687412  T        0      -0.13406321      -0.00000000      -0.57837346
C        7.67917964       3.83958982      20.70722199  T        0       1.15300403       0.00000000       1.25043150
H        6.63241322       3.83958982      20.38750000  T        0      -0.69547474      -0.00000000       0.52889873
H        8.20256285       4.74611614      20.38750000  T        0      -0.30183714       0.14203098       0.35368810
H        8.20256285       2.93306350      20.38750000  T        0      -0.30183714      -0.14203098       0.35368810
41
Lattice="11.518769465528859 0.0 0.0 0.0 7.679179643685906 0.0 0.0 0.0 30.7875" Properties=species:S:1:pos:R:3:move_mask:L:1:tags:I:1:forces:R:3 surface=Si100 species=CH3F site=bridge_Si_Si orientation=flipped height_A=1.3 substrate_atoms=36 calculation_kind="Rigid evaluated approach scan; not NEB" energy=-202.6103961761849 pbc="T T F"
Si       0.00000000       0.00000000      12.00000000  F        6       0.00101417       0.00000000       0.25442954
Si       3.83958982       0.00000000      12.00000000  F        6       0.00015009       0.00000000       0.25297038
Si       7.67917964       0.00000000      12.00000000  F        6      -0.00092498       0.00000000       0.25958243
Si       0.00000000       3.83958982      12.00000000  F        6      -0.00073742      -0.00000000       0.25833936
Si       3.83958982       3.83958982      12.00000000  F        6       0.00131429      -0.00000000       0.25446637
Si       7.67917964       3.83958982      12.00000000  F        6      -0.00046773      -0.00000000       0.25736509
Si       1.91979491       0.00000000      13.35750000  F        5      -0.00242538      -0.00000002      -0.51626736
Si       5.75938473       0.00000000      13.35750000  F        5       0.00211003      -0.00000002      -0.53591922
Si       9.59897455       0.00000000      13.35750000  F        5      -0.00074544      -0.00000002      -0.53219003
Si       1.91979491       3.83958982      13.35750000  F        5       0.00047248       0.00000000      -0.51162043
Si       5.75938473       3.83958982      13.35750000  F        5      -0.00804847       0.00000000      -0.50871356
Si       9.59897455       3.83958982      13.35750000  F        5       0.00522958       0.00000000      -0.52424293
Si       1.91979491       1.91979491      14.71500000  F        4       0.01144613      -0.01659783       0.13139569
Si       5.75938473       1.91979491      14.71500000  F        4      -0.00435898      -0.03771925       0.13317542
Si       9.59897455       1.91979491      14.71500000  F        4      -0.00600079      -0.03738587       0.14191672
Si       1.91979491       5.75938473      14.71500000  F        4       0.01144613       0.01659786       0.13139568
Si       5.75938473       5.75938473      14.71500000  F        4      -0.00435898       0.03771927       0.13317541
Si       9.59897455       5.75938473      14.71500000  F        4      -0.00600079       0.03738589       0.14191671
Si       0.00000000       1.91979491      16.07250000  F        3       0.01971144       0.03034151      -0.15904954
Si       3.83958982       1.91979491      16.07250000  F        3      -0.00810356       0.03586243      -0.12248266
Si       7.67917964       1.91979491      16.07250000  F        3       0.00847827      -0.06843884      -0.25149586
Si       0.00000000       5.75938473      16.07250000  F        3       0.01971144      -0.03034149      -0.15904953
Si       3.83958982       5.75938473      16.07250000  F        3      -0.00810356      -0.03586241      -0.12248265
Si       7.67917964       5.75938473      16.07250000  F        3       0.00847827       0.06843886      -0.25149585
Si       0.00000000       0.00000000      17.43000000  F        2      -0.02943260      -0.00000002       0.47010080
Si       3.83958982       0.00000000      17.43000000  F        2       0.04105317      -0.00000002       0.48271275
Si       7.67917964       0.00000000      17.43000000  F        2       0.01726646      -0.00000002       0.40557160
Si       0.00000000       3.83958982      17.43000000  F        2       0.15883929       0.00000000       0.55290258
Si       3.83958982       3.83958982      17.43000000  F        2      -0.45148849       0.00000000       0.57281710
Si       7.67917964       3.83958982      17.43000000  F        2       0.04000249       0.00000000       0.04486516
Si       1.91979491       0.00000000      18.78750000  F        1      -0.01205777       0.00000000      -0.24466244
Si       5.75938473       0.00000000      18.78750000  F        1      -0.21170589       0.00000000      -0.28179670
Si       9.59897455       0.00000000      18.78750000  F        1       0.11647638       0.00000000      -0.24697959
Si       1.91979491       3.83958982      18.78750000  F        1      -0.01253165      -0.00000000      -0.30618465
Si       5.75938473       3.83958982      18.78750000  F        1       0.24261093      -0.00000000      -1.64470089
Si       9.59897455       3.83958982      18.78750000  F        1       0.30379497      -0.00000000      -0.96523733
F        7.67917964       3.83958982      21.82687412  T        0      -0.21088680       0.00000000      -0.24278897
C        7.67917964       3.83958982      20.40722199  T        0       1.46379477      -0.00000000       1.15229328
H        6.63241322       3.83958982      20.08750000  T        0      -0.88148402       0.00000000       1.28490728
H        8.20256285       4.74611614      20.08750000  T        0      -0.30676875       0.29168917       0.40553041
H        8.20256285       2.93306350      20.08750000  T        0      -0.30676875      -0.29168917       0.40553041
