8
Lattice="24.0 0.0 0.0 0.0 24.0 0.0 0.0 0.0 24.0" Properties=species:S:1:pos:R:3:move_mask:L:1:forces:R:3 charge_spin="0 1" energy=-12708.078382536278 pbc="F F F"
Si       0.00000000       0.00000000       0.00000000  F      -0.32933444       0.00000003       0.01809554
H        1.39535738       0.00000000      -0.49333333  F       0.63893792      -0.00000001      -0.31414326
H       -0.69767869       1.20841494      -0.49333333  F      -0.15698963       0.32827932      -0.29982696
H       -0.69767869      -1.20841494      -0.49333333  F      -0.15698963      -0.32827933      -0.29982694
O       -0.00524096       0.00000001       1.64531721  T      -0.54556279      -0.00000002       0.64719729
H        0.85409908       0.00000001       2.08058616  T       0.67206023       0.00000001       0.29614290
F        2.82137319       0.00000004       2.11268964  T      -0.18598496       0.00000002       0.44625724
H        2.96558201      -0.00000001       1.19512991  T       0.06324088      -0.00000002      -0.49400136
8
Lattice="24.0 0.0 0.0 0.0 24.0 0.0 0.0 0.0 24.0" Properties=species:S:1:pos:R:3:move_mask:L:1:forces:R:3 charge_spin="0 1" energy=-12708.404809658708 pbc="F F F"
Si       0.00000000       0.00000000       0.00000000  F      -0.01549979       0.00392461      -1.02537955
H        1.39535738       0.00000000      -0.49333333  F       0.38383895      -0.00121395      -0.04107901
H       -0.69767869       1.20841494      -0.49333333  F      -0.18736943       0.32855860      -0.02447025
H       -0.69767869      -1.20841494      -0.49333333  F      -0.18580676      -0.32840288      -0.03708152
O        0.00573728       0.40743409       4.55197426  T      -0.66088381       0.43711331       0.57291603
H        0.83695931       0.01613963       4.83403213  T       0.53850597      -0.28132909       0.01003753
F        0.00656194      -0.00782065       1.61421686  T       0.01633027      -0.01249377       1.11401073
H       -0.01809192       0.27409439       3.59858113  T       0.11068928      -0.14607455      -0.56876388
