30
Lattice="7.6044 0.0 0.0 -3.802199999999998 6.585603580538386 0.0 0.0 -0.0 28.35945" Properties=species:S:1:pos:R:3:move_mask:L:1:spacegroup_kinds:I:1:tags:I:1:forces:R:3 spacegroup="P 63/m" unit_cell=conventional occupancy="_JSON {\"0\": {\"Si\": 1.0}, \"1\": {\"N\": 1.0}, \"2\": {\"N\": 1.0}}" surface=beta_Si3N4_001 species=HF site=atop_N orientation=upright height_A=3.25 substrate_atoms=28 calculation_kind="Rigid evaluated approach scan; not NEB" energy=-219.6502482702018 pbc="T T F"
Si       5.18010587       1.14956320      12.00000000  F        0        2       1.65653180       1.16915120       1.54692923
Si      -1.37790587       5.43604038      13.45315000  F        0        2      -0.11442020       0.58382190      -1.75229296
Si       4.01879613       3.91132168      12.00000000  F        0        2      -1.84089067       0.84995570       1.54689426
Si      -0.21659613       2.67428190      13.45315000  F        0        2      -0.44823900      -0.39088840      -1.75232136
Si       2.20769800       1.52471870      12.00000000  F        0        2       0.18373934      -2.01953048       1.54699207
Si       1.59450200       5.06088488      13.45315000  F        0        2       0.56343427      -0.19247899      -1.75227946
N       -1.02370433       2.17482973      12.00000000  F        1        2      -0.63287889      -0.63284517       0.19699647
N        4.82590433       4.41077385      13.45315000  F        1        2       0.16716441      -0.01892985       0.41477514
N        2.43059437       4.61163476      12.00000000  F        1        2       0.86460126      -0.23155444       0.19693287
N        1.37160563       1.97396882      13.45315000  F        1        2      -0.06724030       0.15413020       0.41478592
N       -1.40689004       6.38474267      12.00000000  F        1        2      -0.23180088       0.86439203       0.19695429
N        5.20909004       0.20086091      13.45315000  F        1        2      -0.09984870      -0.13514456       0.41478147
N        3.80216198       2.19517924      12.00000000  F        2        2       0.00084692       0.00049066      -1.77475438
N        0.00003802       4.39042434      13.45315000  F        2        2      -0.00100659      -0.00058144       0.58498550
Si       5.19680957       1.17519717      14.99220133  T        0        1       0.00819298       0.01047917       0.00152127
Si      -1.47802520       5.22046747      16.22830882  T        0        1      -0.00825413      -0.01417773      -0.00224881
Si       3.98825013       3.91296947      14.99221087  T        0        1      -0.01317065       0.00185571       0.00152123
Si       0.02015845       2.69536542      16.22830586  T        0        1       0.01640726      -0.00005766      -0.00224930
Si       2.22154490       1.49743862      14.99220474  T        0        1       0.00497842      -0.01233362       0.00152151
Si       1.45787501       5.25538295      16.22830532  T        0        1      -0.00815199       0.01423762      -0.00224900
N       -1.04155282       2.27817300      14.95816773  T        1        1       0.00214086       0.01363348       0.00399629
N        4.70836503       4.43881925      16.41698047  T        1        1      -0.01880665       0.01411432      -0.00117257
N        2.35003859       4.54451646      14.95817279  T        1        1      -0.01287712      -0.00496300       0.00399678
N        1.40608426       1.85814569      16.41697371  T        1        1      -0.00281822      -0.02334103      -0.00117363
N       -1.30848276       6.34853264      14.95817140  T        1        1       0.01073613      -0.00867036       0.00399649
N        5.29216188       0.28863680      16.41697145  T        1        1       0.02162634       0.00923058      -0.00117342
N        3.80220028       2.19520147      14.85264229  T        2        1       0.00000079       0.00000060      -0.00619457
N        0.00000443       4.39040648      16.62766275  T        2        1      -0.00000082       0.00000067       0.00501413
F        0.00004222       4.39042726      19.57034682  T        0        0       0.00000600       0.00000424      -0.01712753
H        0.00003645       4.39042332      20.51953725  T        0        0      -0.00000199      -0.00000134      -0.01735794
