30
Lattice="7.6044 0.0 0.0 -3.802199999999998 6.585603580538386 0.0 0.0 -0.0 28.35945" Properties=species:S:1:pos:R:3:move_mask:L:1:spacegroup_kinds:I:1:tags:I:1:forces:R:3 spacegroup="P 63/m" unit_cell=conventional occupancy="_JSON {\"0\": {\"Si\": 1.0}, \"1\": {\"N\": 1.0}, \"2\": {\"N\": 1.0}}" surface=beta_Si3N4_001 species=HF site=atop_N orientation=upright height_A=3.25 substrate_atoms=28 calculation_kind="Rigid evaluated approach scan; not NEB" energy=-219.64897025581294 pbc="T T F"
Si       5.18010587       1.14956320      12.00000000  F        0        2       1.65559150       1.16981074       1.54942723
Si      -1.37790587       5.43604038      13.45315000  F        0        2      -0.12551317       0.59869714      -1.75850800
Si       4.01879613       3.91132168      12.00000000  F        0        2      -1.84099163       0.84881142       1.54939187
Si      -0.21659613       2.67428190      13.45315000  F        0        2      -0.45557481      -0.40793298      -1.75853647
Si       2.20769800       1.52471870      12.00000000  F        0        2       0.18478077      -2.01904566       1.54949057
Si       1.59450200       5.06088488      13.45315000  F        0        2       0.58186375      -0.19030999      -1.75849332
N       -1.02370433       2.17482973      12.00000000  F        1        2      -0.63212949      -0.63260719       0.19328276
N        4.82590433       4.41077385      13.45315000  F        1        2       0.17939608      -0.01849277       0.41414305
N        2.43059437       4.61163476      12.00000000  F        1        2       0.86402028      -0.23102439       0.19321976
N        1.37160563       1.97396882      13.45315000  F        1        2      -0.07373457       0.16450412       0.41415575
N       -1.40689004       6.38474267      12.00000000  F        1        2      -0.23196953       0.86362375       0.19324102
N        5.20909004       0.20086091      13.45315000  F        1        2      -0.10558594      -0.14595641       0.41415036
N        3.80216198       2.19517924      12.00000000  F        2        2       0.00084693       0.00049070      -1.77725436
N        0.00003802       4.39042434      13.45315000  F        2        2      -0.00100642      -0.00058154       0.60425102
Si       5.19465495       1.17230078      14.99348297  T        0        1       0.01317121       0.02624516      -0.01919360
Si      -1.47573232       5.22227666      16.22670424  T        0        1      -0.01793494      -0.00716824       0.01295299
Si       3.99183582       3.91255157      14.99349229  T        0        1      -0.02931387      -0.00171262      -0.01918930
Si       0.01744504       2.69644613      16.22670146  T        0        1       0.01517309      -0.01194487       0.01295026
Si       2.22011369       1.50075266      14.99348659  T        0        1       0.01614955      -0.02453018      -0.01919998
Si       1.45829551       5.25249266      16.22670088  T        0        1       0.00275927       0.01911421       0.01295112
N       -1.04225524       2.27359228      14.95730167  T        1        1       0.00926635       0.03783778       0.00870823
N        4.71277687       4.43781771      16.41731048  T        1        1      -0.02855736       0.00529538       0.00279176
N        2.35435680       4.54619861      14.95730697  T        1        1      -0.03740096      -0.01089594       0.00870478
N        1.40474549       1.86246669      16.41730375  T        1        1       0.00969078      -0.02737394       0.00279661
N       -1.31209857       6.35143101      14.95730553  T        1        1       0.02813615      -0.02693727       0.00870469
N        5.28908863       0.28531685      16.41730161  T        1        1       0.01886440       0.02208235       0.00279226
N        3.80220030       2.19520148      14.85159431  T        2        1      -0.00000300      -0.00000266       0.01344688
N        0.00000439       4.39040630      16.62870125  T        2        1       0.00000176       0.00000107      -0.01136399
F        0.00004133       4.39042663      19.57333432  T        0        0       0.00000573       0.00000408      -0.02007046
H        0.00003675       4.39042352      20.52249835  T        0        0      -0.00000191      -0.00000128      -0.01974349
30
Lattice="7.6044 0.0 0.0 -3.802199999999998 6.585603580538386 0.0 0.0 -0.0 28.35945" Properties=species:S:1:pos:R:3:move_mask:L:1:spacegroup_kinds:I:1:tags:I:1:forces:R:3 spacegroup="P 63/m" unit_cell=conventional occupancy="_JSON {\"0\": {\"Si\": 1.0}, \"1\": {\"N\": 1.0}, \"2\": {\"N\": 1.0}}" surface=beta_Si3N4_001 species=HF site=atop_N orientation=upright height_A=3.25 substrate_atoms=28 calculation_kind="Rigid evaluated approach scan; not NEB" energy=-219.64898259079501 pbc="T T F"
Si       5.18010587       1.14956320      12.00000000  F        0        2       1.65560312       1.16980658       1.54938333
Si      -1.37790587       5.43604038      13.45315000  F        0        2      -0.12542127       0.59858063      -1.75847219
Si       4.01879613       3.91132168      12.00000000  F        0        2      -1.84099383       0.84882356       1.54934798
Si      -0.21659613       2.67428190      13.45315000  F        0        2      -0.45551985      -0.40779513      -1.75850067
Si       2.20769800       1.52471870      12.00000000  F        0        2       0.18477135      -2.01905364       1.54944666
Si       1.59450200       5.06088488      13.45315000  F        0        2       0.58171689      -0.19033131      -1.75845753
N       -1.02370433       2.17482973      12.00000000  F        1        2      -0.63213243      -0.63261047       0.19332046
N        4.82590433       4.41077385      13.45315000  F        1        2       0.17929842      -0.01851019       0.41413105
N        2.43059437       4.61163476      12.00000000  F        1        2       0.86402460      -0.23102529       0.19325745
N        1.37160563       1.97396882      13.45315000  F        1        2      -0.07367066       0.16442826       0.41414371
N       -1.40689004       6.38474267      12.00000000  F        1        2      -0.23197091       0.86362794       0.19327871
N        5.20909004       0.20086091      13.45315000  F        1        2      -0.10555219      -0.14586312       0.41413833
N        3.80216198       2.19517924      12.00000000  F        2        2       0.00084693       0.00049070      -1.77721522
N        0.00003802       4.39042434      13.45315000  F        2        2      -0.00100642      -0.00058154       0.60409509
Si       5.19466680       1.17232440      14.99346570  T        0        1       0.01326628       0.02592835      -0.01872501
Si      -1.47574846       5.22227021      16.22671590  T        0        1      -0.01779715      -0.00736121       0.01293546
Si       3.99180944       3.91255003      14.99347502  T        0        1      -0.02908709      -0.00147200      -0.01872085
Si       0.01745870       2.69643538      16.22671312  T        0        1       0.01527147      -0.01172908       0.01293281
Si       2.22012822       1.50073058      14.99346931  T        0        1       0.01582741      -0.02445402      -0.01873115
Si       1.45829799       5.25250986      16.22671254  T        0        1       0.00252323       0.01909147       0.01293365
N       -1.04224690       2.27362633      14.95730951  T        1        1       0.00904649       0.03756531       0.00856245
N        4.71275117       4.43782248      16.41731299  T        1        1      -0.02868110       0.00526228       0.00252764
N        2.35432314       4.54618880      14.95731480  T        1        1      -0.03705509      -0.01095004       0.00855908
N        1.40475421       1.86244205      16.41730627  T        1        1       0.00978149      -0.02746464       0.00253224
N       -1.31207325       6.35140677      14.95731336  T        1        1       0.02801007      -0.02661085       0.00855902
N        5.28910561       0.28533672      16.41730412  T        1        1       0.01889760       0.02220611       0.00252807
N        3.80220030       2.19520148      14.85160641  T        2        1      -0.00000286      -0.00000253       0.01323389
N        0.00000439       4.39040630      16.62869102  T        2        1       0.00000169       0.00000108      -0.01124087
F        0.00004134       4.39042663      19.57331626  T        0        0       0.00000573       0.00000409      -0.02004351
H        0.00003675       4.39042352      20.52248058  T        0        0      -0.00000191      -0.00000128      -0.01974005
30
Lattice="7.6044 0.0 0.0 -3.802199999999998 6.585603580538386 0.0 0.0 -0.0 28.35945" Properties=species:S:1:pos:R:3:move_mask:L:1:spacegroup_kinds:I:1:tags:I:1:forces:R:3 spacegroup="P 63/m" unit_cell=conventional occupancy="_JSON {\"0\": {\"Si\": 1.0}, \"1\": {\"N\": 1.0}, \"2\": {\"N\": 1.0}}" surface=beta_Si3N4_001 species=HF site=atop_N orientation=upright height_A=3.25 substrate_atoms=28 calculation_kind="Rigid evaluated approach scan; not NEB" energy=-219.6490069423204 pbc="T T F"
Si       5.18010587       1.14956320      12.00000000  F        0        2       1.65562609       1.16979828       1.54929697
Si      -1.37790587       5.43604038      13.45315000  F        0        2      -0.12523853       0.59834862      -1.75840031
Si       4.01879613       3.91132168      12.00000000  F        0        2      -1.84099813       0.84884760       1.54926163
Si      -0.21659613       2.67428190      13.45315000  F        0        2      -0.45541028      -0.40752087      -1.75842879
Si       2.20769800       1.52471870      12.00000000  F        0        2       0.18475267      -2.01906938       1.54936028
Si       1.59450200       5.06088488      13.45315000  F        0        2       0.58142459      -0.19037356      -1.75838567
N       -1.02370433       2.17482973      12.00000000  F        1        2      -0.63213840      -0.63261696       0.19339510
N        4.82590433       4.41077385      13.45315000  F        1        2       0.17910418      -0.01854424       0.41410768
N        2.43059437       4.61163476      12.00000000  F        1        2       0.86403321      -0.23102722       0.19333208
N        1.37160563       1.97396882      13.45315000  F        1        2      -0.07354406       0.16427707       0.41412024
N       -1.40689004       6.38474267      12.00000000  F        1        2      -0.23197354       0.86363637       0.19335334
N        5.20909004       0.20086091      13.45315000  F        1        2      -0.10548454      -0.14567787       0.41411492
N        3.80216198       2.19517924      12.00000000  F        2        2       0.00084693       0.00049070      -1.77713810
N        0.00003802       4.39042434      13.45315000  F        2        2      -0.00100643      -0.00058154       0.60378490
Si       5.19469061       1.17237134      14.99343160  T        0        1       0.01344914       0.02530705      -0.01780602
Si      -1.47578062       5.22225711      16.22673920  T        0        1      -0.01752923      -0.00774078       0.01289591
Si       3.99175688       3.91254718      14.99344093  T        0        1      -0.02864058      -0.00100321      -0.01780212
Si       0.01748611       2.69641409      16.22673642  T        0        1       0.01546653      -0.01130730       0.01289340
Si       2.22015698       1.50068649      14.99343520  T        0        1       0.01519744      -0.02430158      -0.01781168
Si       1.45830273       5.25254426      16.22673584  T        0        1       0.00206049       0.01904943       0.01289419
N       -1.04223043       2.27369419      14.95732504  T        1        1       0.00861618       0.03702637       0.00827722
N        4.71269963       4.43783198      16.41731776  T        1        1      -0.02891505       0.00520345       0.00201279
N        2.35425614       4.54616913      14.95733033  T        1        1      -0.03637325      -0.01105312       0.00827399
N        1.40477175       1.86239267      16.41731104  T        1        1       0.00994974      -0.02763800       0.00201689
N       -1.31202271       6.35135859      14.95732889  T        1        1       0.02775841      -0.02596915       0.00827399
N        5.28913961       0.28537661      16.41730889  T        1        1       0.01896363       0.02243819       0.00201306
N        3.80220029       2.19520147      14.85163041  T        2        1      -0.00000259      -0.00000229       0.01281147
N        0.00000439       4.39040630      16.62867068  T        2        1       0.00000156       0.00000110      -0.01099463
F        0.00004135       4.39042664      19.57328014  T        0        0       0.00000573       0.00000409      -0.01999135
H        0.00003674       4.39042352      20.52244503  T        0        0      -0.00000191      -0.00000128      -0.01973140
30
Lattice="7.6044 0.0 0.0 -3.802199999999998 6.585603580538386 0.0 0.0 -0.0 28.35945" Properties=species:S:1:pos:R:3:move_mask:L:1:spacegroup_kinds:I:1:tags:I:1:forces:R:3 spacegroup="P 63/m" unit_cell=conventional occupancy="_JSON {\"0\": {\"Si\": 1.0}, \"1\": {\"N\": 1.0}, \"2\": {\"N\": 1.0}}" surface=beta_Si3N4_001 species=HF site=atop_N orientation=upright height_A=3.25 substrate_atoms=28 calculation_kind="Rigid evaluated approach scan; not NEB" energy=-219.6490427022886 pbc="T T F"
Si       5.18010587       1.14956320      12.00000000  F        0        2       1.65565983       1.16978589       1.54917121
Si      -1.37790587       5.43604038      13.45315000  F        0        2      -0.12496709       0.59800323      -1.75829173
Si       4.01879613       3.91132168      12.00000000  F        0        2      -1.84100427       0.84888303       1.54913588
Si      -0.21659613       2.67428190      13.45315000  F        0        2      -0.45524687      -0.40711310      -1.75832020
Si       2.20769800       1.52471870      12.00000000  F        0        2       0.18472507      -2.01909242       1.54923449
Si       1.59450200       5.06088488      13.45315000  F        0        2       0.58098973      -0.19043592      -1.75827711
N       -1.02370433       2.17482973      12.00000000  F        1        2      -0.63214761      -0.63262647       0.19350515
N        4.82590433       4.41077385      13.45315000  F        1        2       0.17881553      -0.01859327       0.41407429
N        2.43059437       4.61163476      12.00000000  F        1        2       0.86404605      -0.23103044       0.19344209
N        1.37160563       1.97396882      13.45315000  F        1        2      -0.07335729       0.16405162       0.41408671
N       -1.40689004       6.38474267      12.00000000  F        1        2      -0.23197717       0.86364910       0.19346336
N        5.20909004       0.20086091      13.45315000  F        1        2      -0.10538267      -0.14540337       0.41408145
N        3.80216198       2.19517924      12.00000000  F        2        2       0.00084693       0.00049070      -1.77702541
N        0.00003802       4.39042434      13.45315000  F        2        2      -0.00100645      -0.00058153       0.60332388
Si       5.19472661       1.17244100      14.99338163  T        0        1       0.01370447       0.02440711      -0.01647477
Si      -1.47582854       5.22223694      16.22677414  T        0        1      -0.01714699      -0.00829347       0.01282473
Si       3.99167856       3.91254354      14.99339097  T        0        1      -0.02798903      -0.00033244      -0.01647124
Si       0.01752754       2.69638268      16.22677135  T        0        1       0.01575450      -0.01069999       0.01282243
Si       2.22019933       1.50062049      14.99338522  T        0        1       0.01428971      -0.02407249      -0.01647974
Si       1.45830922       5.25259584      16.22677077  T        0        1       0.00139063       0.01899503       0.01282314
N       -1.04220628       2.27379536      14.95734799  T        1        1       0.00799520       0.03623352       0.00786584
N        4.71262193       4.43784616      16.41732423  T        1        1      -0.02923085       0.00513434       0.00127530
N        2.35415645       4.54613946      14.95735327  T        1        1      -0.03537621      -0.01119432       0.00786281
N        1.40479831       1.86231830      16.41731752  T        1        1       0.01016798      -0.02787718       0.00127869
N       -1.31194717       6.35128710      14.95735183  T        1        1       0.02738217      -0.02503555       0.00786289
N        5.28919074       0.28543680      16.41731536  T        1        1       0.01906169       0.02274636       0.00127536
N        3.80220028       2.19520147      14.85166589  T        2        1      -0.00000220      -0.00000193       0.01218708
N        0.00000440       4.39040631      16.62864047  T        2        1       0.00000137       0.00000113      -0.01062520
F        0.00004136       4.39042665      19.57322600  T        0        0       0.00000574       0.00000409      -0.01991746
H        0.00003674       4.39042351      20.52239168  T        0        0      -0.00000191      -0.00000128      -0.01971392
30
Lattice="7.6044 0.0 0.0 -3.802199999999998 6.585603580538386 0.0 0.0 -0.0 28.35945" Properties=species:S:1:pos:R:3:move_mask:L:1:spacegroup_kinds:I:1:tags:I:1:forces:R:3 spacegroup="P 63/m" unit_cell=conventional occupancy="_JSON {\"0\": {\"Si\": 1.0}, \"1\": {\"N\": 1.0}, \"2\": {\"N\": 1.0}}" surface=beta_Si3N4_001 species=HF site=atop_N orientation=upright height_A=3.25 substrate_atoms=28 calculation_kind="Rigid evaluated approach scan; not NEB" energy=-219.64908902826969 pbc="T T F"
Si       5.18010587       1.14956320      12.00000000  F        0        2       1.65570348       1.16976948       1.54901075
Si      -1.37790587       5.43604038      13.45315000  F        0        2      -0.12461022       0.59754763      -1.75814546
Si       4.01879613       3.91132168      12.00000000  F        0        2      -1.84101189       0.84892904       1.54897544
Si      -0.21659613       2.67428190      13.45315000  F        0        2      -0.45503072      -0.40657623      -1.75817393
Si       2.20769800       1.52471870      12.00000000  F        0        2       0.18468902      -2.01912202       1.54907399
Si       1.59450200       5.06088488      13.45315000  F        0        2       0.58041672      -0.19051715      -1.75813089
N       -1.02370433       2.17482973      12.00000000  F        1        2      -0.63216037      -0.63263872       0.19364821
N        4.82590433       4.41077385      13.45315000  F        1        2       0.17843579      -0.01865471       0.41403296
N        2.43059437       4.61163476      12.00000000  F        1        2       0.86406305      -0.23103537       0.19358512
N        1.37160563       1.97396882      13.45315000  F        1        2      -0.07311423       0.16375349       0.41404521
N       -1.40689004       6.38474267      12.00000000  F        1        2      -0.23198140       0.86366629       0.19360639
N        5.20909004       0.20086091      13.45315000  F        1        2      -0.10524599      -0.14504378       0.41404003
N        3.80216198       2.19517924      12.00000000  F        2        2       0.00084693       0.00049070      -1.77688090
N        0.00003802       4.39042434      13.45315000  F        2        2      -0.00100646      -0.00058153       0.60271721
Si       5.19477514       1.17253243      14.99331725  T        0        1       0.01400867       0.02326810      -0.01478989
Si      -1.47589187       5.22220902      16.22682070  T        0        1      -0.01667390      -0.00899814       0.01270703
Si       3.99157511       3.91253986      14.99332661  T        0        1      -0.02715491       0.00050010      -0.01478683
Si       0.01758338       2.69634180      16.22681789  T        0        1       0.01612879      -0.00993802       0.01270498
Si       2.22025426       1.50053273      14.99332082  T        0        1       0.01315034      -0.02376613      -0.01479399
Si       1.45831670       5.25266464      16.22681732  T        0        1       0.00054371       0.01893803       0.01270560
N       -1.04217513       2.27392910      14.95737790  T        1        1       0.00721405       0.03520604       0.00734882
N        4.71251756       4.43786498      16.41733155  T        1        1      -0.02958562       0.00507823       0.00035836
N        2.35402506       4.54609956      14.95738317  T        1        1      -0.03409590      -0.01135686       0.00734607
N        1.40483419       1.86221853      16.41732486  T        1        1       0.01039457      -0.02815666       0.00036086
N       -1.31184693       6.35119328      14.95738173  T        1        1       0.02688278      -0.02384609       0.00734623
N        5.28925922       0.28551777      16.41732268  T        1        1       0.01919048       0.02308181       0.00035815
N        3.80220028       2.19520146      14.85171217  T        2        1      -0.00000171      -0.00000148       0.01137230
N        0.00000440       4.39040631      16.62860076  T        2        1       0.00000112       0.00000117      -0.01013261
F        0.00004138       4.39042667      19.57315380  T        0        0       0.00000574       0.00000409      -0.01982672
H        0.00003673       4.39042351      20.52232043  T        0        0      -0.00000192      -0.00000128      -0.01968247
30
Lattice="7.6044 0.0 0.0 -3.802199999999998 6.585603580538386 0.0 0.0 -0.0 28.35945" Properties=species:S:1:pos:R:3:move_mask:L:1:spacegroup_kinds:I:1:tags:I:1:forces:R:3 spacegroup="P 63/m" unit_cell=conventional occupancy="_JSON {\"0\": {\"Si\": 1.0}, \"1\": {\"N\": 1.0}, \"2\": {\"N\": 1.0}}" surface=beta_Si3N4_001 species=HF site=atop_N orientation=upright height_A=3.25 substrate_atoms=28 calculation_kind="Rigid evaluated approach scan; not NEB" energy=-219.6491449181023 pbc="T T F"
Si       5.18010587       1.14956320      12.00000000  F        0        2       1.65575586       1.16974914       1.54882191
Si      -1.37790587       5.43604038      13.45315000  F        0        2      -0.12417231       0.59698614      -1.75796019
Si       4.01879613       3.91132168      12.00000000  F        0        2      -1.84102046       0.84898458       1.54878662
Si      -0.21659613       2.67428190      13.45315000  F        0        2      -0.45476338      -0.40591625      -1.75798866
Si       2.20769800       1.52471870      12.00000000  F        0        2       0.18464520      -2.01915722       1.54888510
Si       1.59450200       5.06088488      13.45315000  F        0        2       0.57971147      -0.19061562      -1.75794566
N       -1.02370433       2.17482973      12.00000000  F        1        2      -0.63217710      -0.63265335       0.19382107
N        4.82590433       4.41077385      13.45315000  F        1        2       0.17796938      -0.01872516       0.41398659
N        2.43059437       4.61163476      12.00000000  F        1        2       0.86408409      -0.23104255       0.19375794
N        1.37160563       1.97396882      13.45315000  F        1        2      -0.07282004       0.16338480       0.41399865
N       -1.40689004       6.38474267      12.00000000  F        1        2      -0.23198570       0.86368811       0.19377923
N        5.20909004       0.20086091      13.45315000  F        1        2      -0.10507377      -0.14460463       0.41399356
N        3.80216198       2.19517924      12.00000000  F        2        2       0.00084693       0.00049070      -1.77670962
N        0.00003802       4.39042434      13.45315000  F        2        2      -0.00100648      -0.00058153       0.60197188
Si       5.19483671       1.17264443      14.99324044  T        0        1       0.01433036       0.02194264      -0.01282960
Si      -1.47597015       5.22217240      16.22687881  T        0        1      -0.01613942      -0.00982575       0.01252280
Si       3.99144734       3.91253719      14.99324981  T        0        1      -0.02616809       0.00144094      -0.01282709
Si       0.01765422       2.69629233      16.22687600  T        0        1       0.01657893      -0.00906144       0.01252105
Si       2.22032049       1.50042342      14.99324398  T        0        1       0.01184062      -0.02338165      -0.01283272
Si       1.45832413       5.25275073      16.22687543  T        0        1      -0.00044039       0.01888937       0.01252156
N       -1.04213788       2.27409439      14.95741421  T        1        1       0.00631360       0.03396980       0.00675368
N        4.71238587       4.43788840      16.41733860  T        1        1      -0.02992386       0.00506501      -0.00068059
N        2.35386329       4.54604916      14.95741947  T        1        1      -0.03257517      -0.01151831       0.00675124
N        1.40487975       1.86209280      16.41733192  T        1        1       0.01057582      -0.02844331      -0.00067910
N       -1.31172239       6.35107840      14.95741802  T        1        1       0.02626223      -0.02244904       0.00675151
N        5.28934534       0.28562010      16.41732973  T        1        1       0.01934815       0.02338151      -0.00068111
N        3.80220026       2.19520145      14.85176834  T        2        1      -0.00000114      -0.00000097       0.01038305
N        0.00000441       4.39040631      16.62855210  T        2        1       0.00000084       0.00000121      -0.00951731
F        0.00004141       4.39042669      19.57306352  T        0        0       0.00000575       0.00000409      -0.01972467
H        0.00003672       4.39042350      20.52223119  T        0        0      -0.00000192      -0.00000128      -0.01963112
30
Lattice="7.6044 0.0 0.0 -3.802199999999998 6.585603580538386 0.0 0.0 -0.0 28.35945" Properties=species:S:1:pos:R:3:move_mask:L:1:spacegroup_kinds:I:1:tags:I:1:forces:R:3 spacegroup="P 63/m" unit_cell=conventional occupancy="_JSON {\"0\": {\"Si\": 1.0}, \"1\": {\"N\": 1.0}, \"2\": {\"N\": 1.0}}" surface=beta_Si3N4_001 species=HF site=atop_N orientation=upright height_A=3.25 substrate_atoms=28 calculation_kind="Rigid evaluated approach scan; not NEB" energy=-219.64920929156992 pbc="T T F"
Si       5.18010587       1.14956320      12.00000000  F        0        2       1.65581550       1.16972494       1.54861246
Si      -1.37790587       5.43604038      13.45315000  F        0        2      -0.12365884       0.59632421      -1.75773435
Si       4.01879613       3.91132168      12.00000000  F        0        2      -1.84102933       0.84904833       1.54857719
Si      -0.21659613       2.67428190      13.45315000  F        0        2      -0.45444684      -0.40514059      -1.75776282
Si       2.20769800       1.52471870      12.00000000  F        0        2       0.18459442      -2.01919678       1.54867560
Si       1.59450200       5.06088488      13.45315000  F        0        2       0.57888146      -0.19072931      -1.75771989
N       -1.02370433       2.17482973      12.00000000  F        1        2      -0.63219833      -0.63266989       0.19401979
N        4.82590433       4.41077385      13.45315000  F        1        2       0.17742174      -0.01880043       0.41393887
N        2.43059437       4.61163476      12.00000000  F        1        2       0.86410904      -0.23105267       0.19395661
N        1.37160563       1.97396882      13.45315000  F        1        2      -0.07248106       0.16294819       0.41395071
N       -1.40689004       6.38474267      12.00000000  F        1        2      -0.23198940       0.86371478       0.19397791
N        5.20909004       0.20086091      13.45315000  F        1        2      -0.10486512      -0.14409272       0.41394572
N        3.80216198       2.19517924      12.00000000  F        2        2       0.00084693       0.00049070      -1.77651777
N        0.00003802       4.39042434      13.45315000  F        2        2      -0.00100650      -0.00058152       0.60109657
Si       5.19491187       1.17277548      14.99315361  T        0        1       0.01463166       0.02049435      -0.01068912
Si      -1.47606285       5.22212590      16.22694838  T        0        1      -0.01557606      -0.01073937       0.01224773
Si       3.99129627       3.91253678      14.99316300  T        0        1      -0.02506470       0.00242552      -0.01068719
Si       0.01774084       2.69623532      16.22694556  T        0        1       0.01708917      -0.00811685       0.01224630
Si       2.22039643       1.50029280      14.99315713  T        0        1       0.01043465      -0.02291808      -0.01069118
Si       1.45833021       5.25285426      16.22694499  T        0        1      -0.00151342       0.01885873       0.01224669
N       -1.04209566       2.27429000      14.95745619  T        1        1       0.00534374       0.03255669       0.00611404
N        4.71222610       4.43791645      16.41734400  T        1        1      -0.03018131       0.00512884      -0.00177203
N        2.35367278       4.54598792      14.95746143  T        1        1      -0.03086657      -0.01165142       0.00611196
N        1.40493534       1.86194043      16.41733735  T        1        1       0.01064999      -0.02869854      -0.00177161
N       -1.31157411       6.35094405      14.95746000  T        1        1       0.02552319      -0.02090351       0.00611232
N        5.28944953       0.28574444      16.41733514  T        1        1       0.01953216       0.02357276      -0.00177286
N        3.80220025       2.19520144      14.85183321  T        2        1      -0.00000053      -0.00000042       0.00923967
N        0.00000442       4.39040632      16.62849517  T        2        1       0.00000053       0.00000124      -0.00878071
F        0.00004144       4.39042671      19.57295507  T        0        0       0.00000576       0.00000410      -0.01961640
H        0.00003671       4.39042350      20.52212380  T        0        0      -0.00000192      -0.00000129      -0.01955419
30
Lattice="7.6044 0.0 0.0 -3.802199999999998 6.585603580538386 0.0 0.0 -0.0 28.35945" Properties=species:S:1:pos:R:3:move_mask:L:1:spacegroup_kinds:I:1:tags:I:1:forces:R:3 spacegroup="P 63/m" unit_cell=conventional occupancy="_JSON {\"0\": {\"Si\": 1.0}, \"1\": {\"N\": 1.0}, \"2\": {\"N\": 1.0}}" surface=beta_Si3N4_001 species=HF site=atop_N orientation=upright height_A=3.25 substrate_atoms=28 calculation_kind="Rigid evaluated approach scan; not NEB" energy=-219.64928106424526 pbc="T T F"
Si       5.18010587       1.14956320      12.00000000  F        0        2       1.65588071       1.16969697       1.54839129
Si      -1.37790587       5.43604038      13.45315000  F        0        2      -0.12307627       0.59556844      -1.75746635
Si       4.01879613       3.91132168      12.00000000  F        0        2      -1.84103772       0.84911880       1.54835605
Si      -0.21659613       2.67428190      13.45315000  F        0        2      -0.45408359      -0.40425819      -1.75749482
Si       2.20769800       1.52471870      12.00000000  F        0        2       0.18453758      -2.01923928       1.54845437
Si       1.59450200       5.06088488      13.45315000  F        0        2       0.57793563      -0.19085592      -1.75745196
N       -1.02370433       2.17482973      12.00000000  F        1        2      -0.63222464      -0.63268781       0.19423980
N        4.82590433       4.41077385      13.45315000  F        1        2       0.17679926      -0.01887581       0.41389423
N        2.43059437       4.61163476      12.00000000  F        1        2       0.86413772      -0.23106649       0.19417658
N        1.37160563       1.97396882      13.45315000  F        1        2      -0.07210456       0.16244682       0.41390584
N       -1.40689004       6.38474267      12.00000000  F        1        2      -0.23199176       0.86374655       0.19419789
N        5.20909004       0.20086091      13.45315000  F        1        2      -0.10461914      -0.14351593       0.41390096
N        3.80216198       2.19517924      12.00000000  F        2        2       0.00084693       0.00049070      -1.77631255
N        0.00003802       4.39042434      13.45315000  F        2        2      -0.00100653      -0.00058152       0.60010153
Si       5.19500125       1.17292386      14.99305960  T        0        1       0.01487041       0.01899451      -0.00847616
Si      -1.47616942       5.22206810      16.22702919  T        0        1      -0.01501531      -0.01169478       0.01185459
Si       3.99112308       3.91254001      14.99306901  T        0        1      -0.02388537       0.00338169      -0.00847483
Si       0.01784417       2.69617195      16.22702635  T        0        1       0.01763693      -0.00715364       0.01185350
Si       2.22048026       1.50014120      14.99306309  T        0        1       0.00901531      -0.02237455      -0.00847717
Si       1.45833343       5.25297544      16.22702579  T        0        1      -0.00262134       0.01885124       0.01185376
N       -1.04204972       2.27451439      14.95750306  T        1        1       0.00436111       0.03100354       0.00546806
N        4.71203747       4.43794932      16.41734624  T        1        1      -0.03029082       0.00530455      -0.00283802
N        2.35345548       4.54591550      14.95750828  T        1        1      -0.02903031      -0.01172555       0.00546636
N        1.40500118       1.86176067      16.41733960  T        1        1       0.01055328      -0.02888158      -0.00283868
N       -1.31140274       6.35079210      14.95750685  T        1        1       0.02466926      -0.01927692       0.00546682
N        5.28957230       0.28589135      16.41733737  T        1        1       0.01973908       0.02357996      -0.00283917
N        3.80220024       2.19520143      14.85190531  T        2        1       0.00000008       0.00000013       0.00796690
N        0.00000443       4.39040633      16.62843090  T        2        1       0.00000022       0.00000128      -0.00792596
F        0.00004148       4.39042673      19.57282833  T        0        0       0.00000577       0.00000410      -0.01950528
H        0.00003670       4.39042349      20.52199812  T        0        0      -0.00000192      -0.00000129      -0.01944759
30
Lattice="7.6044 0.0 0.0 -3.802199999999998 6.585603580538386 0.0 0.0 -0.0 28.35945" Properties=species:S:1:pos:R:3:move_mask:L:1:spacegroup_kinds:I:1:tags:I:1:forces:R:3 spacegroup="P 63/m" unit_cell=conventional occupancy="_JSON {\"0\": {\"Si\": 1.0}, \"1\": {\"N\": 1.0}, \"2\": {\"N\": 1.0}}" surface=beta_Si3N4_001 species=HF site=atop_N orientation=upright height_A=3.25 substrate_atoms=28 calculation_kind="Rigid evaluated approach scan; not NEB" energy=-219.64936781574082 pbc="T T F"
Si       5.18010587       1.14956320      12.00000000  F        0        2       1.65595713       1.16966171       1.54814412
Si      -1.37790587       5.43604038      13.45315000  F        0        2      -0.12236006       0.59463230      -1.75711923
Si       4.01879613       3.91132168      12.00000000  F        0        2      -1.84104540       0.84920263       1.54810891
Si      -0.21659613       2.67428190      13.45315000  F        0        2      -0.45363096      -0.40316985      -1.75714770
Si       2.20769800       1.52471870      12.00000000  F        0        2       0.18446882      -2.01928785       1.54820714
Si       1.59450200       5.06088488      13.45315000  F        0        2       0.57676677      -0.19100808      -1.75710492
N       -1.02370433       2.17482973      12.00000000  F        1        2      -0.63226034      -0.63270855       0.19450217
N        4.82590433       4.41077385      13.45315000  F        1        2       0.17603192      -0.01895355       0.41385430
N        2.43059437       4.61163476      12.00000000  F        1        2       0.86417355      -0.23108704       0.19443889
N        1.37160563       1.97396882      13.45315000  F        1        2      -0.07165358       0.16182118       0.41386568
N       -1.40689004       6.38474267      12.00000000  F        1        2      -0.23199188       0.86378786       0.19446022
N        5.20909004       0.20086091      13.45315000  F        1        2      -0.10430278      -0.14281250       0.41386091
N        3.80216198       2.19517924      12.00000000  F        2        2       0.00084693       0.00049070      -1.77607908
N        0.00003802       4.39042434      13.45315000  F        2        2      -0.00100655      -0.00058151       0.59887518
Si       5.19511730       1.17310596      14.99295081  T        0        1       0.01501147       0.01736169      -0.00607615
Si      -1.47630275       5.22198920      16.22713116  T        0        1      -0.01442763      -0.01274185       0.01124993
Si       3.99090734       3.91254947      14.99296024  T        0        1      -0.02254202       0.00431972      -0.00607545
Si       0.01797917       2.69609595      16.22712830  T        0        1       0.01825064      -0.00612130       0.01124919
Si       2.22057997       1.49994964      14.99295427  T        0        1       0.00752962      -0.02167993      -0.00607607
Si       1.45833176       5.25313036      16.22712775  T        0        1      -0.00382210       0.01886626       0.01124932
N       -1.04199615       2.27479402      14.95755960  T        1        1       0.00332891       0.02916932       0.00479299
N        4.71179458       4.43799170      16.41734319  T        1        1      -0.03016725       0.00566498      -0.00389342
N        2.35318654       4.54582207      14.95756480  T        1        1      -0.02692586      -0.01170208       0.00479171
N        1.40508593       1.86152916      16.41733656  T        1        1       0.01018006      -0.02895513      -0.00389518
N       -1.31118736       6.35060593      14.95756336  T        1        1       0.02359671      -0.01746691       0.00479225
N        5.28973044       0.28608051      16.41733432  T        1        1       0.01998944       0.02329297      -0.00389490
N        3.80220023       2.19520142      14.85199147  T        2        1       0.00000072       0.00000070       0.00644216
N        0.00000443       4.39040634      16.62835258  T        2        1      -0.00000012       0.00000130      -0.00684982
F        0.00004152       4.39042677      19.57266670  T        0        0       0.00000578       0.00000411      -0.01937952
H        0.00003669       4.39042348      20.52183763  T        0        0      -0.00000193      -0.00000129      -0.01929365
30
Lattice="7.6044 0.0 0.0 -3.802199999999998 6.585603580538386 0.0 0.0 -0.0 28.35945" Properties=species:S:1:pos:R:3:move_mask:L:1:spacegroup_kinds:I:1:tags:I:1:forces:R:3 spacegroup="P 63/m" unit_cell=conventional occupancy="_JSON {\"0\": {\"Si\": 1.0}, \"1\": {\"N\": 1.0}, \"2\": {\"N\": 1.0}}" surface=beta_Si3N4_001 species=HF site=atop_N orientation=upright height_A=3.25 substrate_atoms=28 calculation_kind="Rigid evaluated approach scan; not NEB" energy=-219.64947106898603 pbc="T T F"
Si       5.18010587       1.14956320      12.00000000  F        0        2       1.65604418       1.16961752       1.54788061
Si      -1.37790587       5.43604038      13.45315000  F        0        2      -0.12149253       0.59348848      -1.75667335
Si       4.01879613       3.91132168      12.00000000  F        0        2      -1.84105067       0.84930012       1.54784544
Si      -0.21659613       2.67428190      13.45315000  F        0        2      -0.45307413      -0.40184662      -1.75670181
Si       2.20769800       1.52471870      12.00000000  F        0        2       0.18438702      -2.01934116       1.54794358
Si       1.59450200       5.06088488      13.45315000  F        0        2       0.57534237      -0.19118745      -1.75665914
N       -1.02370433       2.17482973      12.00000000  F        1        2      -0.63230849      -0.63273179       0.19480839
N        4.82590433       4.41077385      13.45315000  F        1        2       0.17509873      -0.01902628       0.41382919
N        2.43059437       4.61163476      12.00000000  F        1        2       0.86421777      -0.23111713       0.19474505
N        1.37160563       1.97396882      13.45315000  F        1        2      -0.07112403       0.16104942       0.41384033
N       -1.40689004       6.38474267      12.00000000  F        1        2      -0.23198792       0.86384121       0.19476639
N        5.20909004       0.20086091      13.45315000  F        1        2      -0.10389916      -0.14196796       0.41383567
N        3.80216198       2.19517924      12.00000000  F        2        2       0.00084692       0.00049069      -1.77582392
N        0.00003802       4.39042434      13.45315000  F        2        2      -0.00100657      -0.00058151       0.59738494
Si       5.19526687       1.17332641      14.99282900  T        0        1       0.01496583       0.01568211      -0.00362879
Si      -1.47646811       5.22188167      16.22725811  T        0        1      -0.01383235      -0.01381401       0.01034259
Si       3.99064165       3.91256880      14.99283846  T        0        1      -0.02106477       0.00511948      -0.00362871
Si       0.01815497       2.69600654      16.22725524  T        0        1       0.01888224      -0.00506986       0.01034220
Si       2.22069613       1.49970989      14.99283244  T        0        1       0.00609685      -0.02080026      -0.00362769
Si       1.45832131       5.25332732      16.22725469  T        0        1      -0.00504836       0.01888720       0.01034220
N       -1.04193540       2.27513829      14.95762666  T        1        1       0.00233169       0.02705681       0.00414646
N        4.71148442       4.43804673      16.41733120  T        1        1      -0.02967375       0.00629013      -0.00480839
N        2.35285802       4.54570253      14.95763184  T        1        1      -0.02459788      -0.01150917       0.00414562
N        1.40519336       1.86123308      16.41732459  T        1        1       0.00939256      -0.02884063      -0.00481115
N       -1.31091959       6.35038122      14.95763041  T        1        1       0.02226565      -0.01554800       0.00414622
N        5.28993318       0.28632159      16.41732232  T        1        1       0.02028408       0.02255329      -0.00481015
N        3.80220022       2.19520141      14.85209168  T        2        1       0.00000132       0.00000123       0.00466007
N        0.00000444       4.39040635      16.62825918  T        2        1      -0.00000046       0.00000130      -0.00551619
F        0.00004158       4.39042681      19.57246190  T        0        0       0.00000580       0.00000412      -0.01923117
H        0.00003667       4.39042346      20.52163417  T        0        0      -0.00000193      -0.00000130      -0.01908449
30
Lattice="7.6044 0.0 0.0 -3.802199999999998 6.585603580538386 0.0 0.0 -0.0 28.35945" Properties=species:S:1:pos:R:3:move_mask:L:1:spacegroup_kinds:I:1:tags:I:1:forces:R:3 spacegroup="P 63/m" unit_cell=conventional occupancy="_JSON {\"0\": {\"Si\": 1.0}, \"1\": {\"N\": 1.0}, \"2\": {\"N\": 1.0}}" surface=beta_Si3N4_001 species=HF site=atop_N orientation=upright height_A=3.25 substrate_atoms=28 calculation_kind="Rigid evaluated approach scan; not NEB" energy=-219.64959207214503 pbc="T T F"
Si       5.18010587       1.14956320      12.00000000  F        0        2       1.65614010       1.16956230       1.54761619
Si      -1.37790587       5.43604038      13.45315000  F        0        2      -0.12045736       0.59211015      -1.75610635
Si       4.01879613       3.91132168      12.00000000  F        0        2      -1.84105081       0.84941081       1.54758106
Si      -0.21659613       2.67428190      13.45315000  F        0        2      -0.45239804      -0.40026096      -1.75613481
Si       2.20769800       1.52471870      12.00000000  F        0        2       0.18429123      -2.01939664       1.54767911
Si       1.59450200       5.06088488      13.45315000  F        0        2       0.57363105      -0.19139475      -1.75609226
N       -1.02370433       2.17482973      12.00000000  F        1        2      -0.63237290      -0.63275680       0.19515808
N        4.82590433       4.41077385      13.45315000  F        1        2       0.17397851      -0.01908357       0.41383473
N        2.43059437       4.61163476      12.00000000  F        1        2       0.86427165      -0.23116041       0.19509468
N        1.37160563       1.97396882      13.45315000  F        1        2      -0.07051432       0.16010797       0.41384565
N       -1.40689004       6.38474267      12.00000000  F        1        2      -0.23197737       0.86390952       0.19511603
N        5.20909004       0.20086091      13.45315000  F        1        2      -0.10338866      -0.14096914       0.41384110
N        3.80216198       2.19517924      12.00000000  F        2        2       0.00084692       0.00049069      -1.77555861
N        0.00003802       4.39042434      13.45315000  F        2        2      -0.00100659      -0.00058150       0.59559932
Si       5.19545800       1.17358991      14.99269778  T        0        1       0.01461861       0.01407829      -0.00133999
Si      -1.47667166       5.22173554      16.22741361  T        0        1      -0.01322842      -0.01479961       0.00901950
Si       3.99031788       3.91260259      14.99270726  T        0        1      -0.01950222       0.00562028      -0.00134043
Si       0.01838331       2.69590336      16.22741072  T        0        1       0.01943443      -0.00405420       0.00901940
Si       2.22082878       1.49941263      14.99270120  T        0        1       0.00488068      -0.01969737      -0.00133809
Si       1.45829652       5.25357667      16.22741017  T        0        1      -0.00620396       0.01885726       0.00901928
N       -1.04186847       2.27555712      14.95770504  T        1        1       0.00149004       0.02468871       0.00360956
N        4.71109196       4.43811930      16.41730558  T        1        1      -0.02866159       0.00725983      -0.00540597
N        2.35246183       4.54555107      14.95771019  T        1        1      -0.02212630      -0.01105380       0.00360917
N        1.40532676       1.86085696      16.41729897  T        1        1       0.00804714      -0.02844915      -0.00540950
N       -1.31059033       6.35011387      14.95770876  T        1        1       0.02063549      -0.01363583       0.00360977
N        5.29019225       0.28662518      16.41729669  T        1        1       0.02061777       0.02119215      -0.00540793
N        3.80220022       2.19520141      14.85220441  T        2        1       0.00000181       0.00000165       0.00263735
N        0.00000445       4.39040637      16.62815077  T        2        1      -0.00000077       0.00000128      -0.00389559
F        0.00004166       4.39042686      19.57220380  T        0        0       0.00000582       0.00000413      -0.01904139
H        0.00003664       4.39042345      20.52137781  T        0        0      -0.00000194      -0.00000131      -0.01881911
30
Lattice="7.6044 0.0 0.0 -3.802199999999998 6.585603580538386 0.0 0.0 -0.0 28.35945" Properties=species:S:1:pos:R:3:move_mask:L:1:spacegroup_kinds:I:1:tags:I:1:forces:R:3 spacegroup="P 63/m" unit_cell=conventional occupancy="_JSON {\"0\": {\"Si\": 1.0}, \"1\": {\"N\": 1.0}, \"2\": {\"N\": 1.0}}" surface=beta_Si3N4_001 species=HF site=atop_N orientation=upright height_A=3.25 substrate_atoms=28 calculation_kind="Rigid evaluated approach scan; not NEB" energy=-219.64973150062488 pbc="T T F"
Si       5.18010587       1.14956320      12.00000000  F        0        2       1.65624180       1.16949318       1.54737129
Si      -1.37790587       5.43604038      13.45315000  F        0        2      -0.11924075       0.59047270      -1.75539523
Si       4.01879613       3.91132168      12.00000000  F        0        2      -1.84104181       0.84953347       1.54733621
Si      -0.21659613       2.67428190      13.45315000  F        0        2      -0.45158829      -0.39838860      -1.75542368
Si       2.20769800       1.52471870      12.00000000  F        0        2       0.18418050      -2.01945019       1.54743417
Si       1.59450200       5.06088488      13.45315000  F        0        2       0.57160460      -0.19162963      -1.75538127
N       -1.02370433       2.17482973      12.00000000  F        1        2      -0.63245797      -0.63278241       0.19554952
N        4.82590433       4.41077385      13.45315000  F        1        2       0.17264978      -0.01911269       0.41389438
N        2.43059437       4.61163476      12.00000000  F        1        2       0.86433638      -0.23122128       0.19548606
N        1.37160563       1.97396882      13.45315000  F        1        2      -0.06982475       0.15897187       0.41390514
N       -1.40689004       6.38474267      12.00000000  F        1        2      -0.23195700       0.86399603       0.19550743
N        5.20909004       0.20086091      13.45315000  F        1        2      -0.10274953      -0.13980383       0.41390067
N        3.80216198       2.19517924      12.00000000  F        2        2       0.00084692       0.00049068      -1.77529980
N        0.00003802       4.39042434      13.45315000  F        2        2      -0.00100661      -0.00058149       0.59348947
Si       5.19569963       1.17390150      14.99256271  T        0        1       0.01384075       0.01269329       0.00053128
Si      -1.47692071       5.22153797      16.22760001  T        0        1      -0.01256327      -0.01553496       0.00715652
Si       3.98992721       3.91265606      14.99257221  T        0        1      -0.01791370       0.00563889       0.00053049
Si       0.01867895       2.69578650      16.22759710  T        0        1       0.01973903      -0.00311065       0.00715661
Si       2.22097783       1.49904759      14.99256610  T        0        1       0.00406973      -0.01833107       0.00053361
Si       1.45824993       5.25389113      16.22759656  T        0        1      -0.00717337       0.01864902       0.00715643
N       -1.04179671       2.27606059      14.95779568  T        1        1       0.00095099       0.02210831       0.00327854
N        4.71060062       4.43821709      16.41726099  T        1        1      -0.02700944       0.00862507      -0.00547775
N        2.35198994       4.54536147      14.95780080  T        1        1      -0.01962212      -0.01023030       0.00327855
N        1.40548777       1.86038261      16.41725436  T        1        1       0.00603888      -0.02770104      -0.00548162
N       -1.31019020       6.34980001      14.95779938  T        1        1       0.01867023      -0.01187926       0.00327907
N        5.29052261       0.28700180      16.41725208  T        1        1       0.02097401       0.01907896      -0.00547978
N        3.80220022       2.19520141      14.85232573  T        2        1       0.00000208       0.00000186       0.00042312
N        0.00000445       4.39040639      16.62802929  T        2        1      -0.00000099       0.00000121      -0.00197653
F        0.00004175       4.39042693      19.57187999  T        0        0       0.00000585       0.00000415      -0.01877650
H        0.00003661       4.39042343      20.52105652  T        0        0      -0.00000195      -0.00000131      -0.01850640
30
Lattice="7.6044 0.0 0.0 -3.802199999999998 6.585603580538386 0.0 0.0 -0.0 28.35945" Properties=species:S:1:pos:R:3:move_mask:L:1:spacegroup_kinds:I:1:tags:I:1:forces:R:3 spacegroup="P 63/m" unit_cell=conventional occupancy="_JSON {\"0\": {\"Si\": 1.0}, \"1\": {\"N\": 1.0}, \"2\": {\"N\": 1.0}}" surface=beta_Si3N4_001 species=HF site=atop_N orientation=upright height_A=3.25 substrate_atoms=28 calculation_kind="Rigid evaluated approach scan; not NEB" energy=-219.64988897784272 pbc="T T F"
Si       5.18010587       1.14956320      12.00000000  F        0        2       1.65634485       1.16940608       1.54716789
Si      -1.37790587       5.43604038      13.45315000  F        0        2      -0.11783233       0.58855529      -1.75452107
Si       4.01879613       3.91132168      12.00000000  F        0        2      -1.84101791       0.84966629       1.54713285
Si      -0.21659613       2.67428190      13.45315000  F        0        2      -0.45063201      -0.39621014      -1.75454951
Si       2.20769800       1.52471870      12.00000000  F        0        2       0.18405354      -2.01949592       1.54723074
Si       1.59450200       5.06088488      13.45315000  F        0        2       0.56923978      -0.19189065      -1.75450726
N       -1.02370433       2.17482973      12.00000000  F        1        2      -0.63256833      -0.63280702       0.19598165
N        4.82590433       4.41077385      13.45315000  F        1        2       0.17108981      -0.01910079       0.41404086
N        2.43059437       4.61163476      12.00000000  F        1        2       0.86441290      -0.23130455       0.19591813
N        1.37160563       1.97396882      13.45315000  F        1        2      -0.06905506       0.15761501       0.41405154
N       -1.40689004       6.38474267      12.00000000  F        1        2      -0.23192313       0.86410394       0.19593952
N        5.20909004       0.20086091      13.45315000  F        1        2      -0.10195928      -0.13845875       0.41404712
N        3.80216198       2.19517924      12.00000000  F        2        2       0.00084692       0.00049068      -1.77506770
N        0.00003802       4.39042434      13.45315000  F        2        2      -0.00100662      -0.00058148       0.59103015
Si       5.19600083       1.17426722      14.99243073  T        0        1       0.01251816       0.01164910       0.00171858
Si      -1.47722366       5.22127313      16.22781685  T        0        1      -0.01169407      -0.01581071       0.00464765
Si       3.98945989       3.91273405      14.99244025  T        0        1      -0.01634775       0.00501560       0.00171771
Si       0.01905983       2.69565662      16.22781393  T        0        1       0.01954316      -0.00222016       0.00464776
Si       2.22114395       1.49860391      14.99243412  T        0        1       0.00382686      -0.01666361       0.00172080
Si       1.45817202       5.25428592      16.22781339  T        0        1      -0.00784668       0.01803404       0.00464761
N       -1.04172117       2.27665854      14.95790024  T        1        1       0.00085710       0.01937302       0.00323953
N        4.70999314       4.43835230      16.41719253  T        1        1      -0.02468789       0.01036079      -0.00482772
N        2.35143433       4.54512791      14.95790534  T        1        1      -0.01720629      -0.00894398       0.00323985
N        1.40567445       1.85978897      16.41718588  T        1        1       0.00337470      -0.02655828      -0.00483132
N       -1.30971013       6.34943564      14.95790392  T        1        1       0.01634834      -0.01043024       0.00324019
N        5.29094345       0.28746028      16.41718359  T        1        1       0.02131639       0.01620075      -0.00482959
N        3.80220023       2.19520142      14.85244822  T        2        1       0.00000202       0.00000178      -0.00189069
N        0.00000445       4.39040641      16.62789980  T        2        1      -0.00000110       0.00000109       0.00021728
F        0.00004188       4.39042702      19.57147534  T        0        0       0.00000589       0.00000417      -0.01839059
H        0.00003657       4.39042340      20.52065556  T        0        0      -0.00000196      -0.00000132      -0.01816195
30
Lattice="7.6044 0.0 0.0 -3.802199999999998 6.585603580538386 0.0 0.0 -0.0 28.35945" Properties=species:S:1:pos:R:3:move_mask:L:1:spacegroup_kinds:I:1:tags:I:1:forces:R:3 spacegroup="P 63/m" unit_cell=conventional occupancy="_JSON {\"0\": {\"Si\": 1.0}, \"1\": {\"N\": 1.0}, \"2\": {\"N\": 1.0}}" surface=beta_Si3N4_001 species=HF site=atop_N orientation=upright height_A=3.25 substrate_atoms=28 calculation_kind="Rigid evaluated approach scan; not NEB" energy=-219.65006251731504 pbc="T T F"
Si       5.18010587       1.14956320      12.00000000  F        0        2       1.65644366       1.16929500       1.54702170
Si      -1.37790587       5.43604038      13.45315000  F        0        2      -0.11622584       0.58634188      -1.75347859
Si       4.01879613       3.91132168      12.00000000  F        0        2      -1.84097112       0.84980743       1.54698669
Si      -0.21659613       2.67428190      13.45315000  F        0        2      -0.44951846      -0.39371215      -1.75350700
Si       2.20769800       1.52471870      12.00000000  F        0        2       0.18390794      -2.01952600       1.54708453
Si       1.59450200       5.06088488      13.45315000  F        0        2       0.56651956      -0.19217523      -1.75346494
N       -1.02370433       2.17482973      12.00000000  F        1        2      -0.63270797      -0.63282866       0.19645850
N        4.82590433       4.41077385      13.45315000  F        1        2       0.16927221      -0.01903927       0.41431711
N        2.43059437       4.61163476      12.00000000  F        1        2       0.86450148      -0.23141467       0.19639494
N        1.37160563       1.97396882      13.45315000  F        1        2      -0.06819950       0.15601024       0.41432780
N       -1.40689004       6.38474267      12.00000000  F        1        2      -0.23187204       0.86423573       0.19641635
N        5.20909004       0.20086091      13.45315000  F        1        2      -0.10099727      -0.13691535       0.41432338
N        3.80216198       2.19517924      12.00000000  F        2        2       0.00084691       0.00049067      -1.77488192
N        0.00003802       4.39042434      13.45315000  F        2        2      -0.00100661      -0.00058147       0.58820045
Si       5.19636938       1.17469523      14.99230880  T        0        1       0.01060421       0.01097051       0.00203812
Si      -1.47758943       5.22092267      16.22805823  T        0        1      -0.01036450      -0.01540699       0.00146387
Si       3.98890493       3.91283923      14.99231833  T        0        1      -0.01480252       0.00369766       0.00203751
Si       0.01954628       2.69551514      16.22805529  T        0        1       0.01852815      -0.00127066       0.00146379
Si       2.22133032       1.49807076      14.99231220  T        0        1       0.00419696      -0.01466704       0.00203961
Si       1.45805137       5.25477794      16.22805475  T        0        1      -0.00816164       0.01668039       0.00146379
N       -1.04164127       2.27736014      14.95802210  T        1        1       0.00128362       0.01653820       0.00351760
N        4.70925287       4.43854379      16.41709787  T        1        1      -0.02183669       0.01230553      -0.00335470
N        2.35078678       4.54484630      14.95802718  T        1        1      -0.01496435      -0.00715739       0.00351809
N        1.40587881       1.85905221      16.41709117  T        1        1       0.00026424      -0.02506113      -0.00335734
N       -1.30914248       6.34901566      14.95802578  T        1        1       0.01368014      -0.00938155       0.00351814
N        5.29147941       0.28800563      16.41708889  T        1        1       0.02157494       0.01275920      -0.00335618
N        3.80220025       2.19520144      14.85255977  T        2        1       0.00000158       0.00000134      -0.00416133
N        0.00000444       4.39040645      16.62777209  T        2        1      -0.00000104       0.00000090       0.00260340
F        0.00004203       4.39042713      19.57097155  T        0        0       0.00000594       0.00000420      -0.01784219
H        0.00003652       4.39042336      20.52015671  T        0        0      -0.00000197      -0.00000133      -0.01779118
30
Lattice="7.6044 0.0 0.0 -3.802199999999998 6.585603580538386 0.0 0.0 -0.0 28.35945" Properties=species:S:1:pos:R:3:move_mask:L:1:spacegroup_kinds:I:1:tags:I:1:forces:R:3 spacegroup="P 63/m" unit_cell=conventional occupancy="_JSON {\"0\": {\"Si\": 1.0}, \"1\": {\"N\": 1.0}, \"2\": {\"N\": 1.0}}" surface=beta_Si3N4_001 species=HF site=atop_N orientation=upright height_A=3.25 substrate_atoms=28 calculation_kind="Rigid evaluated approach scan; not NEB" energy=-219.6502482702018 pbc="T T F"
Si       5.18010587       1.14956320      12.00000000  F        0        2       1.65653180       1.16915120       1.54692923
Si      -1.37790587       5.43604038      13.45315000  F        0        2      -0.11442020       0.58382190      -1.75229296
Si       4.01879613       3.91132168      12.00000000  F        0        2      -1.84089067       0.84995570       1.54689426
Si      -0.21659613       2.67428190      13.45315000  F        0        2      -0.44823900      -0.39088840      -1.75232136
Si       2.20769800       1.52471870      12.00000000  F        0        2       0.18373934      -2.01953048       1.54699207
Si       1.59450200       5.06088488      13.45315000  F        0        2       0.56343427      -0.19247899      -1.75227946
N       -1.02370433       2.17482973      12.00000000  F        1        2      -0.63287889      -0.63284517       0.19699647
N        4.82590433       4.41077385      13.45315000  F        1        2       0.16716441      -0.01892985       0.41477514
N        2.43059437       4.61163476      12.00000000  F        1        2       0.86460126      -0.23155444       0.19693287
N        1.37160563       1.97396882      13.45315000  F        1        2      -0.06724030       0.15413020       0.41478592
N       -1.40689004       6.38474267      12.00000000  F        1        2      -0.23180088       0.86439203       0.19695429
N        5.20909004       0.20086091      13.45315000  F        1        2      -0.09984870      -0.13514456       0.41478147
N        3.80216198       2.19517924      12.00000000  F        2        2       0.00084692       0.00049066      -1.77475438
N        0.00003802       4.39042434      13.45315000  F        2        2      -0.00100659      -0.00058144       0.58498550
Si       5.19680957       1.17519717      14.99220133  T        0        1       0.00819298       0.01047917       0.00152127
Si      -1.47802520       5.22046747      16.22830882  T        0        1      -0.00825413      -0.01417773      -0.00224881
Si       3.98825013       3.91296947      14.99221087  T        0        1      -0.01317065       0.00185571       0.00152123
Si       0.02015845       2.69536542      16.22830586  T        0        1       0.01640726      -0.00005766      -0.00224930
Si       2.22154490       1.49743862      14.99220474  T        0        1       0.00497842      -0.01233362       0.00152151
Si       1.45787501       5.25538295      16.22830532  T        0        1      -0.00815199       0.01423762      -0.00224900
N       -1.04155282       2.27817300      14.95816773  T        1        1       0.00214086       0.01363348       0.00399629
N        4.70836503       4.43881925      16.41698047  T        1        1      -0.01880665       0.01411432      -0.00117257
N        2.35003859       4.54451646      14.95817279  T        1        1      -0.01287712      -0.00496300       0.00399678
N        1.40608426       1.85814569      16.41697371  T        1        1      -0.00281822      -0.02334103      -0.00117363
N       -1.30848276       6.34853264      14.95817140  T        1        1       0.01073613      -0.00867036       0.00399649
N        5.29216188       0.28863680      16.41697145  T        1        1       0.02162634       0.00923058      -0.00117342
N        3.80220028       2.19520147      14.85264229  T        2        1       0.00000079       0.00000060      -0.00619457
N        0.00000443       4.39040648      16.62766275  T        2        1      -0.00000082       0.00000067       0.00501413
F        0.00004222       4.39042726      19.57034682  T        0        0       0.00000600       0.00000424      -0.01712753
H        0.00003645       4.39042332      20.51953725  T        0        0      -0.00000199      -0.00000134      -0.01735794
