37
Lattice="11.518769465528859 0.0 0.0 0.0 7.679179643685906 0.0 0.0 0.0 26.7875" Properties=species:S:1:pos:R:3:move_mask:L:1:tags:I:1:forces:R:3 energy=-186.1853746797025 pbc="T T F"
Si       0.00000000       0.00000000      10.00000000  F        6       0.00218174      -0.00133814       0.24906865
Si       3.83958982       0.00000000      10.00000000  F        6      -0.00218181      -0.00133825       0.24906871
Si       7.67917964       0.00000000      10.00000000  F        6       0.00000020       0.00002480       0.24615351
Si       0.00000000       3.83958982      10.00000000  F        6       0.00218206       0.00133830       0.24906761
Si       3.83958982       3.83958982      10.00000000  F        6      -0.00218213       0.00133841       0.24906767
Si       7.67917964       3.83958982      10.00000000  F        6       0.00000020      -0.00002480       0.24615288
Si       1.91979491       0.00000000      11.35750000  F        5       0.00000110       0.00921544      -0.50188841
Si       5.75938473       0.00000000      11.35750000  F        5      -0.01469322       0.00736025      -0.50365705
Si       9.59897455       0.00000000      11.35750000  F        5       0.01469271       0.00736052      -0.50365775
Si       1.91979491       3.83958982      11.35750000  F        5       0.00000110      -0.00922145      -0.50190755
Si       5.75938473       3.83958982      11.35750000  F        5      -0.01469482      -0.00735956      -0.50365258
Si       9.59897455       3.83958982      11.35750000  F        5       0.01469431      -0.00735983      -0.50365328
Si       1.91979491       1.91979491      12.71500000  F        4      -0.00000003       0.00003224       0.17176692
Si       5.75938473       1.91979491      12.71500000  F        4       0.00164427       0.00000134       0.17437346
Si       9.59897455       1.91979491      12.71500000  F        4      -0.00164930       0.00000134       0.17436951
Si       1.91979491       5.75938473      12.71500000  F        4       0.00000281      -0.00001264       0.17002584
Si       5.75938473       5.75938473      12.71500000  F        4       0.00749415       0.00001108       0.16608743
Si       9.59897455       5.75938473      12.71500000  F        4      -0.00749375       0.00001107       0.16608997
Si       0.00000000       1.91979491      14.07250000  F        3       0.03372806       0.00001433      -0.22007196
Si       3.83958982       1.91979491      14.07250000  F        3      -0.03371926       0.00001435      -0.22007951
Si       7.67917964       1.91979491      14.07250000  F        3       0.00000231       0.00000047      -0.15340699
Si       0.00000000       5.75938473      14.07250000  F        3       0.02258517       0.00000866      -0.17832076
Si       3.83958982       5.75938473      14.07250000  F        3      -0.02257777       0.00000866      -0.17833433
Si       7.67917964       5.75938473      14.07250000  F        3       0.00000101      -0.00000915      -0.10882878
Si       0.00000000       0.00000000      15.43000000  F        2      -0.20579837      -0.10333397       0.28257415
Si       3.83958982       0.00000000      15.43000000  F        2       0.20580802      -0.10337638       0.28255033
Si       7.67917964       0.00000000      15.43000000  F        2      -0.00000190       0.02562377       0.46321885
Si       0.00000000       3.83958982      15.43000000  F        2      -0.20647727       0.10376262       0.28196654
Si       3.83958982       3.83958982      15.43000000  F        2       0.20648694       0.10380509       0.28194265
Si       7.67917964       3.83958982      15.43000000  F        2      -0.00000190      -0.02562517       0.46322372
Si       1.91979491       0.00000000      16.78750000  F        1       0.00002622      -0.05407934       0.06085009
Si       5.75938473       0.00000000      16.78750000  F        1       0.00811778       0.00289935      -0.15234968
Si       9.59897455       0.00000000      16.78750000  F        1      -0.00813089       0.00289128      -0.15235613
Si       1.91979491       3.83958982      16.78750000  F        1       0.00002615       0.05698128       0.06016657
Si       5.75938473       3.83958982      16.78750000  F        1       0.00820064      -0.00291781      -0.15231240
Si       9.59897455       3.83958982      16.78750000  F        1      -0.00821380      -0.00290971      -0.15231882
F        1.91985943       1.92029464      17.20821135  T        0      -0.00006071      -0.00379843      -0.00098911
37
Lattice="11.518769465528859 0.0 0.0 0.0 7.679179643685906 0.0 0.0 0.0 26.7875" Properties=species:S:1:pos:R:3:move_mask:L:1:tags:I:1:forces:R:3 energy=-186.09108835094528 pbc="T T F"
Si       0.00000000       0.00000000      10.00000000  F        6       0.00158374      -0.00040163       0.25046391
Si       3.83958982       0.00000000      10.00000000  F        6      -0.00185947      -0.00140427       0.24992876
Si       7.67917964       0.00000000      10.00000000  F        6       0.00155620       0.00005783       0.24515789
Si       0.00000000       3.83958982      10.00000000  F        6       0.00147706       0.00042816       0.25020649
Si       3.83958982       3.83958982      10.00000000  F        6      -0.00184608       0.00143669       0.24950239
Si       7.67917964       3.83958982      10.00000000  F        6       0.00163336      -0.00005760       0.24501004
Si       1.91979491       0.00000000      11.35750000  F        5       0.00927565       0.00983219      -0.50023864
Si       5.75938473       0.00000000      11.35750000  F        5      -0.01669597       0.00475957      -0.50450066
Si       9.59897455       0.00000000      11.35750000  F        5       0.01301078       0.00708120      -0.50793377
Si       1.91979491       3.83958982      11.35750000  F        5       0.00955083      -0.01025183      -0.50056968
Si       5.75938473       3.83958982      11.35750000  F        5      -0.01679064      -0.00499254      -0.50413305
Si       9.59897455       3.83958982      11.35750000  F        5       0.01290640      -0.00699653      -0.50771637
Si       1.91979491       1.91979491      12.71500000  F        4       0.00533043       0.00134000       0.17176206
Si       5.75938473       1.91979491      12.71500000  F        4      -0.01415094      -0.00033479       0.18078505
Si       9.59897455       1.91979491      12.71500000  F        4      -0.01695018      -0.00000162       0.15683682
Si       1.91979491       5.75938473      12.71500000  F        4       0.01562691      -0.00028707       0.17276753
Si       5.75938473       5.75938473      12.71500000  F        4       0.01263908       0.00051169       0.15586010
Si       9.59897455       5.75938473      12.71500000  F        4      -0.01260100       0.00052375       0.16567382
Si       0.00000000       1.91979491      14.07250000  F        3       0.03893500      -0.00149532      -0.21997896
Si       3.83958982       1.91979491      14.07250000  F        3       0.01091613       0.00371209      -0.29351974
Si       7.67917964       1.91979491      14.07250000  F        3       0.00928287       0.00016442      -0.15079022
Si       0.00000000       5.75938473      14.07250000  F        3       0.02303321       0.00134013      -0.15525648
Si       3.83958982       5.75938473      14.07250000  F        3       0.02525775      -0.00194008      -0.23533664
Si       7.67917964       5.75938473      14.07250000  F        3       0.01050924      -0.00022662      -0.10561600
Si       0.00000000       0.00000000      15.43000000  F        2      -0.14972633      -0.01490472       0.36953472
Si       3.83958982       0.00000000      15.43000000  F        2       0.20308448      -0.27121974       0.23270679
Si       7.67917964       0.00000000      15.43000000  F        2      -0.01482613       0.00507765       0.46552284
Si       0.00000000       3.83958982      15.43000000  F        2      -0.17885811       0.02763381       0.34856251
Si       3.83958982       3.83958982      15.43000000  F        2       0.24244217       0.30443980       0.19035293
Si       7.67917964       3.83958982      15.43000000  F        2      -0.01627661      -0.00486250       0.46898219
Si       1.91979491       0.00000000      16.78750000  F        1       0.17684993       0.24189768       0.10125988
Si       5.75938473       0.00000000      16.78750000  F        1      -0.01981871       0.01872963      -0.14348180
Si       9.59897455       0.00000000      16.78750000  F        1      -0.03928803      -0.00403171      -0.18479112
Si       1.91979491       3.83958982      16.78750000  F        1       0.15276152      -0.10860962       0.09188577
Si       5.75938473       3.83958982      16.78750000  F        1      -0.01509567      -0.01869673      -0.14626686
Si       9.59897455       3.83958982      16.78750000  F        1      -0.04814865       0.00552097      -0.18235541
F        2.34238174       1.94348638      17.04969321  T        0      -0.41473017      -0.18377236       0.07972288
37
Lattice="11.518769465528859 0.0 0.0 0.0 7.679179643685906 0.0 0.0 0.0 26.7875" Properties=species:S:1:pos:R:3:move_mask:L:1:tags:I:1:forces:R:3 energy=-185.55502513413958 pbc="T T F"
Si       0.00000000       0.00000000      10.00000000  F        6       0.00110783       0.00081207       0.25263727
Si       3.83958982       0.00000000      10.00000000  F        6      -0.00072658      -0.00006141       0.24947739
Si       7.67917964       0.00000000      10.00000000  F        6       0.00222695       0.00063152       0.24465111
Si       0.00000000       3.83958982      10.00000000  F        6      -0.00153411      -0.00047927       0.24922132
Si       3.83958982       3.83958982      10.00000000  F        6      -0.00023348       0.00095903       0.24527578
Si       7.67917964       3.83958982      10.00000000  F        6       0.00414888      -0.00064037       0.24315389
Si       1.91979491       0.00000000      11.35750000  F        5       0.01494200       0.00603727      -0.50861258
Si       5.75938473       0.00000000      11.35750000  F        5      -0.01724743       0.00003448      -0.50909723
Si       9.59897455       0.00000000      11.35750000  F        5       0.01184001       0.00618312      -0.51186036
Si       1.91979491       3.83958982      11.35750000  F        5       0.01747225      -0.01120416      -0.49750919
Si       5.75938473       3.83958982      11.35750000  F        5      -0.01807352      -0.00424924      -0.50259495
Si       9.59897455       3.83958982      11.35750000  F        5       0.01071793      -0.00518105      -0.50949837
Si       1.91979491       1.91979491      12.71500000  F        4       0.01917266       0.00956636       0.14270285
Si       5.75938473       1.91979491      12.71500000  F        4      -0.01359150      -0.00751712       0.16911430
Si       9.59897455       1.91979491      12.71500000  F        4      -0.04063387       0.00075336       0.13067355
Si       1.91979491       5.75938473      12.71500000  F        4       0.02042860      -0.00086890       0.16830602
Si       5.75938473       5.75938473      12.71500000  F        4       0.00081605      -0.00526008       0.17625912
Si       9.59897455       5.75938473      12.71500000  F        4      -0.01520168       0.00188936       0.15869218
Si       0.00000000       1.91979491      14.07250000  F        3       0.02718672      -0.04201869      -0.22687346
Si       3.83958982       1.91979491      14.07250000  F        3       0.03428063       0.04175888      -0.41786375
Si       7.67917964       1.91979491      14.07250000  F        3       0.00904284       0.00452329      -0.15007534
Si       0.00000000       5.75938473      14.07250000  F        3       0.03060096       0.02337008      -0.13221874
Si       3.83958982       5.75938473      14.07250000  F        3       0.06395721      -0.06921547      -0.22184442
Si       7.67917964       5.75938473      14.07250000  F        3       0.01052067      -0.00356008      -0.11264813
Si       0.00000000       0.00000000      15.43000000  F        2       0.00604148       0.03188468       0.49230486
Si       3.83958982       0.00000000      15.43000000  F        2       0.03064665      -0.14503509       0.41836379
Si       7.67917964       0.00000000      15.43000000  F        2      -0.01639973      -0.02014572       0.48383011
Si       0.00000000       3.83958982      15.43000000  F        2      -0.23626880      -0.07994035       0.30810922
Si       3.83958982       3.83958982      15.43000000  F        2       0.24885664       0.44304898       0.03447350
Si       7.67917964       3.83958982      15.43000000  F        2      -0.02484966       0.03637694       0.53220450
Si       1.91979491       0.00000000      16.78750000  F        1       0.38323265       0.63090037      -0.00214028
Si       5.75938473       0.00000000      16.78750000  F        1      -0.03939983       0.04055708      -0.15900196
Si       9.59897455       0.00000000      16.78750000  F        1      -0.01372591      -0.01170709      -0.21465917
Si       1.91979491       3.83958982      16.78750000  F        1       0.59278640      -0.33710319       0.35990866
Si       5.75938473       3.83958982      16.78750000  F        1       0.05687694      -0.00120952      -0.19597719
Si       9.59897455       3.83958982      16.78750000  F        1      -0.06705065       0.01296093      -0.18584706
F        2.82935481       2.15763516      16.95043359  T        0      -1.09196620      -0.54685099      -0.00103725
37
Lattice="11.518769465528859 0.0 0.0 0.0 7.679179643685906 0.0 0.0 0.0 26.7875" Properties=species:S:1:pos:R:3:move_mask:L:1:tags:I:1:forces:R:3 energy=-185.07795093703922 pbc="T T F"
Si       0.00000000       0.00000000      10.00000000  F        6       0.00057012       0.00183560       0.25463492
Si       3.83958982       0.00000000      10.00000000  F        6       0.00092389       0.00347733       0.24430422
Si       7.67917964       0.00000000      10.00000000  F        6       0.00109780       0.00168674       0.24643078
Si       0.00000000       3.83958982      10.00000000  F        6      -0.00603883      -0.00127593       0.24689335
Si       3.83958982       3.83958982      10.00000000  F        6       0.00258376      -0.00064035       0.23622226
Si       7.67917964       3.83958982      10.00000000  F        6       0.00557546      -0.00170356       0.24234162
Si       1.91979491       0.00000000      11.35750000  F        5       0.01172654      -0.00180399      -0.52363289
Si       5.75938473       0.00000000      11.35750000  F        5      -0.01151631      -0.00465686      -0.51577080
Si       9.59897455       0.00000000      11.35750000  F        5       0.00681085       0.00384199      -0.51677276
Si       1.91979491       3.83958982      11.35750000  F        5       0.01264349      -0.00929070      -0.49434407
Si       5.75938473       3.83958982      11.35750000  F        5      -0.01091713      -0.00453905      -0.50063218
Si       9.59897455       3.83958982      11.35750000  F        5       0.00635158      -0.00262590      -0.51033036
Si       1.91979491       1.91979491      12.71500000  F        4      -0.00228684      -0.01634723       0.13211205
Si       5.75938473       1.91979491      12.71500000  F        4       0.01136038      -0.02311097       0.15757529
Si       9.59897455       1.91979491      12.71500000  F        4      -0.04857636       0.00430582       0.11802876
Si       1.91979491       5.75938473      12.71500000  F        4       0.01462254       0.00572466       0.18081561
Si       5.75938473       5.75938473      12.71500000  F        4      -0.01000043      -0.01598079       0.20715954
Si       9.59897455       5.75938473      12.71500000  F        4      -0.01460294      -0.00441855       0.15081282
Si       0.00000000       1.91979491      14.07250000  F        3       0.01821378      -0.04307294      -0.20555426
Si       3.83958982       1.91979491      14.07250000  F        3       0.02150981      -0.01032608      -0.53936230
Si       7.67917964       1.91979491      14.07250000  F        3      -0.00319577       0.02134597      -0.14953677
Si       0.00000000       5.75938473      14.07250000  F        3       0.03184453       0.00656385      -0.11764139
Si       3.83958982       5.75938473      14.07250000  F        3       0.05767497      -0.13468614      -0.19332091
Si       7.67917964       5.75938473      14.07250000  F        3      -0.01647861      -0.02031497      -0.11943326
Si       0.00000000       0.00000000      15.43000000  F        2       0.00182850      -0.04854949       0.51634226
Si       3.83958982       0.00000000      15.43000000  F        2       0.04476139       0.00981539       0.43415467
Si       7.67917964       0.00000000      15.43000000  F        2       0.00915911      -0.03125667       0.48550438
Si       0.00000000       3.83958982      15.43000000  F        2      -0.26112753      -0.16932603       0.21640007
Si       3.83958982       3.83958982      15.43000000  F        2       0.20555774       0.45747584       0.04994612
Si       7.67917964       3.83958982      15.43000000  F        2       0.04691899       0.06492651       0.53692570
Si       1.91979491       0.00000000      16.78750000  F        1      -0.10686338       0.02148712      -0.09057778
Si       5.75938473       0.00000000      16.78750000  F        1      -0.04986688       0.10088080      -0.12121010
Si       9.59897455       0.00000000      16.78750000  F        1       0.00187653      -0.00569606      -0.24582007
Si       1.91979491       3.83958982      16.78750000  F        1       0.47022181      -0.04619768       0.60775026
Si       5.75938473       3.83958982      16.78750000  F        1       0.24307681       0.04723888      -0.18002057
Si       9.59897455       3.83958982      16.78750000  F        1      -0.01337600       0.01990967      -0.17226419
F        3.31297230       2.40457396      16.95132898  T        0      -0.67206338      -0.17469622      -0.06813002
37
Lattice="11.518769465528859 0.0 0.0 0.0 7.679179643685906 0.0 0.0 0.0 26.7875" Properties=species:S:1:pos:R:3:move_mask:L:1:tags:I:1:forces:R:3 energy=-184.88691975093178 pbc="T T F"
Si       0.00000000       0.00000000      10.00000000  F        6       0.00029051       0.00171054       0.25081644
Si       3.83958982       0.00000000      10.00000000  F        6       0.00000002       0.00495567       0.24446319
Si       7.67917964       0.00000000      10.00000000  F        6      -0.00029054       0.00171054       0.25081632
Si       0.00000000       3.83958982      10.00000000  F        6      -0.00599050      -0.00151405       0.24205046
Si       3.83958982       3.83958982      10.00000000  F        6       0.00000005      -0.00179771       0.23263400
Si       7.67917964       3.83958982      10.00000000  F        6       0.00599043      -0.00151406       0.24205041
Si       1.91979491       0.00000000      11.35750000  F        5       0.00769301      -0.00287128      -0.52659486
Si       5.75938473       0.00000000      11.35750000  F        5      -0.00769297      -0.00287132      -0.52659472
Si       9.59897455       0.00000000      11.35750000  F        5       0.00000006       0.00015940      -0.52476092
Si       1.91979491       3.83958982      11.35750000  F        5       0.00658940      -0.00723936      -0.49634955
Si       5.75938473       3.83958982      11.35750000  F        5      -0.00658932      -0.00723930      -0.49634961
Si       9.59897455       3.83958982      11.35750000  F        5       0.00000003      -0.00070001      -0.51102332
Si       1.91979491       1.91979491      12.71500000  F        4      -0.01487911      -0.03410820       0.14165746
Si       5.75938473       1.91979491      12.71500000  F        4       0.01487901      -0.03410797       0.14165849
Si       9.59897455       1.91979491      12.71500000  F        4      -0.00000031       0.00039341       0.13774675
Si       1.91979491       5.75938473      12.71500000  F        4       0.01423143      -0.00575954       0.19385867
Si       5.75938473       5.75938473      12.71500000  F        4      -0.01423138      -0.00576015       0.19385961
Si       9.59897455       5.75938473      12.71500000  F        4      -0.00000017      -0.00291015       0.14402595
Si       0.00000000       1.91979491      14.07250000  F        3       0.01973899       0.02134003      -0.15864582
Si       3.83958982       1.91979491      14.07250000  F        3       0.00000041      -0.05283052      -0.54459873
Si       7.67917964       1.91979491      14.07250000  F        3      -0.01973863       0.02134070      -0.15864543
Si       0.00000000       5.75938473      14.07250000  F        3       0.03852223      -0.04350814      -0.09996440
Si       3.83958982       5.75938473      14.07250000  F        3       0.00000084      -0.10112680      -0.22032348
Si       7.67917964       5.75938473      14.07250000  F        3      -0.03852248      -0.04350825      -0.09996441
Si       0.00000000       0.00000000      15.43000000  F        2      -0.02170388      -0.04628499       0.50674955
Si       3.83958982       0.00000000      15.43000000  F        2       0.00000118      -0.01247039       0.38705214
Si       7.67917964       0.00000000      15.43000000  F        2       0.02170395      -0.04628472       0.50674891
Si       0.00000000       3.83958982      15.43000000  F        2      -0.09749486      -0.01586356       0.39687373
Si       3.83958982       3.83958982      15.43000000  F        2       0.00000367       0.50726252       0.17012822
Si       7.67917964       3.83958982      15.43000000  F        2       0.09749037      -0.01585997       0.39687961
Si       1.91979491       0.00000000      16.78750000  F        1      -0.03450126       0.09648362      -0.10378347
Si       5.75938473       0.00000000      16.78750000  F        1       0.03449739       0.09648538      -0.10378404
Si       9.59897455       0.00000000      16.78750000  F        1      -0.00000001      -0.00727609      -0.25641058
Si       1.91979491       3.83958982      16.78750000  F        1       0.19117641      -0.13688439       0.10754332
Si       5.75938473       3.83958982      16.78750000  F        1      -0.19117210      -0.13688665       0.10753010
Si       9.59897455       3.83958982      16.78750000  F        1       0.00000039       0.01745677      -0.15888632
F        3.83958365       2.53375071      17.01632929  T        0      -0.00000228      -0.00212104      -0.00846367
37
Lattice="11.518769465528859 0.0 0.0 0.0 7.679179643685906 0.0 0.0 0.0 26.7875" Properties=species:S:1:pos:R:3:move_mask:L:1:tags:I:1:forces:R:3 energy=-185.07791630931337 pbc="T T F"
Si       0.00000000       0.00000000      10.00000000  F        6      -0.00109751       0.00168686       0.24643161
Si       3.83958982       0.00000000      10.00000000  F        6      -0.00092405       0.00347782       0.24430396
Si       7.67917964       0.00000000      10.00000000  F        6      -0.00057027       0.00183570       0.25463587
Si       0.00000000       3.83958982      10.00000000  F        6      -0.00557579      -0.00170368       0.24234150
Si       3.83958982       3.83958982      10.00000000  F        6      -0.00258412      -0.00064047       0.23622022
Si       7.67917964       3.83958982      10.00000000  F        6       0.00603957      -0.00127596       0.24689287
Si       1.91979491       0.00000000      11.35750000  F        5       0.01151504      -0.00465752      -0.51577299
Si       5.75938473       0.00000000      11.35750000  F        5      -0.01172580      -0.00180585      -0.52363587
Si       9.59897455       0.00000000      11.35750000  F        5      -0.00681011       0.00384198      -0.51677372
Si       1.91979491       3.83958982      11.35750000  F        5       0.01091548      -0.00453945      -0.50063136
Si       5.75938473       3.83958982      11.35750000  F        5      -0.01264264      -0.00929028      -0.49434303
Si       9.59897455       3.83958982      11.35750000  F        5      -0.00635072      -0.00262590      -0.51032942
Si       1.91979491       1.91979491      12.71500000  F        4      -0.01136429      -0.02311498       0.15757377
Si       5.75938473       1.91979491      12.71500000  F        4       0.00229129      -0.01635041       0.13210678
Si       9.59897455       1.91979491      12.71500000  F        4       0.04857504       0.00430589       0.11802845
Si       1.91979491       5.75938473      12.71500000  F        4       0.01000032      -0.01598162       0.20716368
Si       5.75938473       5.75938473      12.71500000  F        4      -0.01462069       0.00572505       0.18081156
Si       9.59897455       5.75938473      12.71500000  F        4       0.01460368      -0.00441875       0.15081162
Si       0.00000000       1.91979491      14.07250000  F        3       0.00320024       0.02135087      -0.14953647
Si       3.83958982       1.91979491      14.07250000  F        3      -0.02151197      -0.01034408      -0.53938774
Si       7.67917964       1.91979491      14.07250000  F        3      -0.01821199      -0.04307141      -0.20555449
Si       0.00000000       5.75938473      14.07250000  F        3       0.01648185      -0.02032027      -0.11943331
Si       3.83958982       5.75938473      14.07250000  F        3      -0.05767744      -0.13468456      -0.19332749
Si       7.67917964       5.75938473      14.07250000  F        3      -0.03184154       0.00655929      -0.11764396
Si       0.00000000       0.00000000      15.43000000  F        2      -0.00916688      -0.03125510       0.48549934
Si       3.83958982       0.00000000      15.43000000  F        2      -0.04476806       0.00982332       0.43415069
Si       7.67917964       0.00000000      15.43000000  F        2      -0.00183372      -0.04855130       0.51635463
Si       0.00000000       3.83958982      15.43000000  F        2      -0.04692422       0.06492619       0.53692724
Si       3.83958982       3.83958982      15.43000000  F        2      -0.20562396       0.45758732       0.04985741
Si       7.67917964       3.83958982      15.43000000  F        2       0.26113366      -0.16933346       0.21638386
Si       1.91979491       0.00000000      16.78750000  F        1       0.04987852       0.10089065      -0.12119535
Si       5.75938473       0.00000000      16.78750000  F        1       0.10689312       0.02146249      -0.09057146
Si       9.59897455       0.00000000      16.78750000  F        1      -0.00187489      -0.00569559      -0.24582270
Si       1.91979491       3.83958982      16.78750000  F        1      -0.24311413       0.04725252      -0.18002186
Si       5.75938473       3.83958982      16.78750000  F        1      -0.47010535      -0.04608465       0.60780843
Si       9.59897455       3.83958982      16.78750000  F        1       0.01337668       0.01991085      -0.17226033
F        4.36616940       2.40463076      16.95131726  T        0       0.67201565      -0.17489152      -0.06806192
37
Lattice="11.518769465528859 0.0 0.0 0.0 7.679179643685906 0.0 0.0 0.0 26.7875" Properties=species:S:1:pos:R:3:move_mask:L:1:tags:I:1:forces:R:3 energy=-185.55510712883586 pbc="T T F"
Si       0.00000000       0.00000000      10.00000000  F        6      -0.00222718       0.00063141       0.24465081
Si       3.83958982       0.00000000      10.00000000  F        6       0.00072692      -0.00006170       0.24947755
Si       7.67917964       0.00000000      10.00000000  F        6      -0.00110794       0.00081203       0.25263679
Si       0.00000000       3.83958982      10.00000000  F        6      -0.00414871      -0.00064026       0.24315382
Si       3.83958982       3.83958982      10.00000000  F        6       0.00023396       0.00095902       0.24527631
Si       7.67917964       3.83958982      10.00000000  F        6       0.00153343      -0.00047928       0.24922140
Si       1.91979491       0.00000000      11.35750000  F        5       0.01724794       0.00003519      -0.50909651
Si       5.75938473       0.00000000      11.35750000  F        5      -0.01494252       0.00603820      -0.50860960
Si       9.59897455       0.00000000      11.35750000  F        5      -0.01184005       0.00618315      -0.51186016
Si       1.91979491       3.83958982      11.35750000  F        5       0.01807401      -0.00424909      -0.50259517
Si       5.75938473       3.83958982      11.35750000  F        5      -0.01747263      -0.01120398      -0.49750894
Si       9.59897455       3.83958982      11.35750000  F        5      -0.01071798      -0.00518127      -0.50949862
Si       1.91979491       1.91979491      12.71500000  F        4       0.01359353      -0.00751534       0.16911570
Si       5.75938473       1.91979491      12.71500000  F        4      -0.01917301       0.00956678       0.14270326
Si       9.59897455       1.91979491      12.71500000  F        4       0.04063067       0.00075285       0.13067664
Si       1.91979491       5.75938473      12.71500000  F        4      -0.00081840      -0.00525811       0.17625472
Si       5.75938473       5.75938473      12.71500000  F        4      -0.02042861      -0.00086967       0.16830556
Si       9.59897455       5.75938473      12.71500000  F        4       0.01520108       0.00188971       0.15869368
Si       0.00000000       1.91979491      14.07250000  F        3      -0.00904273       0.00452235      -0.15007470
Si       3.83958982       1.91979491      14.07250000  F        3      -0.03428212       0.04175301      -0.41785360
Si       7.67917964       1.91979491      14.07250000  F        3      -0.02719428      -0.04200939      -0.22686663
Si       0.00000000       5.75938473      14.07250000  F        3      -0.01052265      -0.00355918      -0.11264643
Si       3.83958982       5.75938473      14.07250000  F        3      -0.06395445      -0.06919502      -0.22185235
Si       7.67917964       5.75938473      14.07250000  F        3      -0.03060102       0.02336666      -0.13222112
Si       0.00000000       0.00000000      15.43000000  F        2       0.01640312      -0.02014455       0.48383056
Si       3.83958982       0.00000000      15.43000000  F        2      -0.03065575      -0.14507013       0.41834269
Si       7.67917964       0.00000000      15.43000000  F        2      -0.00603397       0.03189587       0.49229589
Si       0.00000000       3.83958982      15.43000000  F        2       0.02485465       0.03637171       0.53219662
Si       3.83958982       3.83958982      15.43000000  F        2      -0.24885690       0.44303956       0.03449610
Si       7.67917964       3.83958982      15.43000000  F        2       0.23623903      -0.07992192       0.30813490
Si       1.91979491       0.00000000      16.78750000  F        1       0.03939752       0.04055200      -0.15900447
Si       5.75938473       0.00000000      16.78750000  F        1      -0.38332425       0.63107338      -0.00210890
Si       9.59897455       0.00000000      16.78750000  F        1       0.01373056      -0.01170705      -0.21465435
Si       1.91979491       3.83958982      16.78750000  F        1      -0.05685221      -0.00121966      -0.19597276
Si       5.75938473       3.83958982      16.78750000  F        1      -0.59274341      -0.33717128       0.35984883
Si       9.59897455       3.83958982      16.78750000  F        1       0.06705065       0.01295943      -0.18584894
F        4.84987602       2.15758745      16.95043013  T        0       1.09202369      -0.54694546      -0.00103857
37
Lattice="11.518769465528859 0.0 0.0 0.0 7.679179643685906 0.0 0.0 0.0 26.7875" Properties=species:S:1:pos:R:3:move_mask:L:1:tags:I:1:forces:R:3 energy=-186.09111896196728 pbc="T T F"
Si       0.00000000       0.00000000      10.00000000  F        6      -0.00155596       0.00005781       0.24515819
Si       3.83958982       0.00000000      10.00000000  F        6       0.00185950      -0.00140438       0.24992851
Si       7.67917964       0.00000000      10.00000000  F        6      -0.00158387      -0.00040197       0.25046335
Si       0.00000000       3.83958982      10.00000000  F        6      -0.00163304      -0.00005758       0.24501047
Si       3.83958982       3.83958982      10.00000000  F        6       0.00184614       0.00143677       0.24950251
Si       7.67917964       3.83958982      10.00000000  F        6      -0.00147730       0.00042848       0.25020616
Si       1.91979491       0.00000000      11.35750000  F        5       0.01669546       0.00476039      -0.50450014
Si       5.75938473       0.00000000      11.35750000  F        5      -0.00927374       0.00983225      -0.50023921
Si       9.59897455       0.00000000      11.35750000  F        5      -0.01301080       0.00708150      -0.50793307
Si       1.91979491       3.83958982      11.35750000  F        5       0.01679007      -0.00499314      -0.50413284
Si       5.75938473       3.83958982      11.35750000  F        5      -0.00954869      -0.01025159      -0.50057020
Si       9.59897455       3.83958982      11.35750000  F        5      -0.01290652      -0.00699688      -0.50771581
Si       1.91979491       1.91979491      12.71500000  F        4       0.01414976      -0.00033446       0.18078581
Si       5.75938473       1.91979491      12.71500000  F        4      -0.00532804       0.00133918       0.17176292
Si       9.59897455       1.91979491      12.71500000  F        4       0.01694873      -0.00000159       0.15683937
Si       1.91979491       5.75938473      12.71500000  F        4      -0.01263845       0.00051143       0.15586024
Si       5.75938473       5.75938473      12.71500000  F        4      -0.01562559      -0.00028697       0.17276702
Si       9.59897455       5.75938473      12.71500000  F        4       0.01259945       0.00052339       0.16567496
Si       0.00000000       1.91979491      14.07250000  F        3      -0.00928342       0.00016430      -0.15079111
Si       3.83958982       1.91979491      14.07250000  F        3      -0.01090524       0.00370928      -0.29349817
Si       7.67917964       1.91979491      14.07250000  F        3      -0.03894006      -0.00149421      -0.21997462
Si       0.00000000       5.75938473      14.07250000  F        3      -0.01050620      -0.00022655      -0.10561593
Si       3.83958982       5.75938473      14.07250000  F        3      -0.02524746      -0.00193812      -0.23532989
Si       7.67917964       5.75938473      14.07250000  F        3      -0.02303683       0.00133918      -0.15525488
Si       0.00000000       0.00000000      15.43000000  F        2       0.01482342       0.00508170       0.46552228
Si       3.83958982       0.00000000      15.43000000  F        2      -0.20309792      -0.27119861       0.23270269
Si       7.67917964       0.00000000      15.43000000  F        2       0.14974344      -0.01490671       0.36952046
Si       0.00000000       3.83958982      15.43000000  F        2       0.01627269      -0.00486686       0.46897867
Si       3.83958982       3.83958982      15.43000000  F        2      -0.24242855       0.30439410       0.19037905
Si       7.67917964       3.83958982      15.43000000  F        2       0.17885635       0.02762785       0.34856104
Si       1.91979491       0.00000000      16.78750000  F        1       0.01981757       0.01872980      -0.14348197
Si       5.75938473       0.00000000      16.78750000  F        1      -0.17682244       0.24178279       0.10125521
Si       9.59897455       0.00000000      16.78750000  F        1       0.03928661      -0.00403253      -0.18478755
Si       1.91979491       3.83958982      16.78750000  F        1       0.01509819      -0.01869715      -0.14626448
Si       5.75938473       3.83958982      16.78750000  F        1      -0.15275386      -0.10858112       0.09188053
Si       9.59897455       3.83958982      16.78750000  F        1       0.04814199       0.00552115      -0.18235317
F        5.33685460       1.94347079      17.04974633  T        0       0.41467460      -0.18365093       0.07968358
37
Lattice="11.518769465528859 0.0 0.0 0.0 7.679179643685906 0.0 0.0 0.0 26.7875" Properties=species:S:1:pos:R:3:move_mask:L:1:tags:I:1:forces:R:3 energy=-186.18537467972402 pbc="T T F"
Si       0.00000000       0.00000000      10.00000000  F        6       0.00000015       0.00002480       0.24615353
Si       3.83958982       0.00000000      10.00000000  F        6       0.00218178      -0.00133814       0.24906863
Si       7.67917964       0.00000000      10.00000000  F        6      -0.00218181      -0.00133825       0.24906871
Si       0.00000000       3.83958982      10.00000000  F        6       0.00000015      -0.00002480       0.24615290
Si       3.83958982       3.83958982      10.00000000  F        6       0.00218210       0.00133830       0.24906760
Si       7.67917964       3.83958982      10.00000000  F        6      -0.00218213       0.00133841       0.24906767
Si       1.91979491       0.00000000      11.35750000  F        5       0.01469268       0.00736052      -0.50365773
Si       5.75938473       0.00000000      11.35750000  F        5       0.00000109       0.00921544      -0.50188841
Si       9.59897455       0.00000000      11.35750000  F        5      -0.01469319       0.00736025      -0.50365707
Si       1.91979491       3.83958982      11.35750000  F        5       0.01469428      -0.00735983      -0.50365326
Si       5.75938473       3.83958982      11.35750000  F        5       0.00000109      -0.00922145      -0.50190755
Si       9.59897455       3.83958982      11.35750000  F        5      -0.01469479      -0.00735956      -0.50365260
Si       1.91979491       1.91979491      12.71500000  F        4      -0.00164934       0.00000134       0.17436949
Si       5.75938473       1.91979491      12.71500000  F        4      -0.00000003       0.00003224       0.17176692
Si       9.59897455       1.91979491      12.71500000  F        4       0.00164431       0.00000134       0.17437348
Si       1.91979491       5.75938473      12.71500000  F        4      -0.00749379       0.00001107       0.16608994
Si       5.75938473       5.75938473      12.71500000  F        4       0.00000281      -0.00001264       0.17002584
Si       9.59897455       5.75938473      12.71500000  F        4       0.00749418       0.00001108       0.16608745
Si       0.00000000       1.91979491      14.07250000  F        3       0.00000227       0.00000047      -0.15340701
Si       3.83958982       1.91979491      14.07250000  F        3       0.03372809       0.00001433      -0.22007194
Si       7.67917964       1.91979491      14.07250000  F        3      -0.03371925       0.00001435      -0.22007950
Si       0.00000000       5.75938473      14.07250000  F        3       0.00000098      -0.00000915      -0.10882880
Si       3.83958982       5.75938473      14.07250000  F        3       0.02258520       0.00000866      -0.17832074
Si       7.67917964       5.75938473      14.07250000  F        3      -0.02257777       0.00000866      -0.17833433
Si       0.00000000       0.00000000      15.43000000  F        2      -0.00000192       0.02562377       0.46321887
Si       3.83958982       0.00000000      15.43000000  F        2      -0.20579834      -0.10333397       0.28257414
Si       7.67917964       0.00000000      15.43000000  F        2       0.20580801      -0.10337638       0.28255033
Si       0.00000000       3.83958982      15.43000000  F        2      -0.00000193      -0.02562517       0.46322374
Si       3.83958982       3.83958982      15.43000000  F        2      -0.20647724       0.10376262       0.28196652
Si       7.67917964       3.83958982      15.43000000  F        2       0.20648694       0.10380509       0.28194265
Si       1.91979491       0.00000000      16.78750000  F        1      -0.00813093       0.00289128      -0.15235611
Si       5.75938473       0.00000000      16.78750000  F        1       0.00002623      -0.05407935       0.06085009
Si       9.59897455       0.00000000      16.78750000  F        1       0.00811781       0.00289935      -0.15234970
Si       1.91979491       3.83958982      16.78750000  F        1      -0.00821384      -0.00290971      -0.15231881
Si       5.75938473       3.83958982      16.78750000  F        1       0.00002616       0.05698128       0.06016657
Si       9.59897455       3.83958982      16.78750000  F        1       0.00820067      -0.00291781      -0.15231241
F        5.75944925       1.92029464      17.20821135  T        0      -0.00006072      -0.00379843      -0.00098911
