37
Lattice="11.518769465528859 0.0 0.0 0.0 7.679179643685906 0.0 0.0 0.0 26.7875" Properties=species:S:1:pos:R:3:move_mask:L:1:tags:I:1:forces:R:3 energy=-186.1853746797025 pbc="T T F"
Si       0.00000000       0.00000000      10.00000000  F        6       0.00218174      -0.00133814       0.24906865
Si       3.83958982       0.00000000      10.00000000  F        6      -0.00218181      -0.00133825       0.24906871
Si       7.67917964       0.00000000      10.00000000  F        6       0.00000020       0.00002480       0.24615351
Si       0.00000000       3.83958982      10.00000000  F        6       0.00218206       0.00133830       0.24906761
Si       3.83958982       3.83958982      10.00000000  F        6      -0.00218213       0.00133841       0.24906767
Si       7.67917964       3.83958982      10.00000000  F        6       0.00000020      -0.00002480       0.24615288
Si       1.91979491       0.00000000      11.35750000  F        5       0.00000110       0.00921544      -0.50188841
Si       5.75938473       0.00000000      11.35750000  F        5      -0.01469322       0.00736025      -0.50365705
Si       9.59897455       0.00000000      11.35750000  F        5       0.01469271       0.00736052      -0.50365775
Si       1.91979491       3.83958982      11.35750000  F        5       0.00000110      -0.00922145      -0.50190755
Si       5.75938473       3.83958982      11.35750000  F        5      -0.01469482      -0.00735956      -0.50365258
Si       9.59897455       3.83958982      11.35750000  F        5       0.01469431      -0.00735983      -0.50365328
Si       1.91979491       1.91979491      12.71500000  F        4      -0.00000003       0.00003224       0.17176692
Si       5.75938473       1.91979491      12.71500000  F        4       0.00164427       0.00000134       0.17437346
Si       9.59897455       1.91979491      12.71500000  F        4      -0.00164930       0.00000134       0.17436951
Si       1.91979491       5.75938473      12.71500000  F        4       0.00000281      -0.00001264       0.17002584
Si       5.75938473       5.75938473      12.71500000  F        4       0.00749415       0.00001108       0.16608743
Si       9.59897455       5.75938473      12.71500000  F        4      -0.00749375       0.00001107       0.16608997
Si       0.00000000       1.91979491      14.07250000  F        3       0.03372806       0.00001433      -0.22007196
Si       3.83958982       1.91979491      14.07250000  F        3      -0.03371926       0.00001435      -0.22007951
Si       7.67917964       1.91979491      14.07250000  F        3       0.00000231       0.00000047      -0.15340699
Si       0.00000000       5.75938473      14.07250000  F        3       0.02258517       0.00000866      -0.17832076
Si       3.83958982       5.75938473      14.07250000  F        3      -0.02257777       0.00000866      -0.17833433
Si       7.67917964       5.75938473      14.07250000  F        3       0.00000101      -0.00000915      -0.10882878
Si       0.00000000       0.00000000      15.43000000  F        2      -0.20579837      -0.10333397       0.28257415
Si       3.83958982       0.00000000      15.43000000  F        2       0.20580802      -0.10337638       0.28255033
Si       7.67917964       0.00000000      15.43000000  F        2      -0.00000190       0.02562377       0.46321885
Si       0.00000000       3.83958982      15.43000000  F        2      -0.20647727       0.10376262       0.28196654
Si       3.83958982       3.83958982      15.43000000  F        2       0.20648694       0.10380509       0.28194265
Si       7.67917964       3.83958982      15.43000000  F        2      -0.00000190      -0.02562517       0.46322372
Si       1.91979491       0.00000000      16.78750000  F        1       0.00002622      -0.05407934       0.06085009
Si       5.75938473       0.00000000      16.78750000  F        1       0.00811778       0.00289935      -0.15234968
Si       9.59897455       0.00000000      16.78750000  F        1      -0.00813089       0.00289128      -0.15235613
Si       1.91979491       3.83958982      16.78750000  F        1       0.00002615       0.05698128       0.06016657
Si       5.75938473       3.83958982      16.78750000  F        1       0.00820064      -0.00291781      -0.15231240
Si       9.59897455       3.83958982      16.78750000  F        1      -0.00821380      -0.00290971      -0.15231882
F        1.91985943       1.92029464      17.20821135  T        0      -0.00006071      -0.00379843      -0.00098911
