41
Lattice="11.518769465528859 0.0 0.0 0.0 7.679179643685906 0.0 0.0 0.0 30.7875" Properties=species:S:1:pos:R:3:move_mask:L:1:tags:I:1:forces:R:3 surface=Si100 species=SiF4 site=atop_Si orientation=parallel height_A=6.5 substrate_atoms=36 calculation_kind="Rigid evaluated approach scan; not NEB" energy=-208.21619064940802 pbc="T T F"
Si       0.00000000       0.00000000      12.00000000  F        6      -0.00000004       0.00000000       0.24903484
Si       3.83958982       0.00000000      12.00000000  F        6      -0.00000000       0.00000000       0.24903482
Si       7.67917964       0.00000000      12.00000000  F        6       0.00000000       0.00000000       0.24903482
Si       0.00000000       3.83958982      12.00000000  F        6      -0.00000004      -0.00000000       0.24903484
Si       3.83958982       3.83958982      12.00000000  F        6      -0.00000000      -0.00000000       0.24903482
Si       7.67917964       3.83958982      12.00000000  F        6       0.00000000      -0.00000000       0.24903482
Si       1.91979491       0.00000000      13.35750000  F        5       0.00000000      -0.00000002      -0.52822352
Si       5.75938473       0.00000000      13.35750000  F        5       0.00000000      -0.00000002      -0.52822353
Si       9.59897455       0.00000000      13.35750000  F        5       0.00000003      -0.00000002      -0.52822354
Si       1.91979491       3.83958982      13.35750000  F        5       0.00000000       0.00000000      -0.52822354
Si       5.75938473       3.83958982      13.35750000  F        5       0.00000000       0.00000000      -0.52822354
Si       9.59897455       3.83958982      13.35750000  F        5       0.00000003       0.00000000      -0.52822356
Si       1.91979491       1.91979491      14.71500000  F        4      -0.00000000       0.00000000       0.14537709
Si       5.75938473       1.91979491      14.71500000  F        4       0.00000000       0.00000000       0.14537709
Si       9.59897455       1.91979491      14.71500000  F        4       0.00000004       0.00000000       0.14537711
Si       1.91979491       5.75938473      14.71500000  F        4      -0.00000000       0.00000002       0.14537707
Si       5.75938473       5.75938473      14.71500000  F        4       0.00000000       0.00000002       0.14537707
Si       9.59897455       5.75938473      14.71500000  F        4       0.00000004       0.00000002       0.14537709
Si       0.00000000       1.91979491      16.07250000  F        3      -0.00000004       0.00000000      -0.14537711
Si       3.83958982       1.91979491      16.07250000  F        3      -0.00000000       0.00000000      -0.14537709
Si       7.67917964       1.91979491      16.07250000  F        3       0.00000000       0.00000000      -0.14537709
Si       0.00000000       5.75938473      16.07250000  F        3      -0.00000004       0.00000002      -0.14537709
Si       3.83958982       5.75938473      16.07250000  F        3      -0.00000000       0.00000002      -0.14537707
Si       7.67917964       5.75938473      16.07250000  F        3       0.00000000       0.00000002      -0.14537707
Si       0.00000000       0.00000000      17.43000000  F        2      -0.00000003      -0.00000002       0.52822354
Si       3.83958982       0.00000000      17.43000000  F        2      -0.00000000      -0.00000002       0.52822353
Si       7.67917964       0.00000000      17.43000000  F        2      -0.00000000      -0.00000002       0.52822352
Si       0.00000000       3.83958982      17.43000000  F        2      -0.00000003       0.00000000       0.52822356
Si       3.83958982       3.83958982      17.43000000  F        2      -0.00000000       0.00000000       0.52822354
Si       7.67917964       3.83958982      17.43000000  F        2      -0.00000000       0.00000000       0.52822354
Si       1.91979491       0.00000000      18.78750000  F        1      -0.00000000       0.00000000      -0.24903482
Si       5.75938473       0.00000000      18.78750000  F        1       0.00000000       0.00000000      -0.24903482
Si       9.59897455       0.00000000      18.78750000  F        1       0.00000004       0.00000000      -0.24903484
Si       1.91979491       3.83958982      18.78750000  F        1      -0.00000000      -0.00000000      -0.24903482
Si       5.75938473       3.83958982      18.78750000  F        1       0.00000000      -0.00000000      -0.24903482
Si       9.59897455       3.83958982      18.78750000  F        1       0.00000004      -0.00000000      -0.24903484
Si       5.75938473       3.83958982      26.77902565  T        0      -0.00000004       0.00000000      -0.00000017
F        4.17738288       3.83958982      26.77902565  T        0      -0.00049033      -0.00000000       0.00000000
F        6.28671868       3.83958982      25.28750000  T        0       0.00016342      -0.00000000      -0.00046224
F        6.28671868       5.13128892      27.52478847  T        0       0.00016348       0.00040043       0.00023120
F        6.28671868       2.54789072      27.52478847  T        0       0.00016348      -0.00040043       0.00023120
41
Lattice="11.518769465528859 0.0 0.0 0.0 7.679179643685906 0.0 0.0 0.0 30.7875" Properties=species:S:1:pos:R:3:move_mask:L:1:tags:I:1:forces:R:3 surface=Si100 species=SiF4 site=atop_Si orientation=parallel height_A=5.0 substrate_atoms=36 calculation_kind="Rigid evaluated approach scan; not NEB" energy=-208.21619064940802 pbc="T T F"
Si       0.00000000       0.00000000      12.00000000  F        6      -0.00000004       0.00000000       0.24903484
Si       3.83958982       0.00000000      12.00000000  F        6      -0.00000000       0.00000000       0.24903482
Si       7.67917964       0.00000000      12.00000000  F        6       0.00000000       0.00000000       0.24903482
Si       0.00000000       3.83958982      12.00000000  F        6      -0.00000004      -0.00000000       0.24903484
Si       3.83958982       3.83958982      12.00000000  F        6      -0.00000000      -0.00000000       0.24903482
Si       7.67917964       3.83958982      12.00000000  F        6       0.00000000      -0.00000000       0.24903482
Si       1.91979491       0.00000000      13.35750000  F        5       0.00000000      -0.00000002      -0.52822352
Si       5.75938473       0.00000000      13.35750000  F        5       0.00000000      -0.00000002      -0.52822353
Si       9.59897455       0.00000000      13.35750000  F        5       0.00000003      -0.00000002      -0.52822354
Si       1.91979491       3.83958982      13.35750000  F        5       0.00000000       0.00000000      -0.52822354
Si       5.75938473       3.83958982      13.35750000  F        5       0.00000000       0.00000000      -0.52822354
Si       9.59897455       3.83958982      13.35750000  F        5       0.00000003       0.00000000      -0.52822356
Si       1.91979491       1.91979491      14.71500000  F        4      -0.00000000       0.00000000       0.14537709
Si       5.75938473       1.91979491      14.71500000  F        4       0.00000000       0.00000000       0.14537709
Si       9.59897455       1.91979491      14.71500000  F        4       0.00000004       0.00000000       0.14537711
Si       1.91979491       5.75938473      14.71500000  F        4      -0.00000000       0.00000002       0.14537707
Si       5.75938473       5.75938473      14.71500000  F        4       0.00000000       0.00000002       0.14537707
Si       9.59897455       5.75938473      14.71500000  F        4       0.00000004       0.00000002       0.14537709
Si       0.00000000       1.91979491      16.07250000  F        3      -0.00000004       0.00000000      -0.14537711
Si       3.83958982       1.91979491      16.07250000  F        3      -0.00000000       0.00000000      -0.14537709
Si       7.67917964       1.91979491      16.07250000  F        3       0.00000000       0.00000000      -0.14537709
Si       0.00000000       5.75938473      16.07250000  F        3      -0.00000004       0.00000002      -0.14537709
Si       3.83958982       5.75938473      16.07250000  F        3      -0.00000000       0.00000002      -0.14537707
Si       7.67917964       5.75938473      16.07250000  F        3       0.00000000       0.00000002      -0.14537707
Si       0.00000000       0.00000000      17.43000000  F        2      -0.00000003      -0.00000002       0.52822354
Si       3.83958982       0.00000000      17.43000000  F        2      -0.00000000      -0.00000002       0.52822353
Si       7.67917964       0.00000000      17.43000000  F        2      -0.00000000      -0.00000002       0.52822352
Si       0.00000000       3.83958982      17.43000000  F        2      -0.00000003       0.00000000       0.52822356
Si       3.83958982       3.83958982      17.43000000  F        2      -0.00000000       0.00000000       0.52822354
Si       7.67917964       3.83958982      17.43000000  F        2      -0.00000000       0.00000000       0.52822354
Si       1.91979491       0.00000000      18.78750000  F        1      -0.00000000       0.00000000      -0.24903482
Si       5.75938473       0.00000000      18.78750000  F        1       0.00000000       0.00000000      -0.24903482
Si       9.59897455       0.00000000      18.78750000  F        1       0.00000004       0.00000000      -0.24903484
Si       1.91979491       3.83958982      18.78750000  F        1      -0.00000000      -0.00000000      -0.24903482
Si       5.75938473       3.83958982      18.78750000  F        1       0.00000000      -0.00000000      -0.24903482
Si       9.59897455       3.83958982      18.78750000  F        1       0.00000004      -0.00000000      -0.24903484
Si       5.75938473       3.83958982      25.27902565  T        0      -0.00000004       0.00000000      -0.00000017
F        4.17738288       3.83958982      25.27902565  T        0      -0.00049033      -0.00000000       0.00000000
F        6.28671868       3.83958982      23.78750000  T        0       0.00016342      -0.00000000      -0.00046224
F        6.28671868       5.13128892      26.02478847  T        0       0.00016348       0.00040043       0.00023120
F        6.28671868       2.54789072      26.02478847  T        0       0.00016348      -0.00040043       0.00023120
41
Lattice="11.518769465528859 0.0 0.0 0.0 7.679179643685906 0.0 0.0 0.0 30.7875" Properties=species:S:1:pos:R:3:move_mask:L:1:tags:I:1:forces:R:3 surface=Si100 species=SiF4 site=atop_Si orientation=parallel height_A=4.0 substrate_atoms=36 calculation_kind="Rigid evaluated approach scan; not NEB" energy=-208.2891283166449 pbc="T T F"
Si       0.00000000       0.00000000      12.00000000  F        6      -0.00000004       0.00000000       0.24903444
Si       3.83958982       0.00000000      12.00000000  F        6      -0.00018279       0.00000000       0.24947769
Si       7.67917964       0.00000000      12.00000000  F        6       0.00018279       0.00000000       0.24945232
Si       0.00000000       3.83958982      12.00000000  F        6      -0.00000004      -0.00000000       0.24883502
Si       3.83958982       3.83958982      12.00000000  F        6      -0.00034563      -0.00000000       0.24877085
Si       7.67917964       3.83958982      12.00000000  F        6       0.00034563      -0.00000000       0.24874548
Si       1.91979491       0.00000000      13.35750000  F        5       0.00057025      -0.00000002      -0.52737236
Si       5.75938473       0.00000000      13.35750000  F        5      -0.00001873      -0.00000002      -0.52872363
Si       9.59897455       0.00000000      13.35750000  F        5      -0.00055148      -0.00000002      -0.52740598
Si       1.91979491       3.83958982      13.35750000  F        5       0.00056053       0.00000000      -0.52657318
Si       5.75938473       3.83958982      13.35750000  F        5      -0.00008728       0.00000000      -0.52625176
Si       9.59897455       3.83958982      13.35750000  F        5      -0.00047322       0.00000000      -0.52675589
Si       1.91979491       1.91979491      14.71500000  F        4       0.00140679      -0.00059441       0.14696843
Si       5.75938473       1.91979491      14.71500000  F        4       0.00043254      -0.00032854       0.14657571
Si       9.59897455       1.91979491      14.71500000  F        4      -0.00162504      -0.00063100       0.14713509
Si       1.91979491       5.75938473      14.71500000  F        4       0.00140679       0.00059443       0.14696842
Si       5.75938473       5.75938473      14.71500000  F        4       0.00043254       0.00032857       0.14657569
Si       9.59897455       5.75938473      14.71500000  F        4      -0.00162504       0.00063102       0.14713508
Si       0.00000000       1.91979491      16.07250000  F        3       0.00003534       0.00050913      -0.14524924
Si       3.83958982       1.91979491      16.07250000  F        3       0.00007803       0.01011295      -0.13975037
Si       7.67917964       1.91979491      16.07250000  F        3       0.00171704       0.00853921      -0.14261567
Si       0.00000000       5.75938473      16.07250000  F        3       0.00003534      -0.00050910      -0.14524923
Si       3.83958982       5.75938473      16.07250000  F        3       0.00007803      -0.01011293      -0.13975036
Si       7.67917964       5.75938473      16.07250000  F        3       0.00171704      -0.00853918      -0.14261566
Si       0.00000000       0.00000000      17.43000000  F        2       0.00005671      -0.00000002       0.52463925
Si       3.83958982       0.00000000      17.43000000  F        2       0.00209601      -0.00000002       0.52807426
Si       7.67917964       0.00000000      17.43000000  F        2      -0.00334312      -0.00000002       0.52820963
Si       0.00000000       3.83958982      17.43000000  F        2      -0.00009243       0.00000000       0.53096585
Si       3.83958982       3.83958982      17.43000000  F        2       0.00538673       0.00000000       0.52640801
Si       7.67917964       3.83958982      17.43000000  F        2      -0.01236817       0.00000000       0.52837993
Si       1.91979491       0.00000000      18.78750000  F        1      -0.00001336       0.00000000      -0.24773724
Si       5.75938473       0.00000000      18.78750000  F        1       0.00006103       0.00000000      -0.24949177
Si       9.59897455       0.00000000      18.78750000  F        1       0.00002861       0.00000000      -0.24773661
Si       1.91979491       3.83958982      18.78750000  F        1       0.00482275      -0.00000000      -0.25105644
Si       5.75938473       3.83958982      18.78750000  F        1       0.02465451      -0.00000000      -0.15825503
Si       9.59897455       3.83958982      18.78750000  F        1      -0.00236671      -0.00000000      -0.25184937
Si       5.75938473       3.83958982      24.27902565  T        0       0.05698311       0.00000000      -0.09925881
F        4.17738288       3.83958982      24.27902565  T        0      -0.02581129      -0.00000000       0.01606237
F        6.28671868       3.83958982      22.78750000  T        0      -0.05132758       0.00000000      -0.07741500
F        6.28671868       5.13128892      25.02478847  T        0      -0.00142810       0.01263112       0.02135004
F        6.28671868       2.54789072      25.02478847  T        0      -0.00142810      -0.01263112       0.02135004
41
Lattice="11.518769465528859 0.0 0.0 0.0 7.679179643685906 0.0 0.0 0.0 30.7875" Properties=species:S:1:pos:R:3:move_mask:L:1:tags:I:1:forces:R:3 surface=Si100 species=SiF4 site=atop_Si orientation=parallel height_A=3.25 substrate_atoms=36 calculation_kind="Rigid evaluated approach scan; not NEB" energy=-208.33577212634754 pbc="T T F"
Si       0.00000000       0.00000000      12.00000000  F        6       0.00007769       0.00000000       0.24974250
Si       3.83958982       0.00000000      12.00000000  F        6      -0.00105820       0.00000000       0.24973352
Si       7.67917964       0.00000000      12.00000000  F        6       0.00098040       0.00000000       0.24980524
Si       0.00000000       3.83958982      12.00000000  F        6       0.00016085      -0.00000000       0.24889410
Si       3.83958982       3.83958982      12.00000000  F        6      -0.00100176      -0.00000000       0.24846476
Si       7.67917964       3.83958982      12.00000000  F        6       0.00084080      -0.00000000       0.24830361
Si       1.91979491       0.00000000      13.35750000  F        5       0.00097414      -0.00000002      -0.52725651
Si       5.75938473       0.00000000      13.35750000  F        5       0.00007106      -0.00000002      -0.53014113
Si       9.59897455       0.00000000      13.35750000  F        5      -0.00104472      -0.00000002      -0.52757522
Si       1.91979491       3.83958982      13.35750000  F        5       0.00033867       0.00000000      -0.52547947
Si       5.75938473       3.83958982      13.35750000  F        5       0.00016973       0.00000000      -0.52841137
Si       9.59897455       3.83958982      13.35750000  F        5      -0.00036465       0.00000000      -0.52504951
Si       1.91979491       1.91979491      14.71500000  F        4      -0.00038758      -0.00229270       0.14523669
Si       5.75938473       1.91979491      14.71500000  F        4       0.00156136       0.00072513       0.15222897
Si       9.59897455       1.91979491      14.71500000  F        4      -0.00147471      -0.00236735       0.14596076
Si       1.91979491       5.75938473      14.71500000  F        4      -0.00038758       0.00229272       0.14523668
Si       5.75938473       5.75938473      14.71500000  F        4       0.00156136      -0.00072511       0.15222895
Si       9.59897455       5.75938473      14.71500000  F        4      -0.00147471       0.00236738       0.14596075
Si       0.00000000       1.91979491      16.07250000  F        3      -0.00138391       0.00367283      -0.14377390
Si       3.83958982       1.91979491      16.07250000  F        3      -0.00218379       0.02447832      -0.12969786
Si       7.67917964       1.91979491      16.07250000  F        3       0.00111447       0.02299875      -0.13403560
Si       0.00000000       5.75938473      16.07250000  F        3      -0.00138391      -0.00367281      -0.14377388
Si       3.83958982       5.75938473      16.07250000  F        3      -0.00218379      -0.02447830      -0.12969784
Si       7.67917964       5.75938473      16.07250000  F        3       0.00111447      -0.02299872      -0.13403558
Si       0.00000000       0.00000000      17.43000000  F        2      -0.00038559      -0.00000002       0.51993456
Si       3.83958982       0.00000000      17.43000000  F        2       0.00468906      -0.00000002       0.52796347
Si       7.67917964       0.00000000      17.43000000  F        2      -0.00363058      -0.00000002       0.52582213
Si       0.00000000       3.83958982      17.43000000  F        2       0.00900123       0.00000000       0.51819785
Si       3.83958982       3.83958982      17.43000000  F        2       0.03761618       0.00000000       0.50843371
Si       7.67917964       3.83958982      17.43000000  F        2      -0.04592641       0.00000000       0.51662863
Si       1.91979491       0.00000000      18.78750000  F        1       0.00159042       0.00000000      -0.24416796
Si       5.75938473       0.00000000      18.78750000  F        1      -0.00040036       0.00000000      -0.24284688
Si       9.59897455       0.00000000      18.78750000  F        1      -0.00109701       0.00000000      -0.24425226
Si       1.91979491       3.83958982      18.78750000  F        1       0.01364504      -0.00000000      -0.25773196
Si       5.75938473       3.83958982      18.78750000  F        1       0.01584967      -0.00000000      -0.31385842
Si       9.59897455       3.83958982      18.78750000  F        1      -0.02757756      -0.00000000      -0.22771747
Si       5.75938473       3.83958982      23.52902565  T        0       0.09291781       0.00000000      -0.06007289
F        4.17738288       3.83958982      23.52902565  T        0      -0.02723363      -0.00000000       0.01557223
F        6.28671868       3.83958982      22.03750000  T        0      -0.06434928       0.00000000       0.03034051
F        6.28671868       5.13128892      24.27478847  T        0       0.00032766       0.01097318       0.01244306
F        6.28671868       2.54789072      24.27478847  T        0       0.00032766      -0.01097318       0.01244306
41
Lattice="11.518769465528859 0.0 0.0 0.0 7.679179643685906 0.0 0.0 0.0 30.7875" Properties=species:S:1:pos:R:3:move_mask:L:1:tags:I:1:forces:R:3 surface=Si100 species=SiF4 site=atop_Si orientation=parallel height_A=2.75 substrate_atoms=36 calculation_kind="Rigid evaluated approach scan; not NEB" energy=-208.323283530378 pbc="T T F"
Si       0.00000000       0.00000000      12.00000000  F        6       0.00021040       0.00000000       0.25147622
Si       3.83958982       0.00000000      12.00000000  F        6      -0.00208472       0.00000000       0.25100205
Si       7.67917964       0.00000000      12.00000000  F        6       0.00187450       0.00000000       0.25140013
Si       0.00000000       3.83958982      12.00000000  F        6       0.00056660      -0.00000000       0.24864746
Si       3.83958982       3.83958982      12.00000000  F        6      -0.00193830      -0.00000000       0.24815973
Si       7.67917964       3.83958982      12.00000000  F        6       0.00137123      -0.00000000       0.24754895
Si       1.91979491       0.00000000      13.35750000  F        5       0.00121521      -0.00000002      -0.52662896
Si       5.75938473       0.00000000      13.35750000  F        5       0.00007544      -0.00000002      -0.53299067
Si       9.59897455       0.00000000      13.35750000  F        5      -0.00128974      -0.00000002      -0.52779047
Si       1.91979491       3.83958982      13.35750000  F        5       0.00023470       0.00000000      -0.52585265
Si       5.75938473       3.83958982      13.35750000  F        5       0.00062068       0.00000000      -0.52836668
Si       9.59897455       3.83958982      13.35750000  F        5       0.00112332       0.00000000      -0.52714401
Si       1.91979491       1.91979491      14.71500000  F        4      -0.00218093      -0.00219990       0.14722008
Si       5.75938473       1.91979491      14.71500000  F        4       0.00585240      -0.00624684       0.14867208
Si       9.59897455       1.91979491      14.71500000  F        4      -0.00463710      -0.00406838       0.15104701
Si       1.91979491       5.75938473      14.71500000  F        4      -0.00218093       0.00219993       0.14722007
Si       5.75938473       5.75938473      14.71500000  F        4       0.00585240       0.00624686       0.14867206
Si       9.59897455       5.75938473      14.71500000  F        4      -0.00463710       0.00406840       0.15104700
Si       0.00000000       1.91979491      16.07250000  F        3      -0.00559765       0.00858758      -0.13984312
Si       3.83958982       1.91979491      16.07250000  F        3       0.00399061       0.04108559      -0.11114017
Si       7.67917964       1.91979491      16.07250000  F        3      -0.01094064       0.04195957      -0.11154420
Si       0.00000000       5.75938473      16.07250000  F        3      -0.00559765      -0.00858756      -0.13984310
Si       3.83958982       5.75938473      16.07250000  F        3       0.00399061      -0.04108557      -0.11114015
Si       7.67917964       5.75938473      16.07250000  F        3      -0.01094064      -0.04195954      -0.11154418
Si       0.00000000       0.00000000      17.43000000  F        2      -0.00018316      -0.00000002       0.51350811
Si       3.83958982       0.00000000      17.43000000  F        2       0.03258771      -0.00000002       0.54728362
Si       7.67917964       0.00000000      17.43000000  F        2      -0.02615179      -0.00000002       0.53097519
Si       0.00000000       3.83958982      17.43000000  F        2       0.01703639       0.00000000       0.50871656
Si       3.83958982       3.83958982      17.43000000  F        2       0.01373636       0.00000000       0.42045717
Si       7.67917964       3.83958982      17.43000000  F        2      -0.09520962       0.00000000       0.49402627
Si       1.91979491       0.00000000      18.78750000  F        1       0.00421572       0.00000000      -0.24399397
Si       5.75938473       0.00000000      18.78750000  F        1       0.00603787       0.00000000      -0.22007590
Si       9.59897455       0.00000000      18.78750000  F        1      -0.00258523       0.00000000      -0.24206099
Si       1.91979491       3.83958982      18.78750000  F        1       0.03043103      -0.00000000      -0.23714159
Si       5.75938473       3.83958982      18.78750000  F        1      -0.07186956      -0.00000000      -0.54307973
Si       9.59897455       3.83958982      18.78750000  F        1      -0.04915685      -0.00000000      -0.17069284
Si       5.75938473       3.83958982      23.02902565  T        0      -0.01390769      -0.00000000       0.08432479
F        4.17738288       3.83958982      23.02902565  T        0       0.03799710      -0.00000000      -0.09857192
F        6.28671868       3.83958982      21.53750000  T        0       0.13550186      -0.00000000       0.19391650
F        6.28671868       5.13128892      23.77478847  T        0       0.00328359      -0.01342902      -0.01793787
F        6.28671868       2.54789072      23.77478847  T        0       0.00328359       0.01342902      -0.01793787
41
Lattice="11.518769465528859 0.0 0.0 0.0 7.679179643685906 0.0 0.0 0.0 30.7875" Properties=species:S:1:pos:R:3:move_mask:L:1:tags:I:1:forces:R:3 surface=Si100 species=SiF4 site=atop_Si orientation=parallel height_A=2.25 substrate_atoms=36 calculation_kind="Rigid evaluated approach scan; not NEB" energy=-207.9606808288948 pbc="T T F"
Si       0.00000000       0.00000000      12.00000000  F        6       0.00044294       0.00000000       0.25297224
Si       3.83958982       0.00000000      12.00000000  F        6      -0.00199918       0.00000000       0.25220141
Si       7.67917964       0.00000000      12.00000000  F        6       0.00155453       0.00000000       0.25223532
Si       0.00000000       3.83958982      12.00000000  F        6       0.00054187      -0.00000000       0.24665388
Si       3.83958982       3.83958982      12.00000000  F        6      -0.00220880      -0.00000000       0.24544975
Si       7.67917964       3.83958982      12.00000000  F        6       0.00166672      -0.00000000       0.24442447
Si       1.91979491       0.00000000      13.35750000  F        5      -0.00062358      -0.00000002      -0.52747269
Si       5.75938473       0.00000000      13.35750000  F        5      -0.00022878      -0.00000002      -0.53568257
Si       9.59897455       0.00000000      13.35750000  F        5       0.00085394      -0.00000002      -0.52779172
Si       1.91979491       3.83958982      13.35750000  F        5      -0.00105414       0.00000000      -0.52824611
Si       5.75938473       3.83958982      13.35750000  F        5       0.00276710       0.00000000      -0.51323516
Si       9.59897455       3.83958982      13.35750000  F        5      -0.00430627       0.00000000      -0.51454562
Si       1.91979491       1.91979491      14.71500000  F        4       0.00253816      -0.00245381       0.15277658
Si       5.75938473       1.91979491      14.71500000  F        4       0.00996845      -0.02053576       0.14541623
Si       9.59897455       1.91979491      14.71500000  F        4      -0.01186002      -0.00066331       0.16116364
Si       1.91979491       5.75938473      14.71500000  F        4       0.00253816       0.00245383       0.15277657
Si       5.75938473       5.75938473      14.71500000  F        4       0.00996845       0.02053578       0.14541621
Si       9.59897455       5.75938473      14.71500000  F        4      -0.01186002       0.00066333       0.16116362
Si       0.00000000       1.91979491      16.07250000  F        3      -0.00543134       0.01806510      -0.13452379
Si       3.83958982       1.91979491      16.07250000  F        3       0.03638216       0.05594443      -0.09940944
Si       7.67917964       1.91979491      16.07250000  F        3      -0.02544817       0.00786874      -0.14089414
Si       0.00000000       5.75938473      16.07250000  F        3      -0.00543134      -0.01806507      -0.13452378
Si       3.83958982       5.75938473      16.07250000  F        3       0.03638216      -0.05594441      -0.09940942
Si       7.67917964       5.75938473      16.07250000  F        3      -0.02544817      -0.00786872      -0.14089413
Si       0.00000000       0.00000000      17.43000000  F        2       0.00380143      -0.00000002       0.50740228
Si       3.83958982       0.00000000      17.43000000  F        2       0.05348310      -0.00000002       0.55554804
Si       7.67917964       0.00000000      17.43000000  F        2      -0.05262728      -0.00000002       0.52750232
Si       0.00000000       3.83958982      17.43000000  F        2      -0.00888687       0.00000000       0.51812467
Si       3.83958982       3.83958982      17.43000000  F        2      -0.08914083       0.00000000       0.38379519
Si       7.67917964       3.83958982      17.43000000  F        2      -0.08263946       0.00000000       0.51701237
Si       1.91979491       0.00000000      18.78750000  F        1       0.00542237       0.00000000      -0.24968337
Si       5.75938473       0.00000000      18.78750000  F        1       0.02327756       0.00000000      -0.20052001
Si       9.59897455       0.00000000      18.78750000  F        1      -0.00756767       0.00000000      -0.24381332
Si       1.91979491       3.83958982      18.78750000  F        1       0.05732845      -0.00000000      -0.16197922
Si       5.75938473       3.83958982      18.78750000  F        1      -0.32480584      -0.00000000      -1.85371252
Si       9.59897455       3.83958982      18.78750000  F        1      -0.02420705      -0.00000000      -0.14515653
Si       5.75938473       3.83958982      22.52902565  T        0      -0.54793888       0.00000000       1.41442752
F        4.17738288       3.83958982      22.52902565  T        0       0.11285756      -0.00000000      -0.22379072
F        6.28671868       3.83958982      21.03750000  T        0       0.81641333       0.00000000       0.59656801
F        6.28671868       5.13128892      23.27478847  T        0       0.02776261      -0.09127167      -0.22887303
F        6.28671868       2.54789072      23.27478847  T        0       0.02776261       0.09127167      -0.22887303
41
Lattice="11.518769465528859 0.0 0.0 0.0 7.679179643685906 0.0 0.0 0.0 30.7875" Properties=species:S:1:pos:R:3:move_mask:L:1:tags:I:1:forces:R:3 surface=Si100 species=SiF4 site=atop_Si orientation=parallel height_A=1.9 substrate_atoms=36 calculation_kind="Rigid evaluated approach scan; not NEB" energy=-207.4323471015658 pbc="T T F"
Si       0.00000000       0.00000000      12.00000000  F        6       0.00036157       0.00000000       0.25384351
Si       3.83958982       0.00000000      12.00000000  F        6      -0.00339025       0.00000000       0.25428892
Si       7.67917964       0.00000000      12.00000000  F        6       0.00302790       0.00000000       0.25494644
Si       0.00000000       3.83958982      12.00000000  F        6       0.00034403      -0.00000000       0.24498313
Si       3.83958982       3.83958982      12.00000000  F        6      -0.00405430      -0.00000000       0.24208765
Si       7.67917964       3.83958982      12.00000000  F        6       0.00371028      -0.00000000       0.24197183
Si       1.91979491       0.00000000      13.35750000  F        5       0.00253986      -0.00000002      -0.52578696
Si       5.75938473       0.00000000      13.35750000  F        5      -0.00080293      -0.00000002      -0.53632510
Si       9.59897455       0.00000000      13.35750000  F        5      -0.00173901      -0.00000002      -0.52520772
Si       1.91979491       3.83958982      13.35750000  F        5      -0.00016762       0.00000000      -0.52465601
Si       5.75938473       3.83958982      13.35750000  F        5       0.00720693       0.00000000      -0.50667955
Si       9.59897455       3.83958982      13.35750000  F        5      -0.01104867       0.00000000      -0.49850928
Si       1.91979491       1.91979491      14.71500000  F        4       0.00342911      -0.00638014       0.15754454
Si       5.75938473       1.91979491      14.71500000  F        4       0.01149144      -0.02451059       0.16416155
Si       9.59897455       1.91979491      14.71500000  F        4      -0.01151604      -0.00368111       0.16404955
Si       1.91979491       5.75938473      14.71500000  F        4       0.00342911       0.00638016       0.15754453
Si       5.75938473       5.75938473      14.71500000  F        4       0.01149144       0.02451061       0.16416154
Si       9.59897455       5.75938473      14.71500000  F        4      -0.01151604       0.00368113       0.16404954
Si       0.00000000       1.91979491      16.07250000  F        3      -0.00785604       0.03074039      -0.13016907
Si       3.83958982       1.91979491      16.07250000  F        3       0.04398827       0.06413659      -0.10737465
Si       7.67917964       1.91979491      16.07250000  F        3      -0.01394530      -0.02232586      -0.17068177
Si       0.00000000       5.75938473      16.07250000  F        3      -0.00785604      -0.03074036      -0.13016906
Si       3.83958982       5.75938473      16.07250000  F        3       0.04398827      -0.06413656      -0.10737464
Si       7.67917964       5.75938473      16.07250000  F        3      -0.01394530       0.02232588      -0.17068176
Si       0.00000000       0.00000000      17.43000000  F        2       0.00784489      -0.00000002       0.47796869
Si       3.83958982       0.00000000      17.43000000  F        2       0.03706997      -0.00000002       0.53546500
Si       7.67917964       0.00000000      17.43000000  F        2      -0.04430928      -0.00000002       0.50535274
Si       0.00000000       3.83958982      17.43000000  F        2      -0.01759461       0.00000000       0.52615928
Si       3.83958982       3.83958982      17.43000000  F        2      -0.30537740       0.00000000       0.32971313
Si       7.67917964       3.83958982      17.43000000  F        2       0.08766683       0.00000000       0.52290530
Si       1.91979491       0.00000000      18.78750000  F        1       0.00072125       0.00000000      -0.23357871
Si       5.75938473       0.00000000      18.78750000  F        1       0.03510050       0.00000000      -0.14428704
Si       9.59897455       0.00000000      18.78750000  F        1      -0.00143867       0.00000000      -0.22645744
Si       1.91979491       3.83958982      18.78750000  F        1       0.05158373      -0.00000000      -0.10747864
Si       5.75938473       3.83958982      18.78750000  F        1      -0.39035363      -0.00000000      -1.78008972
Si       9.59897455       3.83958982      18.78750000  F        1      -0.02463685      -0.00000000      -0.12160002
Si       5.75938473       3.83958982      22.17902565  T        0      -1.09306133       0.00000000       2.65244643
F        4.17738288       3.83958982      22.17902565  T        0       0.13156868      -0.00000000      -0.41630690
F        6.28671868       3.83958982      20.68750000  T        0       1.22163793      -0.00000000      -0.21032261
F        6.28671868       5.13128892      22.92478847  T        0       0.12820366      -0.10985073      -0.41995335
F        6.28671868       2.54789072      22.92478847  T        0       0.12820366       0.10985073      -0.41995335
41
Lattice="11.518769465528859 0.0 0.0 0.0 7.679179643685906 0.0 0.0 0.0 30.7875" Properties=species:S:1:pos:R:3:move_mask:L:1:tags:I:1:forces:R:3 surface=Si100 species=SiF4 site=atop_Si orientation=parallel height_A=1.6 substrate_atoms=36 calculation_kind="Rigid evaluated approach scan; not NEB" energy=-207.07172203363177 pbc="T T F"
Si       0.00000000       0.00000000      12.00000000  F        6       0.00035935       0.00000000       0.25400489
Si       3.83958982       0.00000000      12.00000000  F        6      -0.00335667       0.00000000       0.25534140
Si       7.67917964       0.00000000      12.00000000  F        6       0.00299142       0.00000000       0.25632119
Si       0.00000000       3.83958982      12.00000000  F        6       0.00018368      -0.00000000       0.24461275
Si       3.83958982       3.83958982      12.00000000  F        6      -0.00387887      -0.00000000       0.24208563
Si       7.67917964       3.83958982      12.00000000  F        6       0.00369398      -0.00000000       0.24274498
Si       1.91979491       0.00000000      13.35750000  F        5       0.00618577      -0.00000002      -0.52269380
Si       5.75938473       0.00000000      13.35750000  F        5      -0.00194676      -0.00000002      -0.53495499
Si       9.59897455       0.00000000      13.35750000  F        5      -0.00428009      -0.00000002      -0.52196174
Si       1.91979491       3.83958982      13.35750000  F        5       0.00363864       0.00000000      -0.51723614
Si       5.75938473       3.83958982      13.35750000  F        5       0.00846696       0.00000000      -0.50676355
Si       9.59897455       3.83958982      13.35750000  F        5      -0.01727810       0.00000000      -0.48848790
Si       1.91979491       1.91979491      14.71500000  F        4      -0.00278993      -0.00795297       0.15691670
Si       5.75938473       1.91979491      14.71500000  F        4       0.01707726      -0.02109860       0.17006170
Si       9.59897455       1.91979491      14.71500000  F        4      -0.00761780      -0.00664125       0.15962609
Si       1.91979491       5.75938473      14.71500000  F        4      -0.00278993       0.00795300       0.15691668
Si       5.75938473       5.75938473      14.71500000  F        4       0.01707726       0.02109862       0.17006169
Si       9.59897455       5.75938473      14.71500000  F        4      -0.00761780       0.00664127       0.15962608
Si       0.00000000       1.91979491      16.07250000  F        3      -0.00183487       0.04744178      -0.12193289
Si       3.83958982       1.91979491      16.07250000  F        3       0.04286580       0.07235393      -0.09514342
Si       7.67917964       1.91979491      16.07250000  F        3      -0.00420963      -0.03087356      -0.17027512
Si       0.00000000       5.75938473      16.07250000  F        3      -0.00183487      -0.04744175      -0.12193288
Si       3.83958982       5.75938473      16.07250000  F        3       0.04286580      -0.07235390      -0.09514340
Si       7.67917964       5.75938473      16.07250000  F        3      -0.00420963       0.03087358      -0.17027511
Si       0.00000000       0.00000000      17.43000000  F        2       0.01231434      -0.00000002       0.45955758
Si       3.83958982       0.00000000      17.43000000  F        2      -0.01057546      -0.00000002       0.51536179
Si       7.67917964       0.00000000      17.43000000  F        2      -0.00228743      -0.00000002       0.47704356
Si       0.00000000       3.83958982      17.43000000  F        2      -0.03808375       0.00000000       0.52447206
Si       3.83958982       3.83958982      17.43000000  F        2      -0.57894038       0.00000000       0.30641779
Si       7.67917964       3.83958982      17.43000000  F        2       0.28355398       0.00000000       0.46741610
Si       1.91979491       0.00000000      18.78750000  F        1       0.01068023       0.00000000      -0.22541575
Si       5.75938473       0.00000000      18.78750000  F        1       0.05604032       0.00000000      -0.00367017
Si       9.59897455       0.00000000      18.78750000  F        1      -0.00643481       0.00000000      -0.21373789
Si       1.91979491       3.83958982      18.78750000  F        1      -0.06701785      -0.00000000      -0.12692130
Si       5.75938473       3.83958982      18.78750000  F        1      -0.50497624      -0.00000000      -2.74081673
Si       9.59897455       3.83958982      18.78750000  F        1       0.05103186      -0.00000000      -0.16487636
Si       5.75938473       3.83958982      21.87902565  T        0      -1.52112326       0.00000000       3.83234067
F        4.17738288       3.83958982      21.87902565  T        0       0.30317166       0.00000000      -0.57538517
F        6.28671868       3.83958982      20.38750000  T        0       1.57435012      -0.00000000       0.32373768
F        6.28671868       5.13128892      22.62478847  T        0       0.17826786      -0.22361574      -0.72852135
F        6.28671868       2.54789072      22.62478847  T        0       0.17826786       0.22361574      -0.72852135
41
Lattice="11.518769465528859 0.0 0.0 0.0 7.679179643685906 0.0 0.0 0.0 30.7875" Properties=species:S:1:pos:R:3:move_mask:L:1:tags:I:1:forces:R:3 surface=Si100 species=SiF4 site=atop_Si orientation=parallel height_A=1.3 substrate_atoms=36 calculation_kind="Rigid evaluated approach scan; not NEB" energy=-204.70003945591864 pbc="T T F"
Si       0.00000000       0.00000000      12.00000000  F        6       0.00017780       0.00000000       0.25505624
Si       3.83958982       0.00000000      12.00000000  F        6      -0.00244427       0.00000000       0.25709433
Si       7.67917964       0.00000000      12.00000000  F        6       0.00191746       0.00000000       0.25486074
Si       0.00000000       3.83958982      12.00000000  F        6       0.00075021      -0.00000000       0.24510376
Si       3.83958982       3.83958982      12.00000000  F        6      -0.00363992      -0.00000000       0.24424648
Si       7.67917964       3.83958982      12.00000000  F        6       0.00271291      -0.00000000       0.24380811
Si       1.91979491       0.00000000      13.35750000  F        5       0.00659965      -0.00000002      -0.52102863
Si       5.75938473       0.00000000      13.35750000  F        5      -0.00285412      -0.00000002      -0.53598364
Si       9.59897455       0.00000000      13.35750000  F        5      -0.00549987      -0.00000002      -0.51760814
Si       1.91979491       3.83958982      13.35750000  F        5       0.00983876       0.00000000      -0.50572118
Si       5.75938473       3.83958982      13.35750000  F        5       0.00640131       0.00000000      -0.50215917
Si       9.59897455       3.83958982      13.35750000  F        5      -0.01871003       0.00000000      -0.48509038
Si       1.91979491       1.91979491      14.71500000  F        4      -0.01012437       0.00109699       0.15728712
Si       5.75938473       1.91979491      14.71500000  F        4       0.02715054      -0.00556273       0.16282055
Si       9.59897455       1.91979491      14.71500000  F        4      -0.00743778       0.00487596       0.17224702
Si       1.91979491       5.75938473      14.71500000  F        4      -0.01012437      -0.00109697       0.15728710
Si       5.75938473       5.75938473      14.71500000  F        4       0.02715055       0.00556276       0.16282054
Si       9.59897455       5.75938473      14.71500000  F        4      -0.00743778      -0.00487594       0.17224700
Si       0.00000000       1.91979491      16.07250000  F        3      -0.00232581       0.05332674      -0.12070937
Si       3.83958982       1.91979491      16.07250000  F        3       0.04372844       0.01426309      -0.14136018
Si       7.67917964       1.91979491      16.07250000  F        3      -0.03052466       0.00213196      -0.12103743
Si       0.00000000       5.75938473      16.07250000  F        3      -0.00232581      -0.05332672      -0.12070935
Si       3.83958982       5.75938473      16.07250000  F        3       0.04372844      -0.01426307      -0.14136017
Si       7.67917964       5.75938473      16.07250000  F        3      -0.03052466      -0.00213194      -0.12103741
Si       0.00000000       0.00000000      17.43000000  F        2       0.01183769      -0.00000002       0.45095719
Si       3.83958982       0.00000000      17.43000000  F        2      -0.03119522      -0.00000002       0.52929564
Si       7.67917964       0.00000000      17.43000000  F        2       0.01841052      -0.00000002       0.48006740
Si       0.00000000       3.83958982      17.43000000  F        2      -0.03784930       0.00000000       0.48976699
Si       3.83958982       3.83958982      17.43000000  F        2      -0.45420766       0.00000000       0.04500494
Si       7.67917964       3.83958982      17.43000000  F        2       0.45927481       0.00000000       0.18015979
Si       1.91979491       0.00000000      18.78750000  F        1       0.02100335       0.00000000      -0.21772516
Si       5.75938473       0.00000000      18.78750000  F        1       0.06165843      -0.00000000       0.00164258
Si       9.59897455       0.00000000      18.78750000  F        1      -0.01182149       0.00000000      -0.20417281
Si       1.91979491       3.83958982      18.78750000  F        1      -0.28602576      -0.00000000      -0.13049740
Si       5.75938473       3.83958982      18.78750000  F        1      -7.11822858      -0.00000000     -17.54195115
Si       9.59897455       3.83958982      18.78750000  F        1       0.10948147      -0.00000000      -0.17763562
Si       5.75938473       3.83958982      21.57902565  T        0      -2.27665925       0.00000000       5.63979970
F        4.17738288       3.83958982      21.57902565  T        0       0.39657010       0.00000000      -0.47112521
F        6.28671868       3.83958982      20.08750000  T        0       8.59057702      -0.00000000      14.22378957
F        6.28671868       5.13128892      22.32478847  T        0       0.25549563      -0.29077734      -0.97422519
F        6.28671868       2.54789072      22.32478847  T        0       0.25549563       0.29077734      -0.97422519
