9
Lattice="24.0 0.0 0.0 0.0 24.0 0.0 0.0 0.0 24.0" Properties=species:S:1:pos:R:3:move_mask:L:1:forces:R:3 charge_spin="0 1" calculation_kind="Evaluated relaxed two-coordinate scan; not a minimum-energy path or TS" direction=forward target_SiN_A=1.6682818504043946 target_NH_A=2.946931509817692 energy=-20293.54988747835 pbc="F F F"
Si       0.00000000       0.00000000       0.00000000  F      -0.33810300      -0.00000002       0.37805784
F        1.50849447       0.00000000      -0.53333333  F      -0.43012261       0.00000006      -0.20582612
F       -0.75424723       1.30639453      -0.53333333  F       0.38389975      -0.92670679      -0.08693042
F       -0.75424723      -1.30639453      -0.53333333  F       0.38390023       0.92670739      -0.08692960
N        0.13536965       0.00000006       1.66278062  T       0.00147853      -0.00000029      -0.00219789
H        1.03437903       0.00000043       2.11798545  T       0.00003291      -0.00000017       0.00285962
H       -0.64809795      -0.00000008       2.29021021  T      -0.00153990      -0.00000001       0.00160563
F        3.19661642      -0.00000003       1.68194066  T       0.00440132       0.00000014       0.01140236
H        2.94915441       0.00000011       0.78698347  T      -0.00394709      -0.00000012      -0.01204127
9
Lattice="24.0 0.0 0.0 0.0 24.0 0.0 0.0 0.0 24.0" Properties=species:S:1:pos:R:3:move_mask:L:1:forces:R:3 charge_spin="0 1" calculation_kind="Evaluated relaxed two-coordinate scan; not a minimum-energy path or TS" direction=forward target_SiN_A=1.831453665363955 target_NH_A=2.7547383588359224 energy=-20289.57073751092 pbc="F F F"
Si      -0.08371179       0.00001775      -0.58833808  F       5.59566498      -0.02626310       9.58027172
F        1.50849447       0.00000000      -0.53333333  F       0.68317974       0.00907748      -3.00225735
F       -0.75424723       1.30639453      -0.53333333  F      -3.11752415       4.94931793      -3.27100515
F       -0.75424723      -1.30639453      -0.53333333  F      -3.14016867      -4.94076729      -3.30110621
N        0.04511193      -0.01190642       1.23854035  T      -0.11236376      -0.02698836      -0.03241023
H        0.89373471       0.02204570       1.77669610  T       0.00873145       0.03368397       0.01782490
H       -0.76746236       0.00269129       1.83289478  T      -0.01720418       0.00425526       0.01794678
F        3.43865563       0.00237044       1.43545679  T       0.01129606       0.00321138       0.01676604
H        2.76442198      -0.00412317       0.79822721  T       0.08838879      -0.00552695      -0.02603090
9
Lattice="24.0 0.0 0.0 0.0 24.0 0.0 0.0 0.0 24.0" Properties=species:S:1:pos:R:3:move_mask:L:1:forces:R:3 charge_spin="0 1" calculation_kind="Evaluated relaxed two-coordinate scan; not a minimum-energy path or TS" direction=forward target_SiN_A=1.9946254803235157 target_NH_A=2.5625452078541535 energy=-20288.219934776425 pbc="F F F"
Si      -0.09784140      -0.00080383      -0.77112139  F       6.26494026       0.44327110       8.26029682
F        1.50849447       0.00000000      -0.53333333  F      -0.21634066      -0.20598648      -3.14578032
F       -0.75424723       1.30639453      -0.53333333  F      -3.04760265       4.88977051      -2.54670048
F       -0.75424723      -1.30639453      -0.53333333  F      -2.90877819      -5.10165596      -2.50893807
N        0.03009492       0.08090362       1.21771922  T       0.34694141       0.12960649      -0.00070089
H        0.49787607      -0.76179207       1.54131373  T      -0.05659595      -0.06662738       0.05288740
H       -0.88026965       0.06784498       1.66374042  T      -0.15100290       0.01332060       0.05166911
F        2.51467658       1.32025483       3.28788307  T      -0.07206828       0.02371653      -0.07997551
H        1.85348852       1.17558442       2.64724630  T      -0.15949261      -0.12541613      -0.08275734
9
Lattice="24.0 0.0 0.0 0.0 24.0 0.0 0.0 0.0 24.0" Properties=species:S:1:pos:R:3:move_mask:L:1:forces:R:3 charge_spin="0 1" calculation_kind="Evaluated relaxed two-coordinate scan; not a minimum-energy path or TS" direction=forward target_SiN_A=2.157797295283076 target_NH_A=2.370352056872384 energy=-20287.382227793336 pbc="F F F"
Si      -0.10478481      -0.00497070      -0.87921185  F       5.92880106       0.71749592       7.27495193
F        1.50849447       0.00000000      -0.53333333  F      -0.98251641      -0.19894698      -3.03638029
F       -0.75424723       1.30639453      -0.53333333  F      -2.38930964       3.85368538      -2.14832139
F       -0.75424723      -1.30639453      -0.53333333  F      -2.51368737      -4.42185545      -2.08956575
N       -0.01517611       0.04980039       1.27602818  T       0.21915588       0.14999324       0.13555139
H        0.28068167      -0.87796646       1.57446096  T      -0.00231108       0.01731353       0.00567659
H       -0.96391466       0.14602676       1.63262700  T      -0.00600875       0.00422952       0.03115781
F        2.30400648       1.40563898       3.17731579  T      -0.00037749       0.01685946       0.00659210
H        1.66037802       1.12069472       2.56609506  T      -0.25374681      -0.13877504      -0.17966264
9
Lattice="24.0 0.0 0.0 0.0 24.0 0.0 0.0 0.0 24.0" Properties=species:S:1:pos:R:3:move_mask:L:1:forces:R:3 charge_spin="0 1" calculation_kind="Evaluated relaxed two-coordinate scan; not a minimum-energy path or TS" direction=forward target_SiN_A=2.3209691102426366 target_NH_A=2.178158905890615 energy=-20287.32473166287 pbc="F F F"
Si      -0.10552956      -0.00544884      -0.89709473  F       5.66253281       0.68058765       4.60208607
F        1.50849447       0.00000000      -0.53333333  F      -1.55313754      -0.14978088      -2.20702386
F       -0.75424723       1.30639453      -0.53333333  F      -1.99151611       3.21302104      -1.24122214
F       -0.75424723      -1.30639453      -0.53333333  F      -2.15381551      -3.78042626      -1.14257896
N       -0.05646510       0.03956150       1.42291914  T       0.26726702       0.19102770       0.13082230
H        0.20106213      -0.90698072       1.70021526  T       0.01225463      -0.00376834       0.00933643
H       -1.02476517       0.14349155       1.72566760  T       0.01012412       0.01045129       0.01327739
F        2.06351810       1.51193709       3.14009045  T       0.00948899       0.02350213       0.02026470
H        1.43977163       1.16183314       2.53923371  T      -0.26319858      -0.18461391      -0.18496172
9
Lattice="24.0 0.0 0.0 0.0 24.0 0.0 0.0 0.0 24.0" Properties=species:S:1:pos:R:3:move_mask:L:1:forces:R:3 charge_spin="0 1" calculation_kind="Evaluated relaxed two-coordinate scan; not a minimum-energy path or TS" direction=forward target_SiN_A=2.484140925202197 target_NH_A=1.9859657549088459 energy=-20287.403913766146 pbc="F F F"
Si      -0.10541359      -0.00534645      -0.89280074  F       5.63225222       0.64265561       2.28259850
F        1.50849447       0.00000000      -0.53333333  F      -1.82895958      -0.13158217      -1.59050417
F       -0.75424723       1.30639453      -0.53333333  F      -1.81604433       2.85722613      -0.43625867
F       -0.75424723      -1.30639453      -0.53333333  F      -1.96824443      -3.38193393      -0.28597885
N       -0.03333456       0.05469452       1.58956825  T       0.24960133       0.18387574       0.16526142
H        0.21764505      -0.89795193       1.85385624  T      -0.01351576      -0.01197617      -0.00635305
H       -1.00490089       0.16282479       1.87994963  T       0.00000991      -0.00176734       0.01020670
F        2.01352793       1.48362694       3.09202027  T       0.00461596       0.00867876       0.00048473
H        1.37136712       1.10828102       2.51737678  T      -0.25971559      -0.16517645      -0.13945636
9
Lattice="24.0 0.0 0.0 0.0 24.0 0.0 0.0 0.0 24.0" Properties=species:S:1:pos:R:3:move_mask:L:1:forces:R:3 charge_spin="0 1" calculation_kind="Evaluated relaxed two-coordinate scan; not a minimum-energy path or TS" direction=forward target_SiN_A=2.6473127401617575 target_NH_A=1.7937726039270765 energy=-20287.47530041635 pbc="F F F"
Si      -0.10523738      -0.00520435      -0.88780821  F       5.63004017       0.62281293       0.74023974
F        1.50849447       0.00000000      -0.53333333  F      -2.01938772      -0.11895646      -1.16765606
F       -0.75424723       1.30639453      -0.53333333  F      -1.71155047       2.64561939       0.10083032
F       -0.75424723      -1.30639453      -0.53333333  F      -1.86291075      -3.14817691       0.28609240
N       -0.00490616       0.06804647       1.75658827  T       0.15342592       0.12793975       0.15100592
H        0.21812087      -0.90279051       1.97561966  T      -0.00227718      -0.00333324      -0.01410846
H       -0.98112850       0.18787422       2.02460692  T      -0.01425590       0.00045222      -0.00835508
F        1.96819902       1.46179168       3.03933679  T      -0.02663897       0.01819452       0.01207687
H        1.27317183       1.06030595       2.53089954  T      -0.14644501      -0.14455256      -0.10012542
9
Lattice="24.0 0.0 0.0 0.0 24.0 0.0 0.0 0.0 24.0" Properties=species:S:1:pos:R:3:move_mask:L:1:forces:R:3 charge_spin="0 1" calculation_kind="Evaluated relaxed two-coordinate scan; not a minimum-energy path or TS" direction=forward target_SiN_A=2.8104845551213185 target_NH_A=1.6015794529453073 energy=-20287.512552291155 pbc="F F F"
Si      -0.10532461      -0.00524771      -0.88929824  F       5.55302525       0.63424903      -0.33167291
F        1.50849447       0.00000000      -0.53333333  F      -2.11782122      -0.10527343      -0.81116581
F       -0.75424723       1.30639453      -0.53333333  F      -1.62207139       2.52270889       0.46407729
F       -0.75424723      -1.30639453      -0.53333333  F      -1.78894758      -3.02667189       0.68634564
N       -0.08440496       0.09492155       1.91932276  T      -0.08879918      -0.09590638      -0.15838832
H        0.07715950      -0.89838812       2.08036369  T       0.00147058      -0.02819568       0.00523631
H       -1.08603700       0.23588612       2.04665247  T      -0.03040331      -0.00984098       0.01152471
F        1.19991608       1.35312522       3.74052780  T      -0.00450667       0.00758658       0.01924066
H        0.76799102       0.94032487       2.97940344  T       0.09805357       0.10134362       0.11480238
9
Lattice="24.0 0.0 0.0 0.0 24.0 0.0 0.0 0.0 24.0" Properties=species:S:1:pos:R:3:move_mask:L:1:forces:R:3 charge_spin="0 1" calculation_kind="Evaluated relaxed two-coordinate scan; not a minimum-energy path or TS" direction=forward target_SiN_A=2.973656370080879 target_NH_A=1.4093863019635382 energy=-20287.440781101584 pbc="F F F"
Si      -0.11036560      -0.01382859      -0.95263573  F       5.13799000       1.30247426      -1.02668357
F        1.50849447       0.00000000      -0.53333333  F      -2.41405582      -0.08495869      -0.63192070
F       -0.75424723       1.30639453      -0.53333333  F      -1.08928192       1.55368578       0.62296343
F       -0.75424723      -1.30639453      -0.53333333  F      -1.65223885      -2.77533126       1.03988814
N       -0.29533468      -0.22954102       2.00741271  T      -0.17356983      -0.49156308      -0.71130085
H        0.25792151      -1.08482787       2.04952173  T       0.02067909      -0.00080192      -0.00605004
H       -1.27263594      -0.52063916       2.02869782  T      -0.00005852      -0.00173795      -0.00292069
F        0.05958978       0.91117826       4.08384830  T       0.00222968      -0.00694206      -0.03255773
H       -0.03757878       0.55514877       3.14942566  T       0.16830575       0.50517535       0.74858177
9
Lattice="24.0 0.0 0.0 0.0 24.0 0.0 0.0 0.0 24.0" Properties=species:S:1:pos:R:3:move_mask:L:1:forces:R:3 charge_spin="0 1" calculation_kind="Evaluated relaxed two-coordinate scan; not a minimum-energy path or TS" direction=forward target_SiN_A=3.1368281850404394 target_NH_A=1.217193150981769 energy=-20286.690427467227 pbc="F F F"
Si      -0.08907830       0.01070181      -1.27096560  F       2.31364942      -0.03461457       4.78477764
F        1.50849447       0.00000000      -0.53333333  F      -3.14828396      -0.02028763      -2.14943314
F       -0.75424723       1.30639453      -0.53333333  F       0.39253610      -1.22156107      -1.32007313
F       -0.75424723      -1.30639453      -0.53333333  F       0.45311907       1.27610862      -1.32189500
N       -0.28864036      -0.42726417       1.82872016  T      -0.43936580      -1.55206108      -1.47346783
H        0.31114265      -1.24785377       1.92544987  T       0.01007006      -0.00952528      -0.02492440
H       -1.25635043      -0.74936426       1.85629311  T      -0.00539755      -0.01345220       0.03612742
F        0.05799977       0.92262099       3.61225820  T       0.00409241       0.01593518       0.00480436
H       -0.05214374       0.43918915       2.65023531  T       0.41958061       1.55945790       1.46408427
9
Lattice="24.0 0.0 0.0 0.0 24.0 0.0 0.0 0.0 24.0" Properties=species:S:1:pos:R:3:move_mask:L:1:forces:R:3 charge_spin="0 1" calculation_kind="Evaluated relaxed two-coordinate scan; not a minimum-energy path or TS" direction=forward target_SiN_A=3.3 target_NH_A=1.025 energy=-20284.32196817547 pbc="F F F"
Si      -0.07426513       0.04797153      -1.58181856  F       0.60662770      -0.10818160       4.57524967
F        1.50849447       0.00000000      -0.53333333  F      -2.16741848      -0.08483877      -1.49150169
F       -0.75424723       1.30639453      -0.53333333  F       0.77789724      -1.59543002      -1.49912572
F       -0.75424723      -1.30639453      -0.53333333  F       0.79891980       1.71798897      -1.21252775
N       -0.06328920      -0.08733947       1.71538790  T       3.53159237      -1.80894566      -0.69902837
H        0.74982150      -0.73035539       1.19973581  T      -2.17560410       2.34450626       1.61144471
H       -0.97043580      -0.53367742       1.63243545  T      -0.36458436       0.46952018       0.53682333
F        0.46024239       0.66535070       3.36448335  T      -0.32141685      -1.35759115      -0.21939772
H        0.16568085       0.89384189       1.90375154  T      -0.68601346       0.42297149      -1.60193634
9
Lattice="24.0 0.0 0.0 0.0 24.0 0.0 0.0 0.0 24.0" Properties=species:S:1:pos:R:3:move_mask:L:1:forces:R:3 charge_spin="0 1" calculation_kind="Evaluated relaxed two-coordinate scan; not a minimum-energy path or TS" direction=reverse target_SiN_A=3.3 target_NH_A=1.025 energy=-20286.733295589685 pbc="F F F"
Si      -0.08160848       0.04723172      -1.74523150  F      -0.02523204      -0.16747522       4.97023106
F        1.50849447       0.00000000      -0.53333333  F      -1.51623702       0.11038935      -1.44742727
F       -0.75424723       1.30639453      -0.53333333  F       0.81039023      -1.60534251      -1.76056218
F       -0.75424723      -1.30639453      -0.53333333  F       0.69726837       1.63701880      -1.76075041
N        0.06875464      -0.03388950       1.55034285  T       0.01617022       0.00335048      -0.05066127
H        0.89948229       0.01182166       0.87062182  T      -0.00178847       0.00613409       0.03441142
H       -0.48888651      -0.84002034       1.21989724  T       0.01012709       0.01970675       0.00370225
F        0.43981980      -0.17995915       2.85862210  T      -0.00524771      -0.00412216       0.00330950
H       -0.48052443       0.82312590       1.43016753  T       0.01454924       0.00034052       0.00774679
9
Lattice="24.0 0.0 0.0 0.0 24.0 0.0 0.0 0.0 24.0" Properties=species:S:1:pos:R:3:move_mask:L:1:forces:R:3 charge_spin="0 1" calculation_kind="Evaluated relaxed two-coordinate scan; not a minimum-energy path or TS" direction=reverse target_SiN_A=3.1368281850404394 target_NH_A=1.217193150981769 energy=-20287.1018531546 pbc="F F F"
Si      -0.07537238       0.04327578      -1.52044655  F       1.04888201      -1.54470468       0.73680687
F        1.50849447       0.00000000      -0.53333333  F      -1.73663414       0.12244262      -0.69781363
F       -0.75424723       1.30639453      -0.53333333  F       0.04093102      -0.28540778       0.54735470
F       -0.75424723      -1.30639453      -0.53333333  F       0.66952783       1.71218634      -0.58507293
N       -0.01261177       0.10547527       1.61513687  T      -0.97148526       1.35329545      -1.63799620
H        0.88724600      -0.12816344       1.15168190  T      -0.02295868       0.00339993       0.00909823
H       -0.57226872      -0.73248943       1.77494608  T      -0.00599998       0.00194906       0.01157233
F        0.21103883       0.72497614       2.80938347  T      -0.00210809       0.00941791       0.03220153
H       -0.53039583       0.82899061       0.78448388  T       0.97984523      -1.37257922       1.58384907
9
Lattice="24.0 0.0 0.0 0.0 24.0 0.0 0.0 0.0 24.0" Properties=species:S:1:pos:R:3:move_mask:L:1:forces:R:3 charge_spin="0 1" calculation_kind="Evaluated relaxed two-coordinate scan; not a minimum-energy path or TS" direction=reverse target_SiN_A=2.973656370080879 target_NH_A=1.4093863019635382 energy=-20283.37560287118 pbc="F F F"
Si      -0.20145776       0.08585504      -0.73909662  F      10.89356899     -11.51528931      -1.48127437
F        1.50849447       0.00000000      -0.53333333  F      -4.24426746       0.36396977      -0.39092556
F       -0.75424723       1.30639453      -0.53333333  F      -5.98987293      12.76388168       2.00386524
F       -0.75424723      -1.30639453      -0.53333333  F      -1.03380680      -1.43110108       0.27548257
N       -1.46295522       0.40600999       1.93461936  T       1.51182270       6.15804243      -0.34053373
H       -0.77674644       0.36471589       2.69257477  T      -0.11602969      -0.10925066      -0.01925726
H       -2.29915511       0.17741854       2.38238219  T      -1.86489916      -0.69291478       0.95219588
F       -2.22273949       1.88141658       4.58025173  T       0.19775194      -0.16167153      -0.72600073
H       -1.65237886       1.79459354       2.08403207  T       0.64573258      -5.37566519      -0.27355173
9
Lattice="24.0 0.0 0.0 0.0 24.0 0.0 0.0 0.0 24.0" Properties=species:S:1:pos:R:3:move_mask:L:1:forces:R:3 charge_spin="0 1" calculation_kind="Evaluated relaxed two-coordinate scan; not a minimum-energy path or TS" direction=reverse target_SiN_A=2.8104845551213185 target_NH_A=1.6015794529453073 energy=-20286.79129718244 pbc="F F F"
Si      -0.16688760       0.07920150      -0.86919665  F       8.67366314      -8.19485569      -1.33762562
F        1.50849447       0.00000000      -0.53333333  F      -3.11238337       0.30024251      -0.90336001
F       -0.75424723       1.30639453      -0.53333333  F      -4.62162399       8.93833542       2.24013448
F       -0.75424723      -1.30639453      -0.53333333  F      -0.94758695      -1.04152393       0.05524421
N       -0.19601480       0.00222563       1.94008257  T       0.05987567      -0.17124870      -0.18901175
H        0.78344122      -0.27054801       2.03548694  T      -0.06739590       0.02386647      -0.00927184
H       -0.72751616      -0.86551066       2.02683152  T       0.05911219       0.03668934       0.00678729
F       -1.00497910       1.43431785       3.90520109  T       0.01088624      -0.01063066      -0.01824483
H       -0.70426026       0.97708115       3.10472845  T      -0.05454711       0.11912459       0.15534830
9
Lattice="24.0 0.0 0.0 0.0 24.0 0.0 0.0 0.0 24.0" Properties=species:S:1:pos:R:3:move_mask:L:1:forces:R:3 charge_spin="0 1" calculation_kind="Evaluated relaxed two-coordinate scan; not a minimum-energy path or TS" direction=reverse target_SiN_A=2.6473127401617575 target_NH_A=1.7937726039270765 energy=-20286.772873461246 pbc="F F F"
Si      -0.16686862       0.07924897      -0.87095800  F       8.66651440      -8.24638271      -0.39746809
F        1.50849447       0.00000000      -0.53333333  F      -3.02332187       0.31677288      -1.17846239
F       -0.75424723       1.30639453      -0.53333333  F      -4.66792870       9.08643436       1.84882140
F       -0.75424723      -1.30639453      -0.53333333  F      -1.00538516      -1.17706835      -0.35735148
N       -0.18425557      -0.01109824       1.77475548  T      -0.08224943       0.17679513       0.27346990
H        0.79307308      -0.27205088       1.90008046  T       0.02740337       0.01573510       0.00685970
H       -0.70380333      -0.87648860       1.91915943  T      -0.00355332      -0.01868616       0.00264799
F       -1.00587627       1.43605348       3.93967347  T      -0.00655188       0.01909044       0.00559582
H       -0.72999345       1.04091504       3.12125405  T       0.09507242      -0.17269070      -0.20411302
9
Lattice="24.0 0.0 0.0 0.0 24.0 0.0 0.0 0.0 24.0" Properties=species:S:1:pos:R:3:move_mask:L:1:forces:R:3 charge_spin="0 1" calculation_kind="Evaluated relaxed two-coordinate scan; not a minimum-energy path or TS" direction=reverse target_SiN_A=2.484140925202197 target_NH_A=1.9859657549088459 energy=-20286.698348388076 pbc="F F F"
Si      -0.16684073       0.07931927      -0.87284372  F       8.77143383      -8.32095146       1.28532755
F        1.50849447       0.00000000      -0.53333333  F      -2.81739593       0.32983771      -1.64189851
F       -0.75424723       1.30639453      -0.53333333  F      -4.82499123       9.35236645       1.23087156
F       -0.75424723      -1.30639453      -0.53333333  F      -1.13701892      -1.37883008      -0.90566134
N       -0.13124705       0.02085134       1.61035396  T      -0.10833426       0.20038792       0.29996043
H        0.84237113      -0.22674163       1.78372972  T       0.00262969       0.01099470      -0.01015301
H       -0.65243072      -0.83004949       1.82182536  T       0.00763336       0.00102462       0.01109607
F       -1.02191786       1.45166215       3.97778163  T       0.00335411       0.02382814      -0.00313127
H       -0.73175319       1.13240957       3.14263679  T       0.10268963      -0.21865749      -0.26641148
9
Lattice="24.0 0.0 0.0 0.0 24.0 0.0 0.0 0.0 24.0" Properties=species:S:1:pos:R:3:move_mask:L:1:forces:R:3 charge_spin="0 1" calculation_kind="Evaluated relaxed two-coordinate scan; not a minimum-energy path or TS" direction=reverse target_SiN_A=2.3209691102426366 target_NH_A=2.178158905890615 energy=-20286.618912398815 pbc="F F F"
Si      -0.16690041       0.07942001      -0.87672881  F       8.86500072      -8.40286732       3.53291798
F        1.50849447       0.00000000      -0.53333333  F      -2.50542545       0.37504959      -2.25373960
F       -0.75424723       1.30639453      -0.53333333  F      -5.00738144       9.67365646       0.40798366
F       -0.75424723      -1.30639453      -0.53333333  F      -1.36382937      -1.71190858      -1.71375871
N       -0.11156661       0.01606290       1.44271544  T      -0.09634766       0.19587299       0.31113344
H        0.85268123      -0.22522008       1.66333776  T       0.00425460       0.01454064      -0.00730392
H       -0.64645811      -0.80976417       1.70855554  T      -0.00029826       0.01299331      -0.00637037
F       -1.02888086       1.47688250       4.01588599  T      -0.00355830       0.00679257       0.01757281
H       -0.75200373       1.16220185       3.18069762  T       0.10758641      -0.16412951      -0.28843528
9
Lattice="24.0 0.0 0.0 0.0 24.0 0.0 0.0 0.0 24.0" Properties=species:S:1:pos:R:3:move_mask:L:1:forces:R:3 charge_spin="0 1" calculation_kind="Evaluated relaxed two-coordinate scan; not a minimum-energy path or TS" direction=reverse target_SiN_A=2.157797295283076 target_NH_A=2.370352056872384 energy=-20286.647179201245 pbc="F F F"
Si      -0.16705489       0.07875115      -0.87815097  F       9.31460857      -8.24042988       6.27393007
F        1.50849447       0.00000000      -0.53333333  F      -2.22444558       0.15919311      -3.04261041
F       -0.75424723       1.30639453      -0.53333333  F      -5.53808689      10.28436756      -0.70882642
F       -0.75424723      -1.30639453      -0.53333333  F      -1.55059099      -2.20154858      -2.50517225
N       -0.05965685       0.10147551       1.27685214  T       0.17378509       0.24185562       0.15884233
H        0.34976608      -0.78279016       1.56669409  T       0.00118536      -0.00396360       0.00174594
H       -1.01131124       0.08202125       1.64052787  T       0.00306744       0.00076810       0.00586668
F        1.54583936       2.31665157       3.11630919  T       0.01353506       0.02232081       0.01705038
H        1.13456362       1.72117837       2.52943707  T      -0.19305733      -0.26256257      -0.20082632
9
Lattice="24.0 0.0 0.0 0.0 24.0 0.0 0.0 0.0 24.0" Properties=species:S:1:pos:R:3:move_mask:L:1:forces:R:3 charge_spin="0 1" calculation_kind="Evaluated relaxed two-coordinate scan; not a minimum-energy path or TS" direction=reverse target_SiN_A=1.9946254803235157 target_NH_A=2.5625452078541535 energy=-20287.36468654126 pbc="F F F"
Si      -0.16125422       0.07959446      -0.77728808  F      10.11690426      -9.18159199       7.57784843
F        1.50849447       0.00000000      -0.53333333  F      -1.80145085       0.10818014      -3.07228374
F       -0.75424723       1.30639453      -0.53333333  F      -6.45702791      12.00157642      -1.63031220
F       -0.75424723      -1.30639453      -0.53333333  F      -1.86356258      -2.92845464      -2.88655615
N       -0.04257729       0.12378586       1.21331326  T       0.13362235       0.17658114       0.18942684
H        0.34835730      -0.74423053       1.56919933  T      -0.00076166       0.01292999      -0.01094665
H       -0.97517318       0.17858811       1.61956333  T       0.01424685      -0.00012845      -0.00795762
F        1.62968655       2.43179548       3.22526626  T      -0.00916476      -0.01698866      -0.02237078
H        1.23488858       1.84071679       2.62287598  T      -0.13280660      -0.17210363      -0.13684885
9
Lattice="24.0 0.0 0.0 0.0 24.0 0.0 0.0 0.0 24.0" Properties=species:S:1:pos:R:3:move_mask:L:1:forces:R:3 charge_spin="0 1" calculation_kind="Evaluated relaxed two-coordinate scan; not a minimum-energy path or TS" direction=reverse target_SiN_A=1.831453665363955 target_NH_A=2.7547383588359224 energy=-20289.300167523324 pbc="F F F"
Si      -0.14855365       0.08260307      -0.55026452  F      10.62858391     -10.37854767       9.23981953
F        1.50849447       0.00000000      -0.53333333  F      -1.83512902       0.13809218      -2.52647161
F       -0.75424723       1.30639453      -0.53333333  F      -7.02269602      13.01900768      -3.55246496
F       -0.75424723      -1.30639453      -0.53333333  F      -1.78487098      -2.79947209      -3.16028881
N       -0.04603788       0.13033903       1.27769454  T       0.13893545       0.18010324       0.20032078
H        0.35787797      -0.71965398       1.65713826  T      -0.00180805       0.02121085      -0.01388886
H       -0.96629115       0.21696468       1.70132334  T       0.01872526       0.00788954      -0.00939872
F        1.69337635       2.51304655       3.46190526  T      -0.01051092      -0.01878194      -0.02729029
H        1.33164689       1.95203267       2.81782452  T      -0.13122994      -0.16950132      -0.15033679
9
Lattice="24.0 0.0 0.0 0.0 24.0 0.0 0.0 0.0 24.0" Properties=species:S:1:pos:R:3:move_mask:L:1:forces:R:3 charge_spin="0 1" calculation_kind="Evaluated relaxed two-coordinate scan; not a minimum-energy path or TS" direction=reverse target_SiN_A=1.6682818504043946 target_NH_A=2.946931509817692 energy=-20292.984667271376 pbc="F F F"
Si      -0.12067191       0.07967418       0.05966533  F       4.17813778      -4.34830332      -0.61926240
F        1.50849447       0.00000000      -0.53333333  F      -3.30845022       0.25820783       1.22355902
F       -0.75424723       1.30639453      -0.53333333  F      -1.39547443       2.38492322      -1.22584808
F       -0.75424723      -1.30639453      -0.53333333  F       0.56385589       1.71742594       0.64966589
N       -0.12885038       0.14433864       1.72667342  T      -0.15239370       0.20691435      -0.15179102
H        0.13629267      -0.65788014       2.26547120  T       0.04179440      -0.09006194       0.18667814
H       -0.61686799       0.85242011       2.25355240  T       0.09637733      -0.08444779      -0.06383261
F        1.73295537       2.67386468       3.00199725  T       0.01628122      -0.06646553      -0.18477906
H        1.87514966       2.25576571       2.18521992  T      -0.04012884       0.02180745       0.18560992
