38
Lattice="11.518769465528859 0.0 0.0 0.0 7.679179643685906 0.0 0.0 0.0 30.7875" Properties=species:S:1:pos:R:3:move_mask:L:1:tags:I:1:forces:R:3 energy=-190.53500649921529 pbc="T T F"
Si       0.00000000       0.00000000      12.00000000  F        6       0.00137439       0.00000001       0.25004199
Si       3.83958982       0.00000000      12.00000000  F        6      -0.00523690       0.00000002       0.24467099
Si       7.67917964       0.00000000      12.00000000  F        6       0.00361713       0.00000001       0.24752519
Si       0.00000000       3.83958982      12.00000000  F        6       0.00092788      -0.00000001       0.25164003
Si       3.83958982       3.83958982      12.00000000  F        6      -0.00301324      -0.00000000       0.25694367
Si       7.67917964       3.83958982      12.00000000  F        6       0.00036243      -0.00000000       0.25320477
Si       1.91979491       0.00000000      13.35750000  F        5      -0.00063992      -0.00000002      -0.52739235
Si       5.75938473       0.00000000      13.35750000  F        5      -0.00048574      -0.00000004      -0.50409502
Si       9.59897455       0.00000000      13.35750000  F        5      -0.00592477      -0.00000002      -0.51804903
Si       1.91979491       3.83958982      13.35750000  F        5       0.01340412      -0.00000000      -0.50246654
Si       5.75938473       3.83958982      13.35750000  F        5       0.00108357       0.00000000      -0.50625809
Si       9.59897455       3.83958982      13.35750000  F        5      -0.01697242      -0.00000000      -0.48568221
Si       1.91979491       1.91979491      14.71500000  F        4      -0.00451279      -0.01523669       0.12666976
Si       5.75938473       1.91979491      14.71500000  F        4      -0.00476126       0.01429491       0.22343924
Si       9.59897455       1.91979491      14.71500000  F        4      -0.00198876       0.02303832       0.15391387
Si       1.91979491       5.75938473      14.71500000  F        4      -0.00451265       0.01523672       0.12666994
Si       5.75938473       5.75938473      14.71500000  F        4      -0.00476128      -0.01429490       0.22343945
Si       9.59897455       5.75938473      14.71500000  F        4      -0.00198890      -0.02303830       0.15391405
Si       0.00000000       1.91979491      16.07250000  F        3       0.00099800       0.04791556      -0.11572553
Si       3.83958982       1.91979491      16.07250000  F        3      -0.03230967       0.06050978      -0.08548559
Si       7.67917964       1.91979491      16.07250000  F        3      -0.04058501       0.20169769       0.05096893
Si       0.00000000       5.75938473      16.07250000  F        3       0.00099799      -0.04791557      -0.11572554
Si       3.83958982       5.75938473      16.07250000  F        3      -0.03230949      -0.06050921      -0.08548594
Si       7.67917964       5.75938473      16.07250000  F        3      -0.04058515      -0.20169749       0.05096880
Si       0.00000000       0.00000000      17.43000000  F        2       0.00269004      -0.00000005       0.47628710
Si       3.83958982       0.00000000      17.43000000  F        2       0.10376231      -0.00000060       0.55774986
Si       7.67917964       0.00000000      17.43000000  F        2      -0.09099361      -0.00000046       0.55345055
Si       0.00000000       3.83958982      17.43000000  F        2      -0.05554843       0.00000002       0.39657212
Si       3.74390705       3.83958986      17.38491307  T        2       0.00131499       0.00000015       0.00230774
Si       7.67917964       3.83958982      17.43000000  F        2       0.63114270       0.00000075      -0.24437390
Si       1.91979491       0.00000000      18.78750000  F        1      -0.00150397      -0.00000007      -0.20341346
Si       5.75938473       0.00000000      18.78750000  F        1      -0.02087744       0.00000261      -0.06793844
Si       9.59897455       0.00000000      18.78750000  F        1       0.01765078      -0.00000003      -0.21820607
Si       1.91979491       3.83958982      18.78750000  F        1      -0.24724985       0.00000006      -0.15340816
Si       5.71444607       3.83958842      19.21692341  T        1       0.01090813      -0.00000564       0.00122566
Si       9.59897455       3.83958982      18.78750000  F        1      -0.17311520       0.00000002      -0.27157283
F        6.95471241       3.83959006      20.31669166  T        0       0.00122069       0.00000113       0.00427902
F        4.44807601       3.83959008      20.28325620  T        0      -0.00157870       0.00000135      -0.00060405
