33
Lattice="7.6044 0.0 0.0 -3.802199999999998 6.585603580538386 0.0 0.0 -0.0 28.35945" Properties=species:S:1:pos:R:3:move_mask:L:1:spacegroup_kinds:I:1:tags:I:1 spacegroup="P 63/m" unit_cell=conventional occupancy="_JSON {\"0\": {\"Si\": 1.0}, \"1\": {\"N\": 1.0}, \"2\": {\"N\": 1.0}}" surface=beta_Si3N4_001 species=CH3F site=atop_Si orientation=parallel height_A=6.5 substrate_atoms=28 calculation_kind="Rigid evaluated approach scan; not NEB" energy=-234.38053170786142 pbc="T T F"
Si       5.18010587       1.14956320      12.00000000  F        0        2
Si      -1.37790587       5.43604038      13.45315000  F        0        2
Si       4.01879613       3.91132168      12.00000000  F        0        2
Si      -0.21659613       2.67428190      13.45315000  F        0        2
Si       2.20769800       1.52471870      12.00000000  F        0        2
Si       1.59450200       5.06088488      13.45315000  F        0        2
N       -1.02370433       2.17482973      12.00000000  F        1        2
N        4.82590433       4.41077385      13.45315000  F        1        2
N        2.43059437       4.61163476      12.00000000  F        1        2
N        1.37160563       1.97396882      13.45315000  F        1        2
N       -1.40689004       6.38474267      12.00000000  F        1        2
N        5.20909004       0.20086091      13.45315000  F        1        2
N        3.80216198       2.19517924      12.00000000  F        2        2
N        0.00003802       4.39042434      13.45315000  F        2        2
Si       5.18010587       1.14956320      14.90630000  F        0        1
Si      -1.37790587       5.43604038      16.35945000  F        0        1
Si       4.01879613       3.91132168      14.90630000  F        0        1
Si      -0.21659613       2.67428190      16.35945000  F        0        1
Si       2.20769800       1.52471870      14.90630000  F        0        1
Si       1.59450200       5.06088488      16.35945000  F        0        1
N       -1.02370433       2.17482973      14.90630000  F        1        1
N        4.82590433       4.41077385      16.35945000  F        1        1
N        2.43059437       4.61163476      14.90630000  F        1        1
N        1.37160563       1.97396882      16.35945000  F        1        1
N       -1.40689004       6.38474267      14.90630000  F        1        1
N        5.20909004       0.20086091      16.35945000  F        1        1
N        3.80216198       2.19517924      14.90630000  F        2        1
N        0.00003802       4.39042434      16.35945000  F        2        1
F        0.26694710       5.06088488      23.90621642  T        0        0
C        1.68659923       5.06088488      23.90621642  T        0        0
H        2.00632122       5.06088488      22.85945000  T        0        0
H        2.00632122       5.96741120      24.42959963  T        0        0
H        2.00632122       4.15435856      24.42959963  T        0        0
33
Lattice="7.6044 0.0 0.0 -3.802199999999998 6.585603580538386 0.0 0.0 -0.0 28.35945" Properties=species:S:1:pos:R:3:move_mask:L:1:spacegroup_kinds:I:1:tags:I:1 spacegroup="P 63/m" unit_cell=conventional occupancy="_JSON {\"0\": {\"Si\": 1.0}, \"1\": {\"N\": 1.0}, \"2\": {\"N\": 1.0}}" surface=beta_Si3N4_001 species=CH3F site=atop_Si orientation=parallel height_A=5.0 substrate_atoms=28 calculation_kind="Rigid evaluated approach scan; not NEB" energy=-234.38053170786142 pbc="T T F"
Si       5.18010587       1.14956320      12.00000000  F        0        2
Si      -1.37790587       5.43604038      13.45315000  F        0        2
Si       4.01879613       3.91132168      12.00000000  F        0        2
Si      -0.21659613       2.67428190      13.45315000  F        0        2
Si       2.20769800       1.52471870      12.00000000  F        0        2
Si       1.59450200       5.06088488      13.45315000  F        0        2
N       -1.02370433       2.17482973      12.00000000  F        1        2
N        4.82590433       4.41077385      13.45315000  F        1        2
N        2.43059437       4.61163476      12.00000000  F        1        2
N        1.37160563       1.97396882      13.45315000  F        1        2
N       -1.40689004       6.38474267      12.00000000  F        1        2
N        5.20909004       0.20086091      13.45315000  F        1        2
N        3.80216198       2.19517924      12.00000000  F        2        2
N        0.00003802       4.39042434      13.45315000  F        2        2
Si       5.18010587       1.14956320      14.90630000  F        0        1
Si      -1.37790587       5.43604038      16.35945000  F        0        1
Si       4.01879613       3.91132168      14.90630000  F        0        1
Si      -0.21659613       2.67428190      16.35945000  F        0        1
Si       2.20769800       1.52471870      14.90630000  F        0        1
Si       1.59450200       5.06088488      16.35945000  F        0        1
N       -1.02370433       2.17482973      14.90630000  F        1        1
N        4.82590433       4.41077385      16.35945000  F        1        1
N        2.43059437       4.61163476      14.90630000  F        1        1
N        1.37160563       1.97396882      16.35945000  F        1        1
N       -1.40689004       6.38474267      14.90630000  F        1        1
N        5.20909004       0.20086091      16.35945000  F        1        1
N        3.80216198       2.19517924      14.90630000  F        2        1
N        0.00003802       4.39042434      16.35945000  F        2        1
F        0.26694710       5.06088488      22.40621642  T        0        0
C        1.68659923       5.06088488      22.40621642  T        0        0
H        2.00632122       5.06088488      21.35945000  T        0        0
H        2.00632122       5.96741120      22.92959963  T        0        0
H        2.00632122       4.15435856      22.92959963  T        0        0
33
Lattice="7.6044 0.0 0.0 -3.802199999999998 6.585603580538386 0.0 0.0 -0.0 28.35945" Properties=species:S:1:pos:R:3:move_mask:L:1:spacegroup_kinds:I:1:tags:I:1 spacegroup="P 63/m" unit_cell=conventional occupancy="_JSON {\"0\": {\"Si\": 1.0}, \"1\": {\"N\": 1.0}, \"2\": {\"N\": 1.0}}" surface=beta_Si3N4_001 species=CH3F site=atop_Si orientation=parallel height_A=4.0 substrate_atoms=28 calculation_kind="Rigid evaluated approach scan; not NEB" energy=-234.39522620450697 pbc="T T F"
Si       5.18010587       1.14956320      12.00000000  F        0        2
Si      -1.37790587       5.43604038      13.45315000  F        0        2
Si       4.01879613       3.91132168      12.00000000  F        0        2
Si      -0.21659613       2.67428190      13.45315000  F        0        2
Si       2.20769800       1.52471870      12.00000000  F        0        2
Si       1.59450200       5.06088488      13.45315000  F        0        2
N       -1.02370433       2.17482973      12.00000000  F        1        2
N        4.82590433       4.41077385      13.45315000  F        1        2
N        2.43059437       4.61163476      12.00000000  F        1        2
N        1.37160563       1.97396882      13.45315000  F        1        2
N       -1.40689004       6.38474267      12.00000000  F        1        2
N        5.20909004       0.20086091      13.45315000  F        1        2
N        3.80216198       2.19517924      12.00000000  F        2        2
N        0.00003802       4.39042434      13.45315000  F        2        2
Si       5.18010587       1.14956320      14.90630000  F        0        1
Si      -1.37790587       5.43604038      16.35945000  F        0        1
Si       4.01879613       3.91132168      14.90630000  F        0        1
Si      -0.21659613       2.67428190      16.35945000  F        0        1
Si       2.20769800       1.52471870      14.90630000  F        0        1
Si       1.59450200       5.06088488      16.35945000  F        0        1
N       -1.02370433       2.17482973      14.90630000  F        1        1
N        4.82590433       4.41077385      16.35945000  F        1        1
N        2.43059437       4.61163476      14.90630000  F        1        1
N        1.37160563       1.97396882      16.35945000  F        1        1
N       -1.40689004       6.38474267      14.90630000  F        1        1
N        5.20909004       0.20086091      16.35945000  F        1        1
N        3.80216198       2.19517924      14.90630000  F        2        1
N        0.00003802       4.39042434      16.35945000  F        2        1
F        0.26694710       5.06088488      21.40621642  T        0        0
C        1.68659923       5.06088488      21.40621642  T        0        0
H        2.00632122       5.06088488      20.35945000  T        0        0
H        2.00632122       5.96741120      21.92959963  T        0        0
H        2.00632122       4.15435856      21.92959963  T        0        0
33
Lattice="7.6044 0.0 0.0 -3.802199999999998 6.585603580538386 0.0 0.0 -0.0 28.35945" Properties=species:S:1:pos:R:3:move_mask:L:1:spacegroup_kinds:I:1:tags:I:1 spacegroup="P 63/m" unit_cell=conventional occupancy="_JSON {\"0\": {\"Si\": 1.0}, \"1\": {\"N\": 1.0}, \"2\": {\"N\": 1.0}}" surface=beta_Si3N4_001 species=CH3F site=atop_Si orientation=parallel height_A=3.25 substrate_atoms=28 calculation_kind="Rigid evaluated approach scan; not NEB" energy=-234.45041067262946 pbc="T T F"
Si       5.18010587       1.14956320      12.00000000  F        0        2
Si      -1.37790587       5.43604038      13.45315000  F        0        2
Si       4.01879613       3.91132168      12.00000000  F        0        2
Si      -0.21659613       2.67428190      13.45315000  F        0        2
Si       2.20769800       1.52471870      12.00000000  F        0        2
Si       1.59450200       5.06088488      13.45315000  F        0        2
N       -1.02370433       2.17482973      12.00000000  F        1        2
N        4.82590433       4.41077385      13.45315000  F        1        2
N        2.43059437       4.61163476      12.00000000  F        1        2
N        1.37160563       1.97396882      13.45315000  F        1        2
N       -1.40689004       6.38474267      12.00000000  F        1        2
N        5.20909004       0.20086091      13.45315000  F        1        2
N        3.80216198       2.19517924      12.00000000  F        2        2
N        0.00003802       4.39042434      13.45315000  F        2        2
Si       5.18010587       1.14956320      14.90630000  F        0        1
Si      -1.37790587       5.43604038      16.35945000  F        0        1
Si       4.01879613       3.91132168      14.90630000  F        0        1
Si      -0.21659613       2.67428190      16.35945000  F        0        1
Si       2.20769800       1.52471870      14.90630000  F        0        1
Si       1.59450200       5.06088488      16.35945000  F        0        1
N       -1.02370433       2.17482973      14.90630000  F        1        1
N        4.82590433       4.41077385      16.35945000  F        1        1
N        2.43059437       4.61163476      14.90630000  F        1        1
N        1.37160563       1.97396882      16.35945000  F        1        1
N       -1.40689004       6.38474267      14.90630000  F        1        1
N        5.20909004       0.20086091      16.35945000  F        1        1
N        3.80216198       2.19517924      14.90630000  F        2        1
N        0.00003802       4.39042434      16.35945000  F        2        1
F        0.26694710       5.06088488      20.65621642  T        0        0
C        1.68659923       5.06088488      20.65621642  T        0        0
H        2.00632122       5.06088488      19.60945000  T        0        0
H        2.00632122       5.96741120      21.17959963  T        0        0
H        2.00632122       4.15435856      21.17959963  T        0        0
33
Lattice="7.6044 0.0 0.0 -3.802199999999998 6.585603580538386 0.0 0.0 -0.0 28.35945" Properties=species:S:1:pos:R:3:move_mask:L:1:spacegroup_kinds:I:1:tags:I:1 spacegroup="P 63/m" unit_cell=conventional occupancy="_JSON {\"0\": {\"Si\": 1.0}, \"1\": {\"N\": 1.0}, \"2\": {\"N\": 1.0}}" surface=beta_Si3N4_001 species=CH3F site=atop_Si orientation=parallel height_A=2.75 substrate_atoms=28 calculation_kind="Rigid evaluated approach scan; not NEB" energy=-234.49097124500415 pbc="T T F"
Si       5.18010587       1.14956320      12.00000000  F        0        2
Si      -1.37790587       5.43604038      13.45315000  F        0        2
Si       4.01879613       3.91132168      12.00000000  F        0        2
Si      -0.21659613       2.67428190      13.45315000  F        0        2
Si       2.20769800       1.52471870      12.00000000  F        0        2
Si       1.59450200       5.06088488      13.45315000  F        0        2
N       -1.02370433       2.17482973      12.00000000  F        1        2
N        4.82590433       4.41077385      13.45315000  F        1        2
N        2.43059437       4.61163476      12.00000000  F        1        2
N        1.37160563       1.97396882      13.45315000  F        1        2
N       -1.40689004       6.38474267      12.00000000  F        1        2
N        5.20909004       0.20086091      13.45315000  F        1        2
N        3.80216198       2.19517924      12.00000000  F        2        2
N        0.00003802       4.39042434      13.45315000  F        2        2
Si       5.18010587       1.14956320      14.90630000  F        0        1
Si      -1.37790587       5.43604038      16.35945000  F        0        1
Si       4.01879613       3.91132168      14.90630000  F        0        1
Si      -0.21659613       2.67428190      16.35945000  F        0        1
Si       2.20769800       1.52471870      14.90630000  F        0        1
Si       1.59450200       5.06088488      16.35945000  F        0        1
N       -1.02370433       2.17482973      14.90630000  F        1        1
N        4.82590433       4.41077385      16.35945000  F        1        1
N        2.43059437       4.61163476      14.90630000  F        1        1
N        1.37160563       1.97396882      16.35945000  F        1        1
N       -1.40689004       6.38474267      14.90630000  F        1        1
N        5.20909004       0.20086091      16.35945000  F        1        1
N        3.80216198       2.19517924      14.90630000  F        2        1
N        0.00003802       4.39042434      16.35945000  F        2        1
F        0.26694710       5.06088488      20.15621642  T        0        0
C        1.68659923       5.06088488      20.15621642  T        0        0
H        2.00632122       5.06088488      19.10945000  T        0        0
H        2.00632122       5.96741120      20.67959963  T        0        0
H        2.00632122       4.15435856      20.67959963  T        0        0
33
Lattice="7.6044 0.0 0.0 -3.802199999999998 6.585603580538386 0.0 0.0 -0.0 28.35945" Properties=species:S:1:pos:R:3:move_mask:L:1:spacegroup_kinds:I:1:tags:I:1 spacegroup="P 63/m" unit_cell=conventional occupancy="_JSON {\"0\": {\"Si\": 1.0}, \"1\": {\"N\": 1.0}, \"2\": {\"N\": 1.0}}" surface=beta_Si3N4_001 species=CH3F site=atop_Si orientation=parallel height_A=2.25 substrate_atoms=28 calculation_kind="Rigid evaluated approach scan; not NEB" energy=-234.34732570633142 pbc="T T F"
Si       5.18010587       1.14956320      12.00000000  F        0        2
Si      -1.37790587       5.43604038      13.45315000  F        0        2
Si       4.01879613       3.91132168      12.00000000  F        0        2
Si      -0.21659613       2.67428190      13.45315000  F        0        2
Si       2.20769800       1.52471870      12.00000000  F        0        2
Si       1.59450200       5.06088488      13.45315000  F        0        2
N       -1.02370433       2.17482973      12.00000000  F        1        2
N        4.82590433       4.41077385      13.45315000  F        1        2
N        2.43059437       4.61163476      12.00000000  F        1        2
N        1.37160563       1.97396882      13.45315000  F        1        2
N       -1.40689004       6.38474267      12.00000000  F        1        2
N        5.20909004       0.20086091      13.45315000  F        1        2
N        3.80216198       2.19517924      12.00000000  F        2        2
N        0.00003802       4.39042434      13.45315000  F        2        2
Si       5.18010587       1.14956320      14.90630000  F        0        1
Si      -1.37790587       5.43604038      16.35945000  F        0        1
Si       4.01879613       3.91132168      14.90630000  F        0        1
Si      -0.21659613       2.67428190      16.35945000  F        0        1
Si       2.20769800       1.52471870      14.90630000  F        0        1
Si       1.59450200       5.06088488      16.35945000  F        0        1
N       -1.02370433       2.17482973      14.90630000  F        1        1
N        4.82590433       4.41077385      16.35945000  F        1        1
N        2.43059437       4.61163476      14.90630000  F        1        1
N        1.37160563       1.97396882      16.35945000  F        1        1
N       -1.40689004       6.38474267      14.90630000  F        1        1
N        5.20909004       0.20086091      16.35945000  F        1        1
N        3.80216198       2.19517924      14.90630000  F        2        1
N        0.00003802       4.39042434      16.35945000  F        2        1
F        0.26694710       5.06088488      19.65621642  T        0        0
C        1.68659923       5.06088488      19.65621642  T        0        0
H        2.00632122       5.06088488      18.60945000  T        0        0
H        2.00632122       5.96741120      20.17959963  T        0        0
H        2.00632122       4.15435856      20.17959963  T        0        0
33
Lattice="7.6044 0.0 0.0 -3.802199999999998 6.585603580538386 0.0 0.0 -0.0 28.35945" Properties=species:S:1:pos:R:3:move_mask:L:1:spacegroup_kinds:I:1:tags:I:1 spacegroup="P 63/m" unit_cell=conventional occupancy="_JSON {\"0\": {\"Si\": 1.0}, \"1\": {\"N\": 1.0}, \"2\": {\"N\": 1.0}}" surface=beta_Si3N4_001 species=CH3F site=atop_Si orientation=parallel height_A=1.9 substrate_atoms=28 calculation_kind="Rigid evaluated approach scan; not NEB" energy=-234.42764303700633 pbc="T T F"
Si       5.18010587       1.14956320      12.00000000  F        0        2
Si      -1.37790587       5.43604038      13.45315000  F        0        2
Si       4.01879613       3.91132168      12.00000000  F        0        2
Si      -0.21659613       2.67428190      13.45315000  F        0        2
Si       2.20769800       1.52471870      12.00000000  F        0        2
Si       1.59450200       5.06088488      13.45315000  F        0        2
N       -1.02370433       2.17482973      12.00000000  F        1        2
N        4.82590433       4.41077385      13.45315000  F        1        2
N        2.43059437       4.61163476      12.00000000  F        1        2
N        1.37160563       1.97396882      13.45315000  F        1        2
N       -1.40689004       6.38474267      12.00000000  F        1        2
N        5.20909004       0.20086091      13.45315000  F        1        2
N        3.80216198       2.19517924      12.00000000  F        2        2
N        0.00003802       4.39042434      13.45315000  F        2        2
Si       5.18010587       1.14956320      14.90630000  F        0        1
Si      -1.37790587       5.43604038      16.35945000  F        0        1
Si       4.01879613       3.91132168      14.90630000  F        0        1
Si      -0.21659613       2.67428190      16.35945000  F        0        1
Si       2.20769800       1.52471870      14.90630000  F        0        1
Si       1.59450200       5.06088488      16.35945000  F        0        1
N       -1.02370433       2.17482973      14.90630000  F        1        1
N        4.82590433       4.41077385      16.35945000  F        1        1
N        2.43059437       4.61163476      14.90630000  F        1        1
N        1.37160563       1.97396882      16.35945000  F        1        1
N       -1.40689004       6.38474267      14.90630000  F        1        1
N        5.20909004       0.20086091      16.35945000  F        1        1
N        3.80216198       2.19517924      14.90630000  F        2        1
N        0.00003802       4.39042434      16.35945000  F        2        1
F        0.26694710       5.06088488      19.30621642  T        0        0
C        1.68659923       5.06088488      19.30621642  T        0        0
H        2.00632122       5.06088488      18.25945000  T        0        0
H        2.00632122       5.96741120      19.82959963  T        0        0
H        2.00632122       4.15435856      19.82959963  T        0        0
33
Lattice="7.6044 0.0 0.0 -3.802199999999998 6.585603580538386 0.0 0.0 -0.0 28.35945" Properties=species:S:1:pos:R:3:move_mask:L:1:spacegroup_kinds:I:1:tags:I:1 spacegroup="P 63/m" unit_cell=conventional occupancy="_JSON {\"0\": {\"Si\": 1.0}, \"1\": {\"N\": 1.0}, \"2\": {\"N\": 1.0}}" surface=beta_Si3N4_001 species=CH3F site=atop_Si orientation=parallel height_A=1.6 substrate_atoms=28 calculation_kind="Rigid evaluated approach scan; not NEB" energy=-234.5619392796307 pbc="T T F"
Si       5.18010587       1.14956320      12.00000000  F        0        2
Si      -1.37790587       5.43604038      13.45315000  F        0        2
Si       4.01879613       3.91132168      12.00000000  F        0        2
Si      -0.21659613       2.67428190      13.45315000  F        0        2
Si       2.20769800       1.52471870      12.00000000  F        0        2
Si       1.59450200       5.06088488      13.45315000  F        0        2
N       -1.02370433       2.17482973      12.00000000  F        1        2
N        4.82590433       4.41077385      13.45315000  F        1        2
N        2.43059437       4.61163476      12.00000000  F        1        2
N        1.37160563       1.97396882      13.45315000  F        1        2
N       -1.40689004       6.38474267      12.00000000  F        1        2
N        5.20909004       0.20086091      13.45315000  F        1        2
N        3.80216198       2.19517924      12.00000000  F        2        2
N        0.00003802       4.39042434      13.45315000  F        2        2
Si       5.18010587       1.14956320      14.90630000  F        0        1
Si      -1.37790587       5.43604038      16.35945000  F        0        1
Si       4.01879613       3.91132168      14.90630000  F        0        1
Si      -0.21659613       2.67428190      16.35945000  F        0        1
Si       2.20769800       1.52471870      14.90630000  F        0        1
Si       1.59450200       5.06088488      16.35945000  F        0        1
N       -1.02370433       2.17482973      14.90630000  F        1        1
N        4.82590433       4.41077385      16.35945000  F        1        1
N        2.43059437       4.61163476      14.90630000  F        1        1
N        1.37160563       1.97396882      16.35945000  F        1        1
N       -1.40689004       6.38474267      14.90630000  F        1        1
N        5.20909004       0.20086091      16.35945000  F        1        1
N        3.80216198       2.19517924      14.90630000  F        2        1
N        0.00003802       4.39042434      16.35945000  F        2        1
F        0.26694710       5.06088488      19.00621642  T        0        0
C        1.68659923       5.06088488      19.00621642  T        0        0
H        2.00632122       5.06088488      17.95945000  T        0        0
H        2.00632122       5.96741120      19.52959963  T        0        0
H        2.00632122       4.15435856      19.52959963  T        0        0
33
Lattice="7.6044 0.0 0.0 -3.802199999999998 6.585603580538386 0.0 0.0 -0.0 28.35945" Properties=species:S:1:pos:R:3:move_mask:L:1:spacegroup_kinds:I:1:tags:I:1 spacegroup="P 63/m" unit_cell=conventional occupancy="_JSON {\"0\": {\"Si\": 1.0}, \"1\": {\"N\": 1.0}, \"2\": {\"N\": 1.0}}" surface=beta_Si3N4_001 species=CH3F site=atop_Si orientation=parallel height_A=1.3 substrate_atoms=28 calculation_kind="Rigid evaluated approach scan; not NEB" energy=-233.96473786134652 pbc="T T F"
Si       5.18010587       1.14956320      12.00000000  F        0        2
Si      -1.37790587       5.43604038      13.45315000  F        0        2
Si       4.01879613       3.91132168      12.00000000  F        0        2
Si      -0.21659613       2.67428190      13.45315000  F        0        2
Si       2.20769800       1.52471870      12.00000000  F        0        2
Si       1.59450200       5.06088488      13.45315000  F        0        2
N       -1.02370433       2.17482973      12.00000000  F        1        2
N        4.82590433       4.41077385      13.45315000  F        1        2
N        2.43059437       4.61163476      12.00000000  F        1        2
N        1.37160563       1.97396882      13.45315000  F        1        2
N       -1.40689004       6.38474267      12.00000000  F        1        2
N        5.20909004       0.20086091      13.45315000  F        1        2
N        3.80216198       2.19517924      12.00000000  F        2        2
N        0.00003802       4.39042434      13.45315000  F        2        2
Si       5.18010587       1.14956320      14.90630000  F        0        1
Si      -1.37790587       5.43604038      16.35945000  F        0        1
Si       4.01879613       3.91132168      14.90630000  F        0        1
Si      -0.21659613       2.67428190      16.35945000  F        0        1
Si       2.20769800       1.52471870      14.90630000  F        0        1
Si       1.59450200       5.06088488      16.35945000  F        0        1
N       -1.02370433       2.17482973      14.90630000  F        1        1
N        4.82590433       4.41077385      16.35945000  F        1        1
N        2.43059437       4.61163476      14.90630000  F        1        1
N        1.37160563       1.97396882      16.35945000  F        1        1
N       -1.40689004       6.38474267      14.90630000  F        1        1
N        5.20909004       0.20086091      16.35945000  F        1        1
N        3.80216198       2.19517924      14.90630000  F        2        1
N        0.00003802       4.39042434      16.35945000  F        2        1
F        0.26694710       5.06088488      18.70621642  T        0        0
C        1.68659923       5.06088488      18.70621642  T        0        0
H        2.00632122       5.06088488      17.65945000  T        0        0
H        2.00632122       5.96741120      19.22959963  T        0        0
H        2.00632122       4.15435856      19.22959963  T        0        0
