36
Lattice="9.8418 0.0 0.0 -2.460449999999999 4.261624409482844 0.0 0.0 -0.0 34.16586254" Properties=species:S:1:pos:R:3:move_mask:L:1:spacegroup_kinds:I:1:tags:I:1:forces:R:3 spacegroup="P 32 2 1" unit_cell=conventional surface=alpha_quartz_001 species=HF site=atop_O orientation=flipped height_A=1.9 substrate_atoms=36 calculation_kind="Rigid evaluated approach scan; not NEB" energy=-265.97984800426303 pbc="T T F"
Si       2.31725181       0.00000000      12.00000000  F        0        2      -0.13485172      -0.36604426      -1.70811339
Si      -1.15862590       2.00679893      15.60606667  F        0        2      -0.12874475       0.05770268       1.27176942
Si       1.30182410       2.25482548      13.80303333  F        0        2       0.03280043      -0.16183756       1.01904002
O        1.38326499       1.13103512      12.65233746  F        1        2      -0.50597353       0.21799017      -0.21632494
O        0.28787265       1.76346018      14.95372921  F        1        2       0.44928467      -0.24771523      -0.38689254
O        3.24976236       0.63242506      16.25840413  F        1        2      -0.20593050      -0.47023100      -0.00574837
O        0.78931236       3.62919935      13.15069587  F        1        2       0.42804669       0.28342633       0.53839091
O        2.74832265       2.49816423      14.45537079  F        1        2       0.00828847       0.38928002      -0.73925783
O       -1.07718501       3.13058929      16.75676254  F        1        2       0.09503798       0.39486813       0.19976124
Si       2.32227942       0.00569215      17.46438131  T        0        1      -0.01856330      -0.01704435      -0.03609866
Si      -1.16210058       1.93746797      21.15576782  T        0        1      -0.05437653      -0.02556227       0.03700504
Si       1.32236062       2.26756531      19.30390726  T        0        1      -0.01591927      -0.00069911      -0.00924881
O        1.37710825       1.15022079      18.10251969  T        1        1      -0.01224532       0.03034220       0.00318588
O        0.29971723       1.80108698      20.46064830  T        1        1       0.04665407       0.00639600      -0.04716950
O        3.17263374       0.79917636      22.06957270  T        1        1      -0.09734237      -0.32940479       0.03637961
O        0.82350006       3.65206252      18.60373857  T        1        1       0.01319222      -0.02532282       0.00570482
O        2.79225574       2.50173407      19.94444962  T        1        1      -0.06634716       0.06067201      -0.14882549
O       -1.14963805       2.70179099      22.59843802  T        1        1      -0.03879639      -0.00509284       0.10110788
Si       7.23815181       0.00000000      12.00000000  F        0        2      -0.13415469      -0.36627384      -1.70520690
Si       3.76227409       2.00679893      15.60606667  F        0        2      -0.11938133       0.06722755       1.26584111
Si       6.22272410       2.25482548      13.80303333  F        0        2       0.02840891      -0.16247860       1.02495139
O        6.30416499       1.13103512      12.65233746  F        1        2      -0.50540766       0.21683005      -0.21883426
O        5.20877265       1.76346018      14.95372921  F        1        2       0.44410361      -0.24946262      -0.38521397
O        8.17066236       0.63242506      16.25840413  F        1        2      -0.25763059      -0.53461982       0.11336897
O        5.71021236       3.62919935      13.15069587  F        1        2       0.42782920       0.28463975       0.53482783
O        7.66922265       2.49816423      14.45537079  F        1        2       0.01332453       0.39044032      -0.73802619
O        3.84371499       3.13058929      16.75676254  F        1        2       0.09753821       0.42611543       0.20049563
Si       7.24224078       0.00486338      17.46868598  T        0        1       0.00351387      -0.00517001      -0.02176864
Si       3.76456485       2.02231682      21.17307680  T        0        1       0.08055995       0.23913718       0.17093531
Si       6.22771763       2.26028630      19.32238453  T        0        1       0.00858194      -0.00175618       0.02746005
O        6.30457703       1.15495953      18.11052452  T        1        1      -0.00708129       0.00010110      -0.00433813
O        5.20904466       1.76047929      20.47632934  T        1        1       0.12695563       0.03479397      -0.14579487
O        8.15346515       0.55174566      21.85742409  T        1        1       0.08070447       0.04002967      -0.07338109
O        5.72829579       3.64370251      18.61936490  T        1        1       0.00004772      -0.01560497      -0.00623292
O        7.69095422       2.51277387      19.97976435  T        1        1       0.00629744      -0.02046397      -0.03359635
O        3.80311883       3.00441356      22.48753817  T        1        1      -0.08842361      -0.13520834       0.07984773
