38
Lattice="11.518769465528859 0.0 0.0 0.0 7.679179643685906 0.0 0.0 0.0 30.7875" Properties=species:S:1:pos:R:3:move_mask:L:1:tags:I:1:forces:R:3 surface=Si100 species=Cl2 height_A=6.5 substrate_atoms=36 calculation_kind="Rigid approach energy evaluation; not NEB or TS" energy=-183.74098081408889 pbc="T T F"
Si       0.00000000       0.00000000      12.00000000  F        6       0.00000000       0.00000000       0.24903483
Si       3.83958982       0.00000000      12.00000000  F        6       0.00000000      -0.00000000       0.24903483
Si       7.67917964       0.00000000      12.00000000  F        6      -0.00000000       0.00000000       0.24903483
Si       0.00000000       3.83958982      12.00000000  F        6      -0.00000000      -0.00000000       0.24903483
Si       3.83958982       3.83958982      12.00000000  F        6       0.00000000       0.00000000       0.24903483
Si       7.67917964       3.83958982      12.00000000  F        6      -0.00000000      -0.00000000       0.24903483
Si       1.91979491       0.00000000      13.35750000  F        5       0.00000000       0.00000000      -0.52822354
Si       5.75938473       0.00000000      13.35750000  F        5      -0.00000000      -0.00000000      -0.52822354
Si       9.59897455       0.00000000      13.35750000  F        5      -0.00000000      -0.00000000      -0.52822354
Si       1.91979491       3.83958982      13.35750000  F        5       0.00000000       0.00000000      -0.52822354
Si       5.75938473       3.83958982      13.35750000  F        5       0.00000000       0.00000000      -0.52822354
Si       9.59897455       3.83958982      13.35750000  F        5       0.00000000       0.00000000      -0.52822354
Si       1.91979491       1.91979491      14.71500000  F        4      -0.00000000       0.00000000       0.14537709
Si       5.75938473       1.91979491      14.71500000  F        4      -0.00000000      -0.00000000       0.14537709
Si       9.59897455       1.91979491      14.71500000  F        4      -0.00000000       0.00000000       0.14537709
Si       1.91979491       5.75938473      14.71500000  F        4       0.00000000      -0.00000000       0.14537709
Si       5.75938473       5.75938473      14.71500000  F        4      -0.00000000      -0.00000000       0.14537709
Si       9.59897455       5.75938473      14.71500000  F        4      -0.00000000       0.00000000       0.14537709
Si       0.00000000       1.91979491      16.07250000  F        3      -0.00000000      -0.00000000      -0.14537709
Si       3.83958982       1.91979491      16.07250000  F        3      -0.00000000       0.00000000      -0.14537709
Si       7.67917964       1.91979491      16.07250000  F        3       0.00000000       0.00000000      -0.14537709
Si       0.00000000       5.75938473      16.07250000  F        3       0.00000000       0.00000000      -0.14537709
Si       3.83958982       5.75938473      16.07250000  F        3       0.00000000      -0.00000000      -0.14537709
Si       7.67917964       5.75938473      16.07250000  F        3      -0.00000000      -0.00000000      -0.14537709
Si       0.00000000       0.00000000      17.43000000  F        2      -0.00000000       0.00000000       0.52822354
Si       3.83958982       0.00000000      17.43000000  F        2       0.00000000      -0.00000000       0.52822354
Si       7.67917964       0.00000000      17.43000000  F        2       0.00000000      -0.00000000       0.52822354
Si       0.00000000       3.83958982      17.43000000  F        2       0.00000000       0.00000000       0.52822354
Si       3.83958982       3.83958982      17.43000000  F        2       0.00000000      -0.00000000       0.52822354
Si       7.67917964       3.83958982      17.43000000  F        2      -0.00000000      -0.00000000       0.52822354
Si       1.91979491       0.00000000      18.78750000  F        1       0.00000000      -0.00000000      -0.24903483
Si       5.75938473       0.00000000      18.78750000  F        1      -0.00000000       0.00000000      -0.24903483
Si       9.59897455       0.00000000      18.78750000  F        1       0.00000000      -0.00000000      -0.24903483
Si       1.91979491       3.83958982      18.78750000  F        1       0.00000000       0.00000000      -0.24903483
Si       5.75938473       3.83958982      18.78750000  F        1       0.00000000       0.00000000      -0.24903483
Si       9.59897455       3.83958982      18.78750000  F        1      -0.00000000       0.00000000      -0.24903483
Cl       5.75938473       3.83958982      25.28750000  F        0       0.00000000       0.00000000      -0.00087257
Cl       5.75938473       3.83958982      27.28609232  F        0       0.00000000       0.00000000       0.00087257
38
Lattice="11.518769465528859 0.0 0.0 0.0 7.679179643685906 0.0 0.0 0.0 30.7875" Properties=species:S:1:pos:R:3:move_mask:L:1:tags:I:1:forces:R:3 surface=Si100 species=Cl2 height_A=5.0 substrate_atoms=36 calculation_kind="Rigid approach energy evaluation; not NEB or TS" energy=-183.74098081408889 pbc="T T F"
Si       0.00000000       0.00000000      12.00000000  F        6       0.00000000       0.00000000       0.24903483
Si       3.83958982       0.00000000      12.00000000  F        6       0.00000000      -0.00000000       0.24903483
Si       7.67917964       0.00000000      12.00000000  F        6      -0.00000000       0.00000000       0.24903483
Si       0.00000000       3.83958982      12.00000000  F        6      -0.00000000      -0.00000000       0.24903483
Si       3.83958982       3.83958982      12.00000000  F        6       0.00000000       0.00000000       0.24903483
Si       7.67917964       3.83958982      12.00000000  F        6      -0.00000000      -0.00000000       0.24903483
Si       1.91979491       0.00000000      13.35750000  F        5       0.00000000       0.00000000      -0.52822354
Si       5.75938473       0.00000000      13.35750000  F        5      -0.00000000      -0.00000000      -0.52822354
Si       9.59897455       0.00000000      13.35750000  F        5      -0.00000000      -0.00000000      -0.52822354
Si       1.91979491       3.83958982      13.35750000  F        5       0.00000000       0.00000000      -0.52822354
Si       5.75938473       3.83958982      13.35750000  F        5       0.00000000       0.00000000      -0.52822354
Si       9.59897455       3.83958982      13.35750000  F        5       0.00000000       0.00000000      -0.52822354
Si       1.91979491       1.91979491      14.71500000  F        4      -0.00000000       0.00000000       0.14537709
Si       5.75938473       1.91979491      14.71500000  F        4      -0.00000000      -0.00000000       0.14537709
Si       9.59897455       1.91979491      14.71500000  F        4      -0.00000000       0.00000000       0.14537709
Si       1.91979491       5.75938473      14.71500000  F        4       0.00000000      -0.00000000       0.14537709
Si       5.75938473       5.75938473      14.71500000  F        4      -0.00000000      -0.00000000       0.14537709
Si       9.59897455       5.75938473      14.71500000  F        4      -0.00000000       0.00000000       0.14537709
Si       0.00000000       1.91979491      16.07250000  F        3      -0.00000000      -0.00000000      -0.14537709
Si       3.83958982       1.91979491      16.07250000  F        3      -0.00000000       0.00000000      -0.14537709
Si       7.67917964       1.91979491      16.07250000  F        3       0.00000000       0.00000000      -0.14537709
Si       0.00000000       5.75938473      16.07250000  F        3       0.00000000       0.00000000      -0.14537709
Si       3.83958982       5.75938473      16.07250000  F        3       0.00000000      -0.00000000      -0.14537709
Si       7.67917964       5.75938473      16.07250000  F        3      -0.00000000      -0.00000000      -0.14537709
Si       0.00000000       0.00000000      17.43000000  F        2      -0.00000000       0.00000000       0.52822354
Si       3.83958982       0.00000000      17.43000000  F        2       0.00000000      -0.00000000       0.52822354
Si       7.67917964       0.00000000      17.43000000  F        2       0.00000000      -0.00000000       0.52822354
Si       0.00000000       3.83958982      17.43000000  F        2       0.00000000       0.00000000       0.52822354
Si       3.83958982       3.83958982      17.43000000  F        2       0.00000000      -0.00000000       0.52822354
Si       7.67917964       3.83958982      17.43000000  F        2      -0.00000000      -0.00000000       0.52822354
Si       1.91979491       0.00000000      18.78750000  F        1       0.00000000      -0.00000000      -0.24903483
Si       5.75938473       0.00000000      18.78750000  F        1      -0.00000000       0.00000000      -0.24903483
Si       9.59897455       0.00000000      18.78750000  F        1       0.00000000      -0.00000000      -0.24903483
Si       1.91979491       3.83958982      18.78750000  F        1       0.00000000       0.00000000      -0.24903483
Si       5.75938473       3.83958982      18.78750000  F        1       0.00000000       0.00000000      -0.24903483
Si       9.59897455       3.83958982      18.78750000  F        1      -0.00000000       0.00000000      -0.24903483
Cl       5.75938473       3.83958982      23.78750000  F        0       0.00000000       0.00000000      -0.00087257
Cl       5.75938473       3.83958982      25.78609232  F        0       0.00000000       0.00000000       0.00087257
38
Lattice="11.518769465528859 0.0 0.0 0.0 7.679179643685906 0.0 0.0 0.0 30.7875" Properties=species:S:1:pos:R:3:move_mask:L:1:tags:I:1:forces:R:3 surface=Si100 species=Cl2 height_A=4.0 substrate_atoms=36 calculation_kind="Rigid approach energy evaluation; not NEB or TS" energy=-183.81523656557982 pbc="T T F"
Si       0.00000000       0.00000000      12.00000000  F        6      -0.00000000      -0.00000000       0.24888998
Si       3.83958982       0.00000000      12.00000000  F        6       0.00025279       0.00000000       0.24844967
Si       7.67917964       0.00000000      12.00000000  F        6      -0.00025279       0.00000000       0.24844967
Si       0.00000000       3.83958982      12.00000000  F        6      -0.00000000       0.00000000       0.24885800
Si       3.83958982       3.83958982      12.00000000  F        6       0.00038882       0.00000000       0.24874012
Si       7.67917964       3.83958982      12.00000000  F        6      -0.00038882      -0.00000000       0.24874012
Si       1.91979491       0.00000000      13.35750000  F        5       0.00028933       0.00000000      -0.52754054
Si       5.75938473       0.00000000      13.35750000  F        5       0.00000000       0.00000000      -0.52686063
Si       9.59897455       0.00000000      13.35750000  F        5      -0.00028933      -0.00000000      -0.52754054
Si       1.91979491       3.83958982      13.35750000  F        5       0.00078799      -0.00000000      -0.52625852
Si       5.75938473       3.83958982      13.35750000  F        5       0.00000000      -0.00000000      -0.52448287
Si       9.59897455       3.83958982      13.35750000  F        5      -0.00078799       0.00000000      -0.52625852
Si       1.91979491       1.91979491      14.71500000  F        4       0.00214516      -0.00027657       0.14629074
Si       5.75938473       1.91979491      14.71500000  F        4      -0.00000000       0.00728045       0.16168962
Si       9.59897455       1.91979491      14.71500000  F        4      -0.00214516      -0.00027657       0.14629074
Si       1.91979491       5.75938473      14.71500000  F        4       0.00214516       0.00027657       0.14629074
Si       5.75938473       5.75938473      14.71500000  F        4      -0.00000000      -0.00728045       0.16168962
Si       9.59897455       5.75938473      14.71500000  F        4      -0.00214516       0.00027657       0.14629074
Si       0.00000000       1.91979491      16.07250000  F        3      -0.00000000       0.00390558      -0.14300457
Si       3.83958982       1.91979491      16.07250000  F        3       0.00533434       0.01260208      -0.14002293
Si       7.67917964       1.91979491      16.07250000  F        3      -0.00533434       0.01260208      -0.14002293
Si       0.00000000       5.75938473      16.07250000  F        3       0.00000000      -0.00390558      -0.14300457
Si       3.83958982       5.75938473      16.07250000  F        3       0.00533434      -0.01260208      -0.14002293
Si       7.67917964       5.75938473      16.07250000  F        3      -0.00533434      -0.01260208      -0.14002293
Si       0.00000000       0.00000000      17.43000000  F        2       0.00000000      -0.00000000       0.52858763
Si       3.83958982       0.00000000      17.43000000  F        2      -0.00332836      -0.00000000       0.51863470
Si       7.67917964       0.00000000      17.43000000  F        2       0.00332836      -0.00000000       0.51863470
Si       0.00000000       3.83958982      17.43000000  F        2      -0.00000000       0.00000000       0.52851394
Si       3.83958982       3.83958982      17.43000000  F        2      -0.03289453      -0.00000000       0.50255036
Si       7.67917964       3.83958982      17.43000000  F        2       0.03289453       0.00000000       0.50255036
Si       1.91979491       0.00000000      18.78750000  F        1       0.00092812       0.00000000      -0.24995315
Si       5.75938473       0.00000000      18.78750000  F        1       0.00000000      -0.00000000      -0.24498916
Si       9.59897455       0.00000000      18.78750000  F        1      -0.00092812       0.00000000      -0.24995315
Si       1.91979491       3.83958982      18.78750000  F        1      -0.01691370      -0.00000000      -0.26131571
Si       5.75938473       3.83958982      18.78750000  F        1      -0.00000000      -0.00000000      -0.12728953
Si       9.59897455       3.83958982      18.78750000  F        1       0.01691370       0.00000000      -0.26131571
Cl       5.75938473       3.83958982      22.78750000  F        0       0.00000000       0.00000000      -0.21936386
Cl       5.75938473       3.83958982      24.78609232  F        0       0.00000000       0.00000000       0.11908129
38
Lattice="11.518769465528859 0.0 0.0 0.0 7.679179643685906 0.0 0.0 0.0 30.7875" Properties=species:S:1:pos:R:3:move_mask:L:1:tags:I:1:forces:R:3 surface=Si100 species=Cl2 height_A=3.25 substrate_atoms=36 calculation_kind="Rigid approach energy evaluation; not NEB or TS" energy=-183.95132704825167 pbc="T T F"
Si       0.00000000       0.00000000      12.00000000  F        6       0.00000000      -0.00000000       0.24992700
Si       3.83958982       0.00000000      12.00000000  F        6      -0.00037251       0.00000000       0.24993691
Si       7.67917964       0.00000000      12.00000000  F        6       0.00037251      -0.00000000       0.24993691
Si       0.00000000       3.83958982      12.00000000  F        6       0.00000000       0.00000000       0.24897466
Si       3.83958982       3.83958982      12.00000000  F        6      -0.00011285      -0.00000000       0.24830780
Si       7.67917964       3.83958982      12.00000000  F        6       0.00011285       0.00000000       0.24830780
Si       1.91979491       0.00000000      13.35750000  F        5       0.00052857       0.00000000      -0.52672871
Si       5.75938473       0.00000000      13.35750000  F        5      -0.00000000       0.00000000      -0.52841049
Si       9.59897455       0.00000000      13.35750000  F        5      -0.00052857       0.00000000      -0.52672871
Si       1.91979491       3.83958982      13.35750000  F        5       0.00135709       0.00000000      -0.52341141
Si       5.75938473       3.83958982      13.35750000  F        5      -0.00000000      -0.00000000      -0.52443330
Si       9.59897455       3.83958982      13.35750000  F        5      -0.00135709      -0.00000000      -0.52341141
Si       1.91979491       1.91979491      14.71500000  F        4       0.00302978      -0.00166439       0.14641986
Si       5.75938473       1.91979491      14.71500000  F        4      -0.00000000       0.00150948       0.16516126
Si       9.59897455       1.91979491      14.71500000  F        4      -0.00302978      -0.00166439       0.14641986
Si       1.91979491       5.75938473      14.71500000  F        4       0.00302978       0.00166439       0.14641986
Si       5.75938473       5.75938473      14.71500000  F        4      -0.00000000      -0.00150948       0.16516126
Si       9.59897455       5.75938473      14.71500000  F        4      -0.00302978       0.00166439       0.14641986
Si       0.00000000       1.91979491      16.07250000  F        3      -0.00000000       0.00695081      -0.14248297
Si       3.83958982       1.91979491      16.07250000  F        3       0.01127845       0.02668636      -0.14514039
Si       7.67917964       1.91979491      16.07250000  F        3      -0.01127845       0.02668636      -0.14514039
Si       0.00000000       5.75938473      16.07250000  F        3      -0.00000000      -0.00695081      -0.14248297
Si       3.83958982       5.75938473      16.07250000  F        3       0.01127845      -0.02668636      -0.14514039
Si       7.67917964       5.75938473      16.07250000  F        3      -0.01127845      -0.02668636      -0.14514039
Si       0.00000000       0.00000000      17.43000000  F        2       0.00000000      -0.00000000       0.52254097
Si       3.83958982       0.00000000      17.43000000  F        2      -0.01083519       0.00000000       0.50103676
Si       7.67917964       0.00000000      17.43000000  F        2       0.01083519      -0.00000000       0.50103676
Si       0.00000000       3.83958982      17.43000000  F        2       0.00000000       0.00000000       0.52661811
Si       3.83958982       3.83958982      17.43000000  F        2       0.01149256       0.00000000       0.52707433
Si       7.67917964       3.83958982      17.43000000  F        2      -0.01149256       0.00000000       0.52707433
Si       1.91979491       0.00000000      18.78750000  F        1       0.00080511       0.00000000      -0.24576989
Si       5.75938473       0.00000000      18.78750000  F        1      -0.00000000      -0.00000000      -0.23824426
Si       9.59897455       0.00000000      18.78750000  F        1      -0.00080511      -0.00000000      -0.24576989
Si       1.91979491       3.83958982      18.78750000  F        1      -0.03625184      -0.00000000      -0.25947895
Si       5.75938473       3.83958982      18.78750000  F        1      -0.00000000      -0.00000000       0.06697187
Si       9.59897455       3.83958982      18.78750000  F        1       0.03625184      -0.00000000      -0.25947895
Cl       5.75938473       3.83958982      22.03750000  F        0      -0.00000000      -0.00000000      -0.45928196
Cl       5.75938473       3.83958982      24.03609232  F        0       0.00000000       0.00000000       0.14292926
38
Lattice="11.518769465528859 0.0 0.0 0.0 7.679179643685906 0.0 0.0 0.0 30.7875" Properties=species:S:1:pos:R:3:move_mask:L:1:tags:I:1:forces:R:3 surface=Si100 species=Cl2 height_A=2.75 substrate_atoms=36 calculation_kind="Rigid approach energy evaluation; not NEB or TS" energy=-184.1522414706986 pbc="T T F"
Si       0.00000000       0.00000000      12.00000000  F        6       0.00000000      -0.00000000       0.25094844
Si       3.83958982       0.00000000      12.00000000  F        6      -0.00106291      -0.00000000       0.25132194
Si       7.67917964       0.00000000      12.00000000  F        6       0.00106291      -0.00000000       0.25132194
Si       0.00000000       3.83958982      12.00000000  F        6       0.00000000       0.00000000       0.24879973
Si       3.83958982       3.83958982      12.00000000  F        6      -0.00008622      -0.00000000       0.24939219
Si       7.67917964       3.83958982      12.00000000  F        6       0.00008622       0.00000000       0.24939219
Si       1.91979491       0.00000000      13.35750000  F        5       0.00071861       0.00000000      -0.52839275
Si       5.75938473       0.00000000      13.35750000  F        5       0.00000000       0.00000000      -0.52781066
Si       9.59897455       0.00000000      13.35750000  F        5      -0.00071861      -0.00000000      -0.52839275
Si       1.91979491       3.83958982      13.35750000  F        5       0.00292938      -0.00000000      -0.52567738
Si       5.75938473       3.83958982      13.35750000  F        5      -0.00000000      -0.00000000      -0.51930952
Si       9.59897455       3.83958982      13.35750000  F        5      -0.00292938       0.00000000      -0.52567738
Si       1.91979491       1.91979491      14.71500000  F        4       0.00618034      -0.00450476       0.14401871
Si       5.75938473       1.91979491      14.71500000  F        4      -0.00000000      -0.00259421       0.17048731
Si       9.59897455       1.91979491      14.71500000  F        4      -0.00618034      -0.00450476       0.14401871
Si       1.91979491       5.75938473      14.71500000  F        4       0.00618034       0.00450476       0.14401871
Si       5.75938473       5.75938473      14.71500000  F        4      -0.00000000       0.00259421       0.17048731
Si       9.59897455       5.75938473      14.71500000  F        4      -0.00618034       0.00450476       0.14401871
Si       0.00000000       1.91979491      16.07250000  F        3       0.00000000       0.00515312      -0.14126008
Si       3.83958982       1.91979491      16.07250000  F        3       0.02522175       0.02518680      -0.15059034
Si       7.67917964       1.91979491      16.07250000  F        3      -0.02522175       0.02518680      -0.15059034
Si       0.00000000       5.75938473      16.07250000  F        3       0.00000000      -0.00515312      -0.14126008
Si       3.83958982       5.75938473      16.07250000  F        3       0.02522175      -0.02518680      -0.15059034
Si       7.67917964       5.75938473      16.07250000  F        3      -0.02522175      -0.02518680      -0.15059034
Si       0.00000000       0.00000000      17.43000000  F        2      -0.00000000      -0.00000000       0.52526619
Si       3.83958982       0.00000000      17.43000000  F        2      -0.00866071      -0.00000000       0.48867288
Si       7.67917964       0.00000000      17.43000000  F        2       0.00866071      -0.00000000       0.48867288
Si       0.00000000       3.83958982      17.43000000  F        2      -0.00000000       0.00000000       0.55353294
Si       3.83958982       3.83958982      17.43000000  F        2      -0.04986772      -0.00000000       0.59589592
Si       7.67917964       3.83958982      17.43000000  F        2       0.04986772       0.00000000       0.59589592
Si       1.91979491       0.00000000      18.78750000  F        1       0.00280713      -0.00000000      -0.25200936
Si       5.75938473       0.00000000      18.78750000  F        1      -0.00000000       0.00000000      -0.13115024
Si       9.59897455       0.00000000      18.78750000  F        1      -0.00280713       0.00000000      -0.25200936
Si       1.91979491       3.83958982      18.78750000  F        1      -0.03782825       0.00000000      -0.28539805
Si       5.75938473       3.83958982      18.78750000  F        1      -0.00000000      -0.00000000       0.09655830
Si       9.59897455       3.83958982      18.78750000  F        1       0.03782825      -0.00000000      -0.28539805
Cl       5.75938473       3.83958982      21.53750000  F        0      -0.00000000      -0.00000000      -1.42784073
Cl       5.75938473       3.83958982      23.53609232  F        0      -0.00000000       0.00000000       0.91122684
38
Lattice="11.518769465528859 0.0 0.0 0.0 7.679179643685906 0.0 0.0 0.0 30.7875" Properties=species:S:1:pos:R:3:move_mask:L:1:tags:I:1:forces:R:3 surface=Si100 species=Cl2 height_A=2.25 substrate_atoms=36 calculation_kind="Rigid approach energy evaluation; not NEB or TS" energy=-184.2651717929088 pbc="T T F"
Si       0.00000000       0.00000000      12.00000000  F        6      -0.00000000      -0.00000000       0.25158988
Si       3.83958982       0.00000000      12.00000000  F        6      -0.00150534      -0.00000000       0.25336223
Si       7.67917964       0.00000000      12.00000000  F        6       0.00150534       0.00000000       0.25336223
Si       0.00000000       3.83958982      12.00000000  F        6       0.00000000       0.00000000       0.24940201
Si       3.83958982       3.83958982      12.00000000  F        6      -0.00102293      -0.00000000       0.25071039
Si       7.67917964       3.83958982      12.00000000  F        6       0.00102293       0.00000000       0.25071039
Si       1.91979491       0.00000000      13.35750000  F        5       0.00533932      -0.00000000      -0.52668065
Si       5.75938473       0.00000000      13.35750000  F        5      -0.00000000      -0.00000000      -0.52020845
Si       9.59897455       0.00000000      13.35750000  F        5      -0.00533932       0.00000000      -0.52668065
Si       1.91979491       3.83958982      13.35750000  F        5       0.00405758      -0.00000000      -0.53212417
Si       5.75938473       3.83958982      13.35750000  F        5      -0.00000000      -0.00000000      -0.50211126
Si       9.59897455       3.83958982      13.35750000  F        5      -0.00405758      -0.00000000      -0.53212417
Si       1.91979491       1.91979491      14.71500000  F        4       0.01286215      -0.00707653       0.14634030
Si       5.75938473       1.91979491      14.71500000  F        4       0.00000000      -0.03553661       0.12040270
Si       9.59897455       1.91979491      14.71500000  F        4      -0.01286215      -0.00707653       0.14634030
Si       1.91979491       5.75938473      14.71500000  F        4       0.01286215       0.00707653       0.14634030
Si       5.75938473       5.75938473      14.71500000  F        4       0.00000000       0.03553661       0.12040270
Si       9.59897455       5.75938473      14.71500000  F        4      -0.01286215       0.00707653       0.14634030
Si       0.00000000       1.91979491      16.07250000  F        3      -0.00000000       0.00925438      -0.13255810
Si       3.83958982       1.91979491      16.07250000  F        3       0.02198407       0.02914071      -0.13191426
Si       7.67917964       1.91979491      16.07250000  F        3      -0.02198407       0.02914071      -0.13191426
Si       0.00000000       5.75938473      16.07250000  F        3      -0.00000000      -0.00925438      -0.13255810
Si       3.83958982       5.75938473      16.07250000  F        3       0.02198407      -0.02914071      -0.13191426
Si       7.67917964       5.75938473      16.07250000  F        3      -0.02198407      -0.02914071      -0.13191426
Si       0.00000000       0.00000000      17.43000000  F        2       0.00000000       0.00000000       0.50899981
Si       3.83958982       0.00000000      17.43000000  F        2      -0.07683848      -0.00000000       0.46548260
Si       7.67917964       0.00000000      17.43000000  F        2       0.07683848       0.00000000       0.46548260
Si       0.00000000       3.83958982      17.43000000  F        2       0.00000000       0.00000000       0.52590762
Si       3.83958982       3.83958982      17.43000000  F        2      -0.27044356      -0.00000000       0.54152118
Si       7.67917964       3.83958982      17.43000000  F        2       0.27044356      -0.00000000       0.54152118
Si       1.91979491       0.00000000      18.78750000  F        1      -0.00273992       0.00000000      -0.26961824
Si       5.75938473       0.00000000      18.78750000  F        1      -0.00000000       0.00000000       0.05261490
Si       9.59897455       0.00000000      18.78750000  F        1       0.00273992      -0.00000000      -0.26961824
Si       1.91979491       3.83958982      18.78750000  F        1      -0.00072822      -0.00000000      -0.23770183
Si       5.75938473       3.83958982      18.78750000  F        1      -0.00000000      -0.00000000      -0.48666748
Si       9.59897455       3.83958982      18.78750000  F        1       0.00072822      -0.00000000      -0.23770183
Cl       5.75938473       3.83958982      21.03750000  F        0       0.00000000      -0.00000000      -1.77074980
Cl       5.75938473       3.83958982      23.03609232  F        0       0.00000000       0.00000000       1.76792637
38
Lattice="11.518769465528859 0.0 0.0 0.0 7.679179643685906 0.0 0.0 0.0 30.7875" Properties=species:S:1:pos:R:3:move_mask:L:1:tags:I:1:forces:R:3 surface=Si100 species=Cl2 height_A=1.9 substrate_atoms=36 calculation_kind="Rigid approach energy evaluation; not NEB or TS" energy=-183.71999627128423 pbc="T T F"
Si       0.00000000       0.00000000      12.00000000  F        6       0.00000000       0.00000000       0.25161078
Si       3.83958982       0.00000000      12.00000000  F        6       0.00058039       0.00000000       0.25278304
Si       7.67917964       0.00000000      12.00000000  F        6      -0.00058039      -0.00000000       0.25278304
Si       0.00000000       3.83958982      12.00000000  F        6      -0.00000000      -0.00000000       0.25007035
Si       3.83958982       3.83958982      12.00000000  F        6       0.00066887      -0.00000000       0.25072395
Si       7.67917964       3.83958982      12.00000000  F        6      -0.00066887       0.00000000       0.25072395
Si       1.91979491       0.00000000      13.35750000  F        5       0.00418789       0.00000000      -0.52264924
Si       5.75938473       0.00000000      13.35750000  F        5       0.00000000      -0.00000000      -0.51838048
Si       9.59897455       0.00000000      13.35750000  F        5      -0.00418789      -0.00000000      -0.52264924
Si       1.91979491       3.83958982      13.35750000  F        5       0.00290963      -0.00000000      -0.53025801
Si       5.75938473       3.83958982      13.35750000  F        5      -0.00000000       0.00000000      -0.50467167
Si       9.59897455       3.83958982      13.35750000  F        5      -0.00290963      -0.00000000      -0.53025801
Si       1.91979491       1.91979491      14.71500000  F        4       0.01472557      -0.00631262       0.14775277
Si       5.75938473       1.91979491      14.71500000  F        4      -0.00000000      -0.04867175       0.09521563
Si       9.59897455       1.91979491      14.71500000  F        4      -0.01472557      -0.00631262       0.14775277
Si       1.91979491       5.75938473      14.71500000  F        4       0.01472557       0.00631262       0.14775277
Si       5.75938473       5.75938473      14.71500000  F        4       0.00000000       0.04867175       0.09521563
Si       9.59897455       5.75938473      14.71500000  F        4      -0.01472557       0.00631262       0.14775277
Si       0.00000000       1.91979491      16.07250000  F        3      -0.00000000       0.01874131      -0.12377318
Si       3.83958982       1.91979491      16.07250000  F        3       0.00531320       0.01405946      -0.12032966
Si       7.67917964       1.91979491      16.07250000  F        3      -0.00531320       0.01405946      -0.12032966
Si       0.00000000       5.75938473      16.07250000  F        3      -0.00000000      -0.01874131      -0.12377318
Si       3.83958982       5.75938473      16.07250000  F        3       0.00531320      -0.01405946      -0.12032966
Si       7.67917964       5.75938473      16.07250000  F        3      -0.00531320      -0.01405946      -0.12032966
Si       0.00000000       0.00000000      17.43000000  F        2      -0.00000000       0.00000000       0.49751176
Si       3.83958982       0.00000000      17.43000000  F        2      -0.11674676      -0.00000000       0.45893208
Si       7.67917964       0.00000000      17.43000000  F        2       0.11674676      -0.00000000       0.45893208
Si       0.00000000       3.83958982      17.43000000  F        2      -0.00000000       0.00000000       0.52912220
Si       3.83958982       3.83958982      17.43000000  F        2      -0.10224415      -0.00000000       0.61469038
Si       7.67917964       3.83958982      17.43000000  F        2       0.10224415       0.00000000       0.61469038
Si       1.91979491       0.00000000      18.78750000  F        1      -0.00883216      -0.00000000      -0.27104271
Si       5.75938473       0.00000000      18.78750000  F        1      -0.00000000       0.00000000       0.06492533
Si       9.59897455       0.00000000      18.78750000  F        1       0.00883216      -0.00000000      -0.27104271
Si       1.91979491       3.83958982      18.78750000  F        1       0.00579227       0.00000000      -0.16727808
Si       5.75938473       3.83958982      18.78750000  F        1       0.00000000       0.00000000      -5.98178554
Si       9.59897455       3.83958982      18.78750000  F        1      -0.00579227       0.00000000      -0.16727808
Cl       5.75938473       3.83958982      20.68750000  F        0       0.00000000       0.00000000       2.41964500
Cl       5.75938473       3.83958982      22.68609232  F        0       0.00000000      -0.00000000       2.76757209
38
Lattice="11.518769465528859 0.0 0.0 0.0 7.679179643685906 0.0 0.0 0.0 30.7875" Properties=species:S:1:pos:R:3:move_mask:L:1:tags:I:1:forces:R:3 surface=Si100 species=Cl2 height_A=1.6 substrate_atoms=36 calculation_kind="Rigid approach energy evaluation; not NEB or TS" energy=-180.18111674702263 pbc="T T F"
Si       0.00000000       0.00000000      12.00000000  F        6       0.00000000      -0.00000000       0.25160845
Si       3.83958982       0.00000000      12.00000000  F        6       0.00285423      -0.00000000       0.25284613
Si       7.67917964       0.00000000      12.00000000  F        6      -0.00285423      -0.00000000       0.25284613
Si       0.00000000       3.83958982      12.00000000  F        6       0.00000000       0.00000000       0.25056441
Si       3.83958982       3.83958982      12.00000000  F        6       0.00269833       0.00000000       0.25061225
Si       7.67917964       3.83958982      12.00000000  F        6      -0.00269833      -0.00000000       0.25061225
Si       1.91979491       0.00000000      13.35750000  F        5       0.00106395       0.00000000      -0.51983674
Si       5.75938473       0.00000000      13.35750000  F        5       0.00000000      -0.00000000      -0.51937574
Si       9.59897455       0.00000000      13.35750000  F        5      -0.00106395       0.00000000      -0.51983674
Si       1.91979491       3.83958982      13.35750000  F        5       0.00411051      -0.00000000      -0.52406746
Si       5.75938473       3.83958982      13.35750000  F        5      -0.00000000       0.00000000      -0.52339270
Si       9.59897455       3.83958982      13.35750000  F        5      -0.00411051       0.00000000      -0.52406746
Si       1.91979491       1.91979491      14.71500000  F        4       0.01733706       0.00103393       0.15859872
Si       5.75938473       1.91979491      14.71500000  F        4       0.00000000      -0.08678734       0.05186814
Si       9.59897455       1.91979491      14.71500000  F        4      -0.01733706       0.00103393       0.15859872
Si       1.91979491       5.75938473      14.71500000  F        4       0.01733706      -0.00103393       0.15859872
Si       5.75938473       5.75938473      14.71500000  F        4       0.00000000       0.08678734       0.05186814
Si       9.59897455       5.75938473      14.71500000  F        4      -0.01733706      -0.00103393       0.15859872
Si       0.00000000       1.91979491      16.07250000  F        3       0.00000000       0.02885167      -0.11561690
Si       3.83958982       1.91979491      16.07250000  F        3      -0.01615387      -0.06520668      -0.17455511
Si       7.67917964       1.91979491      16.07250000  F        3       0.01615387      -0.06520668      -0.17455511
Si       0.00000000       5.75938473      16.07250000  F        3       0.00000000      -0.02885167      -0.11561690
Si       3.83958982       5.75938473      16.07250000  F        3      -0.01615387       0.06520668      -0.17455511
Si       7.67917964       5.75938473      16.07250000  F        3       0.01615387       0.06520668      -0.17455511
Si       0.00000000       0.00000000      17.43000000  F        2      -0.00000000      -0.00000000       0.49722159
Si       3.83958982       0.00000000      17.43000000  F        2      -0.13010772      -0.00000000       0.44808699
Si       7.67917964       0.00000000      17.43000000  F        2       0.13010772       0.00000000       0.44808699
Si       0.00000000       3.83958982      17.43000000  F        2      -0.00000000       0.00000000       0.50646985
Si       3.83958982       3.83958982      17.43000000  F        2       0.55681364      -0.00000000       0.69325194
Si       7.67917964       3.83958982      17.43000000  F        2      -0.55681364      -0.00000000       0.69325194
Si       1.91979491       0.00000000      18.78750000  F        1      -0.02192237      -0.00000000      -0.25404460
Si       5.75938473       0.00000000      18.78750000  F        1      -0.00000000       0.00000000       0.07304734
Si       9.59897455       0.00000000      18.78750000  F        1       0.02192237       0.00000000      -0.25404460
Si       1.91979491       3.83958982      18.78750000  F        1      -0.23582630       0.00000000      -0.08069175
Si       5.75938473       3.83958982      18.78750000  F        1       0.00000000      -0.00000000     -22.25418029
Si       9.59897455       3.83958982      18.78750000  F        1       0.23582630      -0.00000000      -0.08069175
Cl       5.75938473       3.83958982      20.38750000  F        0       0.00000000      -0.00000000      17.60007446
Cl       5.75938473       3.83958982      22.38609232  F        0      -0.00000000       0.00000000       3.77697215
38
Lattice="11.518769465528859 0.0 0.0 0.0 7.679179643685906 0.0 0.0 0.0 30.7875" Properties=species:S:1:pos:R:3:move_mask:L:1:tags:I:1:forces:R:3 surface=Si100 species=Cl2 height_A=1.3 substrate_atoms=36 calculation_kind="Rigid approach energy evaluation; not NEB or TS" energy=-163.46016053994245 pbc="T T F"
Si       0.00000000       0.00000000      12.00000000  F        6      -0.00000000       0.00000000       0.25346864
Si       3.83958982       0.00000000      12.00000000  F        6       0.00693581       0.00000000       0.25738499
Si       7.67917964       0.00000000      12.00000000  F        6      -0.00693581       0.00000000       0.25738499
Si       0.00000000       3.83958982      12.00000000  F        6       0.00000000       0.00000000       0.25171924
Si       3.83958982       3.83958982      12.00000000  F        6       0.00627062      -0.00000000       0.25245460
Si       7.67917964       3.83958982      12.00000000  F        6      -0.00627062      -0.00000000       0.25245460
Si       1.91979491       0.00000000      13.35750000  F        5      -0.00244432       0.00000000      -0.51739049
Si       5.75938473       0.00000000      13.35750000  F        5       0.00000000       0.00000000      -0.52465212
Si       9.59897455       0.00000000      13.35750000  F        5       0.00244432      -0.00000000      -0.51739049
Si       1.91979491       3.83958982      13.35750000  F        5       0.00236398       0.00000000      -0.52058815
Si       5.75938473       3.83958982      13.35750000  F        5       0.00000000       0.00000000      -0.54723639
Si       9.59897455       3.83958982      13.35750000  F        5      -0.00236398      -0.00000000      -0.52058815
Si       1.91979491       1.91979491      14.71500000  F        4       0.02816260      -0.00094950       0.17063812
Si       5.75938473       1.91979491      14.71500000  F        4      -0.00000000      -0.25346855      -0.24083949
Si       9.59897455       1.91979491      14.71500000  F        4      -0.02816260      -0.00094950       0.17063812
Si       1.91979491       5.75938473      14.71500000  F        4       0.02816260       0.00094950       0.17063812
Si       5.75938473       5.75938473      14.71500000  F        4       0.00000000       0.25346855      -0.24083949
Si       9.59897455       5.75938473      14.71500000  F        4      -0.02816260       0.00094950       0.17063812
Si       0.00000000       1.91979491      16.07250000  F        3       0.00000000       0.03092367      -0.11719011
Si       3.83958982       1.91979491      16.07250000  F        3      -0.16299886      -0.12865953      -0.57826531
Si       7.67917964       1.91979491      16.07250000  F        3       0.16299886      -0.12865953      -0.57826531
Si       0.00000000       5.75938473      16.07250000  F        3       0.00000000      -0.03092367      -0.11719011
Si       3.83958982       5.75938473      16.07250000  F        3      -0.16299886       0.12865953      -0.57826531
Si       7.67917964       5.75938473      16.07250000  F        3       0.16299886       0.12865953      -0.57826531
Si       0.00000000       0.00000000      17.43000000  F        2      -0.00000000       0.00000000       0.48758293
Si       3.83958982       0.00000000      17.43000000  F        2      -0.52613698       0.00000000       0.11687589
Si       7.67917964       0.00000000      17.43000000  F        2       0.52613698      -0.00000000       0.11687589
Si       0.00000000       3.83958982      17.43000000  F        2      -0.00000000      -0.00000000       0.53074990
Si       3.83958982       3.83958982      17.43000000  F        2       2.64047875       0.00000000       1.64665298
Si       7.67917964       3.83958982      17.43000000  F        2      -2.64047875       0.00000000       1.64665298
Si       1.91979491       0.00000000      18.78750000  F        1      -0.08050806       0.00000000      -0.21871081
Si       5.75938473       0.00000000      18.78750000  F        1      -0.00000000       0.00000000       0.70125362
Si       9.59897455       0.00000000      18.78750000  F        1       0.08050806      -0.00000000      -0.21871081
Si       1.91979491       3.83958982      18.78750000  F        1      -0.46621900      -0.00000000       0.05430636
Si       5.75938473       3.83958982      18.78750000  F        1       0.00000000       0.00000000    -107.31940371
Si       9.59897455       3.83958982      18.78750000  F        1       0.46621900      -0.00000000       0.05430636
Cl       5.75938473       3.83958982      20.08750000  F        0      -0.00000000       0.00000000     103.26165285
Cl       5.75938473       3.83958982      22.08609232  F        0       0.00000000       0.00000000       3.10946228
