117
Properties=species:S:1:pos:R:3 source_doi=10.3390/sym15010213 source_label=IM1 coordinates_only=T cell_not_supplied=T pbc="F F F"
Si       2.94671915       0.23523050      11.35323692
Si       0.95970000       2.31320000       8.55840000
Si       0.96342241       0.38617695      10.00690493
Si       2.87970000       2.31320000       7.20140000
Si       3.93102848       2.21148864      12.00281499
Si       6.65401682       0.48805990      11.30997989
Si       4.79970000       2.31320000       8.55840000
Si       4.79839733       0.40001431       9.84605977
Si       6.71870000       2.31320000       7.20140000
Si       6.14634465       2.29466924      12.78003432
Si       2.92137306       4.17651809      11.24966619
Si       0.95970000       6.15320000       8.55840000
Si       0.91869089       4.23199738       9.97314178
Si       2.87970000       6.15320000       7.20140000
Si       3.86716472       6.15280216      11.98774985
Si       6.67474104       4.11695823      11.31651870
Si       4.79970000       6.15320000       8.55840000
Si       4.84451898       4.24691694       9.85884533
Si       6.71870000       6.15320000       7.20140000
Si       6.10979198       6.15288107      12.27676393
Si      10.63413128       0.52100765      11.33148782
Si       8.63870000       2.31320000       8.55840000
Si       8.64439424       0.39942291       9.99465141
Si      10.55870000       2.31320000       7.20140000
Si      11.18863793       2.32050257      12.81452188
Si      14.32265787       0.27566806      11.32582807
Si      12.47870000       2.31320000       8.55840000
Si      12.47826775       0.39250694       9.85300889
Si      14.39870000       2.31320000       7.20140000
Si      13.42861964       2.31782995      12.06613773
Si      10.64583274       4.12145024      11.33697716
Si       8.63870000       6.15320000       8.55840000
Si       8.65717644       4.22274977       9.99886221
Si      10.55870000       6.15320000       7.20140000
Si      11.54172215       6.15319565      12.10548055
Si      14.32046979       4.35780663      11.34027728
Si      12.47870000       6.15320000       8.55840000
Si      12.48260908       4.23374688       9.85155653
Si      14.39870000       6.15320000       7.20140000
Si      13.82125869       6.15246551      12.84545669
Si       2.92127301       8.12925659      11.25029514
Si       0.95970000       9.99220000       8.55840000
Si       0.91865897       8.07384916       9.97369281
Si       2.87970000       9.99220000       7.20140000
Si       3.93107548      10.09436724      12.00299089
Si       6.67465255       8.18897947      11.31686018
Si       4.79970000       9.99220000       8.55840000
Si       4.84438825       8.05895883       9.85938448
Si       6.71870000       9.99220000       7.20140000
Si       6.14639145      10.01146631      12.78013991
Si       2.94678499      12.07049474      11.35287660
Si       0.95970000      13.83220000       8.55840000
Si       0.96346438      11.91950870      10.00653793
Si       2.87970000      13.83220000       7.20140000
Si       3.50557219      13.83193769      12.85433443
Si       6.65394047      11.81774555      11.30959322
Si       4.79970000      13.83220000       8.55840000
Si       4.79839761      11.90572098       9.84565220
Si       6.71870000      13.83220000       7.20140000
Si       5.74427226      13.83207005      12.03498324
Si      10.64560496       8.18508215      11.33796632
Si       8.63870000       9.99220000       8.55840000
Si       8.65718231       8.08318601       9.99941286
Si      10.55870000       9.99220000       7.20140000
Si      11.18875512       9.98649277      12.81457934
Si      14.32059731       7.94753237      11.34105132
Si      12.47870000       9.99220000       8.55840000
Si      12.48253650       8.07212004       9.85233828
Si      14.39870000       9.99220000       7.20140000
Si      13.42868036       9.98762521      12.06621152
Si      10.63424849      11.78548173      11.33080710
Si       8.63870000      13.83220000       8.55840000
Si       8.64433666      11.90635539       9.99426828
Si      10.55870000      13.83220000       7.20140000
Si      11.52107312      13.83241442      12.05742470
Si      14.32256246      12.02967267      11.32517978
Si      12.47870000      13.83220000       8.55840000
Si      12.47827473      11.91321107       9.85251441
Si      14.39870000      13.83220000       7.20140000
Si      13.75907200      13.83169275      12.79188356
H        2.87970000       3.57020000       6.31140000
H        2.87970000       1.05620000       6.31140000
H        6.71870000       3.57020000       6.31140000
H        6.71870000       1.05620000       6.31140000
H        2.87970000       7.41020000       6.31140000
H        2.87970000       4.89520000       6.31140000
H        6.71870000       7.41020000       6.31140000
H        6.71870000       4.89520000       6.31140000
H       10.55870000       3.57020000       6.31140000
H       10.55870000       1.05620000       6.31140000
H       14.39870000       3.57020000       6.31140000
H       14.39870000       1.05620000       6.31140000
H       10.55870000       7.41020000       6.31140000
H       10.55870000       4.89520000       6.31140000
H       14.39870000       7.41020000       6.31140000
H       14.39870000       4.89520000       6.31140000
H        2.87970000      11.25020000       6.31140000
H        2.87970000       8.73520000       6.31140000
H        6.71870000      11.25020000       6.31140000
H        6.71870000       8.73520000       6.31140000
H        2.87970000      15.08920000       6.31140000
H        2.87970000      12.57420000       6.31140000
H        6.71870000      15.08920000       6.31140000
H        6.71870000      12.57420000       6.31140000
H       10.55870000      11.25020000       6.31140000
H       10.55870000       8.73520000       6.31140000
H       14.39870000      11.25020000       6.31140000
H       14.39870000       8.73520000       6.31140000
H       10.55870000      15.08920000       6.31140000
H       10.55870000      12.57420000       6.31140000
H       14.39870000      15.08920000       6.31140000
H       14.39870000      12.57420000       6.31140000
Si       9.04973140       6.15221617      15.69982839
Cl       8.22310078       7.82505579      14.88277169
Cl       8.78615666       6.15980187      17.71720359
Cl       8.20968188       4.48121137      14.89289787
Cl      11.06102609       6.14296262      15.27962571
