117
Properties=species:S:1:pos:R:3 source_doi=10.3390/sym15010213 source_label=P2 coordinates_only=T cell_not_supplied=T pbc="F F F"
Si       2.94625760       0.29649312      11.01836687
Si       0.95970000       2.31320000       8.26300000
Si       0.95578885       0.39057490       9.70022636
Si       2.87970000       2.31320000       6.90600000
Si       3.85885095       2.31161901      11.75038196
Si       6.64642777       0.54956467      11.05697437
Si       4.79970000       2.31320000       8.26300000
Si       4.79923490       0.38879427       9.55128174
Si       6.71870000       2.31320000       6.90600000
Si       6.09890665       2.31552995      12.55782202
Si       2.95709875       4.33204863      11.02330398
Si       0.95970000       6.15320000       8.26300000
Si       0.98386994       4.23392241       9.68563851
Si       2.87970000       6.15320000       6.90600000
Si       3.44125079       6.14411000      12.49587230
Si       6.65124009       4.08193724      11.05851370
Si       4.79970000       6.15320000       8.26300000
Si       4.80475027       4.23787903       9.55211101
Si       6.71870000       6.15320000       6.90600000
Si       5.66220598       6.05487750      11.73445497
Si      10.62138339       0.52490442      11.05051701
Si       8.63870000       2.31320000       8.26300000
Si       8.63262849       0.39959401       9.71550812
Si      10.55870000       2.31320000       6.90600000
Si      11.15128669       2.34123123      12.49835667
Si      14.32231426       0.28406447      11.03392162
Si      12.47870000       2.31320000       8.26300000
Si      12.46793572       0.39109549       9.56936949
Si      14.39870000       2.31320000       6.90600000
Si      13.38636689       2.30049762      11.76633408
Si      10.63519545       4.13653066      11.01199169
Si       8.63870000       6.15320000       8.26300000
Si       8.63403567       4.22403231       9.71123978
Si      10.55870000       6.15320000       6.90600000
Si      11.21985935       6.09892931      12.16707144
Si      14.34629074       4.28399542      10.99409197
Si      12.47870000       6.15320000       8.26300000
Si      12.44845706       4.23596944       9.55147118
Si      14.39870000       6.15320000       6.90600000
Si      13.64212161       6.16393234      12.19700909
Si       2.94351957       7.98553903      11.03806757
Si       0.95970000       9.99220000       8.26300000
Si       0.97690357       8.06472060       9.69416169
Si       2.87970000       9.99220000       6.90600000
Si       3.45537487       9.99546694      12.11881597
Si       6.66575400       8.01966356      10.97897319
Si       4.79970000       9.99220000       8.26300000
Si       4.75455712       8.08055866       9.56491200
Si       6.71870000       9.99220000       6.90600000
Si       5.69251236       9.99195246      11.70561038
Si       2.93240023      12.00071500      11.03350649
Si       0.95970000      13.83220000       8.26300000
Si       0.95230571      11.92426504       9.70497823
Si       2.87970000      13.83220000       6.90600000
Si       3.44238653      13.84227246      12.48475510
Si       6.66709564      11.96488788      10.98098534
Si       4.79970000      13.83220000       8.26300000
Si       4.75217051      11.90350518       9.56751041
Si       6.71870000      13.83220000       6.90600000
Si       5.66083830      13.93216610      11.72869334
Si      10.61628427       8.05214202      11.00626438
Si       8.63870000       9.99220000       8.26300000
Si       8.64869024       8.07208441       9.67450005
Si      10.55870000       9.99220000       6.90600000
Si      11.31441373       9.97913054      12.16934393
Si      14.34499375       8.06508638      11.00599668
Si      12.47870000       9.99220000       8.26300000
Si      12.47215621       8.06885797       9.57080817
Si      14.39870000       9.99220000       6.90600000
Si      13.71630757      10.02116911      12.11670322
Si      10.62555250      11.88428368      10.96938647
Si       8.63870000      13.83220000       8.26300000
Si       8.64383552      11.91573488       9.66443310
Si      10.55870000      13.83220000       6.90600000
Si      11.55021183      13.86838629      11.78343930
Si      14.31773652      12.00937980      11.02430750
Si      12.47870000      13.83220000       8.26300000
Si      12.50715011      11.90676007       9.54909051
Si      14.39870000      13.83220000       6.90600000
Si      13.78911081      13.82716116      12.48075505
H        2.87970000       3.57020000       6.01600000
H        2.87970000       1.05620000       6.01600000
H        6.71870000       3.57020000       6.01600000
H        6.71870000       1.05620000       6.01600000
H        2.87970000       7.41020000       6.01600000
H        2.87970000       4.89520000       6.01600000
H        6.71870000       7.41020000       6.01600000
H        6.71870000       4.89520000       6.01600000
H       10.55870000       3.57020000       6.01600000
H       10.55870000       1.05620000       6.01600000
H       14.39870000       3.57020000       6.01600000
H       14.39870000       1.05620000       6.01600000
H       10.55870000       7.41020000       6.01600000
H       10.55870000       4.89520000       6.01600000
H       14.39870000       7.41020000       6.01600000
H       14.39870000       4.89520000       6.01600000
H        2.87970000      11.25020000       6.01600000
H        2.87970000       8.73520000       6.01600000
H        6.71870000      11.25020000       6.01600000
H        6.71870000       8.73520000       6.01600000
H        2.87970000      15.08920000       6.01600000
H        2.87970000      12.57420000       6.01600000
H        6.71870000      15.08920000       6.01600000
H        6.71870000      12.57420000       6.01600000
H       10.55870000      11.25020000       6.01600000
H       10.55870000       8.73520000       6.01600000
H       14.39870000      11.25020000       6.01600000
H       14.39870000       8.73520000       6.01600000
H       10.55870000      15.08920000       6.01600000
H       10.55870000      12.57420000       6.01600000
H       14.39870000      15.08920000       6.01600000
H       14.39870000      12.57420000       6.01600000
Si      10.39526167      10.12210585      14.30901101
Cl      11.53638519       9.17730821      15.73544007
Cl      10.45890570       6.03776214      14.11192618
Cl      10.19249624      12.10558353      14.88069686
Cl       8.49451343       9.29365639      14.30162042
