117
Properties=species:S:1:pos:R:3 source_doi=10.3390/sym15010213 source_label=VDW4 coordinates_only=T cell_not_supplied=T pbc="F F F"
Si       3.87016766      -0.13351177       5.68229144
Si       1.88700000       1.93400000       2.89000000
Si       1.88725902       0.00708379       4.33737101
Si       3.80700000       1.93400000       1.53300000
Si       4.81747840       1.85803808       6.36402427
Si       7.56964089       0.11696423       5.65898133
Si       5.72600000       1.93400000       2.89000000
Si       5.72453344       0.02111504       4.18254084
Si       7.64600000       1.93400000       1.53300000
Si       7.04320687       1.90571393       7.16746061
Si       3.85495383       3.84654346       5.57711938
Si       1.88700000       5.77300000       2.89000000
Si       1.84710808       3.85570736       4.31168391
Si       3.80700000       5.77300000       1.53300000
Si       4.63041611       5.77311105       6.61077792
Si       7.59963229       3.67978054       5.65394919
Si       5.72600000       5.77300000       2.89000000
Si       5.76008173       3.86532394       4.18640536
Si       7.64600000       5.77300000       1.53300000
Si       6.89775494       5.77387206       6.33287674
Si      11.55740064       0.13563070       5.66046808
Si       9.56600000       1.93400000       2.89000000
Si       9.56157349       0.02118625       4.33272382
Si      11.48600000       1.93400000       1.53300000
Si      12.11187957       1.93267387       7.14241970
Si      15.24804730      -0.10831121       5.66012467
Si      13.40600000       1.93400000       2.89000000
Si      13.40339334       0.01407066       4.18360334
Si      15.32500000       1.93400000       1.53300000
Si      14.35206901       1.92959317       6.39732681
Si      11.56567579       3.73198502       5.66250015
Si       9.56600000       5.77300000       2.89000000
Si       9.57954855       3.83761067       4.32681412
Si      11.48600000       5.77300000       1.53300000
Si      12.45734951       5.77358853       6.39718024
Si      15.23848371       3.97529238       5.67193343
Si      13.40600000       5.77300000       2.89000000
Si      13.40574683       3.85391455       4.18197476
Si      15.32500000       5.77300000       1.53300000
Si      14.70229130       5.77392755       7.16094831
Si       3.85549509       7.69974762       5.57675398
Si       1.88700000       9.61300000       2.89000000
Si       1.84757951       7.69092701       4.31126630
Si       3.80700000       9.61300000       1.53300000
Si       4.81860953       9.68793180       6.36475969
Si       7.59967378       7.86788457       5.65326013
Si       5.72600000       9.61300000       2.89000000
Si       5.76027163       7.68126963       4.18559784
Si       7.64600000       9.61300000       1.53300000
Si       7.04527557       9.64175556       7.16767777
Si       3.87061519      11.67936975       5.68238373
Si       1.88700000      13.45300000       2.89000000
Si       1.88756082      11.54007904       4.33723303
Si       3.80700000      13.45300000       1.53300000
Si       4.42293469      13.45218625       7.18342212
Si       7.57013831      11.42973127       5.65815397
Si       5.72600000      13.45300000       2.89000000
Si       5.72484238      11.52602616       4.18217375
Si       7.64600000      13.45300000       1.53300000
Si       6.66775348      13.45235711       6.37087352
Si      11.56575138       7.81496042       5.66170099
Si       9.56600000       9.61300000       2.89000000
Si       9.57946803       7.70901259       4.32625181
Si      11.48600000       9.61300000       1.53300000
Si      12.11224689       9.61443693       7.14133890
Si      15.23879420       7.57203458       5.67136949
Si      13.40600000       9.61300000       2.89000000
Si      13.40600354       7.69265296       4.18145949
Si      15.32500000       9.61300000       1.53300000
Si      14.35247538       9.61792041       6.39665635
Si      11.55759309      11.41182215       5.65994588
Si       9.56600000      13.45300000       2.89000000
Si       9.56182355      11.52614998       4.33217647
Si      11.48600000      13.45300000       1.53300000
Si      12.45074108      13.45292015       6.39279135
Si      15.24835297      11.65605066       5.66005436
Si      13.40600000      13.45300000       2.89000000
Si      13.40369986      11.53319031       4.18334604
Si      15.32500000      13.45300000       1.53300000
Si      14.69137459      13.45300475       7.13768008
H        3.80700000       3.19100000       0.64300000
H        3.80700000       0.67600000       0.64300000
H        7.64600000       3.19100000       0.64300000
H        7.64600000       0.67600000       0.64300000
H        3.80700000       7.03100000       0.64300000
H        3.80700000       4.51600000       0.64300000
H        7.64600000       7.03100000       0.64300000
H        7.64600000       4.51600000       0.64300000
H       11.48600000       3.19100000       0.64300000
H       11.48600000       0.67600000       0.64300000
H       15.32500000       3.19100000       0.64300000
H       15.32500000       0.67600000       0.64300000
H       11.48600000       7.03100000       0.64300000
H       11.48600000       4.51600000       0.64300000
H       15.32500000       7.03100000       0.64300000
H       15.32500000       4.51600000       0.64300000
H        3.80700000      10.87000000       0.64300000
H        3.80700000       8.35600000       0.64300000
H        7.64600000      10.87000000       0.64300000
H        7.64600000       8.35600000       0.64300000
H        3.80700000      14.71000000       0.64300000
H        3.80700000      12.19500000       0.64300000
H        7.64600000      14.71000000       0.64300000
H        7.64600000      12.19500000       0.64300000
H       11.48600000      10.87000000       0.64300000
H       11.48600000       8.35600000       0.64300000
H       15.32500000      10.87000000       0.64300000
H       15.32500000       8.35600000       0.64300000
H       11.48600000      14.71000000       0.64300000
H       11.48600000      12.19500000       0.64300000
H       15.32500000      14.71000000       0.64300000
H       15.32500000      12.19500000       0.64300000
Si       5.14211981       6.00221753      10.62481466
Cl       5.15702001       6.09145455      12.65829636
Cl       4.14122209       7.62054915       9.88679316
Cl       7.06652255       6.01174313       9.94468090
Cl       4.20673991       4.28884262      10.03048784
