36
Lattice="11.518769465528859 0.0 0.0 0.0 7.679179643685906 0.0 0.0 0.0 30.7875" Properties=species:S:1:pos:R:3:move_mask:L:1:tags:I:1:forces:R:3 energy=-180.2036608746262 pbc="T T F"
Si       0.00000000       0.00000000      12.00000000  F        6      -0.00000004       0.00000000       0.24903484
Si       3.83958982       0.00000000      12.00000000  F        6      -0.00000000       0.00000000       0.24903482
Si       7.67917964       0.00000000      12.00000000  F        6       0.00000000       0.00000000       0.24903482
Si       0.00000000       3.83958982      12.00000000  F        6      -0.00000004      -0.00000000       0.24903484
Si       3.83958982       3.83958982      12.00000000  F        6      -0.00000000      -0.00000000       0.24903482
Si       7.67917964       3.83958982      12.00000000  F        6       0.00000000      -0.00000000       0.24903482
Si       1.91979491       0.00000000      13.35750000  F        5       0.00000000      -0.00000002      -0.52822352
Si       5.75938473       0.00000000      13.35750000  F        5       0.00000000      -0.00000002      -0.52822353
Si       9.59897455       0.00000000      13.35750000  F        5       0.00000003      -0.00000002      -0.52822354
Si       1.91979491       3.83958982      13.35750000  F        5       0.00000000       0.00000000      -0.52822354
Si       5.75938473       3.83958982      13.35750000  F        5       0.00000000       0.00000000      -0.52822354
Si       9.59897455       3.83958982      13.35750000  F        5       0.00000003       0.00000000      -0.52822356
Si       1.91979491       1.91979491      14.71500000  F        4      -0.00000000       0.00000000       0.14537709
Si       5.75938473       1.91979491      14.71500000  F        4       0.00000000       0.00000000       0.14537709
Si       9.59897455       1.91979491      14.71500000  F        4       0.00000004       0.00000000       0.14537711
Si       1.91979491       5.75938473      14.71500000  F        4      -0.00000000       0.00000002       0.14537707
Si       5.75938473       5.75938473      14.71500000  F        4       0.00000000       0.00000002       0.14537707
Si       9.59897455       5.75938473      14.71500000  F        4       0.00000004       0.00000002       0.14537709
Si       0.00000000       1.91979491      16.07250000  T        3      -0.00000004       0.00000000      -0.14537711
Si       3.83958982       1.91979491      16.07250000  T        3      -0.00000000       0.00000000      -0.14537709
Si       7.67917964       1.91979491      16.07250000  T        3       0.00000000       0.00000000      -0.14537709
Si       0.00000000       5.75938473      16.07250000  T        3      -0.00000004       0.00000002      -0.14537709
Si       3.83958982       5.75938473      16.07250000  T        3      -0.00000000       0.00000002      -0.14537707
Si       7.67917964       5.75938473      16.07250000  T        3       0.00000000       0.00000002      -0.14537707
Si       0.00000000       0.00000000      17.43000000  T        2      -0.00000003      -0.00000002       0.52822354
Si       3.83958982       0.00000000      17.43000000  T        2      -0.00000000      -0.00000002       0.52822353
Si       7.67917964       0.00000000      17.43000000  T        2      -0.00000000      -0.00000002       0.52822352
Si       0.00000000       3.83958982      17.43000000  T        2      -0.00000003       0.00000000       0.52822356
Si       3.83958982       3.83958982      17.43000000  T        2      -0.00000000       0.00000000       0.52822354
Si       7.67917964       3.83958982      17.43000000  T        2      -0.00000000       0.00000000       0.52822354
Si       1.91979491       0.00000000      18.78750000  T        1      -0.00000000       0.00000000      -0.24903482
Si       5.75938473       0.00000000      18.78750000  T        1       0.00000000       0.00000000      -0.24903482
Si       9.59897455       0.00000000      18.78750000  T        1       0.00000004       0.00000000      -0.24903484
Si       1.91979491       3.83958982      18.78750000  T        1      -0.00000000      -0.00000000      -0.24903482
Si       5.75938473       3.83958982      18.78750000  T        1       0.00000000      -0.00000000      -0.24903482
Si       9.59897455       3.83958982      18.78750000  T        1       0.00000004      -0.00000000      -0.24903484
36
Lattice="11.518769465528859 0.0 0.0 0.0 7.679179643685906 0.0 0.0 0.0 30.7875" Properties=species:S:1:pos:R:3:move_mask:L:1:tags:I:1:forces:R:3 energy=-180.20559872080074 pbc="T T F"
Si       0.00000000       0.00000000      12.00000000  F        6      -0.00000004       0.00000000       0.24897358
Si       3.83958982       0.00000000      12.00000000  F        6      -0.00000000       0.00000000       0.24897357
Si       7.67917964       0.00000000      12.00000000  F        6       0.00000000       0.00000000       0.24897356
Si       0.00000000       3.83958982      12.00000000  F        6      -0.00000004      -0.00000000       0.24897358
Si       3.83958982       3.83958982      12.00000000  F        6      -0.00000000      -0.00000000       0.24897357
Si       7.67917964       3.83958982      12.00000000  F        6       0.00000000      -0.00000000       0.24897356
Si       1.91979491       0.00000000      13.35750000  F        5       0.00000000      -0.00000002      -0.52790859
Si       5.75938473       0.00000000      13.35750000  F        5       0.00000000      -0.00000002      -0.52790860
Si       9.59897455       0.00000000      13.35750000  F        5       0.00000003      -0.00000002      -0.52790862
Si       1.91979491       3.83958982      13.35750000  F        5       0.00000000       0.00000000      -0.52790861
Si       5.75938473       3.83958982      13.35750000  F        5       0.00000000       0.00000000      -0.52790861
Si       9.59897455       3.83958982      13.35750000  F        5       0.00000003       0.00000000      -0.52790863
Si       1.91979491       1.91979491      14.71500000  F        4      -0.00000000      -0.00000000       0.14456027
Si       5.75938473       1.91979491      14.71500000  F        4       0.00000000      -0.00000000       0.14456027
Si       9.59897455       1.91979491      14.71500000  F        4       0.00000004      -0.00000000       0.14456029
Si       1.91979491       5.75938473      14.71500000  F        4      -0.00000000       0.00000002       0.14456026
Si       5.75938473       5.75938473      14.71500000  F        4       0.00000000       0.00000002       0.14456026
Si       9.59897455       5.75938473      14.71500000  F        4       0.00000004       0.00000002       0.14456028
Si      -0.00000000       1.91979491      16.07236916  T        3      -0.00000004      -0.00000000      -0.14062996
Si       3.83958982       1.91979491      16.07236916  T        3      -0.00000000      -0.00000000      -0.14062994
Si       7.67917964       1.91979491      16.07236916  T        3       0.00000000      -0.00000000      -0.14062994
Si      -0.00000000       5.75938473      16.07236916  T        3      -0.00000004       0.00000002      -0.14062994
Si       3.83958982       5.75938473      16.07236916  T        3      -0.00000000       0.00000002      -0.14062992
Si       7.67917964       5.75938473      16.07236916  T        3       0.00000000       0.00000002      -0.14062992
Si      -0.00000000      -0.00000000      17.43047540  T        2      -0.00000003      -0.00000002       0.51924716
Si       3.83958982      -0.00000000      17.43047540  T        2      -0.00000000      -0.00000002       0.51924714
Si       7.67917964      -0.00000000      17.43047540  T        2      -0.00000000      -0.00000002       0.51924714
Si      -0.00000000       3.83958982      17.43047540  T        2      -0.00000003       0.00000000       0.51924717
Si       3.83958982       3.83958982      17.43047540  T        2      -0.00000000       0.00000000       0.51924715
Si       7.67917964       3.83958982      17.43047540  T        2      -0.00000000       0.00000000       0.51924715
Si       1.91979491       0.00000000      18.78727587  T        1      -0.00000000       0.00000000      -0.24424244
Si       5.75938473       0.00000000      18.78727587  T        1       0.00000000       0.00000000      -0.24424244
Si       9.59897455       0.00000000      18.78727587  T        1       0.00000004       0.00000000      -0.24424246
Si       1.91979491       3.83958982      18.78727587  T        1      -0.00000000      -0.00000000      -0.24424244
Si       5.75938473       3.83958982      18.78727587  T        1       0.00000000      -0.00000000      -0.24424244
Si       9.59897455       3.83958982      18.78727587  T        1       0.00000004      -0.00000000      -0.24424246
36
Lattice="11.518769465528859 0.0 0.0 0.0 7.679179643685906 0.0 0.0 0.0 30.7875" Properties=species:S:1:pos:R:3:move_mask:L:1:tags:I:1:forces:R:3 energy=-180.2093333495736 pbc="T T F"
Si       0.00000000       0.00000000      12.00000000  F        6      -0.00000004       0.00000000       0.24885338
Si       3.83958982       0.00000000      12.00000000  F        6      -0.00000000       0.00000000       0.24885336
Si       7.67917964       0.00000000      12.00000000  F        6       0.00000000       0.00000000       0.24885336
Si       0.00000000       3.83958982      12.00000000  F        6      -0.00000004      -0.00000000       0.24885338
Si       3.83958982       3.83958982      12.00000000  F        6      -0.00000000      -0.00000000       0.24885336
Si       7.67917964       3.83958982      12.00000000  F        6       0.00000000      -0.00000000       0.24885336
Si       1.91979491       0.00000000      13.35750000  F        5       0.00000000      -0.00000002      -0.52728413
Si       5.75938473       0.00000000      13.35750000  F        5       0.00000000      -0.00000002      -0.52728413
Si       9.59897455       0.00000000      13.35750000  F        5       0.00000003      -0.00000002      -0.52728415
Si       1.91979491       3.83958982      13.35750000  F        5       0.00000000       0.00000000      -0.52728414
Si       5.75938473       3.83958982      13.35750000  F        5       0.00000000       0.00000000      -0.52728415
Si       9.59897455       3.83958982      13.35750000  F        5       0.00000003       0.00000000      -0.52728416
Si       1.91979491       1.91979491      14.71500000  F        4      -0.00000000      -0.00000000       0.14295466
Si       5.75938473       1.91979491      14.71500000  F        4       0.00000000      -0.00000000       0.14295467
Si       9.59897455       1.91979491      14.71500000  F        4       0.00000004      -0.00000000       0.14295469
Si       1.91979491       5.75938473      14.71500000  F        4      -0.00000000       0.00000002       0.14295465
Si       5.75938473       5.75938473      14.71500000  F        4       0.00000000       0.00000002       0.14295465
Si       9.59897455       5.75938473      14.71500000  F        4       0.00000004       0.00000002       0.14295467
Si      -0.00000000       1.91979491      16.07211195  T        3      -0.00000004      -0.00000000      -0.13126201
Si       3.83958982       1.91979491      16.07211195  T        3      -0.00000000      -0.00000000      -0.13126199
Si       7.67917964       1.91979491      16.07211195  T        3       0.00000000      -0.00000000      -0.13126199
Si      -0.00000000       5.75938473      16.07211195  T        3      -0.00000004       0.00000002      -0.13126200
Si       3.83958982       5.75938473      16.07211195  T        3      -0.00000000       0.00000002      -0.13126198
Si       7.67917964       5.75938473      16.07211195  T        3       0.00000000       0.00000002      -0.13126198
Si      -0.00000000      -0.00000000      17.43141819  T        2      -0.00000003      -0.00000002       0.50146522
Si       3.83958982      -0.00000000      17.43141819  T        2      -0.00000000      -0.00000002       0.50146520
Si       7.67917964      -0.00000000      17.43141819  T        2      -0.00000000      -0.00000002       0.50146520
Si      -0.00000000       3.83958982      17.43141819  T        2      -0.00000003       0.00000000       0.50146523
Si       3.83958982       3.83958982      17.43141819  T        2      -0.00000000       0.00000000       0.50146522
Si       7.67917964       3.83958982      17.43141819  T        2      -0.00000000       0.00000000       0.50146521
Si       1.91979491       0.00000000      18.78683194  T        1      -0.00000000       0.00000000      -0.23472711
Si       5.75938473       0.00000000      18.78683194  T        1       0.00000000       0.00000000      -0.23472711
Si       9.59897455       0.00000000      18.78683194  T        1       0.00000004       0.00000000      -0.23472712
Si       1.91979491       3.83958982      18.78683194  T        1      -0.00000000      -0.00000000      -0.23472711
Si       5.75938473       3.83958982      18.78683194  T        1       0.00000000      -0.00000000      -0.23472711
Si       9.59897455       3.83958982      18.78683194  T        1       0.00000004      -0.00000000      -0.23472712
36
Lattice="11.518769465528859 0.0 0.0 0.0 7.679179643685906 0.0 0.0 0.0 30.7875" Properties=species:S:1:pos:R:3:move_mask:L:1:tags:I:1:forces:R:3 energy=-180.21459335184724 pbc="T T F"
Si       0.00000000       0.00000000      12.00000000  F        6      -0.00000004       0.00000000       0.24867884
Si       3.83958982       0.00000000      12.00000000  F        6      -0.00000000       0.00000000       0.24867882
Si       7.67917964       0.00000000      12.00000000  F        6       0.00000000       0.00000000       0.24867882
Si       0.00000000       3.83958982      12.00000000  F        6      -0.00000004      -0.00000000       0.24867884
Si       3.83958982       3.83958982      12.00000000  F        6      -0.00000000      -0.00000000       0.24867882
Si       7.67917964       3.83958982      12.00000000  F        6       0.00000000      -0.00000000       0.24867882
Si       1.91979491       0.00000000      13.35750000  F        5       0.00000000      -0.00000002      -0.52636061
Si       5.75938473       0.00000000      13.35750000  F        5       0.00000000      -0.00000002      -0.52636061
Si       9.59897455       0.00000000      13.35750000  F        5       0.00000003      -0.00000002      -0.52636063
Si       1.91979491       3.83958982      13.35750000  F        5       0.00000000       0.00000000      -0.52636062
Si       5.75938473       3.83958982      13.35750000  F        5       0.00000000       0.00000000      -0.52636063
Si       9.59897455       3.83958982      13.35750000  F        5       0.00000003       0.00000000      -0.52636065
Si       1.91979491       1.91979491      14.71500000  F        4      -0.00000000      -0.00000000       0.14061841
Si       5.75938473       1.91979491      14.71500000  F        4       0.00000000      -0.00000000       0.14061841
Si       9.59897455       1.91979491      14.71500000  F        4       0.00000003      -0.00000000       0.14061843
Si       1.91979491       5.75938473      14.71500000  F        4      -0.00000000       0.00000002       0.14061839
Si       5.75938473       5.75938473      14.71500000  F        4       0.00000000       0.00000002       0.14061840
Si       9.59897455       5.75938473      14.71500000  F        4       0.00000003       0.00000002       0.14061841
Si      -0.00000000       1.91979491      16.07173756  T        3      -0.00000003      -0.00000000      -0.11752705
Si       3.83958982       1.91979491      16.07173756  T        3      -0.00000000      -0.00000000      -0.11752703
Si       7.67917964       1.91979491      16.07173756  T        3       0.00000000      -0.00000000      -0.11752703
Si      -0.00000000       5.75938473      16.07173756  T        3      -0.00000003       0.00000002      -0.11752704
Si       3.83958982       5.75938473      16.07173756  T        3      -0.00000000       0.00000002      -0.11752702
Si       7.67917964       5.75938473      16.07173756  T        3       0.00000000       0.00000002      -0.11752702
Si      -0.00000000      -0.00000000      17.43281260  T        2      -0.00000003      -0.00000002       0.47521762
Si       3.83958982      -0.00000000      17.43281260  T        2      -0.00000000      -0.00000002       0.47521761
Si       7.67917964      -0.00000000      17.43281260  T        2      -0.00000000      -0.00000002       0.47521760
Si      -0.00000000       3.83958982      17.43281260  T        2      -0.00000003       0.00000000       0.47521763
Si       3.83958982       3.83958982      17.43281260  T        2      -0.00000000       0.00000000       0.47521762
Si       7.67917964       3.83958982      17.43281260  T        2      -0.00000000       0.00000000       0.47521761
Si       1.91979491       0.00000000      18.78617688  T        1      -0.00000000       0.00000000      -0.22062719
Si       5.75938473       0.00000000      18.78617688  T        1       0.00000000       0.00000000      -0.22062719
Si       9.59897455       0.00000000      18.78617688  T        1       0.00000003       0.00000000      -0.22062721
Si       1.91979491       3.83958982      18.78617688  T        1      -0.00000000      -0.00000000      -0.22062719
Si       5.75938473       3.83958982      18.78617688  T        1       0.00000000      -0.00000000      -0.22062719
Si       9.59897455       3.83958982      18.78617688  T        1       0.00000003      -0.00000000      -0.22062721
36
Lattice="11.518769465528859 0.0 0.0 0.0 7.679179643685906 0.0 0.0 0.0 30.7875" Properties=species:S:1:pos:R:3:move_mask:L:1:tags:I:1:forces:R:3 energy=-180.22099766539688 pbc="T T F"
Si       0.00000000       0.00000000      12.00000000  F        6      -0.00000004       0.00000000       0.24845669
Si       3.83958982       0.00000000      12.00000000  F        6      -0.00000000       0.00000000       0.24845667
Si       7.67917964       0.00000000      12.00000000  F        6       0.00000000       0.00000000       0.24845667
Si       0.00000000       3.83958982      12.00000000  F        6      -0.00000004      -0.00000000       0.24845669
Si       3.83958982       3.83958982      12.00000000  F        6      -0.00000000      -0.00000000       0.24845667
Si       7.67917964       3.83958982      12.00000000  F        6       0.00000000      -0.00000000       0.24845667
Si       1.91979491       0.00000000      13.35750000  F        5       0.00000000      -0.00000002      -0.52515320
Si       5.75938473       0.00000000      13.35750000  F        5       0.00000000      -0.00000002      -0.52515321
Si       9.59897455       0.00000000      13.35750000  F        5       0.00000003      -0.00000002      -0.52515322
Si       1.91979491       3.83958982      13.35750000  F        5       0.00000000       0.00000000      -0.52515321
Si       5.75938473       3.83958982      13.35750000  F        5       0.00000000       0.00000000      -0.52515322
Si       9.59897455       3.83958982      13.35750000  F        5       0.00000003       0.00000000      -0.52515324
Si       1.91979491       1.91979491      14.71500000  F        4      -0.00000000      -0.00000000       0.13764153
Si       5.75938473       1.91979491      14.71500000  F        4       0.00000000      -0.00000000       0.13764153
Si       9.59897455       1.91979491      14.71500000  F        4       0.00000003      -0.00000000       0.13764155
Si       1.91979491       5.75938473      14.71500000  F        4      -0.00000000       0.00000002       0.13764151
Si       5.75938473       5.75938473      14.71500000  F        4       0.00000000       0.00000002       0.13764151
Si       9.59897455       5.75938473      14.71500000  F        4       0.00000003       0.00000002       0.13764153
Si      -0.00000000       1.91979491      16.07126013  T        3      -0.00000003      -0.00000000      -0.09980420
Si       3.83958982       1.91979491      16.07126013  T        3      -0.00000000      -0.00000000      -0.09980418
Si       7.67917964       1.91979491      16.07126013  T        3       0.00000000      -0.00000000      -0.09980418
Si      -0.00000000       5.75938473      16.07126013  T        3      -0.00000003       0.00000002      -0.09980419
Si       3.83958982       5.75938473      16.07126013  T        3      -0.00000000       0.00000002      -0.09980417
Si       7.67917964       5.75938473      16.07126013  T        3       0.00000000       0.00000002      -0.09980417
Si      -0.00000000      -0.00000000      17.43463559  T        2      -0.00000003      -0.00000002       0.44100883
Si       3.83958982      -0.00000000      17.43463559  T        2      -0.00000000      -0.00000002       0.44100882
Si       7.67917964      -0.00000000      17.43463559  T        2       0.00000000      -0.00000002       0.44100882
Si      -0.00000000       3.83958982      17.43463559  T        2      -0.00000003       0.00000000       0.44100885
Si       3.83958982       3.83958982      17.43463559  T        2      -0.00000000       0.00000000       0.44100883
Si       7.67917964       3.83958982      17.43463559  T        2       0.00000000       0.00000000       0.44100883
Si       1.91979491       0.00000000      18.78532361  T        1      -0.00000000       0.00000000      -0.20214963
Si       5.75938473       0.00000000      18.78532361  T        1       0.00000000       0.00000000      -0.20214963
Si       9.59897455       0.00000000      18.78532361  T        1       0.00000003       0.00000000      -0.20214964
Si       1.91979491       3.83958982      18.78532361  T        1      -0.00000000      -0.00000000      -0.20214963
Si       5.75938473       3.83958982      18.78532361  T        1       0.00000000      -0.00000000      -0.20214963
Si       9.59897455       3.83958982      18.78532361  T        1       0.00000003      -0.00000000      -0.20214964
36
Lattice="11.518769465528859 0.0 0.0 0.0 7.679179643685906 0.0 0.0 0.0 30.7875" Properties=species:S:1:pos:R:3:move_mask:L:1:tags:I:1:forces:R:3 energy=-180.22808475876136 pbc="T T F"
Si       0.00000000       0.00000000      12.00000000  F        6      -0.00000004       0.00000000       0.24819561
Si       3.83958982       0.00000000      12.00000000  F        6      -0.00000000       0.00000000       0.24819559
Si       7.67917964       0.00000000      12.00000000  F        6       0.00000000       0.00000000       0.24819559
Si       0.00000000       3.83958982      12.00000000  F        6      -0.00000004      -0.00000000       0.24819561
Si       3.83958982       3.83958982      12.00000000  F        6      -0.00000000      -0.00000000       0.24819559
Si       7.67917964       3.83958982      12.00000000  F        6       0.00000000      -0.00000000       0.24819559
Si       1.91979491       0.00000000      13.35750000  F        5       0.00000000      -0.00000002      -0.52368116
Si       5.75938473       0.00000000      13.35750000  F        5       0.00000000      -0.00000002      -0.52368116
Si       9.59897455       0.00000000      13.35750000  F        5       0.00000003      -0.00000002      -0.52368118
Si       1.91979491       3.83958982      13.35750000  F        5       0.00000000       0.00000000      -0.52368117
Si       5.75938473       3.83958982      13.35750000  F        5       0.00000000       0.00000000      -0.52368118
Si       9.59897455       3.83958982      13.35750000  F        5       0.00000003       0.00000000      -0.52368119
Si       1.91979491       1.91979491      14.71500000  F        4      -0.00000000      -0.00000000       0.13414784
Si       5.75938473       1.91979491      14.71500000  F        4       0.00000000      -0.00000000       0.13414784
Si       9.59897455       1.91979491      14.71500000  F        4       0.00000003      -0.00000000       0.13414786
Si       1.91979491       5.75938473      14.71500000  F        4      -0.00000000       0.00000002       0.13414783
Si       5.75938473       5.75938473      14.71500000  F        4       0.00000000       0.00000002       0.13414783
Si       9.59897455       5.75938473      14.71500000  F        4       0.00000003       0.00000002       0.13414785
Si      -0.00000000       1.91979491      16.07069894  T        3      -0.00000003      -0.00000000      -0.07859384
Si       3.83958982       1.91979491      16.07069894  T        3      -0.00000000      -0.00000000      -0.07859382
Si       7.67917964       1.91979491      16.07069894  T        3       0.00000000      -0.00000000      -0.07859382
Si      -0.00000000       5.75938473      16.07069894  T        3      -0.00000003       0.00000002      -0.07859383
Si       3.83958982       5.75938473      16.07069894  T        3      -0.00000000       0.00000002      -0.07859382
Si       7.67917964       5.75938473      16.07069894  T        3       0.00000000       0.00000002      -0.07859381
Si      -0.00000000      -0.00000000      17.43685738  T        2      -0.00000002      -0.00000002       0.39950104
Si       3.83958982      -0.00000000      17.43685738  T        2      -0.00000000      -0.00000002       0.39950103
Si       7.67917964      -0.00000000      17.43685738  T        2       0.00000000      -0.00000002       0.39950102
Si      -0.00000000       3.83958982      17.43685738  T        2      -0.00000002       0.00000000       0.39950105
Si       3.83958982       3.83958982      17.43685738  T        2      -0.00000000       0.00000000       0.39950103
Si       7.67917964       3.83958982      17.43685738  T        2       0.00000000       0.00000000       0.39950103
Si       1.91979491       0.00000000      18.78428930  T        1      -0.00000000       0.00000000      -0.17956947
Si       5.75938473       0.00000000      18.78428930  T        1       0.00000000       0.00000000      -0.17956947
Si       9.59897455       0.00000000      18.78428930  T        1       0.00000003       0.00000000      -0.17956948
Si       1.91979491       3.83958982      18.78428930  T        1      -0.00000000      -0.00000000      -0.17956947
Si       5.75938473       3.83958982      18.78428930  T        1       0.00000000      -0.00000000      -0.17956947
Si       9.59897455       3.83958982      18.78428930  T        1       0.00000003      -0.00000000      -0.17956948
36
Lattice="11.518769465528859 0.0 0.0 0.0 7.679179643685906 0.0 0.0 0.0 30.7875" Properties=species:S:1:pos:R:3:move_mask:L:1:tags:I:1:forces:R:3 energy=-180.23534820771243 pbc="T T F"
Si       0.00000000       0.00000000      12.00000000  F        6      -0.00000004       0.00000000       0.24790596
Si       3.83958982       0.00000000      12.00000000  F        6      -0.00000000       0.00000000       0.24790594
Si       7.67917964       0.00000000      12.00000000  F        6       0.00000000       0.00000000       0.24790594
Si       0.00000000       3.83958982      12.00000000  F        6      -0.00000004      -0.00000000       0.24790596
Si       3.83958982       3.83958982      12.00000000  F        6      -0.00000000      -0.00000000       0.24790595
Si       7.67917964       3.83958982      12.00000000  F        6       0.00000000      -0.00000000       0.24790594
Si       1.91979491       0.00000000      13.35750000  F        5       0.00000000      -0.00000002      -0.52196704
Si       5.75938473       0.00000000      13.35750000  F        5       0.00000000      -0.00000002      -0.52196704
Si       9.59897455       0.00000000      13.35750000  F        5       0.00000003      -0.00000002      -0.52196706
Si       1.91979491       3.83958982      13.35750000  F        5       0.00000000       0.00000000      -0.52196705
Si       5.75938473       3.83958982      13.35750000  F        5       0.00000000       0.00000000      -0.52196705
Si       9.59897455       3.83958982      13.35750000  F        5       0.00000003       0.00000000      -0.52196707
Si       1.91979491       1.91979491      14.71500000  F        4      -0.00000000      -0.00000000       0.13029788
Si       5.75938473       1.91979491      14.71500000  F        4       0.00000000      -0.00000000       0.13029788
Si       9.59897455       1.91979491      14.71500000  F        4       0.00000003      -0.00000000       0.13029790
Si       1.91979491       5.75938473      14.71500000  F        4      -0.00000000       0.00000002       0.13029787
Si       5.75938473       5.75938473      14.71500000  F        4       0.00000000       0.00000002       0.13029787
Si       9.59897455       5.75938473      14.71500000  F        4       0.00000003       0.00000002       0.13029789
Si      -0.00000000       1.91979491      16.07007873  T        3      -0.00000003      -0.00000000      -0.05451314
Si       3.83958982       1.91979491      16.07007873  T        3      -0.00000000      -0.00000000      -0.05451312
Si       7.67917964       1.91979491      16.07007873  T        3       0.00000000      -0.00000000      -0.05451312
Si      -0.00000000       5.75938473      16.07007873  T        3      -0.00000003       0.00000001      -0.05451313
Si       3.83958982       5.75938473      16.07007873  T        3      -0.00000000       0.00000001      -0.05451312
Si       7.67917964       5.75938473      16.07007873  T        3       0.00000000       0.00000001      -0.05451311
Si      -0.00000000      -0.00000000      17.43944225  T        2      -0.00000002      -0.00000001       0.35150556
Si       3.83958982      -0.00000000      17.43944225  T        2      -0.00000000      -0.00000001       0.35150556
Si       7.67917964      -0.00000000      17.43944225  T        2       0.00000000      -0.00000001       0.35150555
Si      -0.00000000       3.83958982      17.43944225  T        2      -0.00000002       0.00000000       0.35150557
Si       3.83958982       3.83958982      17.43944225  T        2      -0.00000000       0.00000000       0.35150556
Si       7.67917964       3.83958982      17.43944225  T        2       0.00000000       0.00000000       0.35150556
Si       1.91979491       0.00000000      18.78309536  T        1      -0.00000000       0.00000000      -0.15322922
Si       5.75938473       0.00000000      18.78309536  T        1       0.00000000       0.00000000      -0.15322922
Si       9.59897455       0.00000000      18.78309536  T        1       0.00000002       0.00000000      -0.15322923
Si       1.91979491       3.83958982      18.78309536  T        1      -0.00000000      -0.00000000      -0.15322922
Si       5.75938473       3.83958982      18.78309536  T        1       0.00000000      -0.00000000      -0.15322922
Si       9.59897455       3.83958982      18.78309536  T        1       0.00000002      -0.00000000      -0.15322923
36
Lattice="11.518769465528859 0.0 0.0 0.0 7.679179643685906 0.0 0.0 0.0 30.7875" Properties=species:S:1:pos:R:3:move_mask:L:1:tags:I:1:forces:R:3 energy=-180.24227618312108 pbc="T T F"
Si       0.00000000       0.00000000      12.00000000  F        6      -0.00000004       0.00000000       0.24759962
Si       3.83958982       0.00000000      12.00000000  F        6      -0.00000000       0.00000000       0.24759961
Si       7.67917964       0.00000000      12.00000000  F        6       0.00000000       0.00000000       0.24759960
Si       0.00000000       3.83958982      12.00000000  F        6      -0.00000004      -0.00000000       0.24759962
Si       3.83958982       3.83958982      12.00000000  F        6      -0.00000000      -0.00000000       0.24759961
Si       7.67917964       3.83958982      12.00000000  F        6       0.00000000      -0.00000000       0.24759960
Si       1.91979491       0.00000000      13.35750000  F        5       0.00000000      -0.00000002      -0.52003563
Si       5.75938473       0.00000000      13.35750000  F        5       0.00000000      -0.00000002      -0.52003563
Si       9.59897455       0.00000000      13.35750000  F        5       0.00000003      -0.00000002      -0.52003565
Si       1.91979491       3.83958982      13.35750000  F        5       0.00000000       0.00000000      -0.52003564
Si       5.75938473       3.83958982      13.35750000  F        5       0.00000000       0.00000000      -0.52003564
Si       9.59897455       3.83958982      13.35750000  F        5       0.00000003       0.00000000      -0.52003566
Si       1.91979491       1.91979491      14.71500000  F        4      -0.00000001      -0.00000000       0.12629457
Si       5.75938473       1.91979491      14.71500000  F        4       0.00000000      -0.00000000       0.12629457
Si       9.59897455       1.91979491      14.71500000  F        4       0.00000003      -0.00000000       0.12629459
Si       1.91979491       5.75938473      14.71500000  F        4      -0.00000001       0.00000002       0.12629456
Si       5.75938473       5.75938473      14.71500000  F        4       0.00000000       0.00000002       0.12629456
Si       9.59897455       5.75938473      14.71500000  F        4       0.00000003       0.00000002       0.12629457
Si      -0.00000000       1.91979491      16.06943046  T        3      -0.00000002      -0.00000000      -0.02829515
Si       3.83958982       1.91979491      16.06943046  T        3      -0.00000000      -0.00000000      -0.02829513
Si       7.67917964       1.91979491      16.06943046  T        3       0.00000000      -0.00000000      -0.02829513
Si      -0.00000000       5.75938473      16.06943046  T        3      -0.00000002       0.00000001      -0.02829514
Si       3.83958982       5.75938473      16.06943046  T        3      -0.00000000       0.00000001      -0.02829513
Si       7.67917964       5.75938473      16.06943046  T        3       0.00000000       0.00000001      -0.02829513
Si      -0.00000000      -0.00000000      17.44234946  T        2      -0.00000002      -0.00000001       0.29797501
Si       3.83958982      -0.00000000      17.44234946  T        2      -0.00000000      -0.00000001       0.29797500
Si       7.67917964      -0.00000000      17.44234946  T        2       0.00000000      -0.00000001       0.29797500
Si      -0.00000000       3.83958982      17.44234946  T        2      -0.00000002       0.00000000       0.29797501
Si       3.83958982       3.83958982      17.44234946  T        2      -0.00000000       0.00000000       0.29797501
Si       7.67917964       3.83958982      17.44234946  T        2       0.00000000       0.00000000       0.29797501
Si       1.91979491       0.00000000      18.78176762  T        1      -0.00000000       0.00000000      -0.12353841
Si       5.75938473       0.00000000      18.78176762  T        1       0.00000000       0.00000000      -0.12353841
Si       9.59897455       0.00000000      18.78176762  T        1       0.00000002       0.00000000      -0.12353842
Si       1.91979491       3.83958982      18.78176762  T        1      -0.00000000      -0.00000001      -0.12353841
Si       5.75938473       3.83958982      18.78176762  T        1       0.00000000      -0.00000001      -0.12353840
Si       9.59897455       3.83958982      18.78176762  T        1       0.00000002      -0.00000001      -0.12353842
36
Lattice="11.518769465528859 0.0 0.0 0.0 7.679179643685906 0.0 0.0 0.0 30.7875" Properties=species:S:1:pos:R:3:move_mask:L:1:tags:I:1:forces:R:3 energy=-180.24896974235787 pbc="T T F"
Si       0.00000000       0.00000000      12.00000000  F        6      -0.00000004       0.00000000       0.24725745
Si       3.83958982       0.00000000      12.00000000  F        6      -0.00000000       0.00000000       0.24725744
Si       7.67917964       0.00000000      12.00000000  F        6       0.00000000       0.00000000       0.24725744
Si       0.00000000       3.83958982      12.00000000  F        6      -0.00000004      -0.00000000       0.24725745
Si       3.83958982       3.83958982      12.00000000  F        6      -0.00000000      -0.00000000       0.24725744
Si       7.67917964       3.83958982      12.00000000  F        6       0.00000000      -0.00000000       0.24725744
Si       1.91979491       0.00000000      13.35750000  F        5       0.00000000      -0.00000002      -0.51768046
Si       5.75938473       0.00000000      13.35750000  F        5       0.00000000      -0.00000002      -0.51768046
Si       9.59897455       0.00000000      13.35750000  F        5       0.00000003      -0.00000002      -0.51768048
Si       1.91979491       3.83958982      13.35750000  F        5       0.00000000       0.00000000      -0.51768047
Si       5.75938473       3.83958982      13.35750000  F        5       0.00000000       0.00000000      -0.51768048
Si       9.59897455       3.83958982      13.35750000  F        5       0.00000003       0.00000000      -0.51768050
Si       1.91979491       1.91979491      14.71500000  F        4      -0.00000001      -0.00000000       0.12199010
Si       5.75938473       1.91979491      14.71500000  F        4       0.00000000      -0.00000000       0.12199010
Si       9.59897455       1.91979491      14.71500000  F        4       0.00000003      -0.00000000       0.12199011
Si       1.91979491       5.75938473      14.71500000  F        4      -0.00000001       0.00000002       0.12199009
Si       5.75938473       5.75938473      14.71500000  F        4       0.00000000       0.00000002       0.12199009
Si       9.59897455       5.75938473      14.71500000  F        4       0.00000003       0.00000002       0.12199010
Si      -0.00000000       1.91979491      16.06872652  T        3      -0.00000002      -0.00000000       0.00214745
Si       3.83958982       1.91979491      16.06872652  T        3      -0.00000000      -0.00000000       0.00214746
Si       7.67917964       1.91979491      16.06872652  T        3       0.00000000      -0.00000000       0.00214746
Si      -0.00000000       5.75938473      16.06872652  T        3      -0.00000002       0.00000001       0.00214745
Si       3.83958982       5.75938473      16.06872652  T        3      -0.00000000       0.00000001       0.00214746
Si       7.67917964       5.75938473      16.06872652  T        3       0.00000000       0.00000001       0.00214746
Si      -0.00000000      -0.00000000      17.44588220  T        2      -0.00000001      -0.00000001       0.23369809
Si       3.83958982      -0.00000000      17.44588220  T        2      -0.00000000      -0.00000001       0.23369809
Si       7.67917964      -0.00000000      17.44588220  T        2       0.00000000      -0.00000001       0.23369809
Si      -0.00000000       3.83958982      17.44588220  T        2      -0.00000001       0.00000000       0.23369810
Si       3.83958982       3.83958982      17.44588220  T        2      -0.00000000       0.00000000       0.23369810
Si       7.67917964       3.83958982      17.44588220  T        2       0.00000000       0.00000000       0.23369810
Si       1.91979491       0.00000000      18.78018176  T        1      -0.00000001       0.00000000      -0.08741262
Si       5.75938473       0.00000000      18.78018176  T        1       0.00000000       0.00000000      -0.08741262
Si       9.59897455       0.00000000      18.78018176  T        1       0.00000001       0.00000000      -0.08741263
Si       1.91979491       3.83958982      18.78018176  T        1      -0.00000001      -0.00000001      -0.08741262
Si       5.75938473       3.83958982      18.78018176  T        1       0.00000000      -0.00000001      -0.08741261
Si       9.59897455       3.83958982      18.78018176  T        1       0.00000001      -0.00000001      -0.08741262
36
Lattice="11.518769465528859 0.0 0.0 0.0 7.679179643685906 0.0 0.0 0.0 30.7875" Properties=species:S:1:pos:R:3:move_mask:L:1:tags:I:1:forces:R:3 energy=-180.25457058480194 pbc="T T F"
Si       0.00000000       0.00000000      12.00000000  F        6      -0.00000004       0.00000000       0.24689765
Si       3.83958982       0.00000000      12.00000000  F        6      -0.00000000       0.00000000       0.24689763
Si       7.67917964       0.00000000      12.00000000  F        6       0.00000000       0.00000000       0.24689763
Si       0.00000000       3.83958982      12.00000000  F        6      -0.00000004      -0.00000000       0.24689765
Si       3.83958982       3.83958982      12.00000000  F        6      -0.00000000      -0.00000000       0.24689763
Si       7.67917964       3.83958982      12.00000000  F        6       0.00000000      -0.00000000       0.24689763
Si       1.91979491       0.00000000      13.35750000  F        5       0.00000000      -0.00000002      -0.51485478
Si       5.75938473       0.00000000      13.35750000  F        5       0.00000000      -0.00000002      -0.51485479
Si       9.59897455       0.00000000      13.35750000  F        5       0.00000003      -0.00000002      -0.51485481
Si       1.91979491       3.83958982      13.35750000  F        5       0.00000000       0.00000000      -0.51485480
Si       5.75938473       3.83958982      13.35750000  F        5       0.00000000       0.00000000      -0.51485480
Si       9.59897455       3.83958982      13.35750000  F        5       0.00000003       0.00000000      -0.51485482
Si       1.91979491       1.91979491      14.71500000  F        4      -0.00000001      -0.00000000       0.11785508
Si       5.75938473       1.91979491      14.71500000  F        4       0.00000000      -0.00000000       0.11785508
Si       9.59897455       1.91979491      14.71500000  F        4       0.00000002      -0.00000000       0.11785510
Si       1.91979491       5.75938473      14.71500000  F        4      -0.00000001       0.00000002       0.11785507
Si       5.75938473       5.75938473      14.71500000  F        4       0.00000000       0.00000002       0.11785507
Si       9.59897455       5.75938473      14.71500000  F        4       0.00000002       0.00000002       0.11785509
Si      -0.00000000       1.91979491      16.06803535  T        3      -0.00000002      -0.00000000       0.03603418
Si       3.83958982       1.91979491      16.06803536  T        3      -0.00000000      -0.00000000       0.03603419
Si       7.67917964       1.91979491      16.06803536  T        3       0.00000000      -0.00000000       0.03603419
Si      -0.00000000       5.75938473      16.06803536  T        3      -0.00000002       0.00000000       0.03603418
Si       3.83958982       5.75938473      16.06803536  T        3      -0.00000000       0.00000000       0.03603419
Si       7.67917964       5.75938473      16.06803536  T        3       0.00000000       0.00000000       0.03603419
Si      -0.00000000      -0.00000000      17.45009288  T        2      -0.00000001      -0.00000001       0.15845855
Si       3.83958982      -0.00000000      17.45009288  T        2      -0.00000000      -0.00000001       0.15845855
Si       7.67917964      -0.00000000      17.45009288  T        2       0.00000001      -0.00000001       0.15845856
Si      -0.00000000       3.83958982      17.45009288  T        2      -0.00000001       0.00000000       0.15845855
Si       3.83958982       3.83958982      17.45009288  T        2      -0.00000000       0.00000000       0.15845856
Si       7.67917964       3.83958982      17.45009288  T        2       0.00000001       0.00000000       0.15845856
Si       1.91979491       0.00000000      18.77834468  T        1      -0.00000001       0.00000000      -0.04439066
Si       5.75938473       0.00000000      18.77834468  T        1       0.00000000       0.00000000      -0.04439066
Si       9.59897455       0.00000000      18.77834468  T        1       0.00000001       0.00000000      -0.04439067
Si       1.91979491       3.83958982      18.77834468  T        1      -0.00000001      -0.00000001      -0.04439066
Si       5.75938473       3.83958982      18.77834468  T        1       0.00000000      -0.00000001      -0.04439066
Si       9.59897455       3.83958982      18.77834468  T        1       0.00000001      -0.00000001      -0.04439067
36
Lattice="11.518769465528859 0.0 0.0 0.0 7.679179643685906 0.0 0.0 0.0 30.7875" Properties=species:S:1:pos:R:3:move_mask:L:1:tags:I:1:forces:R:3 energy=-180.25805113584698 pbc="T T F"
Si       0.00000000       0.00000000      12.00000000  F        6      -0.00000004       0.00000000       0.24655964
Si       3.83958982       0.00000000      12.00000000  F        6      -0.00000000       0.00000000       0.24655963
Si       7.67917964       0.00000000      12.00000000  F        6       0.00000000       0.00000000       0.24655963
Si       0.00000000       3.83958982      12.00000000  F        6      -0.00000004      -0.00000000       0.24655964
Si       3.83958982       3.83958982      12.00000000  F        6      -0.00000000      -0.00000000       0.24655963
Si       7.67917964       3.83958982      12.00000000  F        6       0.00000000      -0.00000000       0.24655963
Si       1.91979491       0.00000000      13.35750000  F        5       0.00000000      -0.00000002      -0.51151930
Si       5.75938473       0.00000000      13.35750000  F        5       0.00000000      -0.00000002      -0.51151930
Si       9.59897455       0.00000000      13.35750000  F        5       0.00000003      -0.00000002      -0.51151932
Si       1.91979491       3.83958982      13.35750000  F        5       0.00000000       0.00000000      -0.51151931
Si       5.75938473       3.83958982      13.35750000  F        5       0.00000000       0.00000000      -0.51151932
Si       9.59897455       3.83958982      13.35750000  F        5       0.00000003       0.00000000      -0.51151933
Si       1.91979491       1.91979491      14.71500000  F        4      -0.00000001      -0.00000000       0.11496195
Si       5.75938473       1.91979491      14.71500000  F        4       0.00000000      -0.00000000       0.11496195
Si       9.59897455       1.91979491      14.71500000  F        4       0.00000002      -0.00000000       0.11496196
Si       1.91979491       5.75938473      14.71500000  F        4      -0.00000001       0.00000002       0.11496195
Si       5.75938473       5.75938473      14.71500000  F        4       0.00000000       0.00000002       0.11496194
Si       9.59897455       5.75938473      14.71500000  F        4       0.00000002       0.00000002       0.11496195
Si      -0.00000000       1.91979491      16.06751418  T        3      -0.00000001      -0.00000000       0.07113367
Si       3.83958982       1.91979491      16.06751418  T        3      -0.00000000      -0.00000000       0.07113367
Si       7.67917964       1.91979491      16.06751418  T        3       0.00000000      -0.00000000       0.07113367
Si      -0.00000000       5.75938473      16.06751418  T        3      -0.00000001       0.00000000       0.07113367
Si       3.83958982       5.75938473      16.06751418  T        3      -0.00000000       0.00000000       0.07113367
Si       7.67917964       5.75938473      16.06751418  T        3       0.00000000       0.00000000       0.07113367
Si      -0.00000000      -0.00000000      17.45499443  T        2      -0.00000000      -0.00000000       0.07351183
Si       3.83958982      -0.00000000      17.45499443  T        2      -0.00000000      -0.00000000       0.07351183
Si       7.67917964      -0.00000000      17.45499443  T        2       0.00000001      -0.00000000       0.07351184
Si      -0.00000000       3.83958982      17.45499443  T        2      -0.00000000       0.00000000       0.07351183
Si       3.83958982       3.83958982      17.45499443  T        2      -0.00000000       0.00000000       0.07351183
Si       7.67917964       3.83958982      17.45499443  T        2       0.00000001       0.00000000       0.07351184
Si       1.91979491       0.00000000      18.77631920  T        1      -0.00000001       0.00000000       0.00535223
Si       5.75938473       0.00000000      18.77631920  T        1       0.00000000       0.00000000       0.00535223
Si       9.59897455       0.00000000      18.77631920  T        1       0.00000000       0.00000000       0.00535222
Si       1.91979491       3.83958982      18.77631920  T        1      -0.00000001      -0.00000001       0.00535223
Si       5.75938473       3.83958982      18.77631920  T        1       0.00000000      -0.00000001       0.00535223
Si       9.59897455       3.83958982      18.77631920  T        1       0.00000000      -0.00000001       0.00535223
36
Lattice="11.518769465528859 0.0 0.0 0.0 7.679179643685906 0.0 0.0 0.0 30.7875" Properties=species:S:1:pos:R:3:move_mask:L:1:tags:I:1:forces:R:3 energy=-180.25863117307858 pbc="T T F"
Si       0.00000000       0.00000000      12.00000000  F        6      -0.00000004       0.00000000       0.24633266
Si       3.83958982       0.00000000      12.00000000  F        6      -0.00000000       0.00000000       0.24633265
Si       7.67917964       0.00000000      12.00000000  F        6       0.00000000       0.00000000       0.24633265
Si       0.00000000       3.83958982      12.00000000  F        6      -0.00000004      -0.00000000       0.24633266
Si       3.83958982       3.83958982      12.00000000  F        6      -0.00000000      -0.00000000       0.24633265
Si       7.67917964       3.83958982      12.00000000  F        6       0.00000000      -0.00000000       0.24633265
Si       1.91979491       0.00000000      13.35750000  F        5       0.00000000      -0.00000002      -0.50771221
Si       5.75938473       0.00000000      13.35750000  F        5       0.00000000      -0.00000002      -0.50771221
Si       9.59897455       0.00000000      13.35750000  F        5       0.00000003      -0.00000002      -0.50771223
Si       1.91979491       3.83958982      13.35750000  F        5       0.00000000       0.00000000      -0.50771222
Si       5.75938473       3.83958982      13.35750000  F        5       0.00000000       0.00000000      -0.50771222
Si       9.59897455       3.83958982      13.35750000  F        5       0.00000003       0.00000000      -0.50771224
Si       1.91979491       1.91979491      14.71500000  F        4      -0.00000001      -0.00000000       0.11578567
Si       5.75938473       1.91979491      14.71500000  F        4       0.00000000      -0.00000000       0.11578567
Si       9.59897455       1.91979491      14.71500000  F        4       0.00000002      -0.00000000       0.11578568
Si       1.91979491       5.75938473      14.71500000  F        4      -0.00000001       0.00000002       0.11578566
Si       5.75938473       5.75938473      14.71500000  F        4       0.00000000       0.00000002       0.11578566
Si       9.59897455       5.75938473      14.71500000  F        4       0.00000002       0.00000002       0.11578567
Si      -0.00000000       1.91979491      16.06752874  T        3      -0.00000000      -0.00000000       0.10141088
Si       3.83958982       1.91979491      16.06752874  T        3      -0.00000000      -0.00000000       0.10141088
Si       7.67917964       1.91979491      16.06752874  T        3       0.00000000      -0.00000000       0.10141088
Si      -0.00000000       5.75938473      16.06752874  T        3      -0.00000000      -0.00000000       0.10141088
Si       3.83958982       5.75938473      16.06752874  T        3      -0.00000000      -0.00000000       0.10141088
Si       7.67917964       5.75938473      16.06752874  T        3       0.00000000      -0.00000000       0.10141088
Si      -0.00000000      -0.00000000      17.46041300  T        2       0.00000000       0.00000000      -0.01485908
Si       3.83958982      -0.00000000      17.46041300  T        2      -0.00000000       0.00000000      -0.01485907
Si       7.67917964      -0.00000000      17.46041300  T        2       0.00000001       0.00000000      -0.01485907
Si      -0.00000000       3.83958982      17.46041300  T        2       0.00000000       0.00000000      -0.01485909
Si       3.83958982       3.83958982      17.46041300  T        2      -0.00000000       0.00000000      -0.01485907
Si       7.67917964       3.83958982      17.46041300  T        2       0.00000001       0.00000000      -0.01485907
Si       1.91979491       0.00000000      18.77434739  T        1      -0.00000001       0.00000001       0.05904209
Si       5.75938473       0.00000000      18.77434739  T        1       0.00000000       0.00000001       0.05904210
Si       9.59897455       0.00000000      18.77434739  T        1      -0.00000000       0.00000001       0.05904209
Si       1.91979491       3.83958982      18.77434739  T        1      -0.00000001      -0.00000001       0.05904210
Si       5.75938473       3.83958982      18.77434739  T        1       0.00000000      -0.00000001       0.05904210
Si       9.59897455       3.83958982      18.77434739  T        1      -0.00000000      -0.00000001       0.05904210
36
Lattice="11.518769465528859 0.0 0.0 0.0 7.679179643685906 0.0 0.0 0.0 30.7875" Properties=species:S:1:pos:R:3:move_mask:L:1:tags:I:1:forces:R:3 energy=-180.25867152561855 pbc="T T F"
Si       0.00000000       0.00000000      12.00000000  F        6      -0.00000004       0.00000000       0.24634310
Si       3.83958982       0.00000000      12.00000000  F        6      -0.00000000       0.00000000       0.24634308
Si       7.67917964       0.00000000      12.00000000  F        6       0.00000000       0.00000000       0.24634308
Si       0.00000000       3.83958982      12.00000000  F        6      -0.00000004      -0.00000000       0.24634310
Si       3.83958982       3.83958982      12.00000000  F        6      -0.00000000      -0.00000000       0.24634308
Si       7.67917964       3.83958982      12.00000000  F        6       0.00000000      -0.00000000       0.24634308
Si       1.91979491       0.00000000      13.35750000  F        5       0.00000000      -0.00000002      -0.50770488
Si       5.75938473       0.00000000      13.35750000  F        5       0.00000000      -0.00000002      -0.50770489
Si       9.59897455       0.00000000      13.35750000  F        5       0.00000003      -0.00000002      -0.50770491
Si       1.91979491       3.83958982      13.35750000  F        5       0.00000000       0.00000000      -0.50770490
Si       5.75938473       3.83958982      13.35750000  F        5       0.00000000       0.00000000      -0.50770490
Si       9.59897455       3.83958982      13.35750000  F        5       0.00000003       0.00000000      -0.50770492
Si       1.91979491       1.91979491      14.71500000  F        4      -0.00000001      -0.00000000       0.11612074
Si       5.75938473       1.91979491      14.71500000  F        4       0.00000000      -0.00000000       0.11612074
Si       9.59897455       1.91979491      14.71500000  F        4       0.00000002      -0.00000000       0.11612074
Si       1.91979491       5.75938473      14.71500000  F        4      -0.00000001       0.00000002       0.11612073
Si       5.75938473       5.75938473      14.71500000  F        4       0.00000000       0.00000002       0.11612073
Si       9.59897455       5.75938473      14.71500000  F        4       0.00000002       0.00000002       0.11612073
Si      -0.00000000       1.91979491      16.06757765  T        3      -0.00000000      -0.00000000       0.10071829
Si       3.83958982       1.91979491      16.06757765  T        3      -0.00000000      -0.00000000       0.10071829
Si       7.67917964       1.91979491      16.06757765  T        3       0.00000000      -0.00000000       0.10071829
Si      -0.00000000       5.75938473      16.06757765  T        3      -0.00000000      -0.00000000       0.10071828
Si       3.83958982       5.75938473      16.06757765  T        3      -0.00000000      -0.00000000       0.10071828
Si       7.67917964       5.75938473      16.06757765  T        3       0.00000000      -0.00000000       0.10071828
Si      -0.00000000      -0.00000000      17.46040583  T        2       0.00000000       0.00000000      -0.01427519
Si       3.83958982      -0.00000000      17.46040583  T        2      -0.00000000       0.00000000      -0.01427518
Si       7.67917964      -0.00000000      17.46040583  T        2       0.00000001       0.00000000      -0.01427517
Si      -0.00000000       3.83958982      17.46040584  T        2       0.00000000       0.00000000      -0.01427519
Si       3.83958982       3.83958982      17.46040583  T        2      -0.00000000       0.00000000      -0.01427518
Si       7.67917964       3.83958982      17.46040583  T        2       0.00000001       0.00000000      -0.01427518
Si       1.91979491       0.00000000      18.77437587  T        1      -0.00000001       0.00000001       0.05879797
Si       5.75938473       0.00000000      18.77437587  T        1       0.00000000       0.00000001       0.05879797
Si       9.59897455       0.00000000      18.77437587  T        1      -0.00000000       0.00000001       0.05879797
Si       1.91979491       3.83958982      18.77437587  T        1      -0.00000001      -0.00000001       0.05879797
Si       5.75938473       3.83958982      18.77437587  T        1       0.00000000      -0.00000001       0.05879797
Si       9.59897455       3.83958982      18.77437587  T        1      -0.00000000      -0.00000001       0.05879797
36
Lattice="11.518769465528859 0.0 0.0 0.0 7.679179643685906 0.0 0.0 0.0 30.7875" Properties=species:S:1:pos:R:3:move_mask:L:1:tags:I:1:forces:R:3 energy=-180.25875115820358 pbc="T T F"
Si       0.00000000       0.00000000      12.00000000  F        6      -0.00000004       0.00000000       0.24636390
Si       3.83958982       0.00000000      12.00000000  F        6      -0.00000000       0.00000000       0.24636388
Si       7.67917964       0.00000000      12.00000000  F        6       0.00000000       0.00000000       0.24636388
Si       0.00000000       3.83958982      12.00000000  F        6      -0.00000004      -0.00000000       0.24636390
Si       3.83958982       3.83958982      12.00000000  F        6      -0.00000000      -0.00000000       0.24636388
Si       7.67917964       3.83958982      12.00000000  F        6       0.00000000      -0.00000000       0.24636388
Si       1.91979491       0.00000000      13.35750000  F        5       0.00000000      -0.00000002      -0.50769014
Si       5.75938473       0.00000000      13.35750000  F        5       0.00000000      -0.00000002      -0.50769014
Si       9.59897455       0.00000000      13.35750000  F        5       0.00000003      -0.00000002      -0.50769016
Si       1.91979491       3.83958982      13.35750000  F        5       0.00000000       0.00000000      -0.50769015
Si       5.75938473       3.83958982      13.35750000  F        5       0.00000000       0.00000000      -0.50769016
Si       9.59897455       3.83958982      13.35750000  F        5       0.00000003       0.00000000      -0.50769017
Si       1.91979491       1.91979491      14.71500000  F        4      -0.00000001      -0.00000000       0.11678860
Si       5.75938473       1.91979491      14.71500000  F        4       0.00000000      -0.00000000       0.11678860
Si       9.59897455       1.91979491      14.71500000  F        4       0.00000002      -0.00000000       0.11678861
Si       1.91979491       5.75938473      14.71500000  F        4      -0.00000001       0.00000002       0.11678859
Si       5.75938473       5.75938473      14.71500000  F        4       0.00000000       0.00000002       0.11678859
Si       9.59897455       5.75938473      14.71500000  F        4       0.00000002       0.00000002       0.11678860
Si      -0.00000000       1.91979491      16.06767514  T        3      -0.00000000      -0.00000000       0.09933931
Si       3.83958982       1.91979491      16.06767514  T        3      -0.00000000      -0.00000000       0.09933931
Si       7.67917964       1.91979491      16.06767514  T        3       0.00000000      -0.00000000       0.09933931
Si      -0.00000000       5.75938473      16.06767514  T        3      -0.00000000      -0.00000000       0.09933931
Si       3.83958982       5.75938473      16.06767514  T        3      -0.00000000      -0.00000000       0.09933931
Si       7.67917964       5.75938473      16.06767514  T        3       0.00000000      -0.00000000       0.09933931
Si      -0.00000000      -0.00000000      17.46039181  T        2       0.00000000       0.00000000      -0.01311418
Si       3.83958982      -0.00000000      17.46039181  T        2      -0.00000000       0.00000000      -0.01311417
Si       7.67917964      -0.00000000      17.46039181  T        2       0.00000001       0.00000000      -0.01311417
Si      -0.00000000       3.83958982      17.46039181  T        2       0.00000000       0.00000000      -0.01311419
Si       3.83958982       3.83958982      17.46039181  T        2      -0.00000000       0.00000000      -0.01311418
Si       7.67917964       3.83958982      17.46039181  T        2       0.00000001       0.00000000      -0.01311417
Si       1.91979491       0.00000000      18.77443271  T        1      -0.00000001       0.00000001       0.05831253
Si       5.75938473       0.00000000      18.77443271  T        1       0.00000000       0.00000001       0.05831253
Si       9.59897455       0.00000000      18.77443271  T        1      -0.00000000       0.00000001       0.05831253
Si       1.91979491       3.83958982      18.77443271  T        1      -0.00000001      -0.00000001       0.05831253
Si       5.75938473       3.83958982      18.77443271  T        1       0.00000000      -0.00000001       0.05831254
Si       9.59897455       3.83958982      18.77443271  T        1      -0.00000000      -0.00000001       0.05831254
36
Lattice="11.518769465528859 0.0 0.0 0.0 7.679179643685906 0.0 0.0 0.0 30.7875" Properties=species:S:1:pos:R:3:move_mask:L:1:tags:I:1:forces:R:3 energy=-180.2588679675562 pbc="T T F"
Si       0.00000000       0.00000000      12.00000000  F        6      -0.00000004       0.00000000       0.24639493
Si       3.83958982       0.00000000      12.00000000  F        6      -0.00000000       0.00000000       0.24639491
Si       7.67917964       0.00000000      12.00000000  F        6       0.00000000       0.00000000       0.24639491
Si       0.00000000       3.83958982      12.00000000  F        6      -0.00000004      -0.00000000       0.24639493
Si       3.83958982       3.83958982      12.00000000  F        6      -0.00000000      -0.00000000       0.24639491
Si       7.67917964       3.83958982      12.00000000  F        6       0.00000000      -0.00000000       0.24639491
Si       1.91979491       0.00000000      13.35750000  F        5       0.00000000      -0.00000002      -0.50766774
Si       5.75938473       0.00000000      13.35750000  F        5       0.00000000      -0.00000002      -0.50766774
Si       9.59897455       0.00000000      13.35750000  F        5       0.00000003      -0.00000002      -0.50766776
Si       1.91979491       3.83958982      13.35750000  F        5       0.00000000       0.00000000      -0.50766775
Si       5.75938473       3.83958982      13.35750000  F        5       0.00000000       0.00000000      -0.50766776
Si       9.59897455       3.83958982      13.35750000  F        5       0.00000003       0.00000000      -0.50766777
Si       1.91979491       1.91979491      14.71500000  F        4      -0.00000001      -0.00000000       0.11778475
Si       5.75938473       1.91979491      14.71500000  F        4       0.00000000      -0.00000000       0.11778475
Si       9.59897455       1.91979491      14.71500000  F        4       0.00000002      -0.00000000       0.11778476
Si       1.91979491       5.75938473      14.71500000  F        4      -0.00000001       0.00000002       0.11778475
Si       5.75938473       5.75938473      14.71500000  F        4       0.00000000       0.00000002       0.11778474
Si       9.59897455       5.75938473      14.71500000  F        4       0.00000002       0.00000002       0.11778475
Si      -0.00000000       1.91979491      16.06782053  T        3      -0.00000000      -0.00000000       0.09728663
Si       3.83958982       1.91979491      16.06782054  T        3      -0.00000000      -0.00000000       0.09728663
Si       7.67917964       1.91979491      16.06782054  T        3       0.00000000      -0.00000000       0.09728663
Si      -0.00000000       5.75938473      16.06782054  T        3      -0.00000000      -0.00000000       0.09728662
Si       3.83958982       5.75938473      16.06782054  T        3      -0.00000000      -0.00000000       0.09728663
Si       7.67917964       5.75938473      16.06782054  T        3       0.00000000      -0.00000000       0.09728662
Si      -0.00000000      -0.00000000      17.46037157  T        2       0.00000000       0.00000000      -0.01139013
Si       3.83958982      -0.00000000      17.46037157  T        2      -0.00000000       0.00000000      -0.01139012
Si       7.67917964      -0.00000000      17.46037157  T        2       0.00000001       0.00000000      -0.01139012
Si      -0.00000000       3.83958982      17.46037157  T        2       0.00000000       0.00000000      -0.01139014
Si       3.83958982       3.83958982      17.46037157  T        2      -0.00000000       0.00000000      -0.01139012
Si       7.67917964       3.83958982      17.46037157  T        2       0.00000001       0.00000000      -0.01139012
Si       1.91979491       0.00000000      18.77451771  T        1      -0.00000001       0.00000001       0.05759158
Si       5.75938473       0.00000000      18.77451771  T        1       0.00000000       0.00000001       0.05759159
Si       9.59897455       0.00000000      18.77451771  T        1      -0.00000000       0.00000001       0.05759159
Si       1.91979491       3.83958982      18.77451771  T        1      -0.00000001      -0.00000001       0.05759159
Si       5.75938473       3.83958982      18.77451771  T        1       0.00000000      -0.00000001       0.05759159
Si       9.59897455       3.83958982      18.77451771  T        1      -0.00000000      -0.00000001       0.05759159
36
Lattice="11.518769465528859 0.0 0.0 0.0 7.679179643685906 0.0 0.0 0.0 30.7875" Properties=species:S:1:pos:R:3:move_mask:L:1:tags:I:1:forces:R:3 energy=-180.25901890319776 pbc="T T F"
Si       0.00000000       0.00000000      12.00000000  F        6      -0.00000004       0.00000000       0.24643596
Si       3.83958982       0.00000000      12.00000000  F        6      -0.00000000       0.00000000       0.24643594
Si       7.67917964       0.00000000      12.00000000  F        6       0.00000000       0.00000000       0.24643594
Si       0.00000000       3.83958982      12.00000000  F        6      -0.00000004      -0.00000000       0.24643596
Si       3.83958982       3.83958982      12.00000000  F        6      -0.00000000      -0.00000000       0.24643594
Si       7.67917964       3.83958982      12.00000000  F        6       0.00000000      -0.00000000       0.24643594
Si       1.91979491       0.00000000      13.35750000  F        5       0.00000000      -0.00000002      -0.50763730
Si       5.75938473       0.00000000      13.35750000  F        5       0.00000000      -0.00000002      -0.50763731
Si       9.59897455       0.00000000      13.35750000  F        5       0.00000003      -0.00000002      -0.50763733
Si       1.91979491       3.83958982      13.35750000  F        5       0.00000000       0.00000000      -0.50763732
Si       5.75938473       3.83958982      13.35750000  F        5       0.00000000       0.00000000      -0.50763732
Si       9.59897455       3.83958982      13.35750000  F        5       0.00000003       0.00000000      -0.50763734
Si       1.91979491       1.91979491      14.71500000  F        4      -0.00000001      -0.00000000       0.11910246
Si       5.75938473       1.91979491      14.71500000  F        4       0.00000000      -0.00000000       0.11910246
Si       9.59897455       1.91979491      14.71500000  F        4       0.00000002      -0.00000000       0.11910247
Si       1.91979491       5.75938473      14.71500000  F        4      -0.00000001       0.00000002       0.11910246
Si       5.75938473       5.75938473      14.71500000  F        4       0.00000000       0.00000002       0.11910245
Si       9.59897455       5.75938473      14.71500000  F        4       0.00000002       0.00000002       0.11910246
Si      -0.00000000       1.91979491      16.06801284  T        3      -0.00000000      -0.00000000       0.09457960
Si       3.83958982       1.91979491      16.06801284  T        3      -0.00000000      -0.00000000       0.09457960
Si       7.67917964       1.91979491      16.06801284  T        3       0.00000000      -0.00000000       0.09457960
Si      -0.00000000       5.75938473      16.06801284  T        3      -0.00000000      -0.00000000       0.09457960
Si       3.83958982       5.75938473      16.06801284  T        3      -0.00000000      -0.00000000       0.09457960
Si       7.67917964       5.75938473      16.06801284  T        3       0.00000000      -0.00000000       0.09457960
Si      -0.00000000      -0.00000000      17.46034616  T        2       0.00000000       0.00000000      -0.00912477
Si       3.83958982      -0.00000000      17.46034616  T        2      -0.00000000       0.00000000      -0.00912476
Si       7.67917964      -0.00000000      17.46034616  T        2       0.00000001       0.00000000      -0.00912476
Si      -0.00000000       3.83958982      17.46034616  T        2       0.00000000       0.00000000      -0.00912478
Si       3.83958982       3.83958982      17.46034616  T        2      -0.00000000       0.00000000      -0.00912476
Si       7.67917964       3.83958982      17.46034616  T        2       0.00000001       0.00000000      -0.00912476
Si       1.91979491       0.00000000      18.77463059  T        1      -0.00000001       0.00000001       0.05664407
Si       5.75938473       0.00000000      18.77463059  T        1       0.00000000       0.00000001       0.05664407
Si       9.59897455       0.00000000      18.77463059  T        1      -0.00000000       0.00000001       0.05664407
Si       1.91979491       3.83958982      18.77463059  T        1      -0.00000001      -0.00000001       0.05664407
Si       5.75938473       3.83958982      18.77463059  T        1       0.00000000      -0.00000001       0.05664408
Si       9.59897455       3.83958982      18.77463059  T        1      -0.00000000      -0.00000001       0.05664408
36
Lattice="11.518769465528859 0.0 0.0 0.0 7.679179643685906 0.0 0.0 0.0 30.7875" Properties=species:S:1:pos:R:3:move_mask:L:1:tags:I:1:forces:R:3 energy=-180.25920009165162 pbc="T T F"
Si       0.00000000       0.00000000      12.00000000  F        6      -0.00000004       0.00000000       0.24648672
Si       3.83958982       0.00000000      12.00000000  F        6      -0.00000000       0.00000000       0.24648670
Si       7.67917964       0.00000000      12.00000000  F        6       0.00000000       0.00000000       0.24648670
Si       0.00000000       3.83958982      12.00000000  F        6      -0.00000004      -0.00000000       0.24648672
Si       3.83958982       3.83958982      12.00000000  F        6      -0.00000000      -0.00000000       0.24648670
Si       7.67917964       3.83958982      12.00000000  F        6       0.00000000      -0.00000000       0.24648670
Si       1.91979491       0.00000000      13.35750000  F        5       0.00000000      -0.00000002      -0.50759826
Si       5.75938473       0.00000000      13.35750000  F        5       0.00000000      -0.00000002      -0.50759827
Si       9.59897455       0.00000000      13.35750000  F        5       0.00000003      -0.00000002      -0.50759828
Si       1.91979491       3.83958982      13.35750000  F        5       0.00000000       0.00000000      -0.50759827
Si       5.75938473       3.83958982      13.35750000  F        5       0.00000000       0.00000000      -0.50759828
Si       9.59897455       3.83958982      13.35750000  F        5       0.00000003       0.00000000      -0.50759830
Si       1.91979491       1.91979491      14.71500000  F        4      -0.00000001      -0.00000000       0.12073280
Si       5.75938473       1.91979491      14.71500000  F        4       0.00000000      -0.00000000       0.12073280
Si       9.59897455       1.91979491      14.71500000  F        4       0.00000002      -0.00000000       0.12073281
Si       1.91979491       5.75938473      14.71500000  F        4      -0.00000001       0.00000002       0.12073279
Si       5.75938473       5.75938473      14.71500000  F        4       0.00000000       0.00000002       0.12073279
Si       9.59897455       5.75938473      14.71500000  F        4       0.00000002       0.00000002       0.12073280
Si      -0.00000000       1.91979491      16.06825071  T        3      -0.00000000      -0.00000000       0.09124448
Si       3.83958982       1.91979491      16.06825071  T        3      -0.00000000      -0.00000000       0.09124448
Si       7.67917964       1.91979491      16.06825071  T        3       0.00000000      -0.00000000       0.09124448
Si      -0.00000000       5.75938473      16.06825071  T        3      -0.00000000      -0.00000000       0.09124447
Si       3.83958982       5.75938473      16.06825071  T        3      -0.00000000      -0.00000000       0.09124448
Si       7.67917964       5.75938473      16.06825071  T        3       0.00000000      -0.00000000       0.09124448
Si      -0.00000000      -0.00000000      17.46031704  T        2       0.00000000       0.00000000      -0.00634792
Si       3.83958982      -0.00000000      17.46031704  T        2      -0.00000000       0.00000000      -0.00634791
Si       7.67917964      -0.00000000      17.46031704  T        2       0.00000001       0.00000000      -0.00634791
Si      -0.00000000       3.83958982      17.46031705  T        2       0.00000000       0.00000000      -0.00634792
Si       3.83958982       3.83958982      17.46031704  T        2      -0.00000000       0.00000000      -0.00634791
Si       7.67917964       3.83958982      17.46031704  T        2       0.00000001       0.00000000      -0.00634791
Si       1.91979491       0.00000000      18.77477099  T        1      -0.00000001       0.00000001       0.05548220
Si       5.75938473       0.00000000      18.77477099  T        1       0.00000000       0.00000001       0.05548221
Si       9.59897455       0.00000000      18.77477099  T        1      -0.00000000       0.00000001       0.05548221
Si       1.91979491       3.83958982      18.77477099  T        1      -0.00000001      -0.00000001       0.05548221
Si       5.75938473       3.83958982      18.77477099  T        1       0.00000000      -0.00000001       0.05548221
Si       9.59897455       3.83958982      18.77477099  T        1      -0.00000000      -0.00000001       0.05548221
36
Lattice="11.518769465528859 0.0 0.0 0.0 7.679179643685906 0.0 0.0 0.0 30.7875" Properties=species:S:1:pos:R:3:move_mask:L:1:tags:I:1:forces:R:3 energy=-180.2594069984269 pbc="T T F"
Si       0.00000000       0.00000000      12.00000000  F        6      -0.00000004       0.00000000       0.24654682
Si       3.83958982       0.00000000      12.00000000  F        6      -0.00000000       0.00000000       0.24654681
Si       7.67917964       0.00000000      12.00000000  F        6       0.00000000       0.00000000       0.24654681
Si       0.00000000       3.83958982      12.00000000  F        6      -0.00000004      -0.00000000       0.24654682
Si       3.83958982       3.83958982      12.00000000  F        6      -0.00000000      -0.00000000       0.24654681
Si       7.67917964       3.83958982      12.00000000  F        6       0.00000000      -0.00000000       0.24654681
Si       1.91979491       0.00000000      13.35750000  F        5       0.00000000      -0.00000002      -0.50754984
Si       5.75938473       0.00000000      13.35750000  F        5       0.00000000      -0.00000002      -0.50754984
Si       9.59897455       0.00000000      13.35750000  F        5       0.00000003      -0.00000002      -0.50754986
Si       1.91979491       3.83958982      13.35750000  F        5       0.00000000       0.00000000      -0.50754985
Si       5.75938473       3.83958982      13.35750000  F        5       0.00000000       0.00000000      -0.50754986
Si       9.59897455       3.83958982      13.35750000  F        5       0.00000003       0.00000000      -0.50754988
Si       1.91979491       1.91979491      14.71500000  F        4      -0.00000001      -0.00000000       0.12266466
Si       5.75938473       1.91979491      14.71500000  F        4       0.00000000      -0.00000000       0.12266465
Si       9.59897455       1.91979491      14.71500000  F        4       0.00000002      -0.00000000       0.12266466
Si       1.91979491       5.75938473      14.71500000  F        4      -0.00000001       0.00000002       0.12266465
Si       5.75938473       5.75938473      14.71500000  F        4       0.00000000       0.00000002       0.12266464
Si       9.59897455       5.75938473      14.71500000  F        4       0.00000002       0.00000002       0.12266465
Si      -0.00000000       1.91979491      16.06853250  T        3      -0.00000000      -0.00000000       0.08731466
Si       3.83958982       1.91979491      16.06853250  T        3      -0.00000000      -0.00000000       0.08731466
Si       7.67917964       1.91979491      16.06853250  T        3       0.00000000      -0.00000000       0.08731466
Si      -0.00000000       5.75938473      16.06853250  T        3      -0.00000000      -0.00000000       0.08731465
Si       3.83958982       5.75938473      16.06853250  T        3      -0.00000000      -0.00000000       0.08731466
Si       7.67917964       5.75938473      16.06853250  T        3       0.00000000      -0.00000000       0.08731465
Si      -0.00000000      -0.00000000      17.46028613  T        2       0.00000000       0.00000000      -0.00309785
Si       3.83958982      -0.00000000      17.46028613  T        2      -0.00000000       0.00000000      -0.00309784
Si       7.67917964      -0.00000000      17.46028613  T        2       0.00000001       0.00000000      -0.00309784
Si      -0.00000000       3.83958982      17.46028613  T        2       0.00000000       0.00000000      -0.00309785
Si       3.83958982       3.83958982      17.46028613  T        2      -0.00000000       0.00000000      -0.00309784
Si       7.67917964       3.83958982      17.46028613  T        2       0.00000001       0.00000000      -0.00309784
Si       1.91979491       0.00000000      18.77493852  T        1      -0.00000001       0.00000001       0.05412158
Si       5.75938473       0.00000000      18.77493852  T        1       0.00000000       0.00000001       0.05412158
Si       9.59897455       0.00000000      18.77493851  T        1      -0.00000000       0.00000001       0.05412158
Si       1.91979491       3.83958982      18.77493852  T        1      -0.00000001      -0.00000001       0.05412158
Si       5.75938473       3.83958982      18.77493852  T        1       0.00000000      -0.00000001       0.05412158
Si       9.59897455       3.83958982      18.77493851  T        1      -0.00000000      -0.00000001       0.05412158
36
Lattice="11.518769465528859 0.0 0.0 0.0 7.679179643685906 0.0 0.0 0.0 30.7875" Properties=species:S:1:pos:R:3:move_mask:L:1:tags:I:1:forces:R:3 energy=-180.25963462354213 pbc="T T F"
Si       0.00000000       0.00000000      12.00000000  F        6      -0.00000004       0.00000000       0.24661584
Si       3.83958982       0.00000000      12.00000000  F        6      -0.00000000       0.00000000       0.24661583
Si       7.67917964       0.00000000      12.00000000  F        6       0.00000000       0.00000000       0.24661583
Si       0.00000000       3.83958982      12.00000000  F        6      -0.00000004      -0.00000000       0.24661584
Si       3.83958982       3.83958982      12.00000000  F        6      -0.00000000      -0.00000000       0.24661583
Si       7.67917964       3.83958982      12.00000000  F        6       0.00000000      -0.00000000       0.24661583
Si       1.91979491       0.00000000      13.35750000  F        5       0.00000000      -0.00000002      -0.50749103
Si       5.75938473       0.00000000      13.35750000  F        5       0.00000000      -0.00000002      -0.50749104
Si       9.59897455       0.00000000      13.35750000  F        5       0.00000003      -0.00000002      -0.50749106
Si       1.91979491       3.83958982      13.35750000  F        5       0.00000000       0.00000000      -0.50749105
Si       5.75938473       3.83958982      13.35750000  F        5       0.00000000       0.00000000      -0.50749105
Si       9.59897455       3.83958982      13.35750000  F        5       0.00000003       0.00000000      -0.50749107
Si       1.91979491       1.91979491      14.71500000  F        4      -0.00000001      -0.00000000       0.12488469
Si       5.75938473       1.91979491      14.71500000  F        4       0.00000000      -0.00000000       0.12488468
Si       9.59897455       1.91979491      14.71500000  F        4       0.00000002      -0.00000000       0.12488469
Si       1.91979491       5.75938473      14.71500000  F        4      -0.00000001       0.00000002       0.12488468
Si       5.75938473       5.75938473      14.71500000  F        4       0.00000000       0.00000002       0.12488467
Si       9.59897455       5.75938473      14.71500000  F        4       0.00000002       0.00000002       0.12488468
Si      -0.00000000       1.91979491      16.06885619  T        3      -0.00000000      -0.00000000       0.08283101
Si       3.83958982       1.91979491      16.06885619  T        3      -0.00000000      -0.00000000       0.08283101
Si       7.67917964       1.91979491      16.06885619  T        3       0.00000000      -0.00000000       0.08283101
Si      -0.00000000       5.75938473      16.06885619  T        3      -0.00000000      -0.00000000       0.08283100
Si       3.83958982       5.75938473      16.06885619  T        3      -0.00000000      -0.00000000       0.08283100
Si       7.67917964       5.75938473      16.06885619  T        3       0.00000000      -0.00000000       0.08283100
Si      -0.00000000      -0.00000000      17.46025582  T        2       0.00000000       0.00000000       0.00057823
Si       3.83958982      -0.00000000      17.46025582  T        2      -0.00000000       0.00000000       0.00057824
Si       7.67917964      -0.00000000      17.46025582  T        2       0.00000001       0.00000000       0.00057824
Si      -0.00000000       3.83958982      17.46025582  T        2       0.00000000       0.00000000       0.00057822
Si       3.83958982       3.83958982      17.46025582  T        2      -0.00000000       0.00000000       0.00057823
Si       7.67917964       3.83958982      17.46025582  T        2       0.00000001       0.00000000       0.00057824
Si       1.91979491       0.00000000      18.77513273  T        1      -0.00000001       0.00000001       0.05258130
Si       5.75938473       0.00000000      18.77513273  T        1       0.00000000       0.00000001       0.05258130
Si       9.59897455       0.00000000      18.77513273  T        1      -0.00000000       0.00000001       0.05258130
Si       1.91979491       3.83958982      18.77513273  T        1      -0.00000001      -0.00000001       0.05258130
Si       5.75938473       3.83958982      18.77513273  T        1       0.00000000      -0.00000001       0.05258130
Si       9.59897455       3.83958982      18.77513273  T        1      -0.00000000      -0.00000001       0.05258130
36
Lattice="11.518769465528859 0.0 0.0 0.0 7.679179643685906 0.0 0.0 0.0 30.7875" Properties=species:S:1:pos:R:3:move_mask:L:1:tags:I:1:forces:R:3 energy=-180.25990416621903 pbc="T T F"
Si       0.00000000       0.00000000      12.00000000  F        6      -0.00000004       0.00000000       0.24670191
Si       3.83958982       0.00000000      12.00000000  F        6      -0.00000000       0.00000000       0.24670189
Si       7.67917964       0.00000000      12.00000000  F        6       0.00000000       0.00000000       0.24670189
Si       0.00000000       3.83958982      12.00000000  F        6      -0.00000004      -0.00000000       0.24670191
Si       3.83958982       3.83958982      12.00000000  F        6      -0.00000000      -0.00000000       0.24670189
Si       7.67917964       3.83958982      12.00000000  F        6       0.00000000      -0.00000000       0.24670189
Si       1.91979491       0.00000000      13.35750000  F        5       0.00000000      -0.00000002      -0.50741247
Si       5.75938473       0.00000000      13.35750000  F        5       0.00000000      -0.00000002      -0.50741247
Si       9.59897455       0.00000000      13.35750000  F        5       0.00000003      -0.00000002      -0.50741249
Si       1.91979491       3.83958982      13.35750000  F        5       0.00000000       0.00000000      -0.50741248
Si       5.75938473       3.83958982      13.35750000  F        5       0.00000000       0.00000000      -0.50741249
Si       9.59897455       3.83958982      13.35750000  F        5       0.00000003       0.00000000      -0.50741250
Si       1.91979491       1.91979491      14.71500000  F        4      -0.00000001      -0.00000000       0.12765671
Si       5.75938473       1.91979491      14.71500000  F        4       0.00000000      -0.00000000       0.12765671
Si       9.59897455       1.91979491      14.71500000  F        4       0.00000002      -0.00000000       0.12765671
Si       1.91979491       5.75938473      14.71500000  F        4      -0.00000001       0.00000002       0.12765670
Si       5.75938473       5.75938473      14.71500000  F        4       0.00000000       0.00000002       0.12765670
Si       9.59897455       5.75938473      14.71500000  F        4       0.00000002       0.00000002       0.12765670
Si      -0.00000000       1.91979491      16.06926016  T        3      -0.00000000      -0.00000000       0.07728520
Si       3.83958982       1.91979491      16.06926016  T        3      -0.00000000      -0.00000000       0.07728520
Si       7.67917964       1.91979491      16.06926016  T        3       0.00000000      -0.00000000       0.07728520
Si      -0.00000000       5.75938473      16.06926016  T        3      -0.00000000      -0.00000000       0.07728520
Si       3.83958982       5.75938473      16.06926016  T        3      -0.00000000      -0.00000000       0.07728520
Si       7.67917964       5.75938473      16.06926016  T        3       0.00000000      -0.00000000       0.07728520
Si      -0.00000000      -0.00000000      17.46022639  T        2       0.00000000       0.00000000       0.00507326
Si       3.83958982      -0.00000000      17.46022639  T        2      -0.00000000       0.00000000       0.00507327
Si       7.67917964      -0.00000000      17.46022639  T        2       0.00000001       0.00000000       0.00507327
Si      -0.00000000       3.83958982      17.46022639  T        2       0.00000000       0.00000000       0.00507325
Si       3.83958982       3.83958982      17.46022639  T        2      -0.00000000       0.00000000       0.00507326
Si       7.67917964       3.83958982      17.46022639  T        2       0.00000001       0.00000000       0.00507327
Si       1.91979491       0.00000000      18.77537802  T        1      -0.00000001       0.00000001       0.05069541
Si       5.75938473       0.00000000      18.77537802  T        1       0.00000000       0.00000001       0.05069542
Si       9.59897455       0.00000000      18.77537802  T        1      -0.00000000       0.00000001       0.05069542
Si       1.91979491       3.83958982      18.77537802  T        1      -0.00000001      -0.00000001       0.05069542
Si       5.75938473       3.83958982      18.77537802  T        1       0.00000000      -0.00000001       0.05069542
Si       9.59897455       3.83958982      18.77537802  T        1      -0.00000000      -0.00000001       0.05069542
36
Lattice="11.518769465528859 0.0 0.0 0.0 7.679179643685906 0.0 0.0 0.0 30.7875" Properties=species:S:1:pos:R:3:move_mask:L:1:tags:I:1:forces:R:3 energy=-180.2602152744233 pbc="T T F"
Si       0.00000000       0.00000000      12.00000000  F        6      -0.00000004       0.00000000       0.24680789
Si       3.83958982       0.00000000      12.00000000  F        6      -0.00000000       0.00000000       0.24680787
Si       7.67917964       0.00000000      12.00000000  F        6       0.00000000       0.00000000       0.24680787
Si       0.00000000       3.83958982      12.00000000  F        6      -0.00000004      -0.00000000       0.24680789
Si       3.83958982       3.83958982      12.00000000  F        6      -0.00000000      -0.00000000       0.24680787
Si       7.67917964       3.83958982      12.00000000  F        6       0.00000000      -0.00000000       0.24680787
Si       1.91979491       0.00000000      13.35750000  F        5       0.00000000      -0.00000002      -0.50730725
Si       5.75938473       0.00000000      13.35750000  F        5       0.00000000      -0.00000002      -0.50730725
Si       9.59897455       0.00000000      13.35750000  F        5       0.00000003      -0.00000002      -0.50730727
Si       1.91979491       3.83958982      13.35750000  F        5       0.00000000       0.00000000      -0.50730726
Si       5.75938473       3.83958982      13.35750000  F        5       0.00000000       0.00000000      -0.50730726
Si       9.59897455       3.83958982      13.35750000  F        5       0.00000003       0.00000000      -0.50730728
Si       1.91979491       1.91979491      14.71500000  F        4      -0.00000001      -0.00000000       0.13107639
Si       5.75938473       1.91979491      14.71500000  F        4       0.00000000      -0.00000000       0.13107639
Si       9.59897455       1.91979491      14.71500000  F        4       0.00000002      -0.00000000       0.13107640
Si       1.91979491       5.75938473      14.71500000  F        4      -0.00000001       0.00000002       0.13107638
Si       5.75938473       5.75938473      14.71500000  F        4       0.00000000       0.00000002       0.13107638
Si       9.59897455       5.75938473      14.71500000  F        4       0.00000002       0.00000002       0.13107639
Si      -0.00000000       1.91979491      16.06975816  T        3      -0.00000000      -0.00000000       0.07052891
Si       3.83958982       1.91979491      16.06975816  T        3      -0.00000000      -0.00000000       0.07052891
Si       7.67917964       1.91979491      16.06975816  T        3       0.00000000      -0.00000000       0.07052891
Si      -0.00000000       5.75938473      16.06975816  T        3      -0.00000000      -0.00000000       0.07052891
Si       3.83958982       5.75938473      16.06975816  T        3      -0.00000000      -0.00000000       0.07052891
Si       7.67917964       5.75938473      16.06975816  T        3       0.00000000      -0.00000000       0.07052891
Si      -0.00000000      -0.00000000      17.46020364  T        2      -0.00000000       0.00000000       0.01046567
Si       3.83958982      -0.00000000      17.46020364  T        2      -0.00000000       0.00000000       0.01046568
Si       7.67917964      -0.00000000      17.46020364  T        2       0.00000000       0.00000000       0.01046569
Si      -0.00000000       3.83958982      17.46020364  T        2      -0.00000000       0.00000000       0.01046567
Si       3.83958982       3.83958982      17.46020364  T        2      -0.00000000       0.00000000       0.01046568
Si       7.67917964       3.83958982      17.46020364  T        2       0.00000000       0.00000000       0.01046568
Si       1.91979491       0.00000000      18.77568516  T        1      -0.00000001       0.00000001       0.04842841
Si       5.75938473       0.00000000      18.77568516  T        1       0.00000000       0.00000001       0.04842841
Si       9.59897455       0.00000000      18.77568516  T        1      -0.00000000       0.00000001       0.04842841
Si       1.91979491       3.83958982      18.77568516  T        1      -0.00000001      -0.00000001       0.04842841
Si       5.75938473       3.83958982      18.77568516  T        1       0.00000000      -0.00000001       0.04842841
Si       9.59897455       3.83958982      18.77568516  T        1      -0.00000000      -0.00000001       0.04842841
36
Lattice="11.518769465528859 0.0 0.0 0.0 7.679179643685906 0.0 0.0 0.0 30.7875" Properties=species:S:1:pos:R:3:move_mask:L:1:tags:I:1:forces:R:3 energy=-180.2605643549837 pbc="T T F"
Si       0.00000000       0.00000000      12.00000000  F        6      -0.00000004       0.00000000       0.24693662
Si       3.83958982       0.00000000      12.00000000  F        6      -0.00000000       0.00000000       0.24693660
Si       7.67917964       0.00000000      12.00000000  F        6       0.00000000       0.00000000       0.24693660
Si       0.00000000       3.83958982      12.00000000  F        6      -0.00000004      -0.00000000       0.24693662
Si       3.83958982       3.83958982      12.00000000  F        6      -0.00000000      -0.00000000       0.24693660
Si       7.67917964       3.83958982      12.00000000  F        6       0.00000000      -0.00000000       0.24693660
Si       1.91979491       0.00000000      13.35750000  F        5       0.00000000      -0.00000002      -0.50716568
Si       5.75938473       0.00000000      13.35750000  F        5       0.00000000      -0.00000002      -0.50716568
Si       9.59897455       0.00000000      13.35750000  F        5       0.00000003      -0.00000002      -0.50716570
Si       1.91979491       3.83958982      13.35750000  F        5       0.00000000       0.00000000      -0.50716569
Si       5.75938473       3.83958982      13.35750000  F        5       0.00000000       0.00000000      -0.50716569
Si       9.59897455       3.83958982      13.35750000  F        5       0.00000003       0.00000000      -0.50716571
Si       1.91979491       1.91979491      14.71500000  F        4      -0.00000001      -0.00000000       0.13524191
Si       5.75938473       1.91979491      14.71500000  F        4       0.00000000      -0.00000000       0.13524191
Si       9.59897455       1.91979491      14.71500000  F        4       0.00000002      -0.00000000       0.13524191
Si       1.91979491       5.75938473      14.71500000  F        4      -0.00000001       0.00000002       0.13524190
Si       5.75938473       5.75938473      14.71500000  F        4       0.00000000       0.00000002       0.13524190
Si       9.59897455       5.75938473      14.71500000  F        4       0.00000002       0.00000002       0.13524190
Si      -0.00000000       1.91979491      16.07036418  T        3      -0.00000000      -0.00000000       0.06243703
Si       3.83958982       1.91979491      16.07036418  T        3      -0.00000000      -0.00000000       0.06243703
Si       7.67917964       1.91979491      16.07036418  T        3       0.00000000      -0.00000000       0.06243703
Si      -0.00000000       5.75938473      16.07036418  T        3      -0.00000000      -0.00000000       0.06243703
Si       3.83958982       5.75938473      16.07036418  T        3      -0.00000000      -0.00000000       0.06243703
Si       7.67917964       5.75938473      16.07036418  T        3       0.00000000      -0.00000000       0.06243703
Si      -0.00000000      -0.00000000      17.46019767  T        2      -0.00000000       0.00000000       0.01678894
Si       3.83958982      -0.00000000      17.46019767  T        2      -0.00000000       0.00000000       0.01678895
Si       7.67917964      -0.00000000      17.46019767  T        2       0.00000000       0.00000000       0.01678895
Si      -0.00000000       3.83958982      17.46019767  T        2      -0.00000000       0.00000000       0.01678894
Si       3.83958982       3.83958982      17.46019767  T        2      -0.00000000       0.00000000       0.01678894
Si       7.67917964       3.83958982      17.46019767  T        2       0.00000000       0.00000000       0.01678895
Si       1.91979491       0.00000000      18.77606675  T        1      -0.00000001       0.00000001       0.04576121
Si       5.75938473       0.00000000      18.77606675  T        1       0.00000000       0.00000001       0.04576121
Si       9.59897455       0.00000000      18.77606675  T        1       0.00000000       0.00000001       0.04576121
Si       1.91979491       3.83958982      18.77606675  T        1      -0.00000001      -0.00000001       0.04576121
Si       5.75938473       3.83958982      18.77606675  T        1       0.00000000      -0.00000001       0.04576121
Si       9.59897455       3.83958982      18.77606675  T        1       0.00000000      -0.00000001       0.04576121
36
Lattice="11.518769465528859 0.0 0.0 0.0 7.679179643685906 0.0 0.0 0.0 30.7875" Properties=species:S:1:pos:R:3:move_mask:L:1:tags:I:1:forces:R:3 energy=-180.26094416341164 pbc="T T F"
Si       0.00000000       0.00000000      12.00000000  F        6      -0.00000004       0.00000000       0.24709053
Si       3.83958982       0.00000000      12.00000000  F        6      -0.00000000       0.00000000       0.24709051
Si       7.67917964       0.00000000      12.00000000  F        6       0.00000000       0.00000000       0.24709051
Si       0.00000000       3.83958982      12.00000000  F        6      -0.00000004      -0.00000000       0.24709053
Si       3.83958982       3.83958982      12.00000000  F        6      -0.00000000      -0.00000000       0.24709051
Si       7.67917964       3.83958982      12.00000000  F        6       0.00000000      -0.00000000       0.24709051
Si       1.91979491       0.00000000      13.35750000  F        5       0.00000000      -0.00000002      -0.50697408
Si       5.75938473       0.00000000      13.35750000  F        5       0.00000000      -0.00000002      -0.50697409
Si       9.59897455       0.00000000      13.35750000  F        5       0.00000003      -0.00000002      -0.50697410
Si       1.91979491       3.83958982      13.35750000  F        5       0.00000000       0.00000000      -0.50697409
Si       5.75938473       3.83958982      13.35750000  F        5       0.00000000       0.00000000      -0.50697410
Si       9.59897455       3.83958982      13.35750000  F        5       0.00000003       0.00000000      -0.50697412
Si       1.91979491       1.91979491      14.71500000  F        4      -0.00000001      -0.00000000       0.14024397
Si       5.75938473       1.91979491      14.71500000  F        4       0.00000000      -0.00000000       0.14024397
Si       9.59897455       1.91979491      14.71500000  F        4       0.00000002      -0.00000000       0.14024397
Si       1.91979491       5.75938473      14.71500000  F        4      -0.00000001       0.00000002       0.14024396
Si       5.75938473       5.75938473      14.71500000  F        4       0.00000000       0.00000002       0.14024396
Si       9.59897455       5.75938473      14.71500000  F        4       0.00000002       0.00000002       0.14024396
Si      -0.00000000       1.91979491      16.07109093  T        3      -0.00000000      -0.00000000       0.05294289
Si       3.83958982       1.91979491      16.07109093  T        3      -0.00000000      -0.00000000       0.05294290
Si       7.67917964       1.91979491      16.07109093  T        3       0.00000000      -0.00000000       0.05294290
Si      -0.00000000       5.75938473      16.07109093  T        3      -0.00000000      -0.00000000       0.05294289
Si       3.83958982       5.75938473      16.07109094  T        3      -0.00000000      -0.00000000       0.05294289
Si       7.67917964       5.75938473      16.07109094  T        3       0.00000000      -0.00000000       0.05294289
Si      -0.00000000      -0.00000000      17.46022530  T        2      -0.00000000      -0.00000000       0.02399016
Si       3.83958982      -0.00000000      17.46022530  T        2      -0.00000000      -0.00000000       0.02399017
Si       7.67917964      -0.00000000      17.46022530  T        2       0.00000000      -0.00000000       0.02399017
Si      -0.00000000       3.83958982      17.46022530  T        2      -0.00000000       0.00000000       0.02399016
Si       3.83958982       3.83958982      17.46022530  T        2      -0.00000000       0.00000000       0.02399016
Si       7.67917964       3.83958982      17.46022530  T        2       0.00000000       0.00000000       0.02399016
Si       1.91979491       0.00000000      18.77653724  T        1      -0.00000000       0.00000001       0.04270656
Si       5.75938473       0.00000000      18.77653724  T        1       0.00000000       0.00000001       0.04270656
Si       9.59897455       0.00000000      18.77653724  T        1       0.00000000       0.00000001       0.04270656
Si       1.91979491       3.83958982      18.77653724  T        1      -0.00000000      -0.00000001       0.04270656
Si       5.75938473       3.83958982      18.77653724  T        1       0.00000000      -0.00000001       0.04270656
Si       9.59897455       3.83958982      18.77653724  T        1       0.00000000      -0.00000001       0.04270656
36
Lattice="11.518769465528859 0.0 0.0 0.0 7.679179643685906 0.0 0.0 0.0 30.7875" Properties=species:S:1:pos:R:3:move_mask:L:1:tags:I:1:forces:R:3 energy=-180.26134459684584 pbc="T T F"
Si       0.00000000       0.00000000      12.00000000  F        6      -0.00000004       0.00000000       0.24727097
Si       3.83958982       0.00000000      12.00000000  F        6      -0.00000000       0.00000000       0.24727095
Si       7.67917964       0.00000000      12.00000000  F        6       0.00000000       0.00000000       0.24727095
Si       0.00000000       3.83958982      12.00000000  F        6      -0.00000004      -0.00000000       0.24727097
Si       3.83958982       3.83958982      12.00000000  F        6      -0.00000000      -0.00000000       0.24727095
Si       7.67917964       3.83958982      12.00000000  F        6       0.00000000      -0.00000000       0.24727095
Si       1.91979491       0.00000000      13.35750000  F        5       0.00000000      -0.00000002      -0.50671340
Si       5.75938473       0.00000000      13.35750000  F        5       0.00000000      -0.00000002      -0.50671340
Si       9.59897455       0.00000000      13.35750000  F        5       0.00000003      -0.00000002      -0.50671342
Si       1.91979491       3.83958982      13.35750000  F        5       0.00000000       0.00000000      -0.50671341
Si       5.75938473       3.83958982      13.35750000  F        5       0.00000000       0.00000000      -0.50671341
Si       9.59897455       3.83958982      13.35750000  F        5       0.00000003       0.00000000      -0.50671343
Si       1.91979491       1.91979491      14.71500000  F        4      -0.00000001      -0.00000000       0.14614730
Si       5.75938473       1.91979491      14.71500000  F        4       0.00000000      -0.00000000       0.14614730
Si       9.59897455       1.91979491      14.71500000  F        4       0.00000002      -0.00000000       0.14614730
Si       1.91979491       5.75938473      14.71500000  F        4      -0.00000001       0.00000002       0.14614729
Si       5.75938473       5.75938473      14.71500000  F        4       0.00000000       0.00000002       0.14614729
Si       9.59897455       5.75938473      14.71500000  F        4       0.00000002       0.00000002       0.14614729
Si      -0.00000000       1.91979491      16.07194698  T        3      -0.00000000      -0.00000000       0.04209604
Si       3.83958982       1.91979491      16.07194698  T        3      -0.00000000      -0.00000000       0.04209604
Si       7.67917964       1.91979491      16.07194698  T        3       0.00000000      -0.00000000       0.04209604
Si      -0.00000000       5.75938473      16.07194698  T        3      -0.00000000      -0.00000000       0.04209604
Si       3.83958982       5.75938473      16.07194698  T        3      -0.00000000      -0.00000000       0.04209604
Si       7.67917964       5.75938473      16.07194698  T        3       0.00000000      -0.00000000       0.04209604
Si      -0.00000000      -0.00000000      17.46031322  T        2      -0.00000000      -0.00000000       0.03186737
Si       3.83958982      -0.00000000      17.46031322  T        2      -0.00000000      -0.00000000       0.03186738
Si       7.67917964      -0.00000000      17.46031322  T        2       0.00000000      -0.00000000       0.03186738
Si      -0.00000000       3.83958982      17.46031322  T        2      -0.00000000       0.00000000       0.03186737
Si       3.83958982       3.83958982      17.46031322  T        2      -0.00000000       0.00000000       0.03186738
Si       7.67917964       3.83958982      17.46031322  T        2       0.00000000       0.00000000       0.03186738
Si       1.91979491       0.00000000      18.77711269  T        1      -0.00000000       0.00000001       0.03933175
Si       5.75938473       0.00000000      18.77711269  T        1       0.00000000       0.00000001       0.03933175
Si       9.59897455       0.00000000      18.77711268  T        1       0.00000000       0.00000001       0.03933175
Si       1.91979491       3.83958982      18.77711269  T        1      -0.00000000      -0.00000001       0.03933175
Si       5.75938473       3.83958982      18.77711269  T        1       0.00000000      -0.00000001       0.03933175
Si       9.59897455       3.83958982      18.77711268  T        1       0.00000000      -0.00000001       0.03933175
36
Lattice="11.518769465528859 0.0 0.0 0.0 7.679179643685906 0.0 0.0 0.0 30.7875" Properties=species:S:1:pos:R:3:move_mask:L:1:tags:I:1:forces:R:3 energy=-180.26175573168945 pbc="T T F"
Si       0.00000000       0.00000000      12.00000000  F        6      -0.00000004       0.00000000       0.24747706
Si       3.83958982       0.00000000      12.00000000  F        6      -0.00000000       0.00000000       0.24747704
Si       7.67917964       0.00000000      12.00000000  F        6       0.00000000       0.00000000       0.24747704
Si       0.00000000       3.83958982      12.00000000  F        6      -0.00000004      -0.00000000       0.24747706
Si       3.83958982       3.83958982      12.00000000  F        6      -0.00000000      -0.00000000       0.24747704
Si       7.67917964       3.83958982      12.00000000  F        6       0.00000000      -0.00000000       0.24747704
Si       1.91979491       0.00000000      13.35750000  F        5       0.00000000      -0.00000002      -0.50635802
Si       5.75938473       0.00000000      13.35750000  F        5       0.00000000      -0.00000002      -0.50635802
Si       9.59897455       0.00000000      13.35750000  F        5       0.00000003      -0.00000002      -0.50635804
Si       1.91979491       3.83958982      13.35750000  F        5       0.00000000       0.00000000      -0.50635803
Si       5.75938473       3.83958982      13.35750000  F        5       0.00000000       0.00000000      -0.50635803
Si       9.59897455       3.83958982      13.35750000  F        5       0.00000003       0.00000000      -0.50635805
Si       1.91979491       1.91979491      14.71500000  F        4      -0.00000001      -0.00000000       0.15295926
Si       5.75938473       1.91979491      14.71500000  F        4       0.00000000      -0.00000000       0.15295926
Si       9.59897455       1.91979491      14.71500000  F        4       0.00000002      -0.00000000       0.15295926
Si       1.91979491       5.75938473      14.71500000  F        4      -0.00000001       0.00000002       0.15295925
Si       5.75938473       5.75938473      14.71500000  F        4       0.00000000       0.00000002       0.15295925
Si       9.59897455       5.75938473      14.71500000  F        4       0.00000002       0.00000002       0.15295925
Si      -0.00000000       1.91979491      16.07293204  T        3      -0.00000000      -0.00000000       0.03014700
Si       3.83958982       1.91979491      16.07293204  T        3      -0.00000000      -0.00000000       0.03014700
Si       7.67917964       1.91979491      16.07293204  T        3       0.00000000      -0.00000000       0.03014700
Si      -0.00000000       5.75938473      16.07293204  T        3      -0.00000000       0.00000000       0.03014700
Si       3.83958982       5.75938473      16.07293205  T        3      -0.00000000       0.00000000       0.03014700
Si       7.67917964       5.75938473      16.07293205  T        3       0.00000000       0.00000000       0.03014700
Si      -0.00000000      -0.00000000      17.46050140  T        2      -0.00000000      -0.00000000       0.03998722
Si       3.83958982      -0.00000000      17.46050140  T        2      -0.00000000      -0.00000000       0.03998723
Si       7.67917964      -0.00000000      17.46050140  T        2       0.00000000      -0.00000000       0.03998723
Si      -0.00000000       3.83958982      17.46050140  T        2      -0.00000000       0.00000000       0.03998722
Si       3.83958982       3.83958982      17.46050140  T        2      -0.00000000       0.00000000       0.03998723
Si       7.67917964       3.83958982      17.46050140  T        2       0.00000000       0.00000000       0.03998723
Si       1.91979491       0.00000000      18.77780971  T        1      -0.00000000       0.00000001       0.03578750
Si       5.75938473       0.00000000      18.77780971  T        1       0.00000000       0.00000001       0.03578750
Si       9.59897455       0.00000000      18.77780971  T        1       0.00000000       0.00000001       0.03578750
Si       1.91979491       3.83958982      18.77780971  T        1      -0.00000000      -0.00000001       0.03578750
Si       5.75938473       3.83958982      18.77780971  T        1       0.00000000      -0.00000001       0.03578750
Si       9.59897455       3.83958982      18.77780971  T        1       0.00000000      -0.00000001       0.03578750
