39
Lattice="11.518769465528859 0.0 0.0 0.0 7.679179643685906 0.0 0.0 0.0 30.7875" Properties=species:S:1:pos:R:3:move_mask:L:1:tags:I:1:forces:R:3 surface=Si100 species=H2O site=bridge_Si_Si orientation=parallel height_A=6.5 substrate_atoms=36 calculation_kind="Rigid evaluated approach scan; not NEB" energy=-194.37464166994567 pbc="T T F"
Si       0.00000000       0.00000000      12.00000000  F        6      -0.00000004       0.00000000       0.24903484
Si       3.83958982       0.00000000      12.00000000  F        6      -0.00000000       0.00000000       0.24903482
Si       7.67917964       0.00000000      12.00000000  F        6       0.00000000       0.00000000       0.24903482
Si       0.00000000       3.83958982      12.00000000  F        6      -0.00000004      -0.00000000       0.24903484
Si       3.83958982       3.83958982      12.00000000  F        6      -0.00000000      -0.00000000       0.24903482
Si       7.67917964       3.83958982      12.00000000  F        6       0.00000000      -0.00000000       0.24903482
Si       1.91979491       0.00000000      13.35750000  F        5       0.00000000      -0.00000002      -0.52822352
Si       5.75938473       0.00000000      13.35750000  F        5       0.00000000      -0.00000002      -0.52822353
Si       9.59897455       0.00000000      13.35750000  F        5       0.00000003      -0.00000002      -0.52822354
Si       1.91979491       3.83958982      13.35750000  F        5       0.00000000       0.00000000      -0.52822354
Si       5.75938473       3.83958982      13.35750000  F        5       0.00000000       0.00000000      -0.52822354
Si       9.59897455       3.83958982      13.35750000  F        5       0.00000003       0.00000000      -0.52822356
Si       1.91979491       1.91979491      14.71500000  F        4      -0.00000000       0.00000000       0.14537709
Si       5.75938473       1.91979491      14.71500000  F        4       0.00000000       0.00000000       0.14537709
Si       9.59897455       1.91979491      14.71500000  F        4       0.00000004       0.00000000       0.14537711
Si       1.91979491       5.75938473      14.71500000  F        4      -0.00000000       0.00000002       0.14537707
Si       5.75938473       5.75938473      14.71500000  F        4       0.00000000       0.00000002       0.14537707
Si       9.59897455       5.75938473      14.71500000  F        4       0.00000004       0.00000002       0.14537709
Si       0.00000000       1.91979491      16.07250000  F        3      -0.00000004       0.00000000      -0.14537711
Si       3.83958982       1.91979491      16.07250000  F        3      -0.00000000       0.00000000      -0.14537709
Si       7.67917964       1.91979491      16.07250000  F        3       0.00000000       0.00000000      -0.14537709
Si       0.00000000       5.75938473      16.07250000  F        3      -0.00000004       0.00000002      -0.14537709
Si       3.83958982       5.75938473      16.07250000  F        3      -0.00000000       0.00000002      -0.14537707
Si       7.67917964       5.75938473      16.07250000  F        3       0.00000000       0.00000002      -0.14537707
Si       0.00000000       0.00000000      17.43000000  F        2      -0.00000003      -0.00000002       0.52822354
Si       3.83958982       0.00000000      17.43000000  F        2      -0.00000000      -0.00000002       0.52822353
Si       7.67917964       0.00000000      17.43000000  F        2      -0.00000000      -0.00000002       0.52822352
Si       0.00000000       3.83958982      17.43000000  F        2      -0.00000003       0.00000000       0.52822356
Si       3.83958982       3.83958982      17.43000000  F        2      -0.00000000       0.00000000       0.52822354
Si       7.67917964       3.83958982      17.43000000  F        2      -0.00000000       0.00000000       0.52822354
Si       1.91979491       0.00000000      18.78750000  F        1      -0.00000000       0.00000000      -0.24903482
Si       5.75938473       0.00000000      18.78750000  F        1       0.00000000       0.00000000      -0.24903482
Si       9.59897455       0.00000000      18.78750000  F        1       0.00000004       0.00000000      -0.24903484
Si       1.91979491       3.83958982      18.78750000  F        1      -0.00000000      -0.00000000      -0.24903482
Si       5.75938473       3.83958982      18.78750000  F        1       0.00000000      -0.00000000      -0.24903482
Si       9.59897455       3.83958982      18.78750000  F        1       0.00000004      -0.00000000      -0.24903484
O        7.27504832       3.83958982      26.04559147  T        0      -0.00791150       0.00000000       0.00000000
H        7.88124530       3.83958982      25.28750000  T        0       0.00395575       0.00000000      -0.00428516
H        7.88124530       3.83958982      26.80368294  T        0       0.00395575       0.00000000       0.00428516
39
Lattice="11.518769465528859 0.0 0.0 0.0 7.679179643685906 0.0 0.0 0.0 30.7875" Properties=species:S:1:pos:R:3:move_mask:L:1:tags:I:1:forces:R:3 surface=Si100 species=H2O site=bridge_Si_Si orientation=parallel height_A=5.0 substrate_atoms=36 calculation_kind="Rigid evaluated approach scan; not NEB" energy=-194.37464166994567 pbc="T T F"
Si       0.00000000       0.00000000      12.00000000  F        6      -0.00000004       0.00000000       0.24903484
Si       3.83958982       0.00000000      12.00000000  F        6      -0.00000000       0.00000000       0.24903482
Si       7.67917964       0.00000000      12.00000000  F        6       0.00000000       0.00000000       0.24903482
Si       0.00000000       3.83958982      12.00000000  F        6      -0.00000004      -0.00000000       0.24903484
Si       3.83958982       3.83958982      12.00000000  F        6      -0.00000000      -0.00000000       0.24903482
Si       7.67917964       3.83958982      12.00000000  F        6       0.00000000      -0.00000000       0.24903482
Si       1.91979491       0.00000000      13.35750000  F        5       0.00000000      -0.00000002      -0.52822352
Si       5.75938473       0.00000000      13.35750000  F        5       0.00000000      -0.00000002      -0.52822353
Si       9.59897455       0.00000000      13.35750000  F        5       0.00000003      -0.00000002      -0.52822354
Si       1.91979491       3.83958982      13.35750000  F        5       0.00000000       0.00000000      -0.52822354
Si       5.75938473       3.83958982      13.35750000  F        5       0.00000000       0.00000000      -0.52822354
Si       9.59897455       3.83958982      13.35750000  F        5       0.00000003       0.00000000      -0.52822356
Si       1.91979491       1.91979491      14.71500000  F        4      -0.00000000       0.00000000       0.14537709
Si       5.75938473       1.91979491      14.71500000  F        4       0.00000000       0.00000000       0.14537709
Si       9.59897455       1.91979491      14.71500000  F        4       0.00000004       0.00000000       0.14537711
Si       1.91979491       5.75938473      14.71500000  F        4      -0.00000000       0.00000002       0.14537707
Si       5.75938473       5.75938473      14.71500000  F        4       0.00000000       0.00000002       0.14537707
Si       9.59897455       5.75938473      14.71500000  F        4       0.00000004       0.00000002       0.14537709
Si       0.00000000       1.91979491      16.07250000  F        3      -0.00000004       0.00000000      -0.14537711
Si       3.83958982       1.91979491      16.07250000  F        3      -0.00000000       0.00000000      -0.14537709
Si       7.67917964       1.91979491      16.07250000  F        3       0.00000000       0.00000000      -0.14537709
Si       0.00000000       5.75938473      16.07250000  F        3      -0.00000004       0.00000002      -0.14537709
Si       3.83958982       5.75938473      16.07250000  F        3      -0.00000000       0.00000002      -0.14537707
Si       7.67917964       5.75938473      16.07250000  F        3       0.00000000       0.00000002      -0.14537707
Si       0.00000000       0.00000000      17.43000000  F        2      -0.00000003      -0.00000002       0.52822354
Si       3.83958982       0.00000000      17.43000000  F        2      -0.00000000      -0.00000002       0.52822353
Si       7.67917964       0.00000000      17.43000000  F        2      -0.00000000      -0.00000002       0.52822352
Si       0.00000000       3.83958982      17.43000000  F        2      -0.00000003       0.00000000       0.52822356
Si       3.83958982       3.83958982      17.43000000  F        2      -0.00000000       0.00000000       0.52822354
Si       7.67917964       3.83958982      17.43000000  F        2      -0.00000000       0.00000000       0.52822354
Si       1.91979491       0.00000000      18.78750000  F        1      -0.00000000       0.00000000      -0.24903482
Si       5.75938473       0.00000000      18.78750000  F        1       0.00000000       0.00000000      -0.24903482
Si       9.59897455       0.00000000      18.78750000  F        1       0.00000004       0.00000000      -0.24903484
Si       1.91979491       3.83958982      18.78750000  F        1      -0.00000000      -0.00000000      -0.24903482
Si       5.75938473       3.83958982      18.78750000  F        1       0.00000000      -0.00000000      -0.24903482
Si       9.59897455       3.83958982      18.78750000  F        1       0.00000004      -0.00000000      -0.24903484
O        7.27504832       3.83958982      24.54559147  T        0      -0.00791150       0.00000000       0.00000000
H        7.88124530       3.83958982      23.78750000  T        0       0.00395575       0.00000000      -0.00428516
H        7.88124530       3.83958982      25.30368294  T        0       0.00395575       0.00000000       0.00428516
39
Lattice="11.518769465528859 0.0 0.0 0.0 7.679179643685906 0.0 0.0 0.0 30.7875" Properties=species:S:1:pos:R:3:move_mask:L:1:tags:I:1:forces:R:3 surface=Si100 species=H2O site=bridge_Si_Si orientation=parallel height_A=4.0 substrate_atoms=36 calculation_kind="Rigid evaluated approach scan; not NEB" energy=-194.3772642966004 pbc="T T F"
Si       0.00000000       0.00000000      12.00000000  F        6      -0.00014203       0.00000000       0.24896982
Si       3.83958982       0.00000000      12.00000000  F        6       0.00003622       0.00000000       0.24899534
Si       7.67917964       0.00000000      12.00000000  F        6       0.00010579       0.00000000       0.24895908
Si       0.00000000       3.83958982      12.00000000  F        6      -0.00018511      -0.00000000       0.24917096
Si       3.83958982       3.83958982      12.00000000  F        6       0.00005878      -0.00000000       0.24908045
Si       7.67917964       3.83958982      12.00000000  F        6       0.00012630      -0.00000000       0.24918302
Si       1.91979491       0.00000000      13.35750000  F        5       0.00024205      -0.00000002      -0.52843716
Si       5.75938473       0.00000000      13.35750000  F        5      -0.00037353      -0.00000002      -0.52822989
Si       9.59897455       0.00000000      13.35750000  F        5       0.00013144      -0.00000002      -0.52804437
Si       1.91979491       3.83958982      13.35750000  F        5      -0.00011458       0.00000000      -0.52770712
Si       5.75938473       3.83958982      13.35750000  F        5       0.00015628       0.00000000      -0.52720094
Si       9.59897455       3.83958982      13.35750000  F        5      -0.00004162       0.00000000      -0.52679676
Si       1.91979491       1.91979491      14.71500000  F        4      -0.00032982       0.00003453       0.14550563
Si       5.75938473       1.91979491      14.71500000  F        4      -0.00002579       0.00084669       0.14662632
Si       9.59897455       1.91979491      14.71500000  F        4       0.00034707       0.00163990       0.14789166
Si       1.91979491       5.75938473      14.71500000  F        4      -0.00032982      -0.00003451       0.14550562
Si       5.75938473       5.75938473      14.71500000  F        4      -0.00002579      -0.00084667       0.14662631
Si       9.59897455       5.75938473      14.71500000  F        4       0.00034707      -0.00163988       0.14789165
Si       0.00000000       1.91979491      16.07250000  F        3      -0.00123752       0.00270894      -0.14776929
Si       3.83958982       1.91979491      16.07250000  F        3       0.00095396       0.00321460      -0.14602694
Si       7.67917964       1.91979491      16.07250000  F        3      -0.00094812      -0.01017424      -0.15609065
Si       0.00000000       5.75938473      16.07250000  F        3      -0.00123752      -0.00270891      -0.14776927
Si       3.83958982       5.75938473      16.07250000  F        3       0.00095396      -0.00321458      -0.14602692
Si       7.67917964       5.75938473      16.07250000  F        3      -0.00094812       0.01017426      -0.15609064
Si       0.00000000       0.00000000      17.43000000  F        2       0.00067512      -0.00000002       0.52745844
Si       3.83958982       0.00000000      17.43000000  F        2      -0.00072748      -0.00000002       0.52817307
Si       7.67917964       0.00000000      17.43000000  F        2       0.00018946      -0.00000002       0.52875866
Si       0.00000000       3.83958982      17.43000000  F        2      -0.00493655       0.00000000       0.53193024
Si       3.83958982       3.83958982      17.43000000  F        2       0.00472999       0.00000000       0.53396658
Si       7.67917964       3.83958982      17.43000000  F        2      -0.00237545       0.00000000       0.51924886
Si       1.91979491       0.00000000      18.78750000  F        1      -0.00025004       0.00000000      -0.25065220
Si       5.75938473       0.00000000      18.78750000  F        1       0.00297536       0.00000000      -0.24601060
Si       9.59897455       0.00000000      18.78750000  F        1      -0.00304397       0.00000000      -0.24230902
Si       1.91979491       3.83958982      18.78750000  F        1       0.00270226      -0.00000000      -0.25134940
Si       5.75938473       3.83958982      18.78750000  F        1      -0.02033194      -0.00000000      -0.25454360
Si       9.59897455       3.83958982      18.78750000  F        1       0.00934361      -0.00000000      -0.22130109
O        7.27504832       3.83958982      23.54559147  T        0      -0.00883759      -0.00000000      -0.02914350
H        7.88124530       3.83958982      22.78750000  T        0       0.00476600      -0.00000000      -0.01268867
H        7.88124530       3.83958982      24.30368294  T        0       0.01760167       0.00000000       0.03024631
39
Lattice="11.518769465528859 0.0 0.0 0.0 7.679179643685906 0.0 0.0 0.0 30.7875" Properties=species:S:1:pos:R:3:move_mask:L:1:tags:I:1:forces:R:3 surface=Si100 species=H2O site=bridge_Si_Si orientation=parallel height_A=3.25 substrate_atoms=36 calculation_kind="Rigid evaluated approach scan; not NEB" energy=-194.42876025314592 pbc="T T F"
Si       0.00000000       0.00000000      12.00000000  F        6      -0.00036182       0.00000000       0.24886317
Si       3.83958982       0.00000000      12.00000000  F        6       0.00040537       0.00000000       0.24895029
Si       7.67917964       0.00000000      12.00000000  F        6      -0.00004364       0.00000000       0.24923114
Si       0.00000000       3.83958982      12.00000000  F        6      -0.00024085      -0.00000000       0.24897984
Si       3.83958982       3.83958982      12.00000000  F        6       0.00024587      -0.00000000       0.24899727
Si       7.67917964       3.83958982      12.00000000  F        6      -0.00000504      -0.00000000       0.24927411
Si       1.91979491       0.00000000      13.35750000  F        5       0.00003012      -0.00000002      -0.52757109
Si       5.75938473       0.00000000      13.35750000  F        5      -0.00064376      -0.00000002      -0.52810611
Si       9.59897455       0.00000000      13.35750000  F        5       0.00061290      -0.00000002      -0.52768803
Si       1.91979491       3.83958982      13.35750000  F        5      -0.00012828       0.00000000      -0.52572953
Si       5.75938473       3.83958982      13.35750000  F        5       0.00011826       0.00000000      -0.52540464
Si       9.59897455       3.83958982      13.35750000  F        5      -0.00000534       0.00000000      -0.52460888
Si       1.91979491       1.91979491      14.71500000  F        4      -0.00161153      -0.00059111       0.14592716
Si       5.75938473       1.91979491      14.71500000  F        4       0.00256145       0.00156221       0.14821640
Si       9.59897455       1.91979491      14.71500000  F        4      -0.00200164      -0.00237932       0.14399409
Si       1.91979491       5.75938473      14.71500000  F        4      -0.00161153       0.00059113       0.14592714
Si       5.75938473       5.75938473      14.71500000  F        4       0.00256145      -0.00156219       0.14821639
Si       9.59897455       5.75938473      14.71500000  F        4      -0.00200164       0.00237934       0.14399408
Si       0.00000000       1.91979491      16.07250000  F        3       0.00415109      -0.00662869      -0.15242878
Si       3.83958982       1.91979491      16.07250000  F        3      -0.00251125      -0.00123258      -0.14935287
Si       7.67917964       1.91979491      16.07250000  F        3      -0.00254259      -0.01033872      -0.15760263
Si       0.00000000       5.75938473      16.07250000  F        3       0.00415109       0.00662871      -0.15242876
Si       3.83958982       5.75938473      16.07250000  F        3      -0.00251125       0.00123260      -0.14935286
Si       7.67917964       5.75938473      16.07250000  F        3      -0.00254259       0.01033874      -0.15760262
Si       0.00000000       0.00000000      17.43000000  F        2       0.00032324      -0.00000002       0.52744293
Si       3.83958982       0.00000000      17.43000000  F        2      -0.00229523      -0.00000002       0.52862178
Si       7.67917964       0.00000000      17.43000000  F        2       0.00134239      -0.00000002       0.52463763
Si       0.00000000       3.83958982      17.43000000  F        2       0.01880771       0.00000000       0.52446826
Si       3.83958982       3.83958982      17.43000000  F        2       0.00647693       0.00000000       0.52022720
Si       7.67917964       3.83958982      17.43000000  F        2      -0.00430372       0.00000000       0.44130217
Si       1.91979491       0.00000000      18.78750000  F        1       0.00054455       0.00000000      -0.25164306
Si       5.75938473       0.00000000      18.78750000  F        1       0.00251326       0.00000000      -0.24301261
Si       9.59897455       0.00000000      18.78750000  F        1      -0.00154053       0.00000000      -0.23857076
Si       1.91979491       3.83958982      18.78750000  F        1       0.00034063      -0.00000000      -0.23984353
Si       5.75938473       3.83958982      18.78750000  F        1       0.01145887      -0.00000000      -0.16669641
Si       9.59897455       3.83958982      18.78750000  F        1      -0.04936077      -0.00000000      -0.16048470
O        7.27504832       3.83958982      22.79559147  T        0      -0.08970828      -0.00000000      -0.05190836
H        7.88124530       3.83958982      22.03750000  T        0       0.06788870      -0.00000000      -0.07767727
H        7.88124530       3.83958982      23.55368294  T        0       0.04143740       0.00000000       0.07044245
39
Lattice="11.518769465528859 0.0 0.0 0.0 7.679179643685906 0.0 0.0 0.0 30.7875" Properties=species:S:1:pos:R:3:move_mask:L:1:tags:I:1:forces:R:3 surface=Si100 species=H2O site=bridge_Si_Si orientation=parallel height_A=2.75 substrate_atoms=36 calculation_kind="Rigid evaluated approach scan; not NEB" energy=-194.4743898403841 pbc="T T F"
Si       0.00000000       0.00000000      12.00000000  F        6      -0.00043908       0.00000000       0.24878200
Si       3.83958982       0.00000000      12.00000000  F        6       0.00048416       0.00000000       0.24888396
Si       7.67917964       0.00000000      12.00000000  F        6      -0.00004536       0.00000000       0.24981017
Si       0.00000000       3.83958982      12.00000000  F        6      -0.00034079      -0.00000000       0.24906272
Si       3.83958982       3.83958982      12.00000000  F        6       0.00031325      -0.00000000       0.24907243
Si       7.67917964       3.83958982      12.00000000  F        6       0.00002749      -0.00000000       0.24992221
Si       1.91979491       0.00000000      13.35750000  F        5       0.00037887      -0.00000002      -0.52557466
Si       5.75938473       0.00000000      13.35750000  F        5      -0.00060784      -0.00000002      -0.52755899
Si       9.59897455       0.00000000      13.35750000  F        5       0.00022847      -0.00000002      -0.52633309
Si       1.91979491       3.83958982      13.35750000  F        5       0.00016458       0.00000000      -0.52450764
Si       5.75938473       3.83958982      13.35750000  F        5      -0.00222605       0.00000000      -0.52875884
Si       9.59897455       3.83958982      13.35750000  F        5       0.00155999       0.00000000      -0.52562256
Si       1.91979491       1.91979491      14.71500000  F        4      -0.00272145      -0.00154872       0.14594573
Si       5.75938473       1.91979491      14.71500000  F        4       0.00266370       0.00005296       0.15037921
Si       9.59897455       1.91979491      14.71500000  F        4       0.00052853      -0.00282208       0.14820510
Si       1.91979491       5.75938473      14.71500000  F        4      -0.00272145       0.00154874       0.14594572
Si       5.75938473       5.75938473      14.71500000  F        4       0.00266370      -0.00005293       0.15037920
Si       9.59897455       5.75938473      14.71500000  F        4       0.00052853       0.00282211       0.14820508
Si       0.00000000       1.91979491      16.07250000  F        3       0.00052052       0.00072205      -0.15622780
Si       3.83958982       1.91979491      16.07250000  F        3       0.00596833       0.00947063      -0.14189565
Si       7.67917964       1.91979491      16.07250000  F        3      -0.00651198      -0.02954025      -0.17001063
Si       0.00000000       5.75938473      16.07250000  F        3       0.00052052      -0.00072203      -0.15622779
Si       3.83958982       5.75938473      16.07250000  F        3       0.00596833      -0.00947060      -0.14189563
Si       7.67917964       5.75938473      16.07250000  F        3      -0.00651198       0.02954027      -0.17001061
Si       0.00000000       0.00000000      17.43000000  F        2       0.00551351      -0.00000002       0.52017950
Si       3.83958982       0.00000000      17.43000000  F        2      -0.00305370      -0.00000002       0.52729343
Si       7.67917964       0.00000000      17.43000000  F        2      -0.00192653      -0.00000002       0.51681168
Si       0.00000000       3.83958982      17.43000000  F        2       0.03775437       0.00000000       0.51202516
Si       3.83958982       3.83958982      17.43000000  F        2      -0.01255286       0.00000000       0.49497320
Si       7.67917964       3.83958982      17.43000000  F        2      -0.01815925       0.00000000       0.46445257
Si       1.91979491       0.00000000      18.78750000  F        1       0.00069582       0.00000000      -0.25248212
Si       5.75938473       0.00000000      18.78750000  F        1       0.00066246       0.00000000      -0.24203713
Si       9.59897455       0.00000000      18.78750000  F        1      -0.00447114       0.00000000      -0.23045226
Si       1.91979491       3.83958982      18.78750000  F        1       0.00518955      -0.00000000      -0.23629407
Si       5.75938473       3.83958982      18.78750000  F        1       0.02333632      -0.00000000      -0.13414682
Si       9.59897455       3.83958982      18.78750000  F        1      -0.08327471      -0.00000000      -0.09439719
O        7.27504832       3.83958982      22.29559147  T        0      -0.10377118      -0.00000000      -0.12982086
H        7.88124530       3.83958982      21.53750000  T        0       0.10289111      -0.00000000      -0.10749769
H        7.88124530       3.83958982      23.05368294  T        0       0.05077327      -0.00000000       0.10142297
39
Lattice="11.518769465528859 0.0 0.0 0.0 7.679179643685906 0.0 0.0 0.0 30.7875" Properties=species:S:1:pos:R:3:move_mask:L:1:tags:I:1:forces:R:3 surface=Si100 species=H2O site=bridge_Si_Si orientation=parallel height_A=2.25 substrate_atoms=36 calculation_kind="Rigid evaluated approach scan; not NEB" energy=-194.54974650245816 pbc="T T F"
Si       0.00000000       0.00000000      12.00000000  F        6      -0.00113437       0.00000000       0.24820740
Si       3.83958982       0.00000000      12.00000000  F        6       0.00056521       0.00000000       0.24946571
Si       7.67917964       0.00000000      12.00000000  F        6       0.00056892       0.00000000       0.25099232
Si       0.00000000       3.83958982      12.00000000  F        6      -0.00108417      -0.00000000       0.24893248
Si       3.83958982       3.83958982      12.00000000  F        6       0.00037771      -0.00000000       0.24938572
Si       7.67917964       3.83958982      12.00000000  F        6       0.00070604      -0.00000000       0.25055509
Si       1.91979491       0.00000000      13.35750000  F        5       0.00134081      -0.00000002      -0.52407377
Si       5.75938473       0.00000000      13.35750000  F        5      -0.00156963      -0.00000002      -0.52861081
Si       9.59897455       0.00000000      13.35750000  F        5       0.00023165      -0.00000002      -0.52526126
Si       1.91979491       3.83958982      13.35750000  F        5       0.00001309       0.00000000      -0.52568757
Si       5.75938473       3.83958982      13.35750000  F        5      -0.00453050       0.00000000      -0.53454055
Si       9.59897455       3.83958982      13.35750000  F        5       0.00288112       0.00000000      -0.52547236
Si       1.91979491       1.91979491      14.71500000  F        4      -0.00498861      -0.00153553       0.14720929
Si       5.75938473       1.91979491      14.71500000  F        4       0.00424347      -0.00923524       0.14695937
Si       9.59897455       1.91979491      14.71500000  F        4       0.00244021      -0.00434488       0.15705961
Si       1.91979491       5.75938473      14.71500000  F        4      -0.00498861       0.00153555       0.14720927
Si       5.75938473       5.75938473      14.71500000  F        4       0.00424347       0.00923527       0.14695936
Si       9.59897455       5.75938473      14.71500000  F        4       0.00244021       0.00434490       0.15705960
Si       0.00000000       1.91979491      16.07250000  F        3      -0.00866409       0.00846302      -0.15229436
Si       3.83958982       1.91979491      16.07250000  F        3       0.01487255       0.02967338      -0.12723143
Si       7.67917964       1.91979491      16.07250000  F        3       0.00103093      -0.06611963      -0.18825011
Si       0.00000000       5.75938473      16.07250000  F        3      -0.00866409      -0.00846299      -0.15229435
Si       3.83958982       5.75938473      16.07250000  F        3       0.01487255      -0.02967336      -0.12723142
Si       7.67917964       5.75938473      16.07250000  F        3       0.00103093       0.06611966      -0.18825009
Si       0.00000000       0.00000000      17.43000000  F        2       0.00586892      -0.00000002       0.51499403
Si       3.83958982       0.00000000      17.43000000  F        2       0.00071568      -0.00000002       0.53392966
Si       7.67917964       0.00000000      17.43000000  F        2      -0.00873633      -0.00000002       0.50325132
Si       0.00000000       3.83958982      17.43000000  F        2       0.08298803       0.00000000       0.48747143
Si       3.83958982       3.83958982      17.43000000  F        2      -0.04102312       0.00000000       0.47262937
Si       7.67917964       3.83958982      17.43000000  F        2      -0.02573676       0.00000000       0.49546599
Si       1.91979491       0.00000000      18.78750000  F        1       0.00154161       0.00000000      -0.25807045
Si       5.75938473       0.00000000      18.78750000  F        1       0.00462764       0.00000000      -0.24096083
Si       9.59897455       0.00000000      18.78750000  F        1       0.00102034       0.00000000      -0.23900766
Si       1.91979491       3.83958982      18.78750000  F        1       0.00324471      -0.00000000      -0.24421529
Si       5.75938473       3.83958982      18.78750000  F        1      -0.03510134      -0.00000000      -0.14922011
Si       9.59897455       3.83958982      18.78750000  F        1      -0.12608326      -0.00000000      -0.03995567
O        7.27504832       3.83958982      21.79559147  T        0      -0.19641454      -0.00000000      -0.06575925
H        7.88124530       3.83958982      21.03750000  T        0       0.24130624       0.00000000      -0.06113469
H        7.88124530       3.83958982      22.55368294  T        0       0.07554737      -0.00000000      -0.01021498
39
Lattice="11.518769465528859 0.0 0.0 0.0 7.679179643685906 0.0 0.0 0.0 30.7875" Properties=species:S:1:pos:R:3:move_mask:L:1:tags:I:1:forces:R:3 surface=Si100 species=H2O site=bridge_Si_Si orientation=parallel height_A=1.9 substrate_atoms=36 calculation_kind="Rigid evaluated approach scan; not NEB" energy=-194.5584273945583 pbc="T T F"
Si       0.00000000       0.00000000      12.00000000  F        6      -0.00165791       0.00000000       0.24840458
Si       3.83958982       0.00000000      12.00000000  F        6       0.00043676       0.00000000       0.24971470
Si       7.67917964       0.00000000      12.00000000  F        6       0.00122123       0.00000000       0.25115247
Si       0.00000000       3.83958982      12.00000000  F        6      -0.00168667      -0.00000000       0.24898569
Si       3.83958982       3.83958982      12.00000000  F        6       0.00030330      -0.00000000       0.24949672
Si       7.67917964       3.83958982      12.00000000  F        6       0.00138293      -0.00000000       0.25096618
Si       1.91979491       0.00000000      13.35750000  F        5       0.00178333      -0.00000002      -0.52404596
Si       5.75938473       0.00000000      13.35750000  F        5      -0.00308249      -0.00000002      -0.53108809
Si       9.59897455       0.00000000      13.35750000  F        5       0.00130281      -0.00000002      -0.52627790
Si       1.91979491       3.83958982      13.35750000  F        5      -0.00105669       0.00000000      -0.52927398
Si       5.75938473       3.83958982      13.35750000  F        5      -0.00211012       0.00000000      -0.53441206
Si       9.59897455       3.83958982      13.35750000  F        5       0.00105985       0.00000000      -0.52133546
Si       1.91979491       1.91979491      14.71500000  F        4      -0.00730937       0.00006414       0.14920241
Si       5.75938473       1.91979491      14.71500000  F        4       0.01056041      -0.01325387       0.14283070
Si       9.59897455       1.91979491      14.71500000  F        4      -0.00120822      -0.00556716       0.16055508
Si       1.91979491       5.75938473      14.71500000  F        4      -0.00730937      -0.00006412       0.14920239
Si       5.75938473       5.75938473      14.71500000  F        4       0.01056041       0.01325389       0.14283068
Si       9.59897455       5.75938473      14.71500000  F        4      -0.00120822       0.00556718       0.16055507
Si       0.00000000       1.91979491      16.07250000  F        3      -0.00972740       0.00396464      -0.15010768
Si       3.83958982       1.91979491      16.07250000  F        3       0.01780138       0.03750336      -0.11029337
Si       7.67917964       1.91979491      16.07250000  F        3       0.00039985      -0.05402186      -0.17862002
Si       0.00000000       5.75938473      16.07250000  F        3      -0.00972740      -0.00396462      -0.15010767
Si       3.83958982       5.75938473      16.07250000  F        3       0.01780138      -0.03750334      -0.11029336
Si       7.67917964       5.75938473      16.07250000  F        3       0.00039985       0.05402188      -0.17862001
Si       0.00000000       0.00000000      17.43000000  F        2       0.01129777      -0.00000002       0.50961288
Si       3.83958982       0.00000000      17.43000000  F        2       0.00735232      -0.00000002       0.54851531
Si       7.67917964       0.00000000      17.43000000  F        2      -0.02319038      -0.00000002       0.48466814
Si       0.00000000       3.83958982      17.43000000  F        2       0.12372091       0.00000000       0.45080931
Si       3.83958982       3.83958982      17.43000000  F        2      -0.12913272       0.00000000       0.40993833
Si       7.67917964       3.83958982      17.43000000  F        2      -0.05007356       0.00000000       0.41856156
Si       1.91979491       0.00000000      18.78750000  F        1       0.00415169       0.00000000      -0.26560890
Si       5.75938473       0.00000000      18.78750000  F        1      -0.00467226       0.00000000      -0.25603245
Si       9.59897455       0.00000000      18.78750000  F        1       0.01783374       0.00000000      -0.24396417
Si       1.91979491       3.83958982      18.78750000  F        1       0.01332846      -0.00000000      -0.24037039
Si       5.75938473       3.83958982      18.78750000  F        1      -0.03037789      -0.00000000      -0.22902702
Si       9.59897455       3.83958982      18.78750000  F        1      -0.10947071      -0.00000000      -0.09127660
O        7.27504832       3.83958982      21.44559147  T        0      -0.30318495       0.00000000       0.17970921
H        7.88124530       3.83958982      20.68750000  T        0       0.41149120       0.00000000      -0.03588650
H        7.88124530       3.83958982      22.20368294  T        0       0.04199673      -0.00000000       0.00093017
39
Lattice="11.518769465528859 0.0 0.0 0.0 7.679179643685906 0.0 0.0 0.0 30.7875" Properties=species:S:1:pos:R:3:move_mask:L:1:tags:I:1:forces:R:3 surface=Si100 species=H2O site=bridge_Si_Si orientation=parallel height_A=1.6 substrate_atoms=36 calculation_kind="Rigid evaluated approach scan; not NEB" energy=-194.433433009437 pbc="T T F"
Si       0.00000000       0.00000000      12.00000000  F        6      -0.00176229       0.00000000       0.24927945
Si       3.83958982       0.00000000      12.00000000  F        6      -0.00013223       0.00000000       0.25002398
Si       7.67917964       0.00000000      12.00000000  F        6       0.00187535       0.00000000       0.25271037
Si       0.00000000       3.83958982      12.00000000  F        6      -0.00202379      -0.00000000       0.24984867
Si       3.83958982       3.83958982      12.00000000  F        6      -0.00020578      -0.00000000       0.24937494
Si       7.67917964       3.83958982      12.00000000  F        6       0.00222465      -0.00000000       0.25151650
Si       1.91979491       0.00000000      13.35750000  F        5       0.00193537      -0.00000002      -0.52457911
Si       5.75938473       0.00000000      13.35750000  F        5      -0.00330490      -0.00000002      -0.53460204
Si       9.59897455       0.00000000      13.35750000  F        5       0.00152215      -0.00000002      -0.52858310
Si       1.91979491       3.83958982      13.35750000  F        5      -0.00329541       0.00000000      -0.53548425
Si       5.75938473       3.83958982      13.35750000  F        5       0.00268725       0.00000000      -0.53372951
Si       9.59897455       3.83958982      13.35750000  F        5      -0.00169920       0.00000000      -0.51650504
Si       1.91979491       1.91979491      14.71500000  F        4      -0.00996198       0.00026193       0.14911235
Si       5.75938473       1.91979491      14.71500000  F        4       0.01559619      -0.01607834       0.13732143
Si       9.59897455       1.91979491      14.71500000  F        4      -0.00316971      -0.01015924       0.15534246
Si       1.91979491       5.75938473      14.71500000  F        4      -0.00996198      -0.00026191       0.14911234
Si       5.75938473       5.75938473      14.71500000  F        4       0.01559619       0.01607836       0.13732141
Si       9.59897455       5.75938473      14.71500000  F        4      -0.00316971       0.01015926       0.15534245
Si       0.00000000       1.91979491      16.07250000  F        3      -0.00940154       0.00144959      -0.14997742
Si       3.83958982       1.91979491      16.07250000  F        3       0.01862202       0.04848346      -0.09297143
Si       7.67917964       1.91979491      16.07250000  F        3      -0.00518329      -0.03943452      -0.17663946
Si       0.00000000       5.75938473      16.07250000  F        3      -0.00940154      -0.00144957      -0.14997740
Si       3.83958982       5.75938473      16.07250000  F        3       0.01862202      -0.04848344      -0.09297142
Si       7.67917964       5.75938473      16.07250000  F        3      -0.00518329       0.03943455      -0.17663945
Si       0.00000000       0.00000000      17.43000000  F        2       0.01825547      -0.00000002       0.50236451
Si       3.83958982       0.00000000      17.43000000  F        2       0.01170522      -0.00000002       0.56124896
Si       7.67917964       0.00000000      17.43000000  F        2      -0.03345019      -0.00000002       0.44858664
Si       0.00000000       3.83958982      17.43000000  F        2       0.13565338       0.00000000       0.44567280
Si       3.83958982       3.83958982      17.43000000  F        2      -0.28831829       0.00000000       0.29891096
Si       7.67917964       3.83958982      17.43000000  F        2      -0.09093034       0.00000000       0.35768574
Si       1.91979491       0.00000000      18.78750000  F        1       0.00647646       0.00000000      -0.27141401
Si       5.75938473       0.00000000      18.78750000  F        1      -0.02875294       0.00000000      -0.26991025
Si       9.59897455       0.00000000      18.78750000  F        1       0.02993369       0.00000000      -0.22760722
Si       1.91979491       3.83958982      18.78750000  F        1       0.03286159      -0.00000000      -0.23366906
Si       5.75938473       3.83958982      18.78750000  F        1      -0.00346267      -0.00000000      -0.41122459
Si       9.59897455       3.83958982      18.78750000  F        1       0.07789798      -0.00000000      -0.33757917
O        7.27504832       3.83958982      21.14559147  T        0      -0.37508020       0.00000000       0.66671068
H        7.88124530       3.83958982      20.38750000  T        0       0.52952722       0.00000000      -0.02835848
H        7.88124530       3.83958982      21.90368294  T        0      -0.03314096       0.00000000       0.12493576
39
Lattice="11.518769465528859 0.0 0.0 0.0 7.679179643685906 0.0 0.0 0.0 30.7875" Properties=species:S:1:pos:R:3:move_mask:L:1:tags:I:1:forces:R:3 surface=Si100 species=H2O site=bridge_Si_Si orientation=parallel height_A=1.3 substrate_atoms=36 calculation_kind="Rigid evaluated approach scan; not NEB" energy=-194.07048526536187 pbc="T T F"
Si       0.00000000       0.00000000      12.00000000  F        6      -0.00104484       0.00000000       0.25065895
Si       3.83958982       0.00000000      12.00000000  F        6      -0.00123584       0.00000000       0.25095588
Si       7.67917964       0.00000000      12.00000000  F        6       0.00220411       0.00000000       0.25633420
Si       0.00000000       3.83958982      12.00000000  F        6      -0.00140632      -0.00000000       0.25091822
Si       3.83958982       3.83958982      12.00000000  F        6      -0.00132809      -0.00000000       0.24906334
Si       7.67917964       3.83958982      12.00000000  F        6       0.00271915      -0.00000000       0.25099397
Si       1.91979491       0.00000000      13.35750000  F        5       0.00174341      -0.00000002      -0.52645800
Si       5.75938473       0.00000000      13.35750000  F        5      -0.00177503      -0.00000002      -0.54034436
Si       9.59897455       0.00000000      13.35750000  F        5       0.00076103      -0.00000002      -0.53415871
Si       1.91979491       3.83958982      13.35750000  F        5      -0.00652662       0.00000000      -0.54336484
Si       5.75938473       3.83958982      13.35750000  F        5       0.00442002       0.00000000      -0.54012289
Si       9.59897455       3.83958982      13.35750000  F        5      -0.00092581       0.00000000      -0.51651154
Si       1.91979491       1.91979491      14.71500000  F        4      -0.01364678      -0.00131600       0.14412730
Si       5.75938473       1.91979491      14.71500000  F        4       0.01777073      -0.02300763       0.12654620
Si       9.59897455       1.91979491      14.71500000  F        4      -0.00176235      -0.01665968       0.15029244
Si       1.91979491       5.75938473      14.71500000  F        4      -0.01364678       0.00131602       0.14412728
Si       5.75938473       5.75938473      14.71500000  F        4       0.01777073       0.02300765       0.12654618
Si       9.59897455       5.75938473      14.71500000  F        4      -0.00176235       0.01665970       0.15029243
Si       0.00000000       1.91979491      16.07250000  F        3      -0.01384161       0.00386208      -0.14703005
Si       3.83958982       1.91979491      16.07250000  F        3       0.02176009       0.06801433      -0.07506144
Si       7.67917964       1.91979491      16.07250000  F        3      -0.00197512      -0.04345674      -0.19623856
Si       0.00000000       5.75938473      16.07250000  F        3      -0.01384161      -0.00386206      -0.14703003
Si       3.83958982       5.75938473      16.07250000  F        3       0.02176009      -0.06801431      -0.07506143
Si       7.67917964       5.75938473      16.07250000  F        3      -0.00197512       0.04345677      -0.19623855
Si       0.00000000       0.00000000      17.43000000  F        2       0.01681780      -0.00000002       0.49856944
Si       3.83958982       0.00000000      17.43000000  F        2       0.00629048      -0.00000002       0.56554472
Si       7.67917964       0.00000000      17.43000000  F        2      -0.03879978      -0.00000002       0.37338855
Si       0.00000000       3.83958982      17.43000000  F        2       0.10590705       0.00000000       0.46294365
Si       3.83958982       3.83958982      17.43000000  F        2      -0.49939336       0.00000000       0.18020196
Si       7.67917964       3.83958982      17.43000000  F        2      -0.12170351       0.00000000       0.34426073
Si       1.91979491       0.00000000      18.78750000  F        1       0.00827971       0.00000000      -0.27301937
Si       5.75938473       0.00000000      18.78750000  F        1      -0.05359249       0.00000000      -0.26236987
Si       9.59897455       0.00000000      18.78750000  F        1       0.04013951       0.00000000      -0.19951345
Si       1.91979491       3.83958982      18.78750000  F        1       0.05294393      -0.00000000      -0.22443204
Si       5.75938473       3.83958982      18.78750000  F        1      -0.06751407      -0.00000000      -0.65195659
Si       9.59897455       3.83958982      18.78750000  F        1       0.58521118      -0.00000000      -0.78044383
O        7.27504832       3.83958982      20.84559147  T        0      -0.61820844       0.00000000       1.30776762
H        7.88124530       3.83958982      20.08750000  T        0       0.61819879       0.00000000       0.16660292
H        7.88124530       3.83958982      21.60368294  T        0      -0.04879188      -0.00000000       0.17921957
