31
Lattice="7.6044 0.0 0.0 -3.802199999999998 6.585603580538386 0.0 0.0 -0.0 28.35945" Properties=species:S:1:pos:R:3:move_mask:L:1:spacegroup_kinds:I:1:tags:I:1:forces:R:3 spacegroup="P 63/m" unit_cell=conventional occupancy="_JSON {\"0\": {\"Si\": 1.0}, \"1\": {\"N\": 1.0}, \"2\": {\"N\": 1.0}}" energy=-225.73478513252815 pbc="T T F"
Si       5.18010587       1.14956320      12.00000000  F        0        2       1.87021967       1.21608870       1.20689925
Si      -1.37790587       5.43604038      13.45315000  F        0        2       0.01440871       0.50536954      -1.55565932
Si       4.01879613       3.91132168      12.00000000  F        0        2      -1.98561057       1.05717513       1.18181800
Si      -0.21659613       2.67428190      13.45315000  F        0        2      -0.40544331      -0.06546990      -1.65589585
Si       2.20769800       1.52471870      12.00000000  F        0        2       0.09560014      -2.24847624       1.33316219
Si       1.59450200       5.06088488      13.45315000  F        0        2       0.35765368      -0.34931415      -1.56369245
N       -1.02370433       2.17482973      12.00000000  F        1        2      -0.64774362      -0.71510233       0.18208109
N        4.82590433       4.41077385      13.45315000  F        1        2       0.08822000      -0.64212646      -0.29140384
N        2.43059437       4.61163476      12.00000000  F        1        2       0.89320446      -0.18077437       0.16727563
N        1.37160563       1.97396882      13.45315000  F        1        2       0.18075667       0.39586007       0.12065122
N       -1.40689004       6.38474267      12.00000000  F        1        2      -0.31211905       0.83899516       0.10977663
N        5.20909004       0.20086091      13.45315000  F        1        2      -0.38787838      -0.06444315      -0.23016504
N        3.80216198       2.19517924      12.00000000  F        2        2       0.02700325       0.01678676      -1.31429629
N        0.00003802       4.39042434      13.45315000  F        2        2       0.04962549       0.03017411       0.46700613
Si       5.18010587       1.14956320      14.90630000  F        0        1       2.32494759      -1.78244680      -0.10734115
Si      -1.37790587       5.43604038      16.35945000  F        0        1      -1.53765913      -0.35000604       0.75163060
Si       4.01879613       3.91132168      14.90630000  F        0        1       0.54169160       0.73757345       2.38730456
Si      -0.21659613       2.67428190      16.35945000  F        0        1       2.04496197      -0.24664116      -1.50438899
Si       2.11928731       1.48229842      14.96097446  T        0        1      -0.10488166      -0.05611506       0.00163332
Si       1.59450200       5.06088488      16.35945000  F        0        1      -0.80061930       2.10816334      -1.29148120
N       -1.02370433       2.17482973      14.90630000  F        1        1      -0.75239535      -0.17017873       0.31349187
N        4.82590433       4.41077385      16.35945000  F        1        1       0.39002438      -0.05597346      -0.97739027
N        2.43059437       4.61163476      14.90630000  F        1        1       0.36555873      -0.63173731       0.20964845
N        1.37160563       1.97396882      16.35945000  F        1        1      -1.98424057       0.63487108       1.14807110
N       -1.40689004       6.38474267      14.90630000  F        1        1       0.18621745      -0.38394814      -0.27485492
N        5.20909004       0.20086091      16.35945000  F        1        1       0.15649213       0.00699703      -0.00572944
N        3.78822846       2.10368136      15.22995744  T        2        1      -0.05021453      -0.11937093       0.32198945
N        0.00003802       4.39042434      16.35945000  F        2        1       0.00228939      -0.55936385       1.42572583
O        2.49777362      -0.14165451      17.67096574  T        0        0      -0.00765446      -0.01165448       0.00271692
H        1.97648440       0.67895523      17.45860386  T        0        0       0.00272781      -0.00046432       0.00560234
H        4.07942673       1.36630307      16.27600418  T        0        0      -0.61514321       1.08555250      -0.56418582
31
Lattice="7.6044 0.0 0.0 -3.802199999999998 6.585603580538386 0.0 0.0 -0.0 28.35945" Properties=species:S:1:pos:R:3:move_mask:L:1:spacegroup_kinds:I:1:tags:I:1:forces:R:3 spacegroup="P 63/m" unit_cell=conventional occupancy="_JSON {\"0\": {\"Si\": 1.0}, \"1\": {\"N\": 1.0}, \"2\": {\"N\": 1.0}}" energy=-226.06726923198602 pbc="T T F"
Si       5.18010587       1.14956320      12.00000000  F        0        2       1.90502782       1.18922729       1.18067108
Si      -1.37790587       5.43604038      13.45315000  F        0        2       0.05286139       0.48675549      -1.60360961
Si       4.01879613       3.91132168      12.00000000  F        0        2      -1.99270813       1.08508829       1.12012236
Si      -0.21659613       2.67428190      13.45315000  F        0        2      -0.45813939      -0.02661314      -1.69159770
Si       2.20769800       1.52471870      12.00000000  F        0        2       0.08298781      -2.27706655       1.27133822
Si       1.59450200       5.06088488      13.45315000  F        0        2       0.35175907      -0.35467454      -1.56319546
N       -1.02370433       2.17482973      12.00000000  F        1        2      -0.65437654      -0.71629306       0.20354697
N        4.82590433       4.41077385      13.45315000  F        1        2       0.05182511      -0.71567839      -0.26179287
N        2.43059437       4.61163476      12.00000000  F        1        2       0.90114234      -0.18912554       0.18499734
N        1.37160563       1.97396882      13.45315000  F        1        2       0.19307138       0.38623394       0.12944448
N       -1.40689004       6.38474267      12.00000000  F        1        2      -0.31688735       0.85384993       0.13634286
N        5.20909004       0.20086091      13.45315000  F        1        2      -0.44485831       0.02116147      -0.22320463
N        3.80216198       2.19517924      12.00000000  F        2        2       0.02434072       0.01924154      -1.23442050
N        0.00003802       4.39042434      13.45315000  F        2        2       0.04530004       0.02367950       0.46748232
Si       5.18010587       1.14956320      14.90630000  F        0        1       2.39012953      -2.14763724       0.29008904
Si      -1.37790587       5.43604038      16.35945000  F        0        1      -1.46535030      -0.34597993       0.80483144
Si       4.01879613       3.91132168      14.90630000  F        0        1       0.55638529       1.02608864       2.46601669
Si      -0.21659613       2.67428190      16.35945000  F        0        1       1.98059103      -0.19199217      -1.45549751
Si       2.10189302       1.47356755      14.95976377  T        0        1      -0.23262019      -0.09511700      -0.06963250
Si       1.59450200       5.06088488      16.35945000  F        0        1      -0.77030989       2.34130819      -1.26841369
N       -1.02370433       2.17482973      14.90630000  F        1        1      -0.79787598      -0.16292875       0.27757593
N        4.82590433       4.41077385      16.35945000  F        1        1       0.37217327      -0.09622404      -1.02574066
N        2.43059437       4.61163476      14.90630000  F        1        1       0.43637832      -0.78301691       0.13556834
N        1.37160563       1.97396882      16.35945000  F        1        1      -2.01098983       0.62516328       1.19455867
N       -1.40689004       6.38474267      14.90630000  F        1        1       0.16452420      -0.43526079      -0.30781857
N        5.20909004       0.20086091      16.35945000  F        1        1       0.61666664      -0.69279610      -0.07491030
N        3.77932974       2.09349701      15.26311106  T        2        1      -0.25146476       0.46977562      -0.68689203
N        0.00003802       4.39042434      16.35945000  F        2        1       0.01563244      -0.59254246       1.41909849
O        2.49689314      -0.14301753      17.67121774  T        0        0       0.00621358      -0.00559233       0.00078161
H        1.97718364       0.67856636      17.45957025  T        0        0       0.01272822      -0.00585778       0.01016071
H        3.98826428       1.52775027      16.20255883  T        0        0      -0.76415752       1.30682353       0.17409947
31
Lattice="7.6044 0.0 0.0 -3.802199999999998 6.585603580538386 0.0 0.0 -0.0 28.35945" Properties=species:S:1:pos:R:3:move_mask:L:1:spacegroup_kinds:I:1:tags:I:1:forces:R:3 spacegroup="P 63/m" unit_cell=conventional occupancy="_JSON {\"0\": {\"Si\": 1.0}, \"1\": {\"N\": 1.0}, \"2\": {\"N\": 1.0}}" energy=-226.3745295964942 pbc="T T F"
Si       5.18010587       1.14956320      12.00000000  F        0        2       1.91989783       1.16801651       1.17602845
Si      -1.37790587       5.43604038      13.45315000  F        0        2       0.08168114       0.45900609      -1.65638299
Si       4.01879613       3.91132168      12.00000000  F        0        2      -1.99562356       1.08961997       1.10337971
Si      -0.21659613       2.67428190      13.45315000  F        0        2      -0.52499981       0.00291718      -1.73200861
Si       2.20769800       1.52471870      12.00000000  F        0        2       0.09345172      -2.28731915       1.21465672
Si       1.59450200       5.06088488      13.45315000  F        0        2       0.35457626      -0.34597568      -1.53269355
N       -1.02370433       2.17482973      12.00000000  F        1        2      -0.65686266      -0.71220888       0.21464846
N        4.82590433       4.41077385      13.45315000  F        1        2       0.06727951      -0.69981324      -0.27432880
N        2.43059437       4.61163476      12.00000000  F        1        2       0.90585103      -0.19810608       0.18849820
N        1.37160563       1.97396882      13.45315000  F        1        2       0.05728734       0.38390568       0.03776386
N       -1.40689004       6.38474267      12.00000000  F        1        2      -0.32033387       0.87218275       0.14959332
N        5.20909004       0.20086091      13.45315000  F        1        2      -0.46525553       0.05038068      -0.22669477
N        3.80216198       2.19517924      12.00000000  F        2        2       0.02136917       0.01887112      -1.18404138
N        0.00003802       4.39042434      13.45315000  F        2        2       0.04096769       0.01800633       0.47242084
Si       5.18010587       1.14956320      14.90630000  F        0        1       1.95704283      -2.13591985       0.73357011
Si      -1.37790587       5.43604038      16.35945000  F        0        1      -1.40695641      -0.33271385       0.85431281
Si       4.01879613       3.91132168      14.90630000  F        0        1       0.52181636       1.27629146       2.28557531
Si      -0.21659613       2.67428190      16.35945000  F        0        1       1.88609056      -0.13670096      -1.41397330
Si       2.07433752       1.46158961      14.95320754  T        0        1      -0.17063013      -0.02925789      -0.16565375
Si       1.59450200       5.06088488      16.35945000  F        0        1      -0.75228783       2.39997247      -1.25324213
N       -1.02370433       2.17482973      14.90630000  F        1        1      -0.81237984      -0.16336108       0.26280521
N        4.82590433       4.41077385      16.35945000  F        1        1       0.35755699      -0.16199997      -1.03994924
N        2.43059437       4.61163476      14.90630000  F        1        1       0.40033774      -0.75218505       0.13146455
N        1.37160563       1.97396882      16.35945000  F        1        1      -1.97311765       0.58465424       1.23236413
N       -1.40689004       6.38474267      14.90630000  F        1        1       0.15590423      -0.50243336      -0.31902761
N        5.20909004       0.20086091      16.35945000  F        1        1       0.63711160      -0.72931615      -0.20786540
N        3.75956597       2.11703136      15.23125876  T        2        1      -0.16586014       0.92233443      -2.15787804
N        0.00003802       4.39042434      16.35945000  F        2        1       0.03158106      -0.61283681       1.40273244
O        2.49658009      -0.14441060      17.67164033  T        0        0       0.02145890       0.00417094       0.01046683
H        1.97861727       0.67771801      17.46093808  T        0        0       0.01744151      -0.01359679       0.00399946
H        3.87108357       1.73375839      16.17009776  T        0        0      -0.28439603       0.56341496       1.68945917
31
Lattice="7.6044 0.0 0.0 -3.802199999999998 6.585603580538386 0.0 0.0 -0.0 28.35945" Properties=species:S:1:pos:R:3:move_mask:L:1:spacegroup_kinds:I:1:tags:I:1:forces:R:3 spacegroup="P 63/m" unit_cell=conventional occupancy="_JSON {\"0\": {\"Si\": 1.0}, \"1\": {\"N\": 1.0}, \"2\": {\"N\": 1.0}}" energy=-226.6440477191365 pbc="T T F"
Si       5.18010587       1.14956320      12.00000000  F        0        2       1.91314296       1.15689821       1.17733478
Si      -1.37790587       5.43604038      13.45315000  F        0        2       0.08646251       0.42611485      -1.70126050
Si       4.01879613       3.91132168      12.00000000  F        0        2      -1.98642072       1.08394333       1.11086168
Si      -0.21659613       2.67428190      13.45315000  F        0        2      -0.58559662       0.02304837      -1.75774188
Si       2.20769800       1.52471870      12.00000000  F        0        2       0.11865665      -2.28585746       1.15872752
Si       1.59450200       5.06088488      13.45315000  F        0        2       0.35175134      -0.32406607      -1.50768505
N       -1.02370433       2.17482973      12.00000000  F        1        2      -0.65172228      -0.70659656       0.22131810
N        4.82590433       4.41077385      13.45315000  F        1        2       0.11747485      -0.62075661      -0.31543840
N        2.43059437       4.61163476      12.00000000  F        1        2       0.90522029      -0.20988405       0.18906869
N        1.37160563       1.97396882      13.45315000  F        1        2      -0.14912389       0.40028741      -0.12303114
N       -1.40689004       6.38474267      12.00000000  F        1        2      -0.32241956       0.88852508       0.15201256
N        5.20909004       0.20086091      13.45315000  F        1        2      -0.46234590       0.04818321      -0.23658237
N        3.80216198       2.19517924      12.00000000  F        2        2       0.01917598       0.01469476      -1.15682860
N        0.00003802       4.39042434      13.45315000  F        2        2       0.04273677       0.01128768       0.47367394
Si       5.18010587       1.14956320      14.90630000  F        0        1       1.50060498      -2.01542885       1.16947927
Si      -1.37790587       5.43604038      16.35945000  F        0        1      -1.36767441      -0.30883397       0.89167715
Si       4.01879613       3.91132168      14.90630000  F        0        1       0.53022624       1.59572776       1.90956167
Si      -0.21659613       2.67428190      16.35945000  F        0        1       1.82686037      -0.09984456      -1.39901537
Si       2.04943147       1.45180938      14.94254241  T        0        1       0.00649463       0.02292552      -0.10254326
Si       1.59450200       5.06088488      16.35945000  F        0        1      -0.73085837       2.39741697      -1.22553621
N       -1.02370433       2.17482973      14.90630000  F        1        1      -0.78216700      -0.16814010       0.25883146
N        4.82590433       4.41077385      16.35945000  F        1        1       0.30587493      -0.27047702      -1.04706923
N        2.43059437       4.61163476      14.90630000  F        1        1       0.34617627      -0.68235264       0.16827814
N        1.37160563       1.97396882      16.35945000  F        1        1      -1.83827040       0.53817370       1.17637547
N       -1.40689004       6.38474267      14.90630000  F        1        1       0.14153616      -0.55613647      -0.32019435
N        5.20909004       0.20086091      16.35945000  F        1        1       0.58464337      -0.61263588      -0.31879917
N        3.74868914       2.14335128      15.16265866  T        2        1       0.01882008       0.41793320      -1.13517442
N        0.00003802       4.39042434      16.35945000  F        2        1       0.02886195      -0.60462369       1.38751191
O        2.49716173      -0.14579268      17.67265463  T        0        0       0.02747296      -0.00400673       0.01441898
H        1.98052143       0.67623597      17.46211821  T        0        0       0.02093609      -0.01710043      -0.00182062
H        3.75975975       1.94633686      16.17056796  T        0        0      -0.01653022       0.46158102       0.88958924
31
Lattice="7.6044 0.0 0.0 -3.802199999999998 6.585603580538386 0.0 0.0 -0.0 28.35945" Properties=species:S:1:pos:R:3:move_mask:L:1:spacegroup_kinds:I:1:tags:I:1:forces:R:3 spacegroup="P 63/m" unit_cell=conventional occupancy="_JSON {\"0\": {\"Si\": 1.0}, \"1\": {\"N\": 1.0}, \"2\": {\"N\": 1.0}}" energy=-226.72811624619933 pbc="T T F"
Si       5.18010587       1.14956320      12.00000000  F        0        2       1.89991103       1.16148576       1.17185772
Si      -1.37790587       5.43604038      13.45315000  F        0        2       0.08086309       0.40737609      -1.72900991
Si       4.01879613       3.91132168      12.00000000  F        0        2      -1.97238172       1.07714414       1.12866646
Si      -0.21659613       2.67428190      13.45315000  F        0        2      -0.61905128       0.03159437      -1.77257023
Si       2.20769800       1.52471870      12.00000000  F        0        2       0.14059630      -2.28520581       1.12690850
Si       1.59450200       5.06088488      13.45315000  F        0        2       0.33801569      -0.30631696      -1.51351652
N       -1.02370433       2.17482973      12.00000000  F        1        2      -0.64624555      -0.70365920       0.22785301
N        4.82590433       4.41077385      13.45315000  F        1        2       0.17178909      -0.52713781      -0.35887206
N        2.43059437       4.61163476      12.00000000  F        1        2       0.90173563      -0.21585267       0.19697696
N        1.37160563       1.97396882      13.45315000  F        1        2      -0.30009142       0.41305764      -0.25305555
N       -1.40689004       6.38474267      12.00000000  F        1        2      -0.32000614       0.90165107       0.14995733
N        5.20909004       0.20086091      13.45315000  F        1        2      -0.47727298       0.06160212      -0.21814962
N        3.80216198       2.19517924      12.00000000  F        2        2       0.01786274       0.00668084      -1.15715620
N        0.00003802       4.39042434      13.45315000  F        2        2       0.05085367       0.00770054       0.47128166
Si       5.18010587       1.14956320      14.90630000  F        0        1       1.18360988      -1.85088444       1.46288771
Si      -1.37790587       5.43604038      16.35945000  F        0        1      -1.32903201      -0.28423673       0.91311673
Si       4.01879613       3.91132168      14.90630000  F        0        1       0.59622460       1.99989481       1.50666661
Si      -0.21659613       2.67428190      16.35945000  F        0        1       1.82257973      -0.09055005      -1.40278319
Si       2.03776516       1.44730341      14.93436197  T        0        1       0.11777496       0.05362365       0.04365863
Si       1.59450200       5.06088488      16.35945000  F        0        1      -0.71691591       2.38128586      -1.19456292
N       -1.02370433       2.17482973      14.90630000  F        1        1      -0.75773659      -0.17871835       0.25805147
N        4.82590433       4.41077385      16.35945000  F        1        1       0.24820033      -0.36592643      -1.04338197
N        2.43059437       4.61163476      14.90630000  F        1        1       0.30700653      -0.63806783       0.21531961
N        1.37160563       1.97396882      16.35945000  F        1        1      -1.71650744       0.51061916       1.09377080
N       -1.40689004       6.38474267      14.90630000  F        1        1       0.14310695      -0.56491011      -0.31506262
N        5.20909004       0.20086091      16.35945000  F        1        1       0.58389782      -0.55526943      -0.40365767
N        3.74205374       2.16960526      15.11069277  T        2        1       0.00603981       0.02781662       0.21112838
N        0.00003802       4.39042434      16.35945000  F        2        1      -0.00013201      -0.56503687       1.37199842
O        2.49909009      -0.14801075      17.67431172  T        0        0       0.01405809      -0.01749486       0.00813739
H        1.98388927       0.67409776      17.46289679  T        0        0       0.03040461      -0.00828290       0.00029361
H        3.67792137       2.14284209      16.16340741  T        0        0       0.20084252       0.11601777      -0.19675253
31
Lattice="7.6044 0.0 0.0 -3.802199999999998 6.585603580538386 0.0 0.0 -0.0 28.35945" Properties=species:S:1:pos:R:3:move_mask:L:1:spacegroup_kinds:I:1:tags:I:1:forces:R:3 spacegroup="P 63/m" unit_cell=conventional occupancy="_JSON {\"0\": {\"Si\": 1.0}, \"1\": {\"N\": 1.0}, \"2\": {\"N\": 1.0}}" energy=-226.73773323307108 pbc="T T F"
Si       5.18010587       1.14956320      12.00000000  F        0        2       1.90624138       1.15646978       1.15597145
Si      -1.37790587       5.43604038      13.45315000  F        0        2       0.07709968       0.42646933      -1.71007626
Si       4.01879613       3.91132168      12.00000000  F        0        2      -1.96684776       1.08863174       1.11950596
Si      -0.21659613       2.67428190      13.45315000  F        0        2      -0.58147530       0.01454598      -1.75412036
Si       2.20769800       1.52471870      12.00000000  F        0        2       0.11924376      -2.28270129       1.14915493
Si       1.59450200       5.06088488      13.45315000  F        0        2       0.32718290      -0.31476078      -1.52002268
N       -1.02370433       2.17482973      12.00000000  F        1        2      -0.65083790      -0.70427952       0.22846624
N        4.82590433       4.41077385      13.45315000  F        1        2       0.16878362      -0.51979323      -0.36490971
N        2.43059437       4.61163476      12.00000000  F        1        2       0.90444479      -0.21309345       0.19937570
N        1.37160563       1.97396882      13.45315000  F        1        2      -0.18219642       0.39056400      -0.15139987
N       -1.40689004       6.38474267      12.00000000  F        1        2      -0.31391307       0.89796714       0.13992740
N        5.20909004       0.20086091      13.45315000  F        1        2      -0.49265407       0.07624078      -0.20810223
N        3.80216198       2.19517924      12.00000000  F        2        2       0.01683544       0.00378871      -1.14563804
N        0.00003802       4.39042434      13.45315000  F        2        2       0.05033207       0.00979908       0.46954801
Si       5.18010587       1.14956320      14.90630000  F        0        1       1.27621968      -1.88724176       1.43535730
Si      -1.37790587       5.43604038      16.35945000  F        0        1      -1.31574657      -0.28234580       0.89618392
Si       4.01879613       3.91132168      14.90630000  F        0        1       0.64945490       2.21367490       1.41213359
Si      -0.21659613       2.67428190      16.35945000  F        0        1       1.84928171      -0.10253179      -1.40591770
Si       2.05708312       1.45678770      14.94039623  T        0        1      -0.10699603      -0.06013161      -0.02804397
Si       1.59450200       5.06088488      16.35945000  F        0        1      -0.73083216       2.37046536      -1.18427488
N       -1.02370433       2.17482973      14.90630000  F        1        1      -0.77498311      -0.17565179       0.26181852
N        4.82590433       4.41077385      16.35945000  F        1        1       0.24074340      -0.39664125      -1.03876640
N        2.43059437       4.61163476      14.90630000  F        1        1       0.30956436      -0.65101434       0.21405883
N        1.37160563       1.97396882      16.35945000  F        1        1      -1.68010355       0.51948865       1.08553680
N       -1.40689004       6.38474267      14.90630000  F        1        1       0.16377973      -0.44462486      -0.30230709
N        5.20909004       0.20086091      16.35945000  F        1        1       0.57185446      -0.53591547      -0.41195130
N        3.74858962       2.17781539      15.11589605  T        2        1       0.05176333      -0.05319245      -0.16635593
N        0.00003802       4.39042434      16.35945000  F        2        1       0.01054857      -0.56857447       1.36643421
O        2.50282332      -0.15225365      17.67664432  T        0        0       0.00220610      -0.00082461       0.00478275
H        1.99255853       0.67218753      17.46363308  T        0        0       0.02074776       0.00906851       0.01244029
H        3.72451129       2.18392203      16.15826319  T        0        0       0.08025831       0.01614452       0.24119052
31
Lattice="7.6044 0.0 0.0 -3.802199999999998 6.585603580538386 0.0 0.0 -0.0 28.35945" Properties=species:S:1:pos:R:3:move_mask:L:1:spacegroup_kinds:I:1:tags:I:1:forces:R:3 spacegroup="P 63/m" unit_cell=conventional occupancy="_JSON {\"0\": {\"Si\": 1.0}, \"1\": {\"N\": 1.0}, \"2\": {\"N\": 1.0}}" energy=-226.74044771583218 pbc="T T F"
Si       5.18010587       1.14956320      12.00000000  F        0        2       1.90441031       1.15592664       1.15829899
Si      -1.37790587       5.43604038      13.45315000  F        0        2       0.07574212       0.42439060      -1.71196174
Si       4.01879613       3.91132168      12.00000000  F        0        2      -1.96798105       1.08676643       1.12175864
Si      -0.21659613       2.67428190      13.45315000  F        0        2      -0.58292630       0.01740875      -1.75389751
Si       2.20769800       1.52471870      12.00000000  F        0        2       0.12266630      -2.28233732       1.14905577
Si       1.59450200       5.06088488      13.45315000  F        0        2       0.32899255      -0.31553714      -1.52006719
N       -1.02370433       2.17482973      12.00000000  F        1        2      -0.65007376      -0.70442727       0.22888450
N        4.82590433       4.41077385      13.45315000  F        1        2       0.16851659      -0.51539333      -0.36664313
N        2.43059437       4.61163476      12.00000000  F        1        2       0.90444979      -0.21399020       0.19785781
N        1.37160563       1.97396882      13.45315000  F        1        2      -0.16968279       0.38792515      -0.13803658
N       -1.40689004       6.38474267      12.00000000  F        1        2      -0.31505354       0.89633934       0.13967989
N        5.20909004       0.20086091      13.45315000  F        1        2      -0.48984617       0.06989853      -0.21092511
N        3.80216198       2.19517924      12.00000000  F        2        2       0.01640602       0.00346933      -1.14830915
N        0.00003802       4.39042434      13.45315000  F        2        2       0.05035472       0.01056846       0.46999499
Si       5.18010587       1.14956320      14.90630000  F        0        1       1.32153138      -1.92117262       1.40437310
Si      -1.37790587       5.43604038      16.35945000  F        0        1      -1.31593964      -0.28661530       0.90185102
Si       4.01879613       3.91132168      14.90630000  F        0        1       0.64268178       2.17307013       1.41704207
Si      -0.21659613       2.67428190      16.35945000  F        0        1       1.84395024      -0.10083838      -1.40235041
Si       2.05349426       1.45412398      14.94147083  T        0        1      -0.00092471       0.00763672       0.00882257
Si       1.59450200       5.06088488      16.35945000  F        0        1      -0.73231469       2.36767310      -1.18557476
N       -1.02370433       2.17482973      14.90630000  F        1        1      -0.76376022      -0.17535520       0.26281857
N        4.82590433       4.41077385      16.35945000  F        1        1       0.24572686      -0.39622195      -1.03437021
N        2.43059437       4.61163476      14.90630000  F        1        1       0.31445262      -0.65645238       0.21159502
N        1.37160563       1.97396882      16.35945000  F        1        1      -1.70035831       0.52143908       1.10532675
N       -1.40689004       6.38474267      14.90630000  F        1        1       0.16172430      -0.48194149      -0.30344377
N        5.20909004       0.20086091      16.35945000  F        1        1       0.57944725      -0.54844610      -0.39787317
N        3.75369957       2.17475937      15.11957213  T        2        1      -0.03035059       0.03726751       0.03849631
N        0.00003802       4.39042434      16.35945000  F        2        1       0.02023551      -0.56986797       1.36353254
O        2.50430800      -0.15369145      17.67785526  T        0        0       0.00298770       0.00118219       0.00024477
H        1.99819511       0.67318271      17.46560496  T        0        0       0.01454618       0.01013906       0.00903165
H        3.75489435       2.18782216      16.16900445  T        0        0       0.00038957      -0.00250438      -0.01521222
31
Lattice="7.6044 0.0 0.0 -3.802199999999998 6.585603580538386 0.0 0.0 -0.0 28.35945" Properties=species:S:1:pos:R:3:move_mask:L:1:spacegroup_kinds:I:1:tags:I:1:forces:R:3 spacegroup="P 63/m" unit_cell=conventional occupancy="_JSON {\"0\": {\"Si\": 1.0}, \"1\": {\"N\": 1.0}, \"2\": {\"N\": 1.0}}" energy=-226.74057267105042 pbc="T T F"
Si       5.18010587       1.14956320      12.00000000  F        0        2       1.90523590       1.15609920       1.15703739
Si      -1.37790587       5.43604038      13.45315000  F        0        2       0.07599471       0.42651189      -1.71018877
Si       4.01879613       3.91132168      12.00000000  F        0        2      -1.96802704       1.08713657       1.12103724
Si      -0.21659613       2.67428190      13.45315000  F        0        2      -0.58126592       0.01664652      -1.75490988
Si       2.20769800       1.52471870      12.00000000  F        0        2       0.12166415      -2.28249030       1.15125136
Si       1.59450200       5.06088488      13.45315000  F        0        2       0.32916408      -0.31647960      -1.51820148
N       -1.02370433       2.17482973      12.00000000  F        1        2      -0.65034789      -0.70441446       0.22876382
N        4.82590433       4.41077385      13.45315000  F        1        2       0.16759887      -0.51721832      -0.36625075
N        2.43059437       4.61163476      12.00000000  F        1        2       0.90445669      -0.21319061       0.19775982
N        1.37160563       1.97396882      13.45315000  F        1        2      -0.16513773       0.38731000      -0.13317205
N       -1.40689004       6.38474267      12.00000000  F        1        2      -0.31505338       0.89608617       0.13872035
N        5.20909004       0.20086091      13.45315000  F        1        2      -0.49221023       0.07350482      -0.20887661
N        3.80216198       2.19517924      12.00000000  F        2        2       0.01612224       0.00361050      -1.14790895
N        0.00003802       4.39042434      13.45315000  F        2        2       0.04997421       0.01070531       0.47001231
Si       5.18010587       1.14956320      14.90630000  F        0        1       1.30044975      -1.90653290       1.40908829
Si      -1.37790587       5.43604038      16.35945000  F        0        1      -1.31654778      -0.27941508       0.90411920
Si       4.01879613       3.91132168      14.90630000  F        0        1       0.64108309       2.18779348       1.41952345
Si      -0.21659613       2.67428190      16.35945000  F        0        1       1.84559368      -0.10154109      -1.39968850
Si       2.05378337       1.45477263      14.94211815  T        0        1      -0.00049054      -0.00651465      -0.00506404
Si       1.59450200       5.06088488      16.35945000  F        0        1      -0.73203957       2.36690555      -1.18655761
N       -1.02370433       2.17482973      14.90630000  F        1        1      -0.76708397      -0.17546959       0.26189729
N        4.82590433       4.41077385      16.35945000  F        1        1       0.24992567      -0.39249539      -1.03130310
N        2.43059437       4.61163476      14.90630000  F        1        1       0.31144673      -0.65195109       0.21008903
N        1.37160563       1.97396882      16.35945000  F        1        1      -1.71419378       0.52712564       1.12037740
N       -1.40689004       6.38474267      14.90630000  F        1        1       0.16222226      -0.46957404      -0.30300076
N        5.20909004       0.20086091      16.35945000  F        1        1       0.57805252      -0.54518249      -0.39975923
N        3.75225774       2.17660594      15.12203574  T        2        1       0.01402893      -0.01181874      -0.00719790
N        0.00003802       4.39042434      16.35945000  F        2        1       0.02030349      -0.57003776       1.36343791
O        2.50501557      -0.15369766      17.67803170  T        0        0       0.00456744      -0.00060246       0.00109639
H        2.00092898       0.67465059      17.46702694  T        0        0       0.01141859       0.00421753       0.00405326
H        3.75700880       2.18825702      16.17045514  T        0        0      -0.00690515       0.00127538       0.01381512
31
Lattice="7.6044 0.0 0.0 -3.802199999999998 6.585603580538386 0.0 0.0 -0.0 28.35945" Properties=species:S:1:pos:R:3:move_mask:L:1:spacegroup_kinds:I:1:tags:I:1:forces:R:3 spacegroup="P 63/m" unit_cell=conventional occupancy="_JSON {\"0\": {\"Si\": 1.0}, \"1\": {\"N\": 1.0}, \"2\": {\"N\": 1.0}}" energy=-226.74063451202773 pbc="T T F"
Si       5.18010587       1.14956320      12.00000000  F        0        2       1.90530264       1.15630346       1.15684188
Si      -1.37790587       5.43604038      13.45315000  F        0        2       0.07612160       0.42630165      -1.71032984
Si       4.01879613       3.91132168      12.00000000  F        0        2      -1.96828013       1.08720267       1.12075199
Si      -0.21659613       2.67428190      13.45315000  F        0        2      -0.58172296       0.01647113      -1.75389575
Si       2.20769800       1.52471870      12.00000000  F        0        2       0.12164887      -2.28262163       1.15075586
Si       1.59450200       5.06088488      13.45315000  F        0        2       0.32930614      -0.31666784      -1.51858204
N       -1.02370433       2.17482973      12.00000000  F        1        2      -0.64999619      -0.70451631       0.22857770
N        4.82590433       4.41077385      13.45315000  F        1        2       0.16708027      -0.51851251      -0.36555008
N        2.43059437       4.61163476      12.00000000  F        1        2       0.90446881      -0.21303675       0.19775468
N        1.37160563       1.97396882      13.45315000  F        1        2      -0.16311677       0.38674191      -0.13234824
N       -1.40689004       6.38474267      12.00000000  F        1        2      -0.31524968       0.89590307       0.13879351
N        5.20909004       0.20086091      13.45315000  F        1        2      -0.49324150       0.07483786      -0.20839153
N        3.80216198       2.19517924      12.00000000  F        2        2       0.01640108       0.00356766      -1.14782591
N        0.00003802       4.39042434      13.45315000  F        2        2       0.05003531       0.01078679       0.47005444
Si       5.18010587       1.14956320      14.90630000  F        0        1       1.30151565      -1.90602632       1.41722543
Si      -1.37790587       5.43604038      16.35945000  F        0        1      -1.31726092      -0.27271070       0.90887072
Si       4.01879613       3.91132168      14.90630000  F        0        1       0.64061137       2.17935911       1.42339848
Si      -0.21659613       2.67428190      16.35945000  F        0        1       1.84643928      -0.10235263      -1.40023466
Si       2.05388967       1.45453281      14.94201794  T        0        1      -0.00201411       0.00064922       0.00136488
Si       1.59450200       5.06088488      16.35945000  F        0        1      -0.73220907       2.36763136      -1.18543371
N       -1.02370433       2.17482973      14.90630000  F        1        1      -0.76581168      -0.17536358       0.26089826
N        4.82590433       4.41077385      16.35945000  F        1        1       0.25244318      -0.38770604      -1.02882353
N        2.43059437       4.61163476      14.90630000  F        1        1       0.31252727      -0.65306545       0.20932967
N        1.37160563       1.97396882      16.35945000  F        1        1      -1.71000404       0.52646206       1.11778053
N       -1.40689004       6.38474267      14.90630000  F        1        1       0.16265189      -0.47429498      -0.30354285
N        5.20909004       0.20086091      16.35945000  F        1        1       0.58120152      -0.55034236      -0.39845459
N        3.75277862       2.17612192      15.12365561  T        2        1      -0.00146517       0.00383583      -0.00123912
N        0.00003802       4.39042434      16.35945000  F        2        1       0.01932335      -0.57032226       1.36287536
O        2.50661750      -0.15378277      17.67832075  T        0        0       0.00552115      -0.00272601       0.00087465
H        2.00563842       0.67675720      17.46902516  T        0        0       0.00621393      -0.00369069      -0.00242908
H        3.75479776       2.18914598      16.17253518  T        0        0       0.00155887      -0.00209774      -0.00906712
31
Lattice="7.6044 0.0 0.0 -3.802199999999998 6.585603580538386 0.0 0.0 -0.0 28.35945" Properties=species:S:1:pos:R:3:move_mask:L:1:spacegroup_kinds:I:1:tags:I:1:forces:R:3 spacegroup="P 63/m" unit_cell=conventional occupancy="_JSON {\"0\": {\"Si\": 1.0}, \"1\": {\"N\": 1.0}, \"2\": {\"N\": 1.0}}" energy=-226.74066265376734 pbc="T T F"
Si       5.18010587       1.14956320      12.00000000  F        0        2       1.90527225       1.15631932       1.15704823
Si      -1.37790587       5.43604038      13.45315000  F        0        2       0.07583095       0.42587526      -1.71092396
Si       4.01879613       3.91132168      12.00000000  F        0        2      -1.96833211       1.08711299       1.12111345
Si      -0.21659613       2.67428190      13.45315000  F        0        2      -0.58181368       0.01655063      -1.75398960
Si       2.20769800       1.52471870      12.00000000  F        0        2       0.12184012      -2.28263914       1.15098721
Si       1.59450200       5.06088488      13.45315000  F        0        2       0.32941988      -0.31647528      -1.51849297
N       -1.02370433       2.17482973      12.00000000  F        1        2      -0.65007020      -0.70447764       0.22859300
N        4.82590433       4.41077385      13.45315000  F        1        2       0.16756408      -0.51745136      -0.36616119
N        2.43059437       4.61163476      12.00000000  F        1        2       0.90447210      -0.21316226       0.19771940
N        1.37160563       1.97396882      13.45315000  F        1        2      -0.16452076       0.38694343      -0.13333569
N       -1.40689004       6.38474267      12.00000000  F        1        2      -0.31517524       0.89601876       0.13888649
N        5.20909004       0.20086091      13.45315000  F        1        2      -0.49287560       0.07428616      -0.20869998
N        3.80216198       2.19517924      12.00000000  F        2        2       0.01641011       0.00361192      -1.14810101
N        0.00003802       4.39042434      13.45315000  F        2        2       0.05002651       0.01092830       0.47011413
Si       5.18010587       1.14956320      14.90630000  F        0        1       1.30319595      -1.90674717       1.41461467
Si      -1.37790587       5.43604038      16.35945000  F        0        1      -1.31358083      -0.27947435       0.90655421
Si       4.01879613       3.91132168      14.90630000  F        0        1       0.64124557       2.18344040       1.42153213
Si      -0.21659613       2.67428190      16.35945000  F        0        1       1.84697174      -0.10195636      -1.39940168
Si       2.05353825       1.45442451      14.94205722  T        0        1       0.00290094       0.00263552      -0.00187525
Si       1.59450200       5.06088488      16.35945000  F        0        1      -0.73305383       2.36713445      -1.18495846
N       -1.02370433       2.17482973      14.90630000  F        1        1      -0.76498572      -0.17545744       0.26113017
N        4.82590433       4.41077385      16.35945000  F        1        1       0.25336206      -0.38484426      -1.02751395
N        2.43059437       4.61163476      14.90630000  F        1        1       0.31237556      -0.65263065       0.20953541
N        1.37160563       1.97396882      16.35945000  F        1        1      -1.70579801       0.52394580       1.11904083
N       -1.40689004       6.38474267      14.90630000  F        1        1       0.16229625      -0.47376756      -0.30106798
N        5.20909004       0.20086091      16.35945000  F        1        1       0.58159646      -0.54843767      -0.39974975
N        3.75304454       2.17639392      15.12300684  T        2        1      -0.00823782      -0.00435992      -0.01010109
N        0.00003802       4.39042434      16.35945000  F        2        1       0.02121730      -0.57459432       1.36010979
O        2.50929918      -0.15474136      17.67876228  T        0        0       0.00095531       0.00098861      -0.00094131
H        2.01003500       0.67652784      17.46921500  T        0        0       0.00041440       0.00130144       0.00182376
H        3.75499580       2.18890664      16.17150195  T        0        0       0.00107626      -0.00061760       0.00651100
31
Lattice="7.6044 0.0 0.0 -3.802199999999998 6.585603580538386 0.0 0.0 -0.0 28.35945" Properties=species:S:1:pos:R:3:move_mask:L:1:spacegroup_kinds:I:1:tags:I:1:forces:R:3 spacegroup="P 63/m" unit_cell=conventional occupancy="_JSON {\"0\": {\"Si\": 1.0}, \"1\": {\"N\": 1.0}, \"2\": {\"N\": 1.0}}" energy=-226.74066601897036 pbc="T T F"
Si       5.18010587       1.14956320      12.00000000  F        0        2       1.90527381       1.15629235       1.15706667
Si      -1.37790587       5.43604038      13.45315000  F        0        2       0.07577254       0.42608808      -1.71049451
Si       4.01879613       3.91132168      12.00000000  F        0        2      -1.96832550       1.08711526       1.12107685
Si      -0.21659613       2.67428190      13.45315000  F        0        2      -0.58169918       0.01654462      -1.75421229
Si       2.20769800       1.52471870      12.00000000  F        0        2       0.12182039      -2.28259145       1.15102298
Si       1.59450200       5.06088488      13.45315000  F        0        2       0.32943378      -0.31641151      -1.51848796
N       -1.02370433       2.17482973      12.00000000  F        1        2      -0.65013301      -0.70446614       0.22860984
N        4.82590433       4.41077385      13.45315000  F        1        2       0.16750657      -0.51759114      -0.36614333
N        2.43059437       4.61163476      12.00000000  F        1        2       0.90445553      -0.21315528       0.19771378
N        1.37160563       1.97396882      13.45315000  F        1        2      -0.16495765       0.38722031      -0.13387775
N       -1.40689004       6.38474267      12.00000000  F        1        2      -0.31518259       0.89603045       0.13884693
N        5.20909004       0.20086091      13.45315000  F        1        2      -0.49273522       0.07415177      -0.20881674
N        3.80216198       2.19517924      12.00000000  F        2        2       0.01637703       0.00359479      -1.14811304
N        0.00003802       4.39042434      13.45315000  F        2        2       0.05002793       0.01083871       0.47010200
Si       5.18010587       1.14956320      14.90630000  F        0        1       1.30228319      -1.90671745       1.41404543
Si      -1.37790587       5.43604038      16.35945000  F        0        1      -1.31305883      -0.27998556       0.90572392
Si       4.01879613       3.91132168      14.90630000  F        0        1       0.64092133       2.18251699       1.42178985
Si      -0.21659613       2.67428190      16.35945000  F        0        1       1.84744739      -0.10195192      -1.39912500
Si       2.05358844       1.45452689      14.94204601  T        0        1       0.00115414      -0.00042167      -0.00197302
Si       1.59450200       5.06088488      16.35945000  F        0        1      -0.73324536       2.36704575      -1.18488261
N       -1.02370433       2.17482973      14.90630000  F        1        1      -0.76575152      -0.17546867       0.26120717
N        4.82590433       4.41077385      16.35945000  F        1        1       0.25304948      -0.38521534      -1.02766491
N        2.43059437       4.61163476      14.90630000  F        1        1       0.31230949      -0.65249543       0.20951187
N        1.37160563       1.97396882      16.35945000  F        1        1      -1.70577821       0.52387393       1.11933446
N       -1.40689004       6.38474267      14.90630000  F        1        1       0.16191293      -0.47271011      -0.30083519
N        5.20909004       0.20086091      16.35945000  F        1        1       0.58163468      -0.54782306      -0.39998127
N        3.75278384       2.17628012      15.12282881  T        2        1      -0.00221130      -0.00194471      -0.00656839
N        0.00003802       4.39042434      16.35945000  F        2        1       0.02143234      -0.57526169       1.35975108
O        2.50973844      -0.15485609      17.67880041  T        0        0       0.00033185       0.00140319      -0.00083649
H        2.01074552       0.67655229      17.46931130  T        0        0      -0.00052706       0.00178477       0.00211862
H        3.75504412       2.18873817      16.17140971  T        0        0       0.00046101      -0.00028985       0.00409107
