31
Lattice="7.6044 0.0 0.0 -3.802199999999998 6.585603580538386 0.0 0.0 -0.0 28.35945" Properties=species:S:1:pos:R:3:move_mask:L:1:spacegroup_kinds:I:1:tags:I:1:forces:R:3 spacegroup="P 63/m" unit_cell=conventional occupancy="_JSON {\"0\": {\"Si\": 1.0}, \"1\": {\"N\": 1.0}, \"2\": {\"N\": 1.0}}" energy=-225.74573015456465 pbc="T T F"
Si       5.18010587       1.14956320      12.00000000  F        0        2       1.81810957       1.25578295       1.24019814
Si      -1.37790587       5.43604038      13.45315000  F        0        2      -0.03270162       0.51178122      -1.53176714
Si       4.01879613       3.91132168      12.00000000  F        0        2      -1.97341023       1.00385609       1.28289177
Si      -0.21659613       2.67428190      13.45315000  F        0        2      -0.35230406      -0.11543835      -1.62588413
Si       2.20769800       1.52471870      12.00000000  F        0        2       0.12802275      -2.21077645       1.42350948
Si       1.59450200       5.06088488      13.45315000  F        0        2       0.35261554      -0.34411892      -1.57493896
N       -1.02370433       2.17482973      12.00000000  F        1        2      -0.64289321      -0.70974569       0.15419703
N        4.82590433       4.41077385      13.45315000  F        1        2       0.17292212      -0.49840268      -0.34668837
N        2.43059437       4.61163476      12.00000000  F        1        2       0.88231403      -0.17516913       0.15079635
N        1.37160563       1.97396882      13.45315000  F        1        2       0.08542340       0.39313743       0.07976668
N       -1.40689004       6.38474267      12.00000000  F        1        2      -0.29908933       0.82958471       0.07655561
N        5.20909004       0.20086091      13.45315000  F        1        2      -0.32611301      -0.17245406      -0.17111574
N        3.80216198       2.19517924      12.00000000  F        2        2       0.03113809       0.00886206      -1.45198533
N        0.00003802       4.39042434      13.45315000  F        2        2       0.05223352       0.03657212       0.45609043
Si       5.18010587       1.14956320      14.90630000  F        0        1       1.81348310      -0.94017341      -0.57106026
Si      -1.37790587       5.43604038      16.35945000  F        0        1      -1.63383046      -0.37661873       0.68628343
Si       4.01879613       3.91132168      14.90630000  F        0        1       0.50633032       0.40118754       2.18082154
Si      -0.21659613       2.67428190      16.35945000  F        0        1       2.07730253      -0.30031256      -1.55030854
Si       2.13451641       1.49103924      14.96130738  T        0        1       0.10826718       0.06876133       0.00556728
Si       1.59450200       5.06088488      16.35945000  F        0        1      -0.79965508       1.49527421      -1.27709403
N       -1.02370433       2.17482973      14.90630000  F        1        1      -0.70088054      -0.20014501       0.37121257
N        4.82590433       4.41077385      16.35945000  F        1        1       0.42111236      -0.01630852      -0.91799116
N        2.43059437       4.61163476      14.90630000  F        1        1       0.21704746      -0.33971477       0.35898010
N        1.37160563       1.97396882      16.35945000  F        1        1      -1.94869259       0.60372994       1.11792277
N       -1.40689004       6.38474267      14.90630000  F        1        1       0.22941003      -0.31423490      -0.21073891
N        5.20909004       0.20086091      16.35945000  F        1        1      -1.02151712       1.58244697       0.04999238
N        3.78987776       2.13555802      15.16067206  T        2        1       0.00463501       0.21410874      -0.50335316
N        0.00003802       4.39042434      16.35945000  F        2        1       0.01473160      -0.45041450       1.42503789
O        2.50010006      -0.13996009      17.67034164  T        0        0       0.02308807       0.01223176      -0.00525759
H        1.97614146       0.67944859      17.45764174  T        0        0      -0.00168693       0.00543808      -0.00768014
H        4.18412955       1.19124227      16.37526814  T        0        0       0.79458750      -1.25872742       0.68604003
31
Lattice="7.6044 0.0 0.0 -3.802199999999998 6.585603580538386 0.0 0.0 -0.0 28.35945" Properties=species:S:1:pos:R:3:move_mask:L:1:spacegroup_kinds:I:1:tags:I:1:forces:R:3 spacegroup="P 63/m" unit_cell=conventional occupancy="_JSON {\"0\": {\"Si\": 1.0}, \"1\": {\"N\": 1.0}, \"2\": {\"N\": 1.0}}" energy=-226.35149848375153 pbc="T T F"
Si       5.18010587       1.14956320      12.00000000  F        0        2       1.77289357       1.27202762       1.27066837
Si      -1.37790587       5.43604038      13.45315000  F        0        2      -0.06388799       0.51486703      -1.53442841
Si       4.01879613       3.91132168      12.00000000  F        0        2      -1.95385229       0.96091205       1.34639123
Si      -0.21659613       2.67428190      13.45315000  F        0        2      -0.32003401      -0.14695129      -1.60372638
Si       2.20769800       1.52471870      12.00000000  F        0        2       0.15666323      -2.18165899       1.49724468
Si       1.59450200       5.06088488      13.45315000  F        0        2       0.33855890      -0.33144286      -1.60497592
N       -1.02370433       2.17482973      12.00000000  F        1        2      -0.63854872      -0.70310048       0.13874063
N        4.82590433       4.41077385      13.45315000  F        1        2       0.25122655      -0.36673171      -0.40461575
N        2.43059437       4.61163476      12.00000000  F        1        2       0.87379261      -0.17306341       0.14461565
N        1.37160563       1.97396882      13.45315000  F        1        2       0.00038646       0.38490300       0.04799863
N       -1.40689004       6.38474267      12.00000000  F        1        2      -0.28179782       0.82698179       0.05485645
N        5.20909004       0.20086091      13.45315000  F        1        2      -0.30138128      -0.24782992      -0.09625283
N        3.80216198       2.19517924      12.00000000  F        2        2       0.03086933       0.00242204      -1.55966766
N        0.00003802       4.39042434      13.45315000  F        2        2       0.05200380       0.03219964       0.43614056
Si       5.18010587       1.14956320      14.90630000  F        0        1       1.33437515      -0.27613718      -0.78902074
Si      -1.37790587       5.43604038      16.35945000  F        0        1      -1.70696487      -0.37973879       0.63210546
Si       4.01879613       3.91132168      14.90630000  F        0        1       0.52249693       0.23103725       2.03065840
Si      -0.21659613       2.67428190      16.35945000  F        0        1       2.08363640      -0.34192780      -1.59282426
Si       2.14779823       1.49952915      14.96173846  T        0        1       0.21027027       0.14135145       0.00069254
Si       1.59450200       5.06088488      16.35945000  F        0        1      -0.72789338       0.93663830      -1.24736750
N       -1.02370433       2.17482973      14.90630000  F        1        1      -0.65225350      -0.23661016       0.41503461
N        4.82590433       4.41077385      16.35945000  F        1        1       0.42678114       0.00123158      -0.88082809
N        2.43059437       4.61163476      14.90630000  F        1        1       0.08414231      -0.12157281       0.48984795
N        1.37160563       1.97396882      16.35945000  F        1        1      -1.90155865       0.57882607       1.07256093
N       -1.40689004       6.38474267      14.90630000  F        1        1       0.26069045      -0.22327965      -0.16644837
N        5.20909004       0.20086091      16.35945000  F        1        1      -1.61697067       2.38129676       0.08449143
N        3.79102792       2.15997584      15.09846111  T        2        1       0.03404999       0.28977097      -1.02671850
N        0.00003802       4.39042434      16.35945000  F        2        1       0.06896860      -0.31695515       1.43196485
O        2.50326762      -0.13832106      17.66949020  T        0        0       0.07404272       0.03047482      -0.02172201
H        1.97624117       0.67993660      17.45672809  T        0        0       0.01482139       0.00856635      -0.01864162
H        4.28304547       1.03509502      16.46018633  T        0        0       1.57447339      -2.54650653       1.45322566
31
Lattice="7.6044 0.0 0.0 -3.802199999999998 6.585603580538386 0.0 0.0 -0.0 28.35945" Properties=species:S:1:pos:R:3:move_mask:L:1:spacegroup_kinds:I:1:tags:I:1:forces:R:3 spacegroup="P 63/m" unit_cell=conventional occupancy="_JSON {\"0\": {\"Si\": 1.0}, \"1\": {\"N\": 1.0}, \"2\": {\"N\": 1.0}}" energy=-227.14980686273955 pbc="T T F"
Si       5.18010587       1.14956320      12.00000000  F        0        2       1.74004569       1.27834020       1.27474020
Si      -1.37790587       5.43604038      13.45315000  F        0        2      -0.08067232       0.52449777      -1.53933021
Si       4.01879613       3.91132168      12.00000000  F        0        2      -1.93173026       0.93261523       1.37792218
Si      -0.21659613       2.67428190      13.45315000  F        0        2      -0.30424768      -0.17176875      -1.59008283
Si       2.20769800       1.52471870      12.00000000  F        0        2       0.16974221      -2.15564204       1.53641815
Si       1.59450200       5.06088488      13.45315000  F        0        2       0.31976284      -0.33317661      -1.66127200
N       -1.02370433       2.17482973      12.00000000  F        1        2      -0.64128206      -0.70073915       0.13644313
N        4.82590433       4.41077385      13.45315000  F        1        2       0.31726917      -0.25911961      -0.43886955
N        2.43059437       4.61163476      12.00000000  F        1        2       0.86807339      -0.17276954       0.14551003
N        1.37160563       1.97396882      13.45315000  F        1        2      -0.06817200       0.38304038       0.03377106
N       -1.40689004       6.38474267      12.00000000  F        1        2      -0.26143128       0.83230781       0.04089948
N        5.20909004       0.20086091      13.45315000  F        1        2      -0.27854381      -0.32078469      -0.00373518
N        3.80216198       2.19517924      12.00000000  F        2        2       0.03198905      -0.01048978      -1.62006019
N        0.00003802       4.39042434      13.45315000  F        2        2       0.05480064       0.02492696       0.41746446
Si       5.18010587       1.14956320      14.90630000  F        0        1       0.96746404       0.18799398      -0.89548773
Si      -1.37790587       5.43604038      16.35945000  F        0        1      -1.77498389      -0.39010252       0.56363324
Si       4.01879613       3.91132168      14.90630000  F        0        1       0.60835514       0.34781645       1.90377583
Si      -0.21659613       2.67428190      16.35945000  F        0        1       2.07940912      -0.35224363      -1.64007813
Si       2.16308324       1.50965124      14.96175322  T        0        1       0.12052929       0.08772965      -0.02962932
Si       1.59450200       5.06088488      16.35945000  F        0        1      -0.60871803       0.56973147      -1.21627005
N       -1.02370433       2.17482973      14.90630000  F        1        1      -0.62381221      -0.29021900       0.46964055
N        4.82590433       4.41077385      16.35945000  F        1        1       0.40252148      -0.01497262      -0.86739505
N        2.43059437       4.61163476      14.90630000  F        1        1      -0.01764714       0.05886601       0.59193215
N        1.37160563       1.97396882      16.35945000  F        1        1      -1.75946673       0.56155759       0.99438045
N       -1.40689004       6.38474267      14.90630000  F        1        1       0.30738563      -0.07632927      -0.12018675
N        5.20909004       0.20086091      16.35945000  F        1        1      -0.24077105       1.16751261      -0.20691589
N        3.79362512       2.18196496      15.02319970  T        2        1       0.08889083      -0.09163736      -0.86886299
N        0.00003802       4.39042434      16.35945000  F        2        1       0.12622443      -0.19103393       1.45208249
O        2.50844110      -0.13604066      17.66801855  T        0        0       0.12092865       0.04643861      -0.03421807
H        1.97716097       0.68057021      17.45534798  T        0        0       0.04414997       0.01219674      -0.03376904
H        4.39265989       0.85184304      16.56953220  T        0        0       0.22393689      -1.48454296       1.82754959
31
Lattice="7.6044 0.0 0.0 -3.802199999999998 6.585603580538386 0.0 0.0 -0.0 28.35945" Properties=species:S:1:pos:R:3:move_mask:L:1:spacegroup_kinds:I:1:tags:I:1:forces:R:3 spacegroup="P 63/m" unit_cell=conventional occupancy="_JSON {\"0\": {\"Si\": 1.0}, \"1\": {\"N\": 1.0}, \"2\": {\"N\": 1.0}}" energy=-227.5379165425183 pbc="T T F"
Si       5.18010587       1.14956320      12.00000000  F        0        2       1.71958695       1.28857940       1.26770331
Si      -1.37790587       5.43604038      13.45315000  F        0        2      -0.09674984       0.52905103      -1.54605168
Si       4.01879613       3.91132168      12.00000000  F        0        2      -1.90938188       0.91583151       1.39044594
Si      -0.21659613       2.67428190      13.45315000  F        0        2      -0.29974015      -0.19505679      -1.58754591
Si       2.20769800       1.52471870      12.00000000  F        0        2       0.17369664      -2.13332582       1.54860395
Si       1.59450200       5.06088488      13.45315000  F        0        2       0.31028906      -0.35914622      -1.70045630
N       -1.02370433       2.17482973      12.00000000  F        1        2      -0.64378961      -0.69879649       0.13470404
N        4.82590433       4.41077385      13.45315000  F        1        2       0.38694765      -0.14390237      -0.47195109
N        2.43059437       4.61163476      12.00000000  F        1        2       0.86567275      -0.17099911       0.14290580
N        1.37160563       1.97396882      13.45315000  F        1        2      -0.11825822       0.38453451       0.03434093
N       -1.40689004       6.38474267      12.00000000  F        1        2      -0.24346693       0.84325677       0.03224340
N        5.20909004       0.20086091      13.45315000  F        1        2      -0.24922295      -0.37050989       0.10337161
N        3.80216198       2.19517924      12.00000000  F        2        2       0.02477113      -0.01477770      -1.68414800
N        0.00003802       4.39042434      13.45315000  F        2        2       0.05402824       0.01985595       0.41121451
Si       5.18010587       1.14956320      14.90630000  F        0        1       0.52442236       0.42018577      -0.60760318
Si      -1.37790587       5.43604038      16.35945000  F        0        1      -1.82623011      -0.41919345       0.48253503
Si       4.01879613       3.91132168      14.90630000  F        0        1       0.71094117       0.73728601       1.79911193
Si      -0.21659613       2.67428190      16.35945000  F        0        1       2.08250606      -0.34178266      -1.66758604
Si       2.17962976       1.52017323      14.96134169  T        0        1      -0.08433439      -0.02938201      -0.08597193
Si       1.59450200       5.06088488      16.35945000  F        0        1      -0.44149159       0.39364220      -1.25194114
N       -1.02370433       2.17482973      14.90630000  F        1        1      -0.61122972      -0.35363630       0.51335550
N        4.82590433       4.41077385      16.35945000  F        1        1       0.37445044      -0.04738518      -0.86868693
N        2.43059437       4.61163476      14.90630000  F        1        1      -0.07654277       0.15698190       0.62727375
N        1.37160563       1.97396882      16.35945000  F        1        1      -1.56352525       0.53959597       0.89841405
N       -1.40689004       6.38474267      14.90630000  F        1        1       0.35003480       0.09185757      -0.07503944
N        5.20909004       0.20086091      16.35945000  F        1        1       2.17272050      -0.73383715      -1.18353245
N        3.79701076       2.20735158      14.93986755  T        2        1       0.13242473      -0.78204439      -0.37706252
N        0.00003802       4.39042434      16.35945000  F        2        1       0.14337422      -0.11780277       1.48220519
O        2.51138876      -0.13397448      17.66737537  T        0        0       0.16382188       0.05886842      -0.03979365
H        1.97587130       0.68082234      17.45450088  T        0        0       0.05388224       0.01023188      -0.04691689
H        4.45313080       0.68536046      16.72796020  T        0        0      -2.07960741       0.52181943       2.32585820
31
Lattice="7.6044 0.0 0.0 -3.802199999999998 6.585603580538386 0.0 0.0 -0.0 28.35945" Properties=species:S:1:pos:R:3:move_mask:L:1:spacegroup_kinds:I:1:tags:I:1:forces:R:3 spacegroup="P 63/m" unit_cell=conventional occupancy="_JSON {\"0\": {\"Si\": 1.0}, \"1\": {\"N\": 1.0}, \"2\": {\"N\": 1.0}}" energy=-227.81724906644297 pbc="T T F"
Si       5.18010587       1.14956320      12.00000000  F        0        2       1.70691082       1.30257733       1.25403508
Si      -1.37790587       5.43604038      13.45315000  F        0        2      -0.11243827       0.52844213      -1.54501987
Si       4.01879613       3.91132168      12.00000000  F        0        2      -1.89534780       0.90780902       1.38936535
Si      -0.21659613       2.67428190      13.45315000  F        0        2      -0.30227865      -0.20966206      -1.59691890
Si       2.20769800       1.52471870      12.00000000  F        0        2       0.17689509      -2.11856407       1.53832571
Si       1.59450200       5.06088488      13.45315000  F        0        2       0.31346673      -0.39096957      -1.72604267
N       -1.02370433       2.17482973      12.00000000  F        1        2      -0.64561225      -0.69901862       0.13548626
N        4.82590433       4.41077385      13.45315000  F        1        2       0.44003210      -0.05919162      -0.48705501
N        2.43059437       4.61163476      12.00000000  F        1        2       0.86271303      -0.17119807       0.14007205
N        1.37160563       1.97396882      13.45315000  F        1        2      -0.17450703       0.39435865       0.03106585
N       -1.40689004       6.38474267      12.00000000  F        1        2      -0.23312389       0.84998342       0.02796051
N        5.20909004       0.20086091      13.45315000  F        1        2      -0.21238382      -0.42471401       0.20082536
N        3.80216198       2.19517924      12.00000000  F        2        2       0.02045277      -0.01670197      -1.75526336
N        0.00003802       4.39042434      13.45315000  F        2        2       0.05629256       0.01645123       0.41679655
Si       5.18010587       1.14956320      14.90630000  F        0        1       0.14106521       0.47323804      -0.17500803
Si      -1.37790587       5.43604038      16.35945000  F        0        1      -1.83801423      -0.43872694       0.39194566
Si       4.01879613       3.91132168      14.90630000  F        0        1       0.74860244       0.85906110       1.72217054
Si      -0.21659613       2.67428190      16.35945000  F        0        1       2.08032070      -0.34504052      -1.67311294
Si       2.18955015       1.52640065      14.95870354  T        0        1      -0.19620804      -0.12446745      -0.08554932
Si       1.59450200       5.06088488      16.35945000  F        0        1      -0.28354034       0.31536891      -1.39337757
N       -1.02370433       2.17482973      14.90630000  F        1        1      -0.61912117      -0.41049320       0.54581544
N        4.82590433       4.41077385      16.35945000  F        1        1       0.34007727      -0.09370972      -0.87358498
N        2.43059437       4.61163476      14.90630000  F        1        1      -0.08809123       0.15328992       0.63512126
N        1.37160563       1.97396882      16.35945000  F        1        1      -1.40077034       0.52310341       0.80722419
N       -1.40689004       6.38474267      14.90630000  F        1        1       0.35268761       0.16700138      -0.05093454
N        5.20909004       0.20086091      16.35945000  F        1        1       1.29444736      -0.45669514      -0.59278904
N        3.80044794       2.21357978      14.86788025  T        2        1       0.08120500      -0.86644826       0.01332240
N        0.00003802       4.39042434      16.35945000  F        2        1       0.13876532      -0.09631428       1.51460716
O        2.51440186      -0.13172659      17.66739151  T        0        0       0.18767972       0.05765002      -0.04069316
H        1.97283881       0.68047214      17.45357875  T        0        0       0.07989084       0.00519681      -0.05468211
H        4.47214643       0.54560978      16.92211903  T        0        0      -1.02006752       0.36838413       1.28589214
31
Lattice="7.6044 0.0 0.0 -3.802199999999998 6.585603580538386 0.0 0.0 -0.0 28.35945" Properties=species:S:1:pos:R:3:move_mask:L:1:spacegroup_kinds:I:1:tags:I:1:forces:R:3 spacegroup="P 63/m" unit_cell=conventional occupancy="_JSON {\"0\": {\"Si\": 1.0}, \"1\": {\"N\": 1.0}, \"2\": {\"N\": 1.0}}" energy=-227.8878415971009 pbc="T T F"
Si       5.18010587       1.14956320      12.00000000  F        0        2       1.70070398       1.29778033       1.26689368
Si      -1.37790587       5.43604038      13.45315000  F        0        2      -0.11054435       0.52451811      -1.54129437
Si       4.01879613       3.91132168      12.00000000  F        0        2      -1.90190355       0.90218573       1.38603448
Si      -0.21659613       2.67428190      13.45315000  F        0        2      -0.32350818      -0.20181833      -1.60255862
Si       2.20769800       1.52471870      12.00000000  F        0        2       0.18882843      -2.11850345       1.51781208
Si       1.59450200       5.06088488      13.45315000  F        0        2       0.32355555      -0.38613566      -1.74775826
N       -1.02370433       2.17482973      12.00000000  F        1        2      -0.64753030      -0.69896041       0.13632944
N        4.82590433       4.41077385      13.45315000  F        1        2       0.42581537      -0.07452009      -0.46575460
N        2.43059437       4.61163476      12.00000000  F        1        2       0.86394327      -0.18032935       0.13503090
N        1.37160563       1.97396882      13.45315000  F        1        2      -0.24002503       0.40382599       0.00238196
N       -1.40689004       6.38474267      12.00000000  F        1        2      -0.23829463       0.84843594       0.03231671
N        5.20909004       0.20086091      13.45315000  F        1        2      -0.16602694      -0.49860661       0.19947199
N        3.80216198       2.19517924      12.00000000  F        2        2       0.02270253      -0.01240854      -1.78324312
N        0.00003802       4.39042434      13.45315000  F        2        2       0.05875169       0.01380579       0.42492361
Si       5.18010587       1.14956320      14.90630000  F        0        1       0.09281795       0.32080065       0.05728961
Si      -1.37790587       5.43604038      16.35945000  F        0        1      -1.79373698      -0.44685810       0.35242034
Si       4.01879613       3.91132168      14.90630000  F        0        1       0.69291705       0.39801867       1.69423391
Si      -0.21659613       2.67428190      16.35945000  F        0        1       2.07400698      -0.35012850      -1.67302679
Si       2.17929194       1.51718619      14.95387401  T        0        1      -0.03514264      -0.03674396       0.01377315
Si       1.59450200       5.06088488      16.35945000  F        0        1      -0.23255775       0.33286664      -1.46649589
N       -1.02370433       2.17482973      14.90630000  F        1        1      -0.61975127      -0.41897567       0.54880634
N        4.82590433       4.41077385      16.35945000  F        1        1       0.31601187      -0.11775051      -0.88223305
N        2.43059437       4.61163476      14.90630000  F        1        1      -0.04716200       0.08545237       0.61464277
N        1.37160563       1.97396882      16.35945000  F        1        1      -1.37964760       0.50920727       0.77726256
N       -1.40689004       6.38474267      14.90630000  F        1        1       0.28954256      -0.01421216      -0.07736805
N        5.20909004       0.20086091      16.35945000  F        1        1       0.28313826      -0.25138945       0.54348256
N        3.80063310       2.18052691      14.84742713  T        2        1      -0.07645715       0.08539318       0.10259273
N        0.00003802       4.39042434      16.35945000  F        2        1       0.13081566      -0.12304187       1.51797827
O        2.53148174      -0.12630998      17.66364787  T        0        0       0.14088456       0.04255412      -0.05050081
H        1.98046275       0.68060318      17.44867716  T        0        0       0.10993498       0.01658132      -0.03788234
H        4.49322424       0.48169589      17.03906964  T        0        0       0.09791767       0.14895655       0.00443878
31
Lattice="7.6044 0.0 0.0 -3.802199999999998 6.585603580538386 0.0 0.0 -0.0 28.35945" Properties=species:S:1:pos:R:3:move_mask:L:1:spacegroup_kinds:I:1:tags:I:1:forces:R:3 spacegroup="P 63/m" unit_cell=conventional occupancy="_JSON {\"0\": {\"Si\": 1.0}, \"1\": {\"N\": 1.0}, \"2\": {\"N\": 1.0}}" energy=-227.89925358358846 pbc="T T F"
Si       5.18010587       1.14956320      12.00000000  F        0        2       1.70412154       1.30247275       1.26896100
Si      -1.37790587       5.43604038      13.45315000  F        0        2      -0.10738727       0.52388760      -1.54345482
Si       4.01879613       3.91132168      12.00000000  F        0        2      -1.90954572       0.90135083       1.38918968
Si      -0.21659613       2.67428190      13.45315000  F        0        2      -0.32921797      -0.19912638      -1.60853700
Si       2.20769800       1.52471870      12.00000000  F        0        2       0.19281868      -2.12340276       1.52665557
Si       1.59450200       5.06088488      13.45315000  F        0        2       0.32956992      -0.39069065      -1.74046931
N       -1.02370433       2.17482973      12.00000000  F        1        2      -0.64932435      -0.69927843       0.13554028
N        4.82590433       4.41077385      13.45315000  F        1        2       0.41142291      -0.10492721      -0.45727519
N        2.43059437       4.61163476      12.00000000  F        1        2       0.86372269      -0.17837067       0.13613383
N        1.37160563       1.97396882      13.45315000  F        1        2      -0.25004614       0.39378880      -0.00174404
N       -1.40689004       6.38474267      12.00000000  F        1        2      -0.24218983       0.84809688       0.03267522
N        5.20909004       0.20086091      13.45315000  F        1        2      -0.18528714      -0.46794873       0.20079737
N        3.80216198       2.19517924      12.00000000  F        2        2       0.02533805      -0.01264491      -1.75429262
N        0.00003802       4.39042434      13.45315000  F        2        2       0.05819573       0.01823259       0.42706588
Si       5.18010587       1.14956320      14.90630000  F        0        1       0.00823287       0.35692481       0.07782038
Si      -1.37790587       5.43604038      16.35945000  F        0        1      -1.71239714      -0.44965079       0.35543900
Si       4.01879613       3.91132168      14.90630000  F        0        1       0.65316407       0.35895739       1.73622920
Si      -0.21659613       2.67428190      16.35945000  F        0        1       2.07938302      -0.33980367      -1.66239153
Si       2.16934323       1.50974585      14.95554514  T        0        1       0.09157159       0.08238567      -0.00175680
Si       1.59450200       5.06088488      16.35945000  F        0        1      -0.28518325       0.38419764      -1.42412134
N       -1.02370433       2.17482973      14.90630000  F        1        1      -0.63400519      -0.40749180       0.52526572
N        4.82590433       4.41077385      16.35945000  F        1        1       0.36496280      -0.05096520      -0.84051784
N        2.43059437       4.61163476      14.90630000  F        1        1      -0.06527209       0.11955203       0.61115257
N        1.37160563       1.97396882      16.35945000  F        1        1      -1.48332634       0.51194180       0.84945892
N       -1.40689004       6.38474267      14.90630000  F        1        1       0.26569948      -0.11544212      -0.12644155
N        5.20909004       0.20086091      16.35945000  F        1        1       0.25928383      -0.11416196       0.55097338
N        3.79068355       2.18087690      14.87746091  T        2        1       0.10721030       0.01634964      -0.08703959
N        0.00003802       4.39042434      16.35945000  F        2        1       0.13660582      -0.18005087       1.49298713
O        2.56781881      -0.11530100      17.65102585  T        0        0       0.04484489       0.02479303      -0.02050998
H        2.00933593       0.68643934      17.43886733  T        0        0       0.07859801       0.05334095      -0.01254914
H        4.50774874       0.53372025      17.03588085  T        0        0       0.17843621      -0.06231624      -0.03524437
31
Lattice="7.6044 0.0 0.0 -3.802199999999998 6.585603580538386 0.0 0.0 -0.0 28.35945" Properties=species:S:1:pos:R:3:move_mask:L:1:spacegroup_kinds:I:1:tags:I:1:forces:R:3 spacegroup="P 63/m" unit_cell=conventional occupancy="_JSON {\"0\": {\"Si\": 1.0}, \"1\": {\"N\": 1.0}, \"2\": {\"N\": 1.0}}" energy=-227.9071668756313 pbc="T T F"
Si       5.18010587       1.14956320      12.00000000  F        0        2       1.70319872       1.30127635       1.26162526
Si      -1.37790587       5.43604038      13.45315000  F        0        2      -0.11713828       0.53989114      -1.52586115
Si       4.01879613       3.91132168      12.00000000  F        0        2      -1.90317880       0.90664827       1.38643568
Si      -0.21659613       2.67428190      13.45315000  F        0        2      -0.32079741      -0.20737805      -1.59770327
Si       2.20769800       1.52471870      12.00000000  F        0        2       0.18740810      -2.12259552       1.53058807
Si       1.59450200       5.06088488      13.45315000  F        0        2       0.32545452      -0.39602513      -1.75289734
N       -1.02370433       2.17482973      12.00000000  F        1        2      -0.64875272      -0.69932748       0.13738335
N        4.82590433       4.41077385      13.45315000  F        1        2       0.42004365      -0.08763725      -0.46752994
N        2.43059437       4.61163476      12.00000000  F        1        2       0.86395829      -0.17753512       0.13611323
N        1.37160563       1.97396882      13.45315000  F        1        2      -0.21099929       0.40255745       0.01620585
N       -1.40689004       6.38474267      12.00000000  F        1        2      -0.23850180       0.84911940       0.02367084
N        5.20909004       0.20086091      13.45315000  F        1        2      -0.18475747      -0.47883376       0.22117335
N        3.80216198       2.19517924      12.00000000  F        2        2       0.02424011      -0.01202634      -1.76206584
N        0.00003802       4.39042434      13.45315000  F        2        2       0.06125273       0.01595347       0.42696071
Si       5.18010587       1.14956320      14.90630000  F        0        1       0.10359542       0.30847997       0.10927023
Si      -1.37790587       5.43604038      16.35945000  F        0        1      -1.63813848      -0.38251216       0.35254367
Si       4.01879613       3.91132168      14.90630000  F        0        1       0.70335506       0.46960456       1.71616935
Si      -0.21659613       2.67428190      16.35945000  F        0        1       2.08575799      -0.33469553      -1.67378229
Si       2.18081034       1.51848921      14.95599519  T        0        1      -0.05434133      -0.07386476      -0.00704790
Si       1.59450200       5.06088488      16.35945000  F        0        1      -0.30154585       0.40197668      -1.42066287
N       -1.02370433       2.17482973      14.90630000  F        1        1      -0.61847466      -0.40514571       0.53047822
N        4.82590433       4.41077385      16.35945000  F        1        1       0.38899842      -0.01131963      -0.80233333
N        2.43059437       4.61163476      14.90630000  F        1        1      -0.06560482       0.10586605       0.61230713
N        1.37160563       1.97396882      16.35945000  F        1        1      -1.38395699       0.51326223       0.79748605
N       -1.40689004       6.38474267      14.90630000  F        1        1       0.26374111      -0.00658061      -0.15595249
N        5.20909004       0.20086091      16.35945000  F        1        1       0.38841378      -0.15682997       0.50029907
N        3.80093538       2.18539698      14.86594466  T        2        1      -0.05708445      -0.03090874      -0.01195159
N        0.00003802       4.39042434      16.35945000  F        2        1       0.13904991      -0.23188618       1.47900799
O        2.60513232      -0.10135687      17.63692305  T        0        0      -0.04750978      -0.01361380       0.01422562
H        2.04962028       0.70350597      17.42808536  T        0        0       0.04122634       0.04249594      -0.00449573
H        4.54877682       0.53841011      17.07055873  T        0        0       0.09108801      -0.02841575      -0.06965994
31
Lattice="7.6044 0.0 0.0 -3.802199999999998 6.585603580538386 0.0 0.0 -0.0 28.35945" Properties=species:S:1:pos:R:3:move_mask:L:1:spacegroup_kinds:I:1:tags:I:1:forces:R:3 spacegroup="P 63/m" unit_cell=conventional occupancy="_JSON {\"0\": {\"Si\": 1.0}, \"1\": {\"N\": 1.0}, \"2\": {\"N\": 1.0}}" energy=-227.90866817637337 pbc="T T F"
Si       5.18010587       1.14956320      12.00000000  F        0        2       1.70198438       1.30268099       1.26291493
Si      -1.37790587       5.43604038      13.45315000  F        0        2      -0.11531931       0.53154490      -1.53630199
Si       4.01879613       3.91132168      12.00000000  F        0        2      -1.90603599       0.90336613       1.38768287
Si      -0.21659613       2.67428190      13.45315000  F        0        2      -0.32437846      -0.20478052      -1.60480548
Si       2.20769800       1.52471870      12.00000000  F        0        2       0.19104339      -2.12275319       1.52717415
Si       1.59450200       5.06088488      13.45315000  F        0        2       0.32965403      -0.39561021      -1.75194105
N       -1.02370433       2.17482973      12.00000000  F        1        2      -0.64985298      -0.69865004       0.13813477
N        4.82590433       4.41077385      13.45315000  F        1        2       0.42143640      -0.08749961      -0.46293891
N        2.43059437       4.61163476      12.00000000  F        1        2       0.86339716      -0.17846678       0.13606189
N        1.37160563       1.97396882      13.45315000  F        1        2      -0.24017115       0.39700119       0.00558576
N       -1.40689004       6.38474267      12.00000000  F        1        2      -0.24005703       0.84909868       0.02713950
N        5.20909004       0.20086091      13.45315000  F        1        2      -0.18089278      -0.48547896       0.22334524
N        3.80216198       2.19517924      12.00000000  F        2        2       0.02548899      -0.01186217      -1.76886698
N        0.00003802       4.39042434      13.45315000  F        2        2       0.06091848       0.01666795       0.42897934
Si       5.18010587       1.14956320      14.90630000  F        0        1       0.05914543       0.32388909       0.10496589
Si      -1.37790587       5.43604038      16.35945000  F        0        1      -1.63736634      -0.36336361       0.37635689
Si       4.01879613       3.91132168      14.90630000  F        0        1       0.67680029       0.40703160       1.71320906
Si      -0.21659613       2.67428190      16.35945000  F        0        1       2.08605961      -0.33206488      -1.66727394
Si       2.17538768       1.51240772      14.95512167  T        0        1       0.00495045       0.03626133      -0.00091185
Si       1.59450200       5.06088488      16.35945000  F        0        1      -0.29973253       0.40598556      -1.41978781
N       -1.02370433       2.17482973      14.90630000  F        1        1      -0.62603625      -0.40635561       0.52867834
N        4.82590433       4.41077385      16.35945000  F        1        1       0.38521614      -0.01849087      -0.80865137
N        2.43059437       4.61163476      14.90630000  F        1        1      -0.06983001       0.11574682       0.61320656
N        1.37160563       1.97396882      16.35945000  F        1        1      -1.38816794       0.50836724       0.80157846
N       -1.40689004       6.38474267      14.90630000  F        1        1       0.25548966      -0.08852772      -0.16293052
N        5.20909004       0.20086091      16.35945000  F        1        1       0.50482953      -0.20967882       0.38173280
N        3.79597029       2.18220943      14.86217669  T        2        1       0.01372200       0.01723780       0.01108743
N        0.00003802       4.39042434      16.35945000  F        2        1       0.13904024      -0.23619127       1.47377559
O        2.60605780      -0.10036024      17.63614375  T        0        0      -0.03402223      -0.00987525       0.01600408
H        2.06594120       0.71446832      17.42433554  T        0        0       0.01255283       0.01422586      -0.01081255
H        4.56238311       0.54192597      17.07460156  T        0        0      -0.01986601       0.02054438       0.03760891
31
Lattice="7.6044 0.0 0.0 -3.802199999999998 6.585603580538386 0.0 0.0 -0.0 28.35945" Properties=species:S:1:pos:R:3:move_mask:L:1:spacegroup_kinds:I:1:tags:I:1:forces:R:3 spacegroup="P 63/m" unit_cell=conventional occupancy="_JSON {\"0\": {\"Si\": 1.0}, \"1\": {\"N\": 1.0}, \"2\": {\"N\": 1.0}}" energy=-227.90903258343417 pbc="T T F"
Si       5.18010587       1.14956320      12.00000000  F        0        2       1.70212503       1.30283050       1.26229436
Si      -1.37790587       5.43604038      13.45315000  F        0        2      -0.11575142       0.53481701      -1.53098917
Si       4.01879613       3.91132168      12.00000000  F        0        2      -1.90495339       0.90428703       1.38761930
Si      -0.21659613       2.67428190      13.45315000  F        0        2      -0.32743736      -0.20372738      -1.60659832
Si       2.20769800       1.52471870      12.00000000  F        0        2       0.19177027      -2.12408785       1.52444787
Si       1.59450200       5.06088488      13.45315000  F        0        2       0.32895611      -0.39677349      -1.75256494
N       -1.02370433       2.17482973      12.00000000  F        1        2      -0.64907380      -0.69896602       0.13843573
N        4.82590433       4.41077385      13.45315000  F        1        2       0.42201757      -0.08672659      -0.46580430
N        2.43059437       4.61163476      12.00000000  F        1        2       0.86323906      -0.17798828       0.13604240
N        1.37160563       1.97396882      13.45315000  F        1        2      -0.24211437       0.40309242       0.00110775
N       -1.40689004       6.38474267      12.00000000  F        1        2      -0.24015246       0.84992014       0.02591007
N        5.20909004       0.20086091      13.45315000  F        1        2      -0.18215905      -0.48294317       0.22721693
N        3.80216198       2.19517924      12.00000000  F        2        2       0.02509765      -0.01155658      -1.76714418
N        0.00003802       4.39042434      13.45315000  F        2        2       0.06206895       0.01494096       0.42868004
Si       5.18010587       1.14956320      14.90630000  F        0        1       0.05578722       0.32787458       0.10776788
Si      -1.37790587       5.43604038      16.35945000  F        0        1      -1.64604713      -0.34206993       0.39014349
Si       4.01879613       3.91132168      14.90630000  F        0        1       0.68284665       0.42640075       1.71373629
Si      -0.21659613       2.67428190      16.35945000  F        0        1       2.08381277      -0.33244553      -1.66273059
Si       2.17552925       1.51502686      14.95467080  T        0        1       0.01346208      -0.01802555       0.00274050
Si       1.59450200       5.06088488      16.35945000  F        0        1      -0.30119322       0.40591357      -1.41945591
N       -1.02370433       2.17482973      14.90630000  F        1        1      -0.62353510      -0.40703972       0.52759021
N        4.82590433       4.41077385      16.35945000  F        1        1       0.38039881      -0.02663388      -0.81316754
N        2.43059437       4.61163476      14.90630000  F        1        1      -0.07146394       0.11548622       0.61253247
N        1.37160563       1.97396882      16.35945000  F        1        1      -1.38023118       0.51531582       0.80140978
N       -1.40689004       6.38474267      14.90630000  F        1        1       0.25694407      -0.05049239      -0.15652425
N        5.20909004       0.20086091      16.35945000  F        1        1       0.46802255      -0.19213064       0.42463869
N        3.79666961       2.18362631      14.86276338  T        2        1       0.00473483      -0.01235332       0.00669618
N        0.00003802       4.39042434      16.35945000  F        2        1       0.13872290      -0.23350232       1.47453419
O        2.59867589      -0.10241467      17.63929365  T        0        0      -0.00418312      -0.00141506      -0.00052514
H        2.07148853       0.71967981      17.42139159  T        0        0      -0.00455831      -0.00437576      -0.00984453
H        4.56592009       0.54342971      17.07897263  T        0        0       0.01284734       0.00237449      -0.00819526
31
Lattice="7.6044 0.0 0.0 -3.802199999999998 6.585603580538386 0.0 0.0 -0.0 28.35945" Properties=species:S:1:pos:R:3:move_mask:L:1:spacegroup_kinds:I:1:tags:I:1:forces:R:3 spacegroup="P 63/m" unit_cell=conventional occupancy="_JSON {\"0\": {\"Si\": 1.0}, \"1\": {\"N\": 1.0}, \"2\": {\"N\": 1.0}}" energy=-227.9090788641259 pbc="T T F"
Si       5.18010587       1.14956320      12.00000000  F        0        2       1.70232562       1.30274810       1.26233700
Si      -1.37790587       5.43604038      13.45315000  F        0        2      -0.11507140       0.53308763      -1.53307596
Si       4.01879613       3.91132168      12.00000000  F        0        2      -1.90536533       0.90435774       1.38729091
Si      -0.21659613       2.67428190      13.45315000  F        0        2      -0.32490613      -0.20488307      -1.60435425
Si       2.20769800       1.52471870      12.00000000  F        0        2       0.19066874      -2.12330076       1.52708494
Si       1.59450200       5.06088488      13.45315000  F        0        2       0.32909203      -0.39717663      -1.75252602
N       -1.02370433       2.17482973      12.00000000  F        1        2      -0.64938406      -0.69891535       0.13809265
N        4.82590433       4.41077385      13.45315000  F        1        2       0.42088461      -0.08814956      -0.46472704
N        2.43059437       4.61163476      12.00000000  F        1        2       0.86343287      -0.17797085       0.13597632
N        1.37160563       1.97396882      13.45315000  F        1        2      -0.23502329       0.39935854       0.00617690
N       -1.40689004       6.38474267      12.00000000  F        1        2      -0.24011787       0.84929536       0.02607582
N        5.20909004       0.20086091      13.45315000  F        1        2      -0.18241643      -0.48311420       0.22669704
N        3.80216198       2.19517924      12.00000000  F        2        2       0.02534868      -0.01167426      -1.76579929
N        0.00003802       4.39042434      13.45315000  F        2        2       0.06162380       0.01575990       0.42869732
Si       5.18010587       1.14956320      14.90630000  F        0        1       0.06702543       0.32171011       0.10850704
Si      -1.37790587       5.43604038      16.35945000  F        0        1      -1.64621333      -0.34744153       0.39203864
Si       4.01879613       3.91132168      14.90630000  F        0        1       0.68216540       0.42059453       1.71578082
Si      -0.21659613       2.67428190      16.35945000  F        0        1       2.08477758      -0.33247232      -1.66436507
Si       2.17641590       1.51389182      14.95507303  T        0        1      -0.00687575       0.00928477      -0.00165628
Si       1.59450200       5.06088488      16.35945000  F        0        1      -0.30273763       0.40715934      -1.41691451
N       -1.02370433       2.17482973      14.90630000  F        1        1      -0.62299786      -0.40617991       0.52721959
N        4.82590433       4.41077385      16.35945000  F        1        1       0.37991186      -0.02759504      -0.81516412
N        2.43059437       4.61163476      14.90630000  F        1        1      -0.07041972       0.11514132       0.61214345
N        1.37160563       1.97396882      16.35945000  F        1        1      -1.37546298       0.51162305       0.79695466
N       -1.40689004       6.38474267      14.90630000  F        1        1       0.25893330      -0.06653727      -0.15659565
N        5.20909004       0.20086091      16.35945000  F        1        1       0.47518441      -0.19375740       0.41536324
N        3.79702836       2.18301273      14.86403820  T        2        1      -0.00145247       0.00344211      -0.00058961
N        0.00003802       4.39042434      16.35945000  F        2        1       0.13913784      -0.23431347       1.47392765
O        2.59760341      -0.10267639      17.63933772  T        0        0      -0.00170611       0.00199491      -0.00157963
H        2.07159833       0.71978396      17.41954138  T        0        0      -0.00692063      -0.00193274      -0.00466244
H        4.56716367       0.54549616      17.07863845  T        0        0       0.00655882      -0.00014304       0.00164588
31
Lattice="7.6044 0.0 0.0 -3.802199999999998 6.585603580538386 0.0 0.0 -0.0 28.35945" Properties=species:S:1:pos:R:3:move_mask:L:1:spacegroup_kinds:I:1:tags:I:1:forces:R:3 spacegroup="P 63/m" unit_cell=conventional occupancy="_JSON {\"0\": {\"Si\": 1.0}, \"1\": {\"N\": 1.0}, \"2\": {\"N\": 1.0}}" energy=-227.9091150437823 pbc="T T F"
Si       5.18010587       1.14956320      12.00000000  F        0        2       1.70223874       1.30288168       1.26204712
Si      -1.37790587       5.43604038      13.45315000  F        0        2      -0.11519531       0.53408016      -1.53186460
Si       4.01879613       3.91132168      12.00000000  F        0        2      -1.90507398       0.90451121       1.38736120
Si      -0.21659613       2.67428190      13.45315000  F        0        2      -0.32559953      -0.20464903      -1.60506485
Si       2.20769800       1.52471870      12.00000000  F        0        2       0.19085924      -2.12363085       1.52706614
Si       1.59450200       5.06088488      13.45315000  F        0        2       0.32910936      -0.39786156      -1.75266183
N       -1.02370433       2.17482973      12.00000000  F        1        2      -0.64943517      -0.69900237       0.13812563
N        4.82590433       4.41077385      13.45315000  F        1        2       0.42117364      -0.08792962      -0.46537067
N        2.43059437       4.61163476      12.00000000  F        1        2       0.86333716      -0.17783997       0.13594069
N        1.37160563       1.97396882      13.45315000  F        1        2      -0.23666940       0.40044702       0.00518733
N       -1.40689004       6.38474267      12.00000000  F        1        2      -0.24015454       0.84945641       0.02558349
N        5.20909004       0.20086091      13.45315000  F        1        2      -0.18269900      -0.48278896       0.22851670
N        3.80216198       2.19517924      12.00000000  F        2        2       0.02542608      -0.01163937      -1.76585256
N        0.00003802       4.39042434      13.45315000  F        2        2       0.06193115       0.01554665       0.42855968
Si       5.18010587       1.14956320      14.90630000  F        0        1       0.06258482       0.32434191       0.11099026
Si      -1.37790587       5.43604038      16.35945000  F        0        1      -1.64485737      -0.35137168       0.38882368
Si       4.01879613       3.91132168      14.90630000  F        0        1       0.68269089       0.42364945       1.71604955
Si      -0.21659613       2.67428190      16.35945000  F        0        1       2.08376132      -0.33151348      -1.66355706
Si       2.17620010       1.51429963      14.95508112  T        0        1       0.00002735      -0.00026586      -0.00484538
Si       1.59450200       5.06088488      16.35945000  F        0        1      -0.30277350       0.40758009      -1.41695868
N       -1.02370433       2.17482973      14.90630000  F        1        1      -0.62308782      -0.40648260       0.52672234
N        4.82590433       4.41077385      16.35945000  F        1        1       0.37799609      -0.03063263      -0.81701590
N        2.43059437       4.61163476      14.90630000  F        1        1      -0.07155145       0.11542472       0.61190760
N        1.37160563       1.97396882      16.35945000  F        1        1      -1.37917179       0.51383110       0.79874797
N       -1.40689004       6.38474267      14.90630000  F        1        1       0.25839450      -0.06113894      -0.15889783
N        5.20909004       0.20086091      16.35945000  F        1        1       0.47903969      -0.19751357       0.41487996
N        3.79695392       2.18331501      14.86397978  T        2        1       0.00032684      -0.00375647      -0.00079303
N        0.00003802       4.39042434      16.35945000  F        2        1       0.13992843      -0.23530760       1.47375636
O        2.59560437      -0.10233115      17.63876529  T        0        0      -0.00066403       0.00402548      -0.00056981
H        2.06888507       0.71913493      17.41583510  T        0        0      -0.00355221       0.00412289       0.00423637
H        4.57049308       0.54602303      17.08110212  T        0        0       0.00165980       0.00342580      -0.00104986
31
Lattice="7.6044 0.0 0.0 -3.802199999999998 6.585603580538386 0.0 0.0 -0.0 28.35945" Properties=species:S:1:pos:R:3:move_mask:L:1:spacegroup_kinds:I:1:tags:I:1:forces:R:3 spacegroup="P 63/m" unit_cell=conventional occupancy="_JSON {\"0\": {\"Si\": 1.0}, \"1\": {\"N\": 1.0}, \"2\": {\"N\": 1.0}}" energy=-227.9091150437823 pbc="T T F"
Si       5.18010587       1.14956320      12.00000000  F        0        2       1.70223874       1.30288168       1.26204712
Si      -1.37790587       5.43604038      13.45315000  F        0        2      -0.11519531       0.53408016      -1.53186460
Si       4.01879613       3.91132168      12.00000000  F        0        2      -1.90507398       0.90451121       1.38736120
Si      -0.21659613       2.67428190      13.45315000  F        0        2      -0.32559953      -0.20464903      -1.60506485
Si       2.20769800       1.52471870      12.00000000  F        0        2       0.19085924      -2.12363085       1.52706614
Si       1.59450200       5.06088488      13.45315000  F        0        2       0.32910936      -0.39786156      -1.75266183
N       -1.02370433       2.17482973      12.00000000  F        1        2      -0.64943517      -0.69900237       0.13812563
N        4.82590433       4.41077385      13.45315000  F        1        2       0.42117364      -0.08792962      -0.46537067
N        2.43059437       4.61163476      12.00000000  F        1        2       0.86333716      -0.17783997       0.13594069
N        1.37160563       1.97396882      13.45315000  F        1        2      -0.23666940       0.40044702       0.00518733
N       -1.40689004       6.38474267      12.00000000  F        1        2      -0.24015454       0.84945641       0.02558349
N        5.20909004       0.20086091      13.45315000  F        1        2      -0.18269900      -0.48278896       0.22851670
N        3.80216198       2.19517924      12.00000000  F        2        2       0.02542608      -0.01163937      -1.76585256
N        0.00003802       4.39042434      13.45315000  F        2        2       0.06193115       0.01554665       0.42855968
Si       5.18010587       1.14956320      14.90630000  F        0        1       0.06258482       0.32434191       0.11099026
Si      -1.37790587       5.43604038      16.35945000  F        0        1      -1.64485737      -0.35137168       0.38882368
Si       4.01879613       3.91132168      14.90630000  F        0        1       0.68269089       0.42364945       1.71604955
Si      -0.21659613       2.67428190      16.35945000  F        0        1       2.08376132      -0.33151348      -1.66355706
Si       2.17620010       1.51429963      14.95508112  T        0        1       0.00002735      -0.00026586      -0.00484538
Si       1.59450200       5.06088488      16.35945000  F        0        1      -0.30277350       0.40758009      -1.41695868
N       -1.02370433       2.17482973      14.90630000  F        1        1      -0.62308782      -0.40648260       0.52672234
N        4.82590433       4.41077385      16.35945000  F        1        1       0.37799609      -0.03063263      -0.81701590
N        2.43059437       4.61163476      14.90630000  F        1        1      -0.07155145       0.11542472       0.61190760
N        1.37160563       1.97396882      16.35945000  F        1        1      -1.37917179       0.51383110       0.79874797
N       -1.40689004       6.38474267      14.90630000  F        1        1       0.25839450      -0.06113894      -0.15889783
N        5.20909004       0.20086091      16.35945000  F        1        1       0.47903969      -0.19751357       0.41487996
N        3.79695392       2.18331501      14.86397978  T        2        1       0.00032684      -0.00375647      -0.00079303
N        0.00003802       4.39042434      16.35945000  F        2        1       0.13992843      -0.23530760       1.47375636
O        2.59560437      -0.10233115      17.63876529  T        0        0      -0.00066403       0.00402548      -0.00056981
H        2.06888507       0.71913493      17.41583510  T        0        0      -0.00355221       0.00412289       0.00423637
H        4.57049308       0.54602303      17.08110212  T        0        0       0.00165980       0.00342580      -0.00104986
