39
Lattice="11.518769465528859 0.0 0.0 0.0 7.679179643685906 0.0 0.0 0.0 30.7875" Properties=species:S:1:pos:R:3:move_mask:L:1:tags:I:1:forces:R:3 surface=Si100 species=H2O site=hollow orientation=flipped height_A=6.5 substrate_atoms=36 calculation_kind="Rigid evaluated approach scan; not NEB" energy=-194.37464166994567 pbc="T T F"
Si       0.00000000       0.00000000      12.00000000  F        6      -0.00000004       0.00000000       0.24903484
Si       3.83958982       0.00000000      12.00000000  F        6      -0.00000000       0.00000000       0.24903482
Si       7.67917964       0.00000000      12.00000000  F        6       0.00000000       0.00000000       0.24903482
Si       0.00000000       3.83958982      12.00000000  F        6      -0.00000004      -0.00000000       0.24903484
Si       3.83958982       3.83958982      12.00000000  F        6      -0.00000000      -0.00000000       0.24903482
Si       7.67917964       3.83958982      12.00000000  F        6       0.00000000      -0.00000000       0.24903482
Si       1.91979491       0.00000000      13.35750000  F        5       0.00000000      -0.00000002      -0.52822352
Si       5.75938473       0.00000000      13.35750000  F        5       0.00000000      -0.00000002      -0.52822353
Si       9.59897455       0.00000000      13.35750000  F        5       0.00000003      -0.00000002      -0.52822354
Si       1.91979491       3.83958982      13.35750000  F        5       0.00000000       0.00000000      -0.52822354
Si       5.75938473       3.83958982      13.35750000  F        5       0.00000000       0.00000000      -0.52822354
Si       9.59897455       3.83958982      13.35750000  F        5       0.00000003       0.00000000      -0.52822356
Si       1.91979491       1.91979491      14.71500000  F        4      -0.00000000       0.00000000       0.14537709
Si       5.75938473       1.91979491      14.71500000  F        4       0.00000000       0.00000000       0.14537709
Si       9.59897455       1.91979491      14.71500000  F        4       0.00000004       0.00000000       0.14537711
Si       1.91979491       5.75938473      14.71500000  F        4      -0.00000000       0.00000002       0.14537707
Si       5.75938473       5.75938473      14.71500000  F        4       0.00000000       0.00000002       0.14537707
Si       9.59897455       5.75938473      14.71500000  F        4       0.00000004       0.00000002       0.14537709
Si       0.00000000       1.91979491      16.07250000  F        3      -0.00000004       0.00000000      -0.14537711
Si       3.83958982       1.91979491      16.07250000  F        3      -0.00000000       0.00000000      -0.14537709
Si       7.67917964       1.91979491      16.07250000  F        3       0.00000000       0.00000000      -0.14537709
Si       0.00000000       5.75938473      16.07250000  F        3      -0.00000004       0.00000002      -0.14537709
Si       3.83958982       5.75938473      16.07250000  F        3      -0.00000000       0.00000002      -0.14537707
Si       7.67917964       5.75938473      16.07250000  F        3       0.00000000       0.00000002      -0.14537707
Si       0.00000000       0.00000000      17.43000000  F        2      -0.00000003      -0.00000002       0.52822354
Si       3.83958982       0.00000000      17.43000000  F        2      -0.00000000      -0.00000002       0.52822353
Si       7.67917964       0.00000000      17.43000000  F        2      -0.00000000      -0.00000002       0.52822352
Si       0.00000000       3.83958982      17.43000000  F        2      -0.00000003       0.00000000       0.52822356
Si       3.83958982       3.83958982      17.43000000  F        2      -0.00000000       0.00000000       0.52822354
Si       7.67917964       3.83958982      17.43000000  F        2      -0.00000000       0.00000000       0.52822354
Si       1.91979491       0.00000000      18.78750000  F        1      -0.00000000       0.00000000      -0.24903482
Si       5.75938473       0.00000000      18.78750000  F        1       0.00000000       0.00000000      -0.24903482
Si       9.59897455       0.00000000      18.78750000  F        1       0.00000004       0.00000000      -0.24903484
Si       1.91979491       3.83958982      18.78750000  F        1      -0.00000000      -0.00000000      -0.24903482
Si       5.75938473       3.83958982      18.78750000  F        1       0.00000000      -0.00000000      -0.24903482
Si       9.59897455       3.83958982      18.78750000  F        1       0.00000004      -0.00000000      -0.24903484
O        7.67917964       1.91979491      25.89369698  T        0       0.00000000       0.00000000       0.00791150
H        6.92108817       1.91979491      25.28750000  T        0      -0.00428516       0.00000000      -0.00395575
H        8.43727111       1.91979491      25.28750000  T        0       0.00428516       0.00000000      -0.00395575
39
Lattice="11.518769465528859 0.0 0.0 0.0 7.679179643685906 0.0 0.0 0.0 30.7875" Properties=species:S:1:pos:R:3:move_mask:L:1:tags:I:1:forces:R:3 surface=Si100 species=H2O site=hollow orientation=flipped height_A=5.0 substrate_atoms=36 calculation_kind="Rigid evaluated approach scan; not NEB" energy=-194.37464166994567 pbc="T T F"
Si       0.00000000       0.00000000      12.00000000  F        6      -0.00000004       0.00000000       0.24903484
Si       3.83958982       0.00000000      12.00000000  F        6      -0.00000000       0.00000000       0.24903482
Si       7.67917964       0.00000000      12.00000000  F        6       0.00000000       0.00000000       0.24903482
Si       0.00000000       3.83958982      12.00000000  F        6      -0.00000004      -0.00000000       0.24903484
Si       3.83958982       3.83958982      12.00000000  F        6      -0.00000000      -0.00000000       0.24903482
Si       7.67917964       3.83958982      12.00000000  F        6       0.00000000      -0.00000000       0.24903482
Si       1.91979491       0.00000000      13.35750000  F        5       0.00000000      -0.00000002      -0.52822352
Si       5.75938473       0.00000000      13.35750000  F        5       0.00000000      -0.00000002      -0.52822353
Si       9.59897455       0.00000000      13.35750000  F        5       0.00000003      -0.00000002      -0.52822354
Si       1.91979491       3.83958982      13.35750000  F        5       0.00000000       0.00000000      -0.52822354
Si       5.75938473       3.83958982      13.35750000  F        5       0.00000000       0.00000000      -0.52822354
Si       9.59897455       3.83958982      13.35750000  F        5       0.00000003       0.00000000      -0.52822356
Si       1.91979491       1.91979491      14.71500000  F        4      -0.00000000       0.00000000       0.14537709
Si       5.75938473       1.91979491      14.71500000  F        4       0.00000000       0.00000000       0.14537709
Si       9.59897455       1.91979491      14.71500000  F        4       0.00000004       0.00000000       0.14537711
Si       1.91979491       5.75938473      14.71500000  F        4      -0.00000000       0.00000002       0.14537707
Si       5.75938473       5.75938473      14.71500000  F        4       0.00000000       0.00000002       0.14537707
Si       9.59897455       5.75938473      14.71500000  F        4       0.00000004       0.00000002       0.14537709
Si       0.00000000       1.91979491      16.07250000  F        3      -0.00000004       0.00000000      -0.14537711
Si       3.83958982       1.91979491      16.07250000  F        3      -0.00000000       0.00000000      -0.14537709
Si       7.67917964       1.91979491      16.07250000  F        3       0.00000000       0.00000000      -0.14537709
Si       0.00000000       5.75938473      16.07250000  F        3      -0.00000004       0.00000002      -0.14537709
Si       3.83958982       5.75938473      16.07250000  F        3      -0.00000000       0.00000002      -0.14537707
Si       7.67917964       5.75938473      16.07250000  F        3       0.00000000       0.00000002      -0.14537707
Si       0.00000000       0.00000000      17.43000000  F        2      -0.00000003      -0.00000002       0.52822354
Si       3.83958982       0.00000000      17.43000000  F        2      -0.00000000      -0.00000002       0.52822353
Si       7.67917964       0.00000000      17.43000000  F        2      -0.00000000      -0.00000002       0.52822352
Si       0.00000000       3.83958982      17.43000000  F        2      -0.00000003       0.00000000       0.52822356
Si       3.83958982       3.83958982      17.43000000  F        2      -0.00000000       0.00000000       0.52822354
Si       7.67917964       3.83958982      17.43000000  F        2      -0.00000000       0.00000000       0.52822354
Si       1.91979491       0.00000000      18.78750000  F        1      -0.00000000       0.00000000      -0.24903482
Si       5.75938473       0.00000000      18.78750000  F        1       0.00000000       0.00000000      -0.24903482
Si       9.59897455       0.00000000      18.78750000  F        1       0.00000004       0.00000000      -0.24903484
Si       1.91979491       3.83958982      18.78750000  F        1      -0.00000000      -0.00000000      -0.24903482
Si       5.75938473       3.83958982      18.78750000  F        1       0.00000000      -0.00000000      -0.24903482
Si       9.59897455       3.83958982      18.78750000  F        1       0.00000004      -0.00000000      -0.24903484
O        7.67917964       1.91979491      24.39369698  T        0       0.00000000       0.00000000       0.00791150
H        6.92108817       1.91979491      23.78750000  T        0      -0.00428516       0.00000000      -0.00395575
H        8.43727111       1.91979491      23.78750000  T        0       0.00428516       0.00000000      -0.00395575
39
Lattice="11.518769465528859 0.0 0.0 0.0 7.679179643685906 0.0 0.0 0.0 30.7875" Properties=species:S:1:pos:R:3:move_mask:L:1:tags:I:1:forces:R:3 surface=Si100 species=H2O site=hollow orientation=flipped height_A=4.0 substrate_atoms=36 calculation_kind="Rigid evaluated approach scan; not NEB" energy=-194.36482533238973 pbc="T T F"
Si       0.00000000       0.00000000      12.00000000  F        6      -0.00026030      -0.00000094       0.24903810
Si       3.83958982       0.00000000      12.00000000  F        6       0.00026026      -0.00000094       0.24903808
Si       7.67917964       0.00000000      12.00000000  F        6       0.00000000      -0.00000708       0.24909651
Si       0.00000000       3.83958982      12.00000000  F        6      -0.00026030       0.00000094       0.24903810
Si       3.83958982       3.83958982      12.00000000  F        6       0.00026026       0.00000094       0.24903809
Si       7.67917964       3.83958982      12.00000000  F        6       0.00000000       0.00000708       0.24909651
Si       1.91979491       0.00000000      13.35750000  F        5       0.00000000       0.00000180      -0.52810576
Si       5.75938473       0.00000000      13.35750000  F        5      -0.00016791      -0.00010573      -0.52734744
Si       9.59897455       0.00000000      13.35750000  F        5       0.00016794      -0.00010573      -0.52734746
Si       1.91979491       3.83958982      13.35750000  F        5       0.00000000      -0.00000182      -0.52810577
Si       5.75938473       3.83958982      13.35750000  F        5      -0.00016791       0.00010571      -0.52734746
Si       9.59897455       3.83958982      13.35750000  F        5       0.00016794       0.00010571      -0.52734747
Si       1.91979491       1.91979491      14.71500000  F        4      -0.00000000       0.00000000       0.14531079
Si       5.75938473       1.91979491      14.71500000  F        4       0.00019788      -0.00000000       0.14547067
Si       9.59897455       1.91979491      14.71500000  F        4      -0.00019784      -0.00000000       0.14547069
Si       1.91979491       5.75938473      14.71500000  F        4      -0.00000000       0.00000002       0.14572045
Si       5.75938473       5.75938473      14.71500000  F        4      -0.00007860       0.00000002       0.15355887
Si       9.59897455       5.75938473      14.71500000  F        4       0.00007864       0.00000002       0.15355889
Si       0.00000000       1.91979491      16.07250000  F        3       0.00156118       0.00000000      -0.14959395
Si       3.83958982       1.91979491      16.07250000  F        3      -0.00156122       0.00000000      -0.14959393
Si       7.67917964       1.91979491      16.07250000  F        3       0.00000000      -0.00000000      -0.15267631
Si       0.00000000       5.75938473      16.07250000  F        3      -0.00546198       0.00000002      -0.14581979
Si       3.83958982       5.75938473      16.07250000  F        3       0.00546194       0.00000002      -0.14581977
Si       7.67917964       5.75938473      16.07250000  F        3       0.00000000       0.00000002      -0.16083934
Si       0.00000000       0.00000000      17.43000000  F        2      -0.00174634      -0.00182522       0.53101500
Si       3.83958982       0.00000000      17.43000000  F        2       0.00174631      -0.00182522       0.53101498
Si       7.67917964       0.00000000      17.43000000  F        2      -0.00000000       0.00306794       0.52485792
Si       0.00000000       3.83958982      17.43000000  F        2      -0.00174634       0.00182520       0.53101501
Si       3.83958982       3.83958982      17.43000000  F        2       0.00174631       0.00182520       0.53101499
Si       7.67917964       3.83958982      17.43000000  F        2      -0.00000000      -0.00306797       0.52485793
Si       1.91979491       0.00000000      18.78750000  F        1      -0.00000000       0.00135937      -0.25088439
Si       5.75938473       0.00000000      18.78750000  F        1      -0.01205944       0.00562849      -0.26098118
Si       9.59897455       0.00000000      18.78750000  F        1       0.01205948       0.00562849      -0.26098120
Si       1.91979491       3.83958982      18.78750000  F        1      -0.00000000      -0.00135937      -0.25088439
Si       5.75938473       3.83958982      18.78750000  F        1      -0.01205944      -0.00562849      -0.26098118
Si       9.59897455       3.83958982      18.78750000  F        1       0.01205948      -0.00562849      -0.26098120
O        7.67917964       1.91979491      23.39369698  T        0       0.00000000      -0.00000000       0.00532060
H        6.92108817       1.91979491      22.78750000  T        0       0.00727295       0.00000000       0.02655290
H        8.43727111       1.91979491      22.78750000  T        0      -0.00727295       0.00000000       0.02655290
39
Lattice="11.518769465528859 0.0 0.0 0.0 7.679179643685906 0.0 0.0 0.0 30.7875" Properties=species:S:1:pos:R:3:move_mask:L:1:tags:I:1:forces:R:3 surface=Si100 species=H2O site=hollow orientation=flipped height_A=3.25 substrate_atoms=36 calculation_kind="Rigid evaluated approach scan; not NEB" energy=-194.40388726462896 pbc="T T F"
Si       0.00000000       0.00000000      12.00000000  F        6      -0.00088348      -0.00000216       0.24928110
Si       3.83958982       0.00000000      12.00000000  F        6       0.00088344      -0.00000216       0.24928108
Si       7.67917964       0.00000000      12.00000000  F        6       0.00000000      -0.00001068       0.24956851
Si       0.00000000       3.83958982      12.00000000  F        6      -0.00088348       0.00000216       0.24928110
Si       3.83958982       3.83958982      12.00000000  F        6       0.00088344       0.00000216       0.24928108
Si       7.67917964       3.83958982      12.00000000  F        6       0.00000000       0.00001068       0.24956851
Si       1.91979491       0.00000000      13.35750000  F        5       0.00000000      -0.00008004      -0.52637026
Si       5.75938473       0.00000000      13.35750000  F        5      -0.00082250      -0.00037337      -0.52555897
Si       9.59897455       0.00000000      13.35750000  F        5       0.00082253      -0.00037337      -0.52555899
Si       1.91979491       3.83958982      13.35750000  F        5       0.00000000       0.00008002      -0.52637028
Si       5.75938473       3.83958982      13.35750000  F        5      -0.00082250       0.00037335      -0.52555899
Si       9.59897455       3.83958982      13.35750000  F        5       0.00082253       0.00037335      -0.52555901
Si       1.91979491       1.91979491      14.71500000  F        4      -0.00000000      -0.00000000       0.14572014
Si       5.75938473       1.91979491      14.71500000  F        4       0.00347391      -0.00000000       0.14845313
Si       9.59897455       1.91979491      14.71500000  F        4      -0.00347388      -0.00000000       0.14845315
Si       1.91979491       5.75938473      14.71500000  F        4      -0.00000000       0.00000002       0.14639310
Si       5.75938473       5.75938473      14.71500000  F        4       0.00383382       0.00000002       0.14280729
Si       9.59897455       5.75938473      14.71500000  F        4      -0.00383378       0.00000002       0.14280731
Si       0.00000000       1.91979491      16.07250000  F        3       0.01032445       0.00000000      -0.15713212
Si       3.83958982       1.91979491      16.07250000  F        3      -0.01032449       0.00000000      -0.15713210
Si       7.67917964       1.91979491      16.07250000  F        3       0.00000000      -0.00000000      -0.15986414
Si       0.00000000       5.75938473      16.07250000  F        3       0.00228774       0.00000002      -0.14753724
Si       3.83958982       5.75938473      16.07250000  F        3      -0.00228778       0.00000002      -0.14753722
Si       7.67917964       5.75938473      16.07250000  F        3       0.00000000       0.00000002      -0.18385783
Si       0.00000000       0.00000000      17.43000000  F        2       0.00095701      -0.00238558       0.53967628
Si       3.83958982       0.00000000      17.43000000  F        2      -0.00095704      -0.00238558       0.53967626
Si       7.67917964       0.00000000      17.43000000  F        2      -0.00000000      -0.01254332       0.48768703
Si       0.00000000       3.83958982      17.43000000  F        2       0.00095701       0.00238556       0.53967629
Si       3.83958982       3.83958982      17.43000000  F        2      -0.00095704       0.00238556       0.53967627
Si       7.67917964       3.83958982      17.43000000  F        2      -0.00000000       0.01254330       0.48768705
Si       1.91979491       0.00000000      18.78750000  F        1      -0.00000000       0.00059927      -0.25999494
Si       5.75938473       0.00000000      18.78750000  F        1      -0.00247398       0.06853080      -0.19837964
Si       9.59897455       0.00000000      18.78750000  F        1       0.00247402       0.06853080      -0.19837965
Si       1.91979491       3.83958982      18.78750000  F        1      -0.00000000      -0.00059927      -0.25999494
Si       5.75938473       3.83958982      18.78750000  F        1      -0.00247398      -0.06853080      -0.19837964
Si       9.59897455       3.83958982      18.78750000  F        1       0.00247402      -0.06853080      -0.19837965
O        7.67917964       1.91979491      22.64369698  T        0       0.00000000       0.00000000      -0.02929981
H        6.92108817       1.91979491      22.03750000  T        0      -0.01937064      -0.00000000      -0.02706461
H        8.43727111       1.91979491      22.03750000  T        0       0.01937064      -0.00000000      -0.02706461
39
Lattice="11.518769465528859 0.0 0.0 0.0 7.679179643685906 0.0 0.0 0.0 30.7875" Properties=species:S:1:pos:R:3:move_mask:L:1:tags:I:1:forces:R:3 surface=Si100 species=H2O site=hollow orientation=flipped height_A=2.75 substrate_atoms=36 calculation_kind="Rigid evaluated approach scan; not NEB" energy=-194.40474857426761 pbc="T T F"
Si       0.00000000       0.00000000      12.00000000  F        6      -0.00120957      -0.00004104       0.25030166
Si       3.83958982       0.00000000      12.00000000  F        6       0.00120953      -0.00004104       0.25030165
Si       7.67917964       0.00000000      12.00000000  F        6       0.00000000      -0.00002232       0.25072835
Si       0.00000000       3.83958982      12.00000000  F        6      -0.00120957       0.00004104       0.25030166
Si       3.83958982       3.83958982      12.00000000  F        6       0.00120953       0.00004104       0.25030165
Si       7.67917964       3.83958982      12.00000000  F        6       0.00000000       0.00002232       0.25072835
Si       1.91979491       0.00000000      13.35750000  F        5       0.00000000      -0.00031206      -0.52350705
Si       5.75938473       0.00000000      13.35750000  F        5      -0.00117790      -0.00038365      -0.52398135
Si       9.59897455       0.00000000      13.35750000  F        5       0.00117793      -0.00038365      -0.52398137
Si       1.91979491       3.83958982      13.35750000  F        5       0.00000000       0.00031204      -0.52350707
Si       5.75938473       3.83958982      13.35750000  F        5      -0.00117790       0.00038362      -0.52398137
Si       9.59897455       3.83958982      13.35750000  F        5       0.00117793       0.00038362      -0.52398138
Si       1.91979491       1.91979491      14.71500000  F        4      -0.00000000      -0.00000000       0.14582039
Si       5.75938473       1.91979491      14.71500000  F        4       0.00284199      -0.00000000       0.14505505
Si       9.59897455       1.91979491      14.71500000  F        4      -0.00284195      -0.00000000       0.14505507
Si       1.91979491       5.75938473      14.71500000  F        4      -0.00000000       0.00000002       0.14430794
Si       5.75938473       5.75938473      14.71500000  F        4       0.00457761       0.00000002       0.13547035
Si       9.59897455       5.75938473      14.71500000  F        4      -0.00457758       0.00000002       0.13547037
Si       0.00000000       1.91979491      16.07250000  F        3       0.01711636      -0.00000000      -0.16483447
Si       3.83958982       1.91979491      16.07250000  F        3      -0.01711639      -0.00000000      -0.16483445
Si       7.67917964       1.91979491      16.07250000  F        3       0.00000000      -0.00000000      -0.15643800
Si       0.00000000       5.75938473      16.07250000  F        3       0.01032570       0.00000002      -0.14696467
Si       3.83958982       5.75938473      16.07250000  F        3      -0.01032574       0.00000002      -0.14696465
Si       7.67917964       5.75938473      16.07250000  F        3       0.00000000       0.00000002      -0.19764067
Si       0.00000000       0.00000000      17.43000000  F        2       0.00439297      -0.01029489       0.53356588
Si       3.83958982       0.00000000      17.43000000  F        2      -0.00439300      -0.01029489       0.53356586
Si       7.67917964       0.00000000      17.43000000  F        2      -0.00000000      -0.04114710       0.39984527
Si       0.00000000       3.83958982      17.43000000  F        2       0.00439297       0.01029487       0.53356589
Si       3.83958982       3.83958982      17.43000000  F        2      -0.00439300       0.01029487       0.53356587
Si       7.67917964       3.83958982      17.43000000  F        2      -0.00000000       0.04114708       0.39984528
Si       1.91979491       0.00000000      18.78750000  F        1      -0.00000000      -0.00216753      -0.26074785
Si       5.75938473       0.00000000      18.78750000  F        1       0.00273635       0.10986300      -0.17154573
Si       9.59897455       0.00000000      18.78750000  F        1      -0.00273631       0.10986300      -0.17154574
Si       1.91979491       3.83958982      18.78750000  F        1      -0.00000000       0.00216753      -0.26074785
Si       5.75938473       3.83958982      18.78750000  F        1       0.00273635      -0.10986300      -0.17154573
Si       9.59897455       3.83958982      18.78750000  F        1      -0.00273631      -0.10986300      -0.17154574
O        7.67917964       1.91979491      22.14369698  T        0      -0.00000000       0.00000000       0.10146113
H        6.92108817       1.91979491      21.53750000  T        0       0.02740714      -0.00000000      -0.03048126
H        8.43727111       1.91979491      21.53750000  T        0      -0.02740714      -0.00000000      -0.03048126
39
Lattice="11.518769465528859 0.0 0.0 0.0 7.679179643685906 0.0 0.0 0.0 30.7875" Properties=species:S:1:pos:R:3:move_mask:L:1:tags:I:1:forces:R:3 surface=Si100 species=H2O site=hollow orientation=flipped height_A=2.25 substrate_atoms=36 calculation_kind="Rigid evaluated approach scan; not NEB" energy=-194.45018705007112 pbc="T T F"
Si       0.00000000       0.00000000      12.00000000  F        6      -0.00102913       0.00000985       0.24990205
Si       3.83958982       0.00000000      12.00000000  F        6       0.00102909       0.00000985       0.24990204
Si       7.67917964       0.00000000      12.00000000  F        6       0.00000000       0.00004118       0.25113956
Si       0.00000000       3.83958982      12.00000000  F        6      -0.00102913      -0.00000985       0.24990205
Si       3.83958982       3.83958982      12.00000000  F        6       0.00102909      -0.00000985       0.24990204
Si       7.67917964       3.83958982      12.00000000  F        6       0.00000000      -0.00004118       0.25113956
Si       1.91979491       0.00000000      13.35750000  F        5       0.00000000      -0.00026468      -0.52128569
Si       5.75938473       0.00000000      13.35750000  F        5      -0.00133751       0.00119343      -0.52353310
Si       9.59897455       0.00000000      13.35750000  F        5       0.00133755       0.00119343      -0.52353312
Si       1.91979491       3.83958982      13.35750000  F        5       0.00000000       0.00026465      -0.52128570
Si       5.75938473       3.83958982      13.35750000  F        5      -0.00133751      -0.00119345      -0.52353311
Si       9.59897455       3.83958982      13.35750000  F        5       0.00133755      -0.00119345      -0.52353313
Si       1.91979491       1.91979491      14.71500000  F        4      -0.00000000      -0.00000000       0.14685010
Si       5.75938473       1.91979491      14.71500000  F        4      -0.00160842       0.00000000       0.14762096
Si       9.59897455       1.91979491      14.71500000  F        4       0.00160846       0.00000000       0.14762098
Si       1.91979491       5.75938473      14.71500000  F        4      -0.00000000       0.00000002       0.14514426
Si       5.75938473       5.75938473      14.71500000  F        4      -0.00128280       0.00000002       0.14943848
Si       9.59897455       5.75938473      14.71500000  F        4       0.00128283       0.00000002       0.14943850
Si       0.00000000       1.91979491      16.07250000  F        3       0.00356141      -0.00000000      -0.16292450
Si       3.83958982       1.91979491      16.07250000  F        3      -0.00356144      -0.00000000      -0.16292448
Si       7.67917964       1.91979491      16.07250000  F        3       0.00000000      -0.00000000      -0.17860370
Si       0.00000000       5.75938473      16.07250000  F        3      -0.00907359       0.00000002      -0.13554978
Si       3.83958982       5.75938473      16.07250000  F        3       0.00907356       0.00000002      -0.13554976
Si       7.67917964       5.75938473      16.07250000  F        3       0.00000000       0.00000002      -0.20496035
Si       0.00000000       0.00000000      17.43000000  F        2       0.02111867      -0.00923910       0.50879408
Si       3.83958982       0.00000000      17.43000000  F        2      -0.02111870      -0.00923910       0.50879406
Si       7.67917964       0.00000000      17.43000000  F        2      -0.00000000      -0.01584181       0.42102253
Si       0.00000000       3.83958982      17.43000000  F        2       0.02111867       0.00923908       0.50879409
Si       3.83958982       3.83958982      17.43000000  F        2      -0.02111870       0.00923908       0.50879407
Si       7.67917964       3.83958982      17.43000000  F        2      -0.00000000       0.01584179       0.42102254
Si       1.91979491       0.00000000      18.78750000  F        1      -0.00000000      -0.00108364      -0.24750839
Si       5.75938473       0.00000000      18.78750000  F        1       0.05176436       0.13052059      -0.10696116
Si       9.59897455       0.00000000      18.78750000  F        1      -0.05176433       0.13052059      -0.10696117
Si       1.91979491       3.83958982      18.78750000  F        1      -0.00000000       0.00108364      -0.24750839
Si       5.75938473       3.83958982      18.78750000  F        1       0.05176436      -0.13052059      -0.10696116
Si       9.59897455       3.83958982      18.78750000  F        1      -0.05176433      -0.13052059      -0.10696117
O        7.67917964       1.91979491      21.64369698  T        0      -0.00000000      -0.00000000       0.15184811
H        6.92108817       1.91979491      21.03750000  T        0       0.06572469      -0.00000000      -0.18849610
H        8.43727111       1.91979491      21.03750000  T        0      -0.06572469      -0.00000000      -0.18849610
39
Lattice="11.518769465528859 0.0 0.0 0.0 7.679179643685906 0.0 0.0 0.0 30.7875" Properties=species:S:1:pos:R:3:move_mask:L:1:tags:I:1:forces:R:3 surface=Si100 species=H2O site=hollow orientation=flipped height_A=1.9 substrate_atoms=36 calculation_kind="Rigid evaluated approach scan; not NEB" energy=-194.52270766878343 pbc="T T F"
Si       0.00000000       0.00000000      12.00000000  F        6      -0.00107858       0.00013386       0.25010297
Si       3.83958982       0.00000000      12.00000000  F        6       0.00107854       0.00013386       0.25010295
Si       7.67917964       0.00000000      12.00000000  F        6       0.00000000       0.00060969       0.25308798
Si       0.00000000       3.83958982      12.00000000  F        6      -0.00107858      -0.00013386       0.25010297
Si       3.83958982       3.83958982      12.00000000  F        6       0.00107854      -0.00013386       0.25010295
Si       7.67917964       3.83958982      12.00000000  F        6       0.00000000      -0.00060969       0.25308798
Si       1.91979491       0.00000000      13.35750000  F        5       0.00000000      -0.00023685      -0.52026617
Si       5.75938473       0.00000000      13.35750000  F        5      -0.00186706       0.00259999      -0.52607077
Si       9.59897455       0.00000000      13.35750000  F        5       0.00186709       0.00259999      -0.52607079
Si       1.91979491       3.83958982      13.35750000  F        5       0.00000000       0.00023682      -0.52026618
Si       5.75938473       3.83958982      13.35750000  F        5      -0.00186706      -0.00260001      -0.52607079
Si       9.59897455       3.83958982      13.35750000  F        5       0.00186709      -0.00260001      -0.52607081
Si       1.91979491       1.91979491      14.71500000  F        4      -0.00000000      -0.00000000       0.14786761
Si       5.75938473       1.91979491      14.71500000  F        4      -0.00609237       0.00000000       0.14805305
Si       9.59897455       1.91979491      14.71500000  F        4       0.00609241       0.00000000       0.14805307
Si       1.91979491       5.75938473      14.71500000  F        4      -0.00000000       0.00000002       0.14679936
Si       5.75938473       5.75938473      14.71500000  F        4      -0.00893660       0.00000002       0.16970495
Si       9.59897455       5.75938473      14.71500000  F        4       0.00893663       0.00000002       0.16970497
Si       0.00000000       1.91979491      16.07250000  F        3      -0.01063528      -0.00000000      -0.15584169
Si       3.83958982       1.91979491      16.07250000  F        3       0.01063524      -0.00000000      -0.15584167
Si       7.67917964       1.91979491      16.07250000  F        3       0.00000000      -0.00000000      -0.24162234
Si       0.00000000       5.75938473      16.07250000  F        3      -0.02209316       0.00000002      -0.12749004
Si       3.83958982       5.75938473      16.07250000  F        3       0.02209312       0.00000002      -0.12749002
Si       7.67917964       5.75938473      16.07250000  F        3       0.00000000       0.00000002      -0.21577466
Si       0.00000000       0.00000000      17.43000000  F        2       0.02638229      -0.02326889       0.48674089
Si       3.83958982       0.00000000      17.43000000  F        2      -0.02638232      -0.02326889       0.48674087
Si       7.67917964       0.00000000      17.43000000  F        2      -0.00000000      -0.02088044       0.44215697
Si       0.00000000       3.83958982      17.43000000  F        2       0.02638229       0.02326887       0.48674090
Si       3.83958982       3.83958982      17.43000000  F        2      -0.02638232       0.02326887       0.48674088
Si       7.67917964       3.83958982      17.43000000  F        2      -0.00000000       0.02088042       0.44215698
Si       1.91979491       0.00000000      18.78750000  F        1      -0.00000000      -0.00153186      -0.23976469
Si       5.75938473       0.00000000      18.78750000  F        1       0.06649755       0.09870538      -0.12695674
Si       9.59897455       0.00000000      18.78750000  F        1      -0.06649751       0.09870538      -0.12695676
Si       1.91979491       3.83958982      18.78750000  F        1      -0.00000000       0.00153186      -0.23976469
Si       5.75938473       3.83958982      18.78750000  F        1       0.06649755      -0.09870538      -0.12695674
Si       9.59897455       3.83958982      18.78750000  F        1      -0.06649751      -0.09870538      -0.12695676
O        7.67917964       1.91979491      21.29369698  T        0      -0.00000000       0.00000000       0.19529569
H        6.92108817       1.91979491      20.68750000  T        0       0.03647942      -0.00000000      -0.15355583
H        8.43727111       1.91979491      20.68750000  T        0      -0.03647942      -0.00000000      -0.15355583
39
Lattice="11.518769465528859 0.0 0.0 0.0 7.679179643685906 0.0 0.0 0.0 30.7875" Properties=species:S:1:pos:R:3:move_mask:L:1:tags:I:1:forces:R:3 surface=Si100 species=H2O site=hollow orientation=flipped height_A=1.6 substrate_atoms=36 calculation_kind="Rigid evaluated approach scan; not NEB" energy=-194.51851190401482 pbc="T T F"
Si       0.00000000       0.00000000      12.00000000  F        6      -0.00108853       0.00021624       0.25155945
Si       3.83958982       0.00000000      12.00000000  F        6       0.00108849       0.00021624       0.25155944
Si       7.67917964       0.00000000      12.00000000  F        6       0.00000000       0.00118123       0.25419550
Si       0.00000000       3.83958982      12.00000000  F        6      -0.00108853      -0.00021624       0.25155945
Si       3.83958982       3.83958982      12.00000000  F        6       0.00108849      -0.00021624       0.25155944
Si       7.67917964       3.83958982      12.00000000  F        6       0.00000000      -0.00118123       0.25419550
Si       1.91979491       0.00000000      13.35750000  F        5       0.00000000      -0.00033647      -0.51849881
Si       5.75938473       0.00000000      13.35750000  F        5      -0.00255082       0.00224881      -0.52782003
Si       9.59897455       0.00000000      13.35750000  F        5       0.00255085       0.00224881      -0.52782005
Si       1.91979491       3.83958982      13.35750000  F        5       0.00000000       0.00033645      -0.51849883
Si       5.75938473       3.83958982      13.35750000  F        5      -0.00255082      -0.00224883      -0.52782005
Si       9.59897455       3.83958982      13.35750000  F        5       0.00255085      -0.00224883      -0.52782007
Si       1.91979491       1.91979491      14.71500000  F        4      -0.00000000      -0.00000000       0.14681335
Si       5.75938473       1.91979491      14.71500000  F        4      -0.01121639       0.00000000       0.14686083
Si       9.59897455       1.91979491      14.71500000  F        4       0.01121643       0.00000000       0.14686085
Si       1.91979491       5.75938473      14.71500000  F        4      -0.00000000       0.00000002       0.14668380
Si       5.75938473       5.75938473      14.71500000  F        4      -0.00765640       0.00000002       0.18347014
Si       9.59897455       5.75938473      14.71500000  F        4       0.00765643       0.00000002       0.18347016
Si       0.00000000       1.91979491      16.07250000  F        3      -0.01960972      -0.00000000      -0.14351541
Si       3.83958982       1.91979491      16.07250000  F        3       0.01960969      -0.00000000      -0.14351539
Si       7.67917964       1.91979491      16.07250000  F        3       0.00000000      -0.00000000      -0.24529445
Si       0.00000000       5.75938473      16.07250000  F        3      -0.02881582       0.00000002      -0.12126000
Si       3.83958982       5.75938473      16.07250000  F        3       0.02881579       0.00000002      -0.12125998
Si       7.67917964       5.75938473      16.07250000  F        3       0.00000000       0.00000002      -0.20979067
Si       0.00000000       0.00000000      17.43000000  F        2       0.03231410      -0.03729973       0.46943347
Si       3.83958982       0.00000000      17.43000000  F        2      -0.03231413      -0.03729973       0.46943346
Si       7.67917964       0.00000000      17.43000000  F        2      -0.00000000      -0.08105040       0.46348273
Si       0.00000000       3.83958982      17.43000000  F        2       0.03231410       0.03729971       0.46943349
Si       3.83958982       3.83958982      17.43000000  F        2      -0.03231413       0.03729971       0.46943347
Si       7.67917964       3.83958982      17.43000000  F        2      -0.00000000       0.08105038       0.46348274
Si       1.91979491       0.00000000      18.78750000  F        1      -0.00000000      -0.00336166      -0.23946567
Si       5.75938473       0.00000000      18.78750000  F        1       0.03773565       0.03035396      -0.19691813
Si       9.59897455       0.00000000      18.78750000  F        1      -0.03773561       0.03035396      -0.19691815
Si       1.91979491       3.83958982      18.78750000  F        1      -0.00000000       0.00336166      -0.23946567
Si       5.75938473       3.83958982      18.78750000  F        1       0.03773565      -0.03035396      -0.19691813
Si       9.59897455       3.83958982      18.78750000  F        1      -0.03773561      -0.03035396      -0.19691815
O        7.67917964       1.91979491      20.99369698  T        0      -0.00000000       0.00000000       0.35813804
H        6.92108817       1.91979491      20.38750000  T        0      -0.03162342      -0.00000000      -0.11605385
H        8.43727111       1.91979491      20.38750000  T        0       0.03162342      -0.00000000      -0.11605385
39
Lattice="11.518769465528859 0.0 0.0 0.0 7.679179643685906 0.0 0.0 0.0 30.7875" Properties=species:S:1:pos:R:3:move_mask:L:1:tags:I:1:forces:R:3 surface=Si100 species=H2O site=hollow orientation=flipped height_A=1.3 substrate_atoms=36 calculation_kind="Rigid evaluated approach scan; not NEB" energy=-194.44493983451258 pbc="T T F"
Si       0.00000000       0.00000000      12.00000000  F        6      -0.00054637       0.00014947       0.25362556
Si       3.83958982       0.00000000      12.00000000  F        6       0.00054633       0.00014947       0.25362554
Si       7.67917964       0.00000000      12.00000000  F        6       0.00000000      -0.00086407       0.25125202
Si       0.00000000       3.83958982      12.00000000  F        6      -0.00054637      -0.00014947       0.25362556
Si       3.83958982       3.83958982      12.00000000  F        6       0.00054633      -0.00014947       0.25362554
Si       7.67917964       3.83958982      12.00000000  F        6       0.00000000       0.00086407       0.25125202
Si       1.91979491       0.00000000      13.35750000  F        5       0.00000000      -0.00024363      -0.51636844
Si       5.75938473       0.00000000      13.35750000  F        5      -0.00292846       0.00100443      -0.52418818
Si       9.59897455       0.00000000      13.35750000  F        5       0.00292850       0.00100443      -0.52418820
Si       1.91979491       3.83958982      13.35750000  F        5       0.00000000       0.00024361      -0.51636846
Si       5.75938473       3.83958982      13.35750000  F        5      -0.00292846      -0.00100445      -0.52418819
Si       9.59897455       3.83958982      13.35750000  F        5       0.00292850      -0.00100445      -0.52418821
Si       1.91979491       1.91979491      14.71500000  F        4      -0.00000000       0.00000000       0.14450909
Si       5.75938473       1.91979491      14.71500000  F        4      -0.01844192       0.00000000       0.14291443
Si       9.59897455       1.91979491      14.71500000  F        4       0.01844195       0.00000000       0.14291445
Si       1.91979491       5.75938473      14.71500000  F        4      -0.00000000       0.00000002       0.14457125
Si       5.75938473       5.75938473      14.71500000  F        4      -0.00227356       0.00000002       0.18264904
Si       9.59897455       5.75938473      14.71500000  F        4       0.00227360       0.00000002       0.18264906
Si       0.00000000       1.91979491      16.07250000  F        3      -0.02056082      -0.00000000      -0.13329126
Si       3.83958982       1.91979491      16.07250000  F        3       0.02056078      -0.00000000      -0.13329124
Si       7.67917964       1.91979491      16.07250000  F        3       0.00000000      -0.00000000      -0.18800000
Si       0.00000000       5.75938473      16.07250000  F        3      -0.03331025       0.00000002      -0.11677498
Si       3.83958982       5.75938473      16.07250000  F        3       0.03331021       0.00000002      -0.11677497
Si       7.67917964       5.75938473      16.07250000  F        3       0.00000000       0.00000002      -0.18858377
Si       0.00000000       0.00000000      17.43000000  F        2       0.03743824      -0.03871896       0.45770845
Si       3.83958982       0.00000000      17.43000000  F        2      -0.03743827      -0.03871896       0.45770843
Si       7.67917964       0.00000000      17.43000000  F        2      -0.00000000      -0.13592303       0.47058750
Si       0.00000000       3.83958982      17.43000000  F        2       0.03743824       0.03871893       0.45770846
Si       3.83958982       3.83958982      17.43000000  F        2      -0.03743827       0.03871893       0.45770845
Si       7.67917964       3.83958982      17.43000000  F        2      -0.00000000       0.13592301       0.47058752
Si       1.91979491       0.00000000      18.78750000  F        1      -0.00000000      -0.00591793      -0.24179155
Si       5.75938473       0.00000000      18.78750000  F        1      -0.03568550      -0.07181899      -0.28609201
Si       9.59897455       0.00000000      18.78750000  F        1       0.03568553      -0.07181898      -0.28609203
Si       1.91979491       3.83958982      18.78750000  F        1      -0.00000000       0.00591793      -0.24179155
Si       5.75938473       3.83958982      18.78750000  F        1      -0.03568550       0.07181899      -0.28609201
Si       9.59897455       3.83958982      18.78750000  F        1       0.03568553       0.07181898      -0.28609203
O        7.67917964       1.91979491      20.69369698  T        0      -0.00000000       0.00000000       0.64202499
H        6.92108817       1.91979491      20.08750000  T        0      -0.28741087      -0.00000000      -0.11854514
H        8.43727111       1.91979491      20.08750000  T        0       0.28741087      -0.00000000      -0.11854514
