41
Lattice="11.518769465528859 0.0 0.0 0.0 7.679179643685906 0.0 0.0 0.0 30.7875" Properties=species:S:1:pos:R:3:move_mask:L:1:tags:I:1:forces:R:3 surface=Si100 species=CH3F site=bridge_Si_Si orientation=parallel height_A=6.5 substrate_atoms=36 calculation_kind="Rigid evaluated approach scan; not NEB" energy=-204.25090419172574 pbc="T T F"
Si       0.00000000       0.00000000      12.00000000  F        6      -0.00000004       0.00000000       0.24903484
Si       3.83958982       0.00000000      12.00000000  F        6      -0.00000000       0.00000000       0.24903482
Si       7.67917964       0.00000000      12.00000000  F        6       0.00000000       0.00000000       0.24903482
Si       0.00000000       3.83958982      12.00000000  F        6      -0.00000004      -0.00000000       0.24903484
Si       3.83958982       3.83958982      12.00000000  F        6      -0.00000000      -0.00000000       0.24903482
Si       7.67917964       3.83958982      12.00000000  F        6       0.00000000      -0.00000000       0.24903482
Si       1.91979491       0.00000000      13.35750000  F        5       0.00000000      -0.00000002      -0.52822352
Si       5.75938473       0.00000000      13.35750000  F        5       0.00000000      -0.00000002      -0.52822353
Si       9.59897455       0.00000000      13.35750000  F        5       0.00000003      -0.00000002      -0.52822354
Si       1.91979491       3.83958982      13.35750000  F        5       0.00000000       0.00000000      -0.52822354
Si       5.75938473       3.83958982      13.35750000  F        5       0.00000000       0.00000000      -0.52822354
Si       9.59897455       3.83958982      13.35750000  F        5       0.00000003       0.00000000      -0.52822356
Si       1.91979491       1.91979491      14.71500000  F        4      -0.00000000       0.00000000       0.14537709
Si       5.75938473       1.91979491      14.71500000  F        4       0.00000000       0.00000000       0.14537709
Si       9.59897455       1.91979491      14.71500000  F        4       0.00000004       0.00000000       0.14537711
Si       1.91979491       5.75938473      14.71500000  F        4      -0.00000000       0.00000002       0.14537707
Si       5.75938473       5.75938473      14.71500000  F        4       0.00000000       0.00000002       0.14537707
Si       9.59897455       5.75938473      14.71500000  F        4       0.00000004       0.00000002       0.14537709
Si       0.00000000       1.91979491      16.07250000  F        3      -0.00000004       0.00000000      -0.14537711
Si       3.83958982       1.91979491      16.07250000  F        3      -0.00000000       0.00000000      -0.14537709
Si       7.67917964       1.91979491      16.07250000  F        3       0.00000000       0.00000000      -0.14537709
Si       0.00000000       5.75938473      16.07250000  F        3      -0.00000004       0.00000002      -0.14537709
Si       3.83958982       5.75938473      16.07250000  F        3      -0.00000000       0.00000002      -0.14537707
Si       7.67917964       5.75938473      16.07250000  F        3       0.00000000       0.00000002      -0.14537707
Si       0.00000000       0.00000000      17.43000000  F        2      -0.00000003      -0.00000002       0.52822354
Si       3.83958982       0.00000000      17.43000000  F        2      -0.00000000      -0.00000002       0.52822353
Si       7.67917964       0.00000000      17.43000000  F        2      -0.00000000      -0.00000002       0.52822352
Si       0.00000000       3.83958982      17.43000000  F        2      -0.00000003       0.00000000       0.52822356
Si       3.83958982       3.83958982      17.43000000  F        2      -0.00000000       0.00000000       0.52822354
Si       7.67917964       3.83958982      17.43000000  F        2      -0.00000000       0.00000000       0.52822354
Si       1.91979491       0.00000000      18.78750000  F        1      -0.00000000       0.00000000      -0.24903482
Si       5.75938473       0.00000000      18.78750000  F        1       0.00000000       0.00000000      -0.24903482
Si       9.59897455       0.00000000      18.78750000  F        1       0.00000004       0.00000000      -0.24903484
Si       1.91979491       3.83958982      18.78750000  F        1      -0.00000000      -0.00000000      -0.24903482
Si       5.75938473       3.83958982      18.78750000  F        1       0.00000000      -0.00000000      -0.24903482
Si       9.59897455       3.83958982      18.78750000  F        1       0.00000004      -0.00000000      -0.24903484
F        6.35162474       3.83958982      26.33426642  T        0      -0.00285954       0.00000000      -0.00000000
C        7.77127687       3.83958982      26.33426642  T        0       0.00319168       0.00000000       0.00000019
H        8.09099886       3.83958982      25.28750000  T        0      -0.00011068       0.00000000       0.00125386
H        8.09099886       4.74611614      26.85764963  T        0      -0.00011073      -0.00108610      -0.00062702
H        8.09099886       2.93306350      26.85764963  T        0      -0.00011073       0.00108610      -0.00062702
41
Lattice="11.518769465528859 0.0 0.0 0.0 7.679179643685906 0.0 0.0 0.0 30.7875" Properties=species:S:1:pos:R:3:move_mask:L:1:tags:I:1:forces:R:3 surface=Si100 species=CH3F site=bridge_Si_Si orientation=parallel height_A=5.0 substrate_atoms=36 calculation_kind="Rigid evaluated approach scan; not NEB" energy=-204.25090419172574 pbc="T T F"
Si       0.00000000       0.00000000      12.00000000  F        6      -0.00000004       0.00000000       0.24903484
Si       3.83958982       0.00000000      12.00000000  F        6      -0.00000000       0.00000000       0.24903482
Si       7.67917964       0.00000000      12.00000000  F        6       0.00000000       0.00000000       0.24903482
Si       0.00000000       3.83958982      12.00000000  F        6      -0.00000004      -0.00000000       0.24903484
Si       3.83958982       3.83958982      12.00000000  F        6      -0.00000000      -0.00000000       0.24903482
Si       7.67917964       3.83958982      12.00000000  F        6       0.00000000      -0.00000000       0.24903482
Si       1.91979491       0.00000000      13.35750000  F        5       0.00000000      -0.00000002      -0.52822352
Si       5.75938473       0.00000000      13.35750000  F        5       0.00000000      -0.00000002      -0.52822353
Si       9.59897455       0.00000000      13.35750000  F        5       0.00000003      -0.00000002      -0.52822354
Si       1.91979491       3.83958982      13.35750000  F        5       0.00000000       0.00000000      -0.52822354
Si       5.75938473       3.83958982      13.35750000  F        5       0.00000000       0.00000000      -0.52822354
Si       9.59897455       3.83958982      13.35750000  F        5       0.00000003       0.00000000      -0.52822356
Si       1.91979491       1.91979491      14.71500000  F        4      -0.00000000       0.00000000       0.14537709
Si       5.75938473       1.91979491      14.71500000  F        4       0.00000000       0.00000000       0.14537709
Si       9.59897455       1.91979491      14.71500000  F        4       0.00000004       0.00000000       0.14537711
Si       1.91979491       5.75938473      14.71500000  F        4      -0.00000000       0.00000002       0.14537707
Si       5.75938473       5.75938473      14.71500000  F        4       0.00000000       0.00000002       0.14537707
Si       9.59897455       5.75938473      14.71500000  F        4       0.00000004       0.00000002       0.14537709
Si       0.00000000       1.91979491      16.07250000  F        3      -0.00000004       0.00000000      -0.14537711
Si       3.83958982       1.91979491      16.07250000  F        3      -0.00000000       0.00000000      -0.14537709
Si       7.67917964       1.91979491      16.07250000  F        3       0.00000000       0.00000000      -0.14537709
Si       0.00000000       5.75938473      16.07250000  F        3      -0.00000004       0.00000002      -0.14537709
Si       3.83958982       5.75938473      16.07250000  F        3      -0.00000000       0.00000002      -0.14537707
Si       7.67917964       5.75938473      16.07250000  F        3       0.00000000       0.00000002      -0.14537707
Si       0.00000000       0.00000000      17.43000000  F        2      -0.00000003      -0.00000002       0.52822354
Si       3.83958982       0.00000000      17.43000000  F        2      -0.00000000      -0.00000002       0.52822353
Si       7.67917964       0.00000000      17.43000000  F        2      -0.00000000      -0.00000002       0.52822352
Si       0.00000000       3.83958982      17.43000000  F        2      -0.00000003       0.00000000       0.52822356
Si       3.83958982       3.83958982      17.43000000  F        2      -0.00000000       0.00000000       0.52822354
Si       7.67917964       3.83958982      17.43000000  F        2      -0.00000000       0.00000000       0.52822354
Si       1.91979491       0.00000000      18.78750000  F        1      -0.00000000       0.00000000      -0.24903482
Si       5.75938473       0.00000000      18.78750000  F        1       0.00000000       0.00000000      -0.24903482
Si       9.59897455       0.00000000      18.78750000  F        1       0.00000004       0.00000000      -0.24903484
Si       1.91979491       3.83958982      18.78750000  F        1      -0.00000000      -0.00000000      -0.24903482
Si       5.75938473       3.83958982      18.78750000  F        1       0.00000000      -0.00000000      -0.24903482
Si       9.59897455       3.83958982      18.78750000  F        1       0.00000004      -0.00000000      -0.24903484
F        6.35162474       3.83958982      24.83426642  T        0      -0.00285954       0.00000000      -0.00000000
C        7.77127687       3.83958982      24.83426642  T        0       0.00319168       0.00000000       0.00000019
H        8.09099886       3.83958982      23.78750000  T        0      -0.00011068       0.00000000       0.00125386
H        8.09099886       4.74611614      25.35764963  T        0      -0.00011073      -0.00108610      -0.00062702
H        8.09099886       2.93306350      25.35764963  T        0      -0.00011073       0.00108610      -0.00062702
41
Lattice="11.518769465528859 0.0 0.0 0.0 7.679179643685906 0.0 0.0 0.0 30.7875" Properties=species:S:1:pos:R:3:move_mask:L:1:tags:I:1:forces:R:3 surface=Si100 species=CH3F site=bridge_Si_Si orientation=parallel height_A=4.0 substrate_atoms=36 calculation_kind="Rigid evaluated approach scan; not NEB" energy=-204.25443067063767 pbc="T T F"
Si       0.00000000       0.00000000      12.00000000  F        6      -0.00021263       0.00000000       0.24889584
Si       3.83958982       0.00000000      12.00000000  F        6       0.00001203       0.00000000       0.24894313
Si       7.67917964       0.00000000      12.00000000  F        6       0.00020058       0.00000000       0.24891303
Si       0.00000000       3.83958982      12.00000000  F        6      -0.00025407      -0.00000000       0.24918945
Si       3.83958982       3.83958982      12.00000000  F        6       0.00002206      -0.00000000       0.24903682
Si       7.67917964       3.83958982      12.00000000  F        6       0.00023198      -0.00000000       0.24919836
Si       1.91979491       0.00000000      13.35750000  F        5       0.00046669      -0.00000002      -0.52843881
Si       5.75938473       0.00000000      13.35750000  F        5      -0.00051503      -0.00000002      -0.52831644
Si       9.59897455       0.00000000      13.35750000  F        5       0.00004829      -0.00000002      -0.52801632
Si       1.91979491       3.83958982      13.35750000  F        5      -0.00014551       0.00000000      -0.52777924
Si       5.75938473       3.83958982      13.35750000  F        5       0.00023987       0.00000000      -0.52735940
Si       9.59897455       3.83958982      13.35750000  F        5      -0.00009427       0.00000000      -0.52672009
Si       1.91979491       1.91979491      14.71500000  F        4      -0.00060556       0.00008180       0.14546451
Si       5.75938473       1.91979491      14.71500000  F        4       0.00015695       0.00044456       0.14558993
Si       9.59897455       1.91979491      14.71500000  F        4       0.00045236       0.00079783       0.14568439
Si       1.91979491       5.75938473      14.71500000  F        4      -0.00060556      -0.00008178       0.14546450
Si       5.75938473       5.75938473      14.71500000  F        4       0.00015695      -0.00044454       0.14558992
Si       9.59897455       5.75938473      14.71500000  F        4       0.00045236      -0.00079780       0.14568438
Si       0.00000000       1.91979491      16.07250000  F        3      -0.00018121       0.00201606      -0.14771767
Si       3.83958982       1.91979491      16.07250000  F        3       0.00048183       0.00257757      -0.14530601
Si       7.67917964       1.91979491      16.07250000  F        3      -0.00248416      -0.00819784      -0.15389923
Si       0.00000000       5.75938473      16.07250000  F        3      -0.00018121      -0.00201604      -0.14771766
Si       3.83958982       5.75938473      16.07250000  F        3       0.00048183      -0.00257754      -0.14530599
Si       7.67917964       5.75938473      16.07250000  F        3      -0.00248416       0.00819786      -0.15389921
Si       0.00000000       0.00000000      17.43000000  F        2       0.00162879      -0.00000002       0.52726907
Si       3.83958982       0.00000000      17.43000000  F        2      -0.00086871      -0.00000002       0.52880386
Si       7.67917964       0.00000000      17.43000000  F        2      -0.00037531      -0.00000002       0.52859705
Si       0.00000000       3.83958982      17.43000000  F        2      -0.01790436       0.00000000       0.53565623
Si       3.83958982       3.83958982      17.43000000  F        2       0.00614603       0.00000000       0.53435784
Si       7.67917964       3.83958982      17.43000000  F        2       0.00273764       0.00000000       0.52182618
Si       1.91979491       0.00000000      18.78750000  F        1      -0.00054593       0.00000000      -0.25069669
Si       5.75938473       0.00000000      18.78750000  F        1       0.00224598       0.00000000      -0.24778907
Si       9.59897455       0.00000000      18.78750000  F        1      -0.00246610       0.00000000      -0.24074142
Si       1.91979491       3.83958982      18.78750000  F        1       0.00553168      -0.00000000      -0.25084124
Si       5.75938473       3.83958982      18.78750000  F        1      -0.01309061      -0.00000000      -0.24576922
Si       9.59897455       3.83958982      18.78750000  F        1       0.01045165      -0.00000000      -0.21315002
F        6.35162474       3.83958982      23.83426642  T        0      -0.00938986      -0.00000000       0.00086762
C        7.77127687       3.83958982      23.83426642  T        0       0.02326402      -0.00000000       0.00484090
H        8.09099886       3.83958982      22.78750000  T        0       0.00680213      -0.00000000      -0.04117454
H        8.09099886       4.74611614      24.35764963  T        0      -0.00490373      -0.00006668       0.00038263
H        8.09099886       2.93306350      24.35764963  T        0      -0.00490373       0.00006668       0.00038263
41
Lattice="11.518769465528859 0.0 0.0 0.0 7.679179643685906 0.0 0.0 0.0 30.7875" Properties=species:S:1:pos:R:3:move_mask:L:1:tags:I:1:forces:R:3 surface=Si100 species=CH3F site=bridge_Si_Si orientation=parallel height_A=3.25 substrate_atoms=36 calculation_kind="Rigid evaluated approach scan; not NEB" energy=-204.32501506945565 pbc="T T F"
Si       0.00000000       0.00000000      12.00000000  F        6      -0.00038332       0.00000000       0.24858799
Si       3.83958982       0.00000000      12.00000000  F        6       0.00032073       0.00000000       0.24852056
Si       7.67917964       0.00000000      12.00000000  F        6       0.00006266       0.00000000       0.24899413
Si       0.00000000       3.83958982      12.00000000  F        6      -0.00027007      -0.00000000       0.24886420
Si       3.83958982       3.83958982      12.00000000  F        6       0.00022711      -0.00000000       0.24877225
Si       7.67917964       3.83958982      12.00000000  F        6       0.00004299      -0.00000000       0.24928252
Si       1.91979491       0.00000000      13.35750000  F        5       0.00037932      -0.00000002      -0.52706425
Si       5.75938473       0.00000000      13.35750000  F        5      -0.00050917      -0.00000002      -0.52712988
Si       9.59897455       0.00000000      13.35750000  F        5       0.00012897      -0.00000002      -0.52722492
Si       1.91979491       3.83958982      13.35750000  F        5       0.00009763       0.00000000      -0.52583241
Si       5.75938473       3.83958982      13.35750000  F        5       0.00037656       0.00000000      -0.52406170
Si       9.59897455       3.83958982      13.35750000  F        5      -0.00049748       0.00000000      -0.52448828
Si       1.91979491       1.91979491      14.71500000  F        4      -0.00104842      -0.00003245       0.14854796
Si       5.75938473       1.91979491      14.71500000  F        4       0.00349994      -0.00249043       0.14238756
Si       9.59897455       1.91979491      14.71500000  F        4      -0.00308969      -0.00416680       0.14199477
Si       1.91979491       5.75938473      14.71500000  F        4      -0.00104842       0.00003247       0.14854795
Si       5.75938473       5.75938473      14.71500000  F        4       0.00349994       0.00249045       0.14238755
Si       9.59897455       5.75938473      14.71500000  F        4      -0.00308969       0.00416682       0.14199476
Si       0.00000000       1.91979491      16.07250000  F        3       0.00348112      -0.00526746      -0.14586221
Si       3.83958982       1.91979491      16.07250000  F        3       0.00101456       0.00284746      -0.14136217
Si       7.67917964       1.91979491      16.07250000  F        3      -0.00329798      -0.00824874      -0.15257392
Si       0.00000000       5.75938473      16.07250000  F        3       0.00348112       0.00526748      -0.14586220
Si       3.83958982       5.75938473      16.07250000  F        3       0.00101456      -0.00284744      -0.14136216
Si       7.67917964       5.75938473      16.07250000  F        3      -0.00329798       0.00824876      -0.15257390
Si       0.00000000       0.00000000      17.43000000  F        2      -0.00068403      -0.00000002       0.52671519
Si       3.83958982       0.00000000      17.43000000  F        2       0.00150551      -0.00000002       0.53061620
Si       7.67917964       0.00000000      17.43000000  F        2      -0.00144737      -0.00000002       0.52677924
Si       0.00000000       3.83958982      17.43000000  F        2       0.00630293       0.00000000       0.52119485
Si       3.83958982       3.83958982      17.43000000  F        2       0.01454061       0.00000000       0.54362699
Si       7.67917964       3.83958982      17.43000000  F        2      -0.00844751       0.00000000       0.48363224
Si       1.91979491       0.00000000      18.78750000  F        1       0.00066624       0.00000000      -0.25228127
Si       5.75938473       0.00000000      18.78750000  F        1       0.00093180       0.00000000      -0.25197309
Si       9.59897455       0.00000000      18.78750000  F        1       0.00040449       0.00000000      -0.23878901
Si       1.91979491       3.83958982      18.78750000  F        1       0.00145716      -0.00000000      -0.24459920
Si       5.75938473       3.83958982      18.78750000  F        1       0.02405832      -0.00000000      -0.13782592
Si       9.59897455       3.83958982      18.78750000  F        1      -0.03461271      -0.00000000      -0.17938177
F        6.35162474       3.83958982      23.08426642  T        0       0.04370298       0.00000000      -0.09846660
C        7.77127687       3.83958982      23.08426642  T        0      -0.02118020       0.00000000      -0.03891104
H        8.09099886       3.83958982      22.03750000  T        0      -0.01482349      -0.00000000      -0.02980298
H        8.09099886       4.74611614      23.60764963  T        0      -0.00673488       0.01354571       0.00799100
H        8.09099886       2.93306350      23.60764963  T        0      -0.00673488      -0.01354571       0.00799100
41
Lattice="11.518769465528859 0.0 0.0 0.0 7.679179643685906 0.0 0.0 0.0 30.7875" Properties=species:S:1:pos:R:3:move_mask:L:1:tags:I:1:forces:R:3 surface=Si100 species=CH3F site=bridge_Si_Si orientation=parallel height_A=2.75 substrate_atoms=36 calculation_kind="Rigid evaluated approach scan; not NEB" energy=-204.42642966340009 pbc="T T F"
Si       0.00000000       0.00000000      12.00000000  F        6      -0.00055074       0.00000000       0.24725712
Si       3.83958982       0.00000000      12.00000000  F        6       0.00005914       0.00000000       0.24727589
Si       7.67917964       0.00000000      12.00000000  F        6       0.00049116       0.00000000       0.24811287
Si       0.00000000       3.83958982      12.00000000  F        6      -0.00083483      -0.00000000       0.24891296
Si       3.83958982       3.83958982      12.00000000  F        6       0.00012768      -0.00000000       0.24814074
Si       7.67917964       3.83958982      12.00000000  F        6       0.00070679      -0.00000000       0.24970645
Si       1.91979491       0.00000000      13.35750000  F        5       0.00106427      -0.00000002      -0.52497253
Si       5.75938473       0.00000000      13.35750000  F        5      -0.00070932      -0.00000002      -0.52592611
Si       9.59897455       0.00000000      13.35750000  F        5      -0.00035028      -0.00000002      -0.52557088
Si       1.91979491       3.83958982      13.35750000  F        5       0.00011520       0.00000000      -0.52460687
Si       5.75938473       3.83958982      13.35750000  F        5      -0.00168372       0.00000000      -0.52637636
Si       9.59897455       3.83958982      13.35750000  F        5       0.00066737       0.00000000      -0.52485926
Si       1.91979491       1.91979491      14.71500000  F        4      -0.00117518       0.00152294       0.15297941
Si       5.75938473       1.91979491      14.71500000  F        4       0.00590197       0.00161622       0.15699125
Si       9.59897455       1.91979491      14.71500000  F        4      -0.00292244       0.00138893       0.15735352
Si       1.91979491       5.75938473      14.71500000  F        4      -0.00117518      -0.00152292       0.15297939
Si       5.75938473       5.75938473      14.71500000  F        4       0.00590197      -0.00161620       0.15699123
Si       9.59897455       5.75938473      14.71500000  F        4      -0.00292244      -0.00138891       0.15735351
Si       0.00000000       1.91979491      16.07250000  F        3      -0.00477255      -0.00169767      -0.14315062
Si       3.83958982       1.91979491      16.07250000  F        3       0.01132005       0.00725774      -0.13218589
Si       7.67917964       1.91979491      16.07250000  F        3      -0.00806978      -0.01897734      -0.15371842
Si       0.00000000       5.75938473      16.07250000  F        3      -0.00477255       0.00169769      -0.14315061
Si       3.83958982       5.75938473      16.07250000  F        3       0.01132005      -0.00725772      -0.13218588
Si       7.67917964       5.75938473      16.07250000  F        3      -0.00806978       0.01897736      -0.15371841
Si       0.00000000       0.00000000      17.43000000  F        2       0.00123440      -0.00000002       0.51985262
Si       3.83958982       0.00000000      17.43000000  F        2       0.00253336      -0.00000002       0.52845976
Si       7.67917964       0.00000000      17.43000000  F        2      -0.00525754      -0.00000002       0.51803667
Si       0.00000000       3.83958982      17.43000000  F        2       0.04683448       0.00000000       0.46785813
Si       3.83958982       3.83958982      17.43000000  F        2      -0.01089109       0.00000000       0.48750526
Si       7.67917964       3.83958982      17.43000000  F        2      -0.01223139       0.00000000       0.45465076
Si       1.91979491       0.00000000      18.78750000  F        1       0.00027277       0.00000000      -0.25561860
Si       5.75938473       0.00000000      18.78750000  F        1      -0.00374523       0.00000000      -0.25093360
Si       9.59897455       0.00000000      18.78750000  F        1       0.00234132       0.00000000      -0.23586672
Si       1.91979491       3.83958982      18.78750000  F        1       0.00393042      -0.00000000      -0.21650642
Si       5.75938473       3.83958982      18.78750000  F        1       0.06558298      -0.00000000      -0.06727846
Si       9.59897455       3.83958982      18.78750000  F        1      -0.06321741      -0.00000000      -0.14565709
F        6.35162474       3.83958982      22.58426642  T        0       0.03598863       0.00000000      -0.10151169
C        7.77127687       3.83958982      22.58426642  T        0      -0.06735510       0.00000000      -0.07402279
H        8.09099886       3.83958982      21.53750000  T        0       0.02459346       0.00000000      -0.06642217
H        8.09099886       4.74611614      23.10764963  T        0      -0.01014047       0.03479235       0.01191093
H        8.09099886       2.93306350      23.10764963  T        0      -0.01014047      -0.03479235       0.01191093
41
Lattice="11.518769465528859 0.0 0.0 0.0 7.679179643685906 0.0 0.0 0.0 30.7875" Properties=species:S:1:pos:R:3:move_mask:L:1:tags:I:1:forces:R:3 surface=Si100 species=CH3F site=bridge_Si_Si orientation=parallel height_A=2.25 substrate_atoms=36 calculation_kind="Rigid evaluated approach scan; not NEB" energy=-204.4500062589262 pbc="T T F"
Si       0.00000000       0.00000000      12.00000000  F        6      -0.00159523       0.00000000       0.24791333
Si       3.83958982       0.00000000      12.00000000  F        6      -0.00003220       0.00000000       0.24798383
Si       7.67917964       0.00000000      12.00000000  F        6       0.00162904       0.00000000       0.24926960
Si       0.00000000       3.83958982      12.00000000  F        6      -0.00207126      -0.00000000       0.24962774
Si       3.83958982       3.83958982      12.00000000  F        6       0.00007240      -0.00000000       0.24831948
Si       7.67917964       3.83958982      12.00000000  F        6       0.00199880      -0.00000000       0.25066518
Si       1.91979491       0.00000000      13.35750000  F        5       0.00257870      -0.00000002      -0.52313212
Si       5.75938473       0.00000000      13.35750000  F        5      -0.00221280      -0.00000002      -0.52581461
Si       9.59897455       0.00000000      13.35750000  F        5      -0.00035816      -0.00000002      -0.52387492
Si       1.91979491       3.83958982      13.35750000  F        5      -0.00019632       0.00000000      -0.51972013
Si       5.75938473       3.83958982      13.35750000  F        5      -0.00486402       0.00000000      -0.52882884
Si       9.59897455       3.83958982      13.35750000  F        5       0.00261514       0.00000000      -0.52122740
Si       1.91979491       1.91979491      14.71500000  F        4      -0.00188608       0.00111210       0.15170923
Si       5.75938473       1.91979491      14.71500000  F        4       0.00459748       0.00356033       0.17100675
Si       9.59897455       1.91979491      14.71500000  F        4      -0.00098322       0.00382396       0.17066453
Si       1.91979491       5.75938473      14.71500000  F        4      -0.00188608      -0.00111208       0.15170922
Si       5.75938473       5.75938473      14.71500000  F        4       0.00459748      -0.00356031       0.17100674
Si       9.59897455       5.75938473      14.71500000  F        4      -0.00098322      -0.00382394       0.17066452
Si       0.00000000       1.91979491      16.07250000  F        3      -0.00844596       0.00102503      -0.15750055
Si       3.83958982       1.91979491      16.07250000  F        3       0.01675018       0.02641696      -0.12945941
Si       7.67917964       1.91979491      16.07250000  F        3      -0.00574965      -0.05522143      -0.18701929
Si       0.00000000       5.75938473      16.07250000  F        3      -0.00844596      -0.00102501      -0.15750054
Si       3.83958982       5.75938473      16.07250000  F        3       0.01675018      -0.02641694      -0.12945940
Si       7.67917964       5.75938473      16.07250000  F        3      -0.00574965       0.05522145      -0.18701928
Si       0.00000000       0.00000000      17.43000000  F        2       0.00586303      -0.00000002       0.51016648
Si       3.83958982       0.00000000      17.43000000  F        2      -0.00625885      -0.00000002       0.52011316
Si       7.67917964       0.00000000      17.43000000  F        2      -0.00541843      -0.00000002       0.48899601
Si       0.00000000       3.83958982      17.43000000  F        2       0.12363108       0.00000000       0.38522874
Si       3.83958982       3.83958982      17.43000000  F        2       0.00141582       0.00000000       0.45917035
Si       7.67917964       3.83958982      17.43000000  F        2      -0.02772840       0.00000000       0.52113499
Si       1.91979491       0.00000000      18.78750000  F        1       0.00258556       0.00000000      -0.26310090
Si       5.75938473       0.00000000      18.78750000  F        1       0.00500650       0.00000000      -0.24120025
Si       9.59897455       0.00000000      18.78750000  F        1       0.00968441       0.00000000      -0.23997991
Si       1.91979491       3.83958982      18.78750000  F        1       0.01776546      -0.00000000      -0.21605712
Si       5.75938473       3.83958982      18.78750000  F        1      -0.04650064      -0.00000000      -0.28694976
Si       9.59897455       3.83958982      18.78750000  F        1      -0.06148782      -0.00000000      -0.19711023
F        6.35162474       3.83958982      22.08426642  T        0       0.08285531       0.00000000       0.01083433
C        7.77127687       3.83958982      22.08426642  T        0      -0.19107791       0.00000000       0.22282980
H        8.09099886       3.83958982      21.03750000  T        0       0.02788364       0.00000000       0.01436073
H        8.09099886       4.74611614      22.60764963  T        0       0.02782582       0.03295443      -0.03921004
H        8.09099886       2.93306350      22.60764963  T        0       0.02782582      -0.03295443      -0.03921004
41
Lattice="11.518769465528859 0.0 0.0 0.0 7.679179643685906 0.0 0.0 0.0 30.7875" Properties=species:S:1:pos:R:3:move_mask:L:1:tags:I:1:forces:R:3 surface=Si100 species=CH3F site=bridge_Si_Si orientation=parallel height_A=1.9 substrate_atoms=36 calculation_kind="Rigid evaluated approach scan; not NEB" energy=-204.32486796491645 pbc="T T F"
Si       0.00000000       0.00000000      12.00000000  F        6      -0.00214604       0.00000000       0.24899246
Si       3.83958982       0.00000000      12.00000000  F        6      -0.00021633       0.00000000       0.24787979
Si       7.67917964       0.00000000      12.00000000  F        6       0.00237218       0.00000000       0.24971543
Si       0.00000000       3.83958982      12.00000000  F        6      -0.00239205      -0.00000000       0.25029630
Si       3.83958982       3.83958982      12.00000000  F        6       0.00012977      -0.00000000       0.24877239
Si       7.67917964       3.83958982      12.00000000  F        6       0.00226538      -0.00000000       0.25169769
Si       1.91979491       0.00000000      13.35750000  F        5       0.00232767      -0.00000002      -0.52268591
Si       5.75938473       0.00000000      13.35750000  F        5      -0.00247134      -0.00000002      -0.52493611
Si       9.59897455       0.00000000      13.35750000  F        5       0.00013001      -0.00000002      -0.52336543
Si       1.91979491       3.83958982      13.35750000  F        5      -0.00128709       0.00000000      -0.51656276
Si       5.75938473       3.83958982      13.35750000  F        5      -0.00310437       0.00000000      -0.52444349
Si       9.59897455       3.83958982      13.35750000  F        5       0.00324279       0.00000000      -0.51667230
Si       1.91979491       1.91979491      14.71500000  F        4      -0.00217211       0.00117291       0.14991668
Si       5.75938473       1.91979491      14.71500000  F        4       0.00422942       0.00188614       0.17385549
Si       9.59897455       1.91979491      14.71500000  F        4      -0.00488824       0.00001850       0.17240880
Si       1.91979491       5.75938473      14.71500000  F        4      -0.00217211      -0.00117288       0.14991666
Si       5.75938473       5.75938473      14.71500000  F        4       0.00422942      -0.00188612       0.17385547
Si       9.59897455       5.75938473      14.71500000  F        4      -0.00488824      -0.00001848       0.17240878
Si       0.00000000       1.91979491      16.07250000  F        3      -0.00473372      -0.01047516      -0.17120166
Si       3.83958982       1.91979491      16.07250000  F        3       0.01774171       0.03773637      -0.12744824
Si       7.67917964       1.91979491      16.07250000  F        3      -0.00891980      -0.05655596      -0.19452670
Si       0.00000000       5.75938473      16.07250000  F        3      -0.00473372       0.01047518      -0.17120165
Si       3.83958982       5.75938473      16.07250000  F        3       0.01774171      -0.03773634      -0.12744823
Si       7.67917964       5.75938473      16.07250000  F        3      -0.00891980       0.05655599      -0.19452669
Si       0.00000000       0.00000000      17.43000000  F        2       0.01190238      -0.00000002       0.50539455
Si       3.83958982       0.00000000      17.43000000  F        2      -0.00637104      -0.00000002       0.52464842
Si       7.67917964       0.00000000      17.43000000  F        2      -0.01708737      -0.00000002       0.46490567
Si       0.00000000       3.83958982      17.43000000  F        2       0.20755106       0.00000000       0.31661251
Si       3.83958982       3.83958982      17.43000000  F        2      -0.00673599       0.00000000       0.38857640
Si       7.67917964       3.83958982      17.43000000  F        2      -0.03833255       0.00000000       0.53532420
Si       1.91979491       0.00000000      18.78750000  F        1       0.01050027       0.00000000      -0.27237163
Si       5.75938473       0.00000000      18.78750000  F        1       0.01135940       0.00000000      -0.23395611
Si       9.59897455       0.00000000      18.78750000  F        1       0.02826711       0.00000000      -0.24702313
Si       1.91979491       3.83958982      18.78750000  F        1       0.03887293      -0.00000000      -0.22273829
Si       5.75938473       3.83958982      18.78750000  F        1      -0.11551191      -0.00000000      -0.37269158
Si       9.59897455       3.83958982      18.78750000  F        1      -0.01614274      -0.00000000      -0.32192105
F        6.35162474       3.83958982      21.73426642  T        0       0.16604995      -0.00000000       0.10182974
C        7.77127687       3.83958982      21.73426642  T        0      -0.27223467      -0.00000000       0.58114870
H        8.09099886       3.83958982      20.68750000  T        0      -0.00833947       0.00000000       0.05392702
H        8.09099886       4.74611614      22.25764963  T        0       0.00244378       0.03937700      -0.08818110
H        8.09099886       2.93306350      22.25764963  T        0       0.00244378      -0.03937700      -0.08818110
41
Lattice="11.518769465528859 0.0 0.0 0.0 7.679179643685906 0.0 0.0 0.0 30.7875" Properties=species:S:1:pos:R:3:move_mask:L:1:tags:I:1:forces:R:3 surface=Si100 species=CH3F site=bridge_Si_Si orientation=parallel height_A=1.6 substrate_atoms=36 calculation_kind="Rigid evaluated approach scan; not NEB" energy=-204.08341768781864 pbc="T T F"
Si       0.00000000       0.00000000      12.00000000  F        6      -0.00275052       0.00000000       0.24940852
Si       3.83958982       0.00000000      12.00000000  F        6      -0.00014196       0.00000000       0.24653329
Si       7.67917964       0.00000000      12.00000000  F        6       0.00287785       0.00000000       0.25068730
Si       0.00000000       3.83958982      12.00000000  F        6      -0.00274488      -0.00000000       0.25189392
Si       3.83958982       3.83958982      12.00000000  F        6       0.00026676      -0.00000000       0.24927719
Si       7.67917964       3.83958982      12.00000000  F        6       0.00248017      -0.00000000       0.25335904
Si       1.91979491       0.00000000      13.35750000  F        5       0.00193290      -0.00000002      -0.52189875
Si       5.75938473       0.00000000      13.35750000  F        5      -0.00259318      -0.00000002      -0.52538373
Si       9.59897455       0.00000000      13.35750000  F        5       0.00091369      -0.00000002      -0.52531488
Si       1.91979491       3.83958982      13.35750000  F        5      -0.00218408       0.00000000      -0.51594914
Si       5.75938473       3.83958982      13.35750000  F        5       0.00014332       0.00000000      -0.51608108
Si       9.59897455       3.83958982      13.35750000  F        5       0.00153906       0.00000000      -0.51138746
Si       1.91979491       1.91979491      14.71500000  F        4      -0.00288748       0.00090891       0.14727366
Si       5.75938473       1.91979491      14.71500000  F        4       0.00381321      -0.00772127       0.15886854
Si       9.59897455       1.91979491      14.71500000  F        4      -0.00594285      -0.00523055       0.16443004
Si       1.91979491       5.75938473      14.71500000  F        4      -0.00288748      -0.00090888       0.14727364
Si       5.75938473       5.75938473      14.71500000  F        4       0.00381321       0.00772129       0.15886852
Si       9.59897455       5.75938473      14.71500000  F        4      -0.00594285       0.00523058       0.16443003
Si       0.00000000       1.91979491      16.07250000  F        3       0.00308942      -0.01140427      -0.17788104
Si       3.83958982       1.91979491      16.07250000  F        3       0.01470092       0.03131914      -0.13047571
Si       7.67917964       1.91979491      16.07250000  F        3      -0.02997894      -0.05687100      -0.20279257
Si       0.00000000       5.75938473      16.07250000  F        3       0.00308942       0.01140429      -0.17788102
Si       3.83958982       5.75938473      16.07250000  F        3       0.01470092      -0.03131912      -0.13047570
Si       7.67917964       5.75938473      16.07250000  F        3      -0.02997894       0.05687102      -0.20279256
Si       0.00000000       0.00000000      17.43000000  F        2       0.01144620      -0.00000002       0.50605517
Si       3.83958982       0.00000000      17.43000000  F        2       0.00801123      -0.00000002       0.54299319
Si       7.67917964       0.00000000      17.43000000  F        2      -0.04268082      -0.00000002       0.44813540
Si       0.00000000       3.83958982      17.43000000  F        2       0.21315410       0.00000000       0.34926608
Si       3.83958982       3.83958982      17.43000000  F        2      -0.05599219       0.00000000       0.30495373
Si       7.67917964       3.83958982      17.43000000  F        2       0.00144757       0.00000000       0.48848570
Si       1.91979491       0.00000000      18.78750000  F        1       0.02014596       0.00000000      -0.28197494
Si       5.75938473       0.00000000      18.78750000  F        1       0.00936519       0.00000000      -0.22146521
Si       9.59897455       0.00000000      18.78750000  F        1       0.04854799       0.00000000      -0.22443241
Si       1.91979491       3.83958982      18.78750000  F        1       0.04654258      -0.00000000      -0.21714888
Si       5.75938473       3.83958982      18.78750000  F        1      -0.11806048      -0.00000000      -0.54017065
Si       9.59897455       3.83958982      18.78750000  F        1       0.08782131      -0.00000000      -0.56129528
F        6.35162474       3.83958982      21.43426642  T        0       0.19075762      -0.00000000       0.28839521
C        7.77127687       3.83958982      21.43426642  T        0      -0.20150929      -0.00000000       0.88099083
H        8.09099886       3.83958982      20.38750000  T        0      -0.10253706       0.00000000       0.15190579
H        8.09099886       4.74611614      21.95764963  T        0      -0.04089380       0.04341674      -0.10934189
H        8.09099886       2.93306350      21.95764963  T        0      -0.04089380      -0.04341674      -0.10934189
41
Lattice="11.518769465528859 0.0 0.0 0.0 7.679179643685906 0.0 0.0 0.0 30.7875" Properties=species:S:1:pos:R:3:move_mask:L:1:tags:I:1:forces:R:3 surface=Si100 species=CH3F site=bridge_Si_Si orientation=parallel height_A=1.3 substrate_atoms=36 calculation_kind="Rigid evaluated approach scan; not NEB" energy=-203.64035407284075 pbc="T T F"
Si       0.00000000       0.00000000      12.00000000  F        6      -0.00272782       0.00000000       0.25117303
Si       3.83958982       0.00000000      12.00000000  F        6       0.00008168       0.00000000       0.24720787
Si       7.67917964       0.00000000      12.00000000  F        6       0.00253498       0.00000000       0.25512999
Si       0.00000000       3.83958982      12.00000000  F        6      -0.00221145      -0.00000000       0.25325294
Si       3.83958982       3.83958982      12.00000000  F        6       0.00005943      -0.00000000       0.25001618
Si       7.67917964       3.83958982      12.00000000  F        6       0.00214278      -0.00000000       0.25388633
Si       1.91979491       0.00000000      13.35750000  F        5       0.00113069      -0.00000002      -0.52184260
Si       5.75938473       0.00000000      13.35750000  F        5      -0.00149374      -0.00000002      -0.53042829
Si       9.59897455       0.00000000      13.35750000  F        5       0.00174983      -0.00000002      -0.53298987
Si       1.91979491       3.83958982      13.35750000  F        5      -0.00286872       0.00000000      -0.52024665
Si       5.75938473       3.83958982      13.35750000  F        5      -0.00178295       0.00000000      -0.51247762
Si       9.59897455       3.83958982      13.35750000  F        5       0.00208384       0.00000000      -0.50979010
Si       1.91979491       1.91979491      14.71500000  F        4      -0.00291576      -0.00264449       0.14369090
Si       5.75938473       1.91979491      14.71500000  F        4       0.00002813      -0.02135571       0.14895410
Si       9.59897455       1.91979491      14.71500000  F        4      -0.00419292      -0.01348349       0.15459671
Si       1.91979491       5.75938473      14.71500000  F        4      -0.00291576       0.00264451       0.14369089
Si       5.75938473       5.75938473      14.71500000  F        4       0.00002813       0.02135573       0.14895409
Si       9.59897455       5.75938473      14.71500000  F        4      -0.00419292       0.01348351       0.15459669
Si       0.00000000       1.91979491      16.07250000  F        3       0.01149609      -0.00033738      -0.17706074
Si       3.83958982       1.91979491      16.07250000  F        3       0.02373377       0.03697969      -0.12621492
Si       7.67917964       1.91979491      16.07250000  F        3      -0.05753059      -0.04511697      -0.20866248
Si       0.00000000       5.75938473      16.07250000  F        3       0.01149609       0.00033740      -0.17706073
Si       3.83958982       5.75938473      16.07250000  F        3       0.02373377      -0.03697967      -0.12621490
Si       7.67917964       5.75938473      16.07250000  F        3      -0.05753059       0.04511699      -0.20866247
Si       0.00000000       0.00000000      17.43000000  F        2      -0.00084243      -0.00000002       0.50988099
Si       3.83958982       0.00000000      17.43000000  F        2       0.02830453      -0.00000002       0.55053264
Si       7.67917964       0.00000000      17.43000000  F        2      -0.05286205      -0.00000002       0.39879186
Si       0.00000000       3.83958982      17.43000000  F        2       0.16668154       0.00000000       0.44778487
Si       3.83958982       3.83958982      17.43000000  F        2      -0.10022747       0.00000000       0.32531007
Si       7.67917964       3.83958982      17.43000000  F        2       0.04623742       0.00000000       0.24897882
Si       1.91979491       0.00000000      18.78750000  F        1       0.02080914       0.00000000      -0.28377329
Si       5.75938473       0.00000000      18.78750000  F        1      -0.01632596       0.00000000      -0.20335370
Si       9.59897455       0.00000000      18.78750000  F        1       0.06267611       0.00000000      -0.17499383
Si       1.91979491       3.83958982      18.78750000  F        1       0.03458915      -0.00000000      -0.21422748
Si       5.75938473       3.83958982      18.78750000  F        1      -0.21454874      -0.00000000      -0.83878648
Si       9.59897455       3.83958982      18.78750000  F        1       0.42192356      -0.00000000      -0.91511756
F        6.35162474       3.83958982      21.13426642  T        0       0.11935210      -0.00000000       0.36923213
C        7.77127687       3.83958982      21.13426642  T        0      -0.03924573       0.00000000       1.46952145
H        8.09099886       3.83958982      20.08750000  T        0      -0.29832138       0.00000000       0.39352223
H        8.09099886       4.74611614      21.65764963  T        0      -0.05906789       0.08651180      -0.16840053
H        8.09099886       2.93306350      21.65764963  T        0      -0.05906789      -0.08651180      -0.16840053
