38
Lattice="11.518769465528859 0.0 0.0 3.839589821842953 6.650364651656328 0.0 0.0 0.0 32.62128289467409" Properties=species:S:1:pos:R:3:move_mask:L:1:tags:I:1:forces:R:3 surface=Si111 species=HF height_A=6.5 substrate_atoms=36 calculation_kind="Rigid approach energy evaluation; not NEB or TS" energy=-174.75426460504153 pbc="T T F"
Si       1.91979491       1.10839411      12.00000000  F        6      -0.00000000       0.00000000       0.17150952
Si       5.75938473       1.10839411      12.00000000  F        6       0.00000000       0.00000000       0.17150952
Si       9.59897455       1.10839411      12.00000000  F        6       0.00000000       0.00000000       0.17150952
Si       3.83958982       4.43357643      12.00000000  F        6       0.00000000      -0.00000000       0.17150952
Si       7.67917964       4.43357643      12.00000000  F        6       0.00000000      -0.00000000       0.17150952
Si      11.51876947       4.43357643      12.00000000  F        6      -0.00000000      -0.00000000       0.17150952
Si       1.91979491       1.10839411      14.35125897  F        5       0.00000000       0.00000000      -0.37518449
Si       5.75938473       1.10839411      14.35125897  F        5       0.00000000       0.00000000      -0.37518449
Si       9.59897455       1.10839411      14.35125897  F        5      -0.00000000       0.00000000      -0.37518449
Si       3.83958982       4.43357643      14.35125897  F        5      -0.00000000      -0.00000000      -0.37518449
Si       7.67917964       4.43357643      14.35125897  F        5      -0.00000000      -0.00000000      -0.37518449
Si      11.51876947       4.43357643      14.35125897  F        5      -0.00000000      -0.00000000      -0.37518449
Si      -0.00000000       2.21678822      15.13501196  F        4      -0.00000000      -0.00000000      -0.14263620
Si       3.83958982       2.21678822      15.13501196  F        4      -0.00000000      -0.00000000      -0.14263620
Si       7.67917964       2.21678822      15.13501196  F        4      -0.00000000       0.00000000      -0.14263620
Si       1.91979491       5.54197054      15.13501196  F        4       0.00000000       0.00000000      -0.14263620
Si       5.75938473       5.54197054      15.13501196  F        4       0.00000000       0.00000000      -0.14263620
Si       9.59897455       5.54197054      15.13501196  F        4       0.00000000       0.00000000      -0.14263620
Si      -0.00000000       2.21678822      17.48627093  F        3       0.00000000       0.00000000       0.14263620
Si       3.83958982       2.21678822      17.48627093  F        3       0.00000000       0.00000000       0.14263620
Si       7.67917964       2.21678822      17.48627093  F        3      -0.00000000       0.00000000       0.14263620
Si       1.91979491       5.54197054      17.48627093  F        3       0.00000000       0.00000000       0.14263620
Si       5.75938473       5.54197054      17.48627093  F        3       0.00000000       0.00000000       0.14263620
Si       9.59897455       5.54197054      17.48627093  F        3       0.00000000       0.00000000       0.14263620
Si       0.00000000       0.00000000      18.27002392  F        2      -0.00000000      -0.00000000       0.37518449
Si       3.83958982       0.00000000      18.27002392  F        2      -0.00000000      -0.00000000       0.37518449
Si       7.67917964       0.00000000      18.27002392  F        2       0.00000000      -0.00000000       0.37518449
Si       1.91979491       3.32518233      18.27002392  F        2       0.00000000      -0.00000000       0.37518449
Si       5.75938473       3.32518233      18.27002392  F        2       0.00000000      -0.00000000       0.37518449
Si       9.59897455       3.32518233      18.27002392  F        2       0.00000000      -0.00000000       0.37518449
Si       0.00000000       0.00000000      20.62128289  F        1       0.00000000      -0.00000000      -0.17150952
Si       3.83958982       0.00000000      20.62128289  F        1       0.00000000      -0.00000000      -0.17150952
Si       7.67917964       0.00000000      20.62128289  F        1      -0.00000000      -0.00000000      -0.17150952
Si       1.91979491       3.32518233      20.62128289  F        1      -0.00000000       0.00000000      -0.17150952
Si       5.75938473       3.32518233      20.62128289  F        1       0.00000000       0.00000000      -0.17150952
Si       9.59897455       3.32518233      20.62128289  F        1      -0.00000000       0.00000000      -0.17150952
F        5.75938473       3.32518233      27.12128289  F        0       0.00000000       0.00000000       0.00058280
H        5.75938473       3.32518233      28.08251543  F        0       0.00000000       0.00000000      -0.00058280
38
Lattice="11.518769465528859 0.0 0.0 3.839589821842953 6.650364651656328 0.0 0.0 0.0 32.62128289467409" Properties=species:S:1:pos:R:3:move_mask:L:1:tags:I:1:forces:R:3 surface=Si111 species=HF height_A=5.0 substrate_atoms=36 calculation_kind="Rigid approach energy evaluation; not NEB or TS" energy=-174.75426460504153 pbc="T T F"
Si       1.91979491       1.10839411      12.00000000  F        6       0.00000000       0.00000000       0.17150952
Si       5.75938473       1.10839411      12.00000000  F        6      -0.00000000       0.00000000       0.17150952
Si       9.59897455       1.10839411      12.00000000  F        6      -0.00000000       0.00000000       0.17150952
Si       3.83958982       4.43357643      12.00000000  F        6      -0.00000000      -0.00000000       0.17150952
Si       7.67917964       4.43357643      12.00000000  F        6      -0.00000000      -0.00000000       0.17150952
Si      11.51876947       4.43357643      12.00000000  F        6       0.00000000      -0.00000000       0.17150952
Si       1.91979491       1.10839411      14.35125897  F        5       0.00000000       0.00000000      -0.37518449
Si       5.75938473       1.10839411      14.35125897  F        5      -0.00000000       0.00000000      -0.37518449
Si       9.59897455       1.10839411      14.35125897  F        5       0.00000000       0.00000000      -0.37518449
Si       3.83958982       4.43357643      14.35125897  F        5       0.00000000      -0.00000000      -0.37518449
Si       7.67917964       4.43357643      14.35125897  F        5      -0.00000000      -0.00000000      -0.37518449
Si      11.51876947       4.43357643      14.35125897  F        5      -0.00000000      -0.00000000      -0.37518449
Si      -0.00000000       2.21678822      15.13501196  F        4      -0.00000000       0.00000000      -0.14263620
Si       3.83958982       2.21678822      15.13501196  F        4      -0.00000000      -0.00000000      -0.14263620
Si       7.67917964       2.21678822      15.13501196  F        4      -0.00000000       0.00000000      -0.14263620
Si       1.91979491       5.54197054      15.13501196  F        4      -0.00000000       0.00000000      -0.14263620
Si       5.75938473       5.54197054      15.13501196  F        4       0.00000000       0.00000000      -0.14263620
Si       9.59897455       5.54197054      15.13501196  F        4      -0.00000000       0.00000000      -0.14263620
Si      -0.00000000       2.21678822      17.48627093  F        3       0.00000000       0.00000000       0.14263620
Si       3.83958982       2.21678822      17.48627093  F        3      -0.00000000       0.00000000       0.14263620
Si       7.67917964       2.21678822      17.48627093  F        3      -0.00000000       0.00000000       0.14263620
Si       1.91979491       5.54197054      17.48627093  F        3       0.00000000       0.00000000       0.14263620
Si       5.75938473       5.54197054      17.48627093  F        3       0.00000000       0.00000000       0.14263620
Si       9.59897455       5.54197054      17.48627093  F        3       0.00000000       0.00000000       0.14263620
Si       0.00000000       0.00000000      18.27002392  F        2      -0.00000000      -0.00000000       0.37518449
Si       3.83958982       0.00000000      18.27002392  F        2      -0.00000000      -0.00000000       0.37518449
Si       7.67917964       0.00000000      18.27002392  F        2       0.00000000      -0.00000000       0.37518449
Si       1.91979491       3.32518233      18.27002392  F        2      -0.00000000      -0.00000000       0.37518449
Si       5.75938473       3.32518233      18.27002392  F        2       0.00000000       0.00000000       0.37518449
Si       9.59897455       3.32518233      18.27002392  F        2      -0.00000000      -0.00000000       0.37518449
Si       0.00000000       0.00000000      20.62128289  F        1      -0.00000000       0.00000000      -0.17150952
Si       3.83958982       0.00000000      20.62128289  F        1      -0.00000000      -0.00000000      -0.17150952
Si       7.67917964       0.00000000      20.62128289  F        1       0.00000000      -0.00000000      -0.17150952
Si       1.91979491       3.32518233      20.62128289  F        1      -0.00000000      -0.00000000      -0.17150952
Si       5.75938473       3.32518233      20.62128289  F        1       0.00000000      -0.00000000      -0.17150952
Si       9.59897455       3.32518233      20.62128289  F        1       0.00000000       0.00000000      -0.17150952
F        5.75938473       3.32518233      25.62128289  F        0       0.00000000       0.00000000       0.00058280
H        5.75938473       3.32518233      26.58251543  F        0       0.00000000       0.00000000      -0.00058280
38
Lattice="11.518769465528859 0.0 0.0 3.839589821842953 6.650364651656328 0.0 0.0 0.0 32.62128289467409" Properties=species:S:1:pos:R:3:move_mask:L:1:tags:I:1:forces:R:3 surface=Si111 species=HF height_A=4.0 substrate_atoms=36 calculation_kind="Rigid approach energy evaluation; not NEB or TS" energy=-174.91399454743961 pbc="T T F"
Si       1.91979491       1.10839411      12.00000000  F        6      -0.00007381       0.00005145       0.17202571
Si       5.75938473       1.10839411      12.00000000  F        6       0.00000907      -0.00005783       0.17133030
Si       9.59897455       1.10839411      12.00000000  F        6       0.00006475      -0.00003288       0.17174132
Si       3.83958982       4.43357643      12.00000000  F        6      -0.00005656       0.00002382       0.17127303
Si       7.67917964       4.43357643      12.00000000  F        6       0.00005462       0.00002107       0.17133030
Si      11.51876947       4.43357643      12.00000000  F        6       0.00000194      -0.00000562       0.17145153
Si       1.91979491       1.10839411      14.35125897  F        5       0.00104544      -0.00065572      -0.37102239
Si       5.75938473       1.10839411      14.35125897  F        5      -0.00042044       0.00079034      -0.37132310
Si       9.59897455       1.10839411      14.35125897  F        5      -0.00062495       0.00043949      -0.37227417
Si       3.83958982       4.43357643      14.35125897  F        5       0.00082227      -0.00042261      -0.37178161
Si       7.67917964       4.43357643      14.35125897  F        5      -0.00093514      -0.00000770      -0.37139511
Si      11.51876947       4.43357643      14.35125897  F        5       0.00011288      -0.00014385      -0.37305736
Si      -0.00000000       2.21678822      15.13501196  F        4       0.00038813      -0.00059601      -0.14141660
Si       3.83958982       2.21678822      15.13501196  F        4      -0.00232936      -0.00193500      -0.14090762
Si       7.67917964       2.21678822      15.13501196  F        4       0.00194114      -0.00115193      -0.14115290
Si       1.91979491       5.54197054      15.13501196  F        4      -0.00068774       0.00076899      -0.14218844
Si       5.75938473       5.54197054      15.13501196  F        4       0.00049437       0.00299443      -0.14076588
Si       9.59897455       5.54197054      15.13501196  F        4       0.00019328      -0.00008037      -0.14291970
Si      -0.00000000       2.21678822      17.48627093  F        3      -0.00040619       0.00077454       0.14144010
Si       3.83958982       2.21678822      17.48627093  F        3       0.00882941       0.00594660       0.14227271
Si       7.67917964       2.21678822      17.48627093  F        3      -0.00843212       0.00451168       0.14351227
Si       1.91979491       5.54197054      17.48627093  F        3      -0.00142875       0.00028486       0.14031182
Si       5.75938473       5.54197054      17.48627093  F        3      -0.00083788      -0.01056051       0.14236358
Si       9.59897455       5.54197054      17.48627093  F        3       0.00226767      -0.00095263       0.13870596
Si       0.00000000       0.00000000      18.27002392  F        2      -0.00452696       0.00812808       0.38173633
Si       3.83958982       0.00000000      18.27002392  F        2      -0.00030574      -0.00002548       0.39336361
Si       7.67917964       0.00000000      18.27002392  F        2       0.00483603      -0.00771464       0.38141924
Si       1.91979491       3.32518233      18.27002392  F        2      -0.01345756       0.00225529       0.38623412
Si       5.75938473       3.32518233      18.27002392  F        2       0.00020792       0.00008196       0.38285450
Si       9.59897455       3.32518233      18.27002392  F        2       0.01324964      -0.00272713       0.38612696
Si       0.00000000       0.00000000      20.62128289  F        1      -0.01612714       0.02297327      -0.18333873
Si       3.83958982       0.00000000      20.62128289  F        1       0.00316346      -0.00200298      -0.20085286
Si       7.67917964       0.00000000      20.62128289  F        1       0.01296929      -0.02482834      -0.18318996
Si       1.91979491       3.32518233      20.62128289  F        1      -0.02936656       0.00329253      -0.18300837
Si       5.75938473       3.32518233      20.62128289  F        1       0.00016908       0.00007893       0.07138242
Si       9.59897455       3.32518233      20.62128289  F        1       0.02919651       0.00048391      -0.18293644
F        5.75938473       3.32518233      24.62128289  F        0       0.00000000       0.00000000      -0.04033895
H        5.75938473       3.32518233      25.58251543  F        0       0.00000000       0.00000000      -0.20700564
38
Lattice="11.518769465528859 0.0 0.0 3.839589821842953 6.650364651656328 0.0 0.0 0.0 32.62128289467409" Properties=species:S:1:pos:R:3:move_mask:L:1:tags:I:1:forces:R:3 surface=Si111 species=HF height_A=3.25 substrate_atoms=36 calculation_kind="Rigid approach energy evaluation; not NEB or TS" energy=-175.1467557164219 pbc="T T F"
Si       1.91979491       1.10839411      12.00000000  F        6      -0.00014708       0.00007993       0.17221594
Si       5.75938473       1.10839411      12.00000000  F        6       0.00000608      -0.00008563       0.17036563
Si       9.59897455       1.10839411      12.00000000  F        6       0.00014101      -0.00004369       0.17175529
Si       3.83958982       4.43357643      12.00000000  F        6      -0.00012090       0.00007479       0.17032566
Si       7.67917964       4.43357643      12.00000000  F        6       0.00007719       0.00003755       0.17036563
Si      11.51876947       4.43357643      12.00000000  F        6       0.00004371      -0.00006295       0.17122104
Si       1.91979491       1.10839411      14.35125897  F        5      -0.00016783      -0.00007028      -0.37276089
Si       5.75938473       1.10839411      14.35125897  F        5      -0.00068333       0.00239667      -0.36793000
Si       9.59897455       1.10839411      14.35125897  F        5       0.00085126      -0.00018854      -0.37412753
Si       3.83958982       4.43357643      14.35125897  F        5       0.00220431      -0.00110548      -0.36925931
Si       7.67917964       4.43357643      14.35125897  F        5      -0.00255487      -0.00052709      -0.36815004
Si      11.51876947       4.43357643      14.35125897  F        5       0.00035060      -0.00050535      -0.37489096
Si      -0.00000000       2.21678822      15.13501196  F        4       0.00052541      -0.00116122      -0.14022663
Si       3.83958982       2.21678822      15.13501196  F        4       0.00096566      -0.00084257      -0.13635734
Si       7.67917964       2.21678822      15.13501196  F        4      -0.00149133       0.00058793      -0.13735289
Si       1.91979491       5.54197054      15.13501196  F        4      -0.00090007       0.00137753      -0.14219138
Si       5.75938473       5.54197054      15.13501196  F        4       0.00104330      -0.00031730      -0.13614693
Si       9.59897455       5.54197054      15.13501196  F        4      -0.00014354       0.00035596      -0.14299963
Si      -0.00000000       2.21678822      17.48627093  F        3       0.00000865       0.00076952       0.13931199
Si       3.83958982       2.21678822      17.48627093  F        3       0.02053254       0.01525106       0.15146058
Si       7.67917964       2.21678822      17.48627093  F        3      -0.02057113       0.01205037       0.15185282
Si       1.91979491       5.54197054      17.48627093  F        3       0.00477614      -0.00353202       0.13818189
Si       5.75938473       5.54197054      17.48627093  F        3      -0.00275284      -0.02551618       0.15179058
Si       9.59897455       5.54197054      17.48627093  F        3      -0.00203422       0.00100084       0.13691511
Si       0.00000000       0.00000000      18.27002392  F        2       0.00717904      -0.00766583       0.38465487
Si       3.83958982       0.00000000      18.27002392  F        2      -0.00100439       0.00048692       0.37730568
Si       7.67917964       0.00000000      18.27002392  F        2      -0.00617310       0.01049633       0.38529006
Si       1.91979491       3.32518233      18.27002392  F        2       0.00555430       0.00031423       0.40800361
Si       5.75938473       3.32518233      18.27002392  F        2       0.00006349       0.00005632       0.40756947
Si       9.59897455       3.32518233      18.27002392  F        2      -0.00561814      -0.00368865       0.40831920
Si       0.00000000       0.00000000      20.62128289  F        1      -0.04893024       0.07968285      -0.18048853
Si       3.83958982       0.00000000      20.62128289  F        1       0.00246686      -0.00157753      -0.17889957
Si       7.67917964       0.00000000      20.62128289  F        1       0.04651246      -0.08114917      -0.17997562
Si       1.91979491       3.32518233      20.62128289  F        1      -0.09826737       0.00530172      -0.19391151
Si       5.75938473       3.32518233      20.62128289  F        1       0.00028002      -0.00000838       0.23319124
Si       9.59897455       3.32518233      20.62128289  F        1       0.09797835      -0.00227264      -0.19367076
F        5.75938473       3.32518233      23.87128289  F        0      -0.00000000       0.00000000      -0.03465513
H        5.75938473       3.32518233      24.83251543  F        0       0.00000000       0.00000000      -0.47610163
38
Lattice="11.518769465528859 0.0 0.0 3.839589821842953 6.650364651656328 0.0 0.0 0.0 32.62128289467409" Properties=species:S:1:pos:R:3:move_mask:L:1:tags:I:1:forces:R:3 surface=Si111 species=HF height_A=2.75 substrate_atoms=36 calculation_kind="Rigid approach energy evaluation; not NEB or TS" energy=-175.34866911633952 pbc="T T F"
Si       1.91979491       1.10839411      12.00000000  F        6      -0.00015727       0.00010128       0.17233426
Si       5.75938473       1.10839411      12.00000000  F        6       0.00005442      -0.00012223       0.16949774
Si       9.59897455       1.10839411      12.00000000  F        6       0.00010285      -0.00005841       0.17171606
Si       3.83958982       4.43357643      12.00000000  F        6      -0.00015744       0.00008042       0.16941719
Si       7.67917964       4.43357643      12.00000000  F        6       0.00013307       0.00001398       0.16949774
Si      11.51876947       4.43357643      12.00000000  F        6       0.00002438      -0.00001504       0.17095900
Si       1.91979491       1.10839411      14.35125897  F        5       0.00023462      -0.00026765      -0.37373035
Si       5.75938473       1.10839411      14.35125897  F        5      -0.00102695      -0.00059068      -0.37206910
Si       9.59897455       1.10839411      14.35125897  F        5       0.00079211      -0.00016757      -0.37495025
Si       3.83958982       4.43357643      14.35125897  F        5      -0.00015751       0.00022313      -0.37416994
Si       7.67917964       4.43357643      14.35125897  F        5      -0.00014558       0.00126764      -0.37229105
Si      11.51876947       4.43357643      14.35125897  F        5       0.00030294      -0.00046466      -0.37478764
Si      -0.00000000       2.21678822      15.13501196  F        4       0.00008048      -0.00078787      -0.13600902
Si       3.83958982       2.21678822      15.13501196  F        4       0.00331647       0.00053015      -0.12998743
Si       7.67917964       2.21678822      15.13501196  F        4      -0.00339798       0.00156662      -0.13363657
Si       1.91979491       5.54197054      15.13501196  F        4      -0.00259868       0.00224176      -0.13812058
Si       5.75938473       5.54197054      15.13501196  F        4       0.00101552      -0.00303122      -0.12966784
Si       9.59897455       5.54197054      15.13501196  F        4       0.00158131      -0.00051776      -0.13644722
Si      -0.00000000       2.21678822      17.48627093  F        3      -0.00000016       0.00245188       0.13707770
Si       3.83958982       2.21678822      17.48627093  F        3       0.05490074       0.03972126       0.18120409
Si       7.67917964       2.21678822      17.48627093  F        3      -0.05496396       0.03297282       0.18216440
Si       1.91979491       5.54197054      17.48627093  F        3       0.00725608      -0.00668843       0.12823325
Si       5.75938473       5.54197054      17.48627093  F        3      -0.00559845      -0.06817985       0.18066078
Si       9.59897455       5.54197054      17.48627093  F        3      -0.00163435      -0.00027803       0.12011805
Si       0.00000000       0.00000000      18.27002392  F        2       0.01084997      -0.01918215       0.44925082
Si       3.83958982       0.00000000      18.27002392  F        2       0.00477965      -0.00296975       0.47664330
Si       7.67917964       0.00000000      18.27002392  F        2      -0.01564871       0.01662458       0.44763002
Si       1.91979491       3.32518233      18.27002392  F        2       0.01366446       0.00495878       0.48097614
Si       5.75938473       3.32518233      18.27002392  F        2      -0.00239105       0.00159047       0.05242932
Si       9.59897455       3.32518233      18.27002392  F        2      -0.01126938      -0.00101257       0.48012672
Si       0.00000000       0.00000000      20.62128289  F        1      -0.04307286       0.05460041      -0.21371480
Si       3.83958982       0.00000000      20.62128289  F        1      -0.00003244      -0.00067964      -0.21403716
Si       7.67917964       0.00000000      20.62128289  F        1       0.04321068      -0.05481766      -0.21246714
Si       1.91979491       3.32518233      20.62128289  F        1      -0.07753373       0.01509552      -0.23043160
Si       5.75938473       3.32518233      20.62128289  F        1       0.00080113       0.00023447      -0.29602112
Si       9.59897455       3.32518233      20.62128289  F        1       0.07666859      -0.01443271      -0.22983805
F        5.75938473       3.32518233      23.37128289  F        0       0.00001704      -0.00001131       1.26021121
H        5.75938473       3.32518233      24.33251543  F        0       0.00000000      -0.00000000      -1.15777093
38
Lattice="11.518769465528859 0.0 0.0 3.839589821842953 6.650364651656328 0.0 0.0 0.0 32.62128289467409" Properties=species:S:1:pos:R:3:move_mask:L:1:tags:I:1:forces:R:3 surface=Si111 species=HF height_A=2.25 substrate_atoms=36 calculation_kind="Rigid approach energy evaluation; not NEB or TS" energy=-175.32315602277563 pbc="T T F"
Si       1.91979491       1.10839411      12.00000000  F        6       0.00002895       0.00007565       0.17261928
Si       5.75938473       1.10839411      12.00000000  F        6       0.00012327      -0.00006778       0.16842210
Si       9.59897455       1.10839411      12.00000000  F        6      -0.00015222      -0.00002177       0.17163669
Si       3.83958982       4.43357643      12.00000000  F        6      -0.00001383      -0.00008439       0.16801950
Si       7.67917964       4.43357643      12.00000000  F        6       0.00012033      -0.00007286       0.16842210
Si      11.51876947       4.43357643      12.00000000  F        6      -0.00010651       0.00017114       0.17044201
Si       1.91979491       1.10839411      14.35125897  F        5       0.00325828      -0.00198227      -0.37604868
Si       5.75938473       1.10839411      14.35125897  F        5      -0.00112175      -0.00755793      -0.38376955
Si       9.59897455       1.10839411      14.35125897  F        5      -0.00213729       0.00084009      -0.37428418
Si       3.83958982       4.43357643      14.35125897  F        5      -0.00579494       0.00344682      -0.38596579
Si       7.67917964       4.43357643      14.35125897  F        5       0.00584739       0.00482957      -0.38395355
Si      11.51876947       4.43357643      14.35125897  F        5      -0.00005094       0.00042329      -0.37008470
Si      -0.00000000       2.21678822      15.13501196  F        4      -0.00060453       0.00026948      -0.12095496
Si       3.83958982       2.21678822      15.13501196  F        4      -0.00868143      -0.00686668      -0.12360459
Si       7.67917964       2.21678822      15.13501196  F        4       0.00927865      -0.00583873      -0.13307076
Si       1.91979491       5.54197054      15.13501196  F        4      -0.00904875       0.00530385      -0.13012318
Si       5.75938473       5.54197054      15.13501196  F        4       0.00155332       0.01098210      -0.12297061
Si       9.59897455       5.54197054      15.13501196  F        4       0.00749913      -0.00384793      -0.12919348
Si      -0.00000000       2.21678822      17.48627093  F        3      -0.00404783       0.00996466       0.11769963
Si       3.83958982       2.21678822      17.48627093  F        3       0.11042994       0.07648047       0.14342242
Si       7.67917964       2.21678822      17.48627093  F        3      -0.10645868       0.06233481       0.14895323
Si       1.91979491       5.54197054      17.48627093  F        3       0.00565215      -0.01070657       0.09942415
Si       5.75938473       5.54197054      17.48627093  F        3      -0.00857085      -0.13529807       0.14205863
Si       9.59897455       5.54197054      17.48627093  F        3       0.00309895      -0.00254929       0.07982890
Si       0.00000000       0.00000000      18.27002392  F        2      -0.02874577       0.05337967       0.55085856
Si       3.83958982       0.00000000      18.27002392  F        2       0.00141582      -0.00157364       0.62556668
Si       7.67917964       0.00000000      18.27002392  F        2       0.02756342      -0.05544019       0.54327583
Si       1.91979491       3.32518233      18.27002392  F        2      -0.08274505       0.01097769       0.58412878
Si       5.75938473       3.32518233      18.27002392  F        2      -0.00732449       0.00499135       0.20235549
Si       9.59897455       3.32518233      18.27002392  F        2       0.09019543      -0.01251397       0.58033510
Si       0.00000000       0.00000000      20.62128289  F        1      -0.00682803      -0.01976858      -0.27961327
Si       3.83958982       0.00000000      20.62128289  F        1      -0.00532599       0.00142188      -0.28117171
Si       7.67917964       0.00000000      20.62128289  F        1       0.01166764       0.02067729      -0.27636314
Si       1.91979491       3.32518233      20.62128289  F        1      -0.01347805       0.03010656      -0.28701285
Si       5.75938473       3.32518233      20.62128289  F        1       0.00071700       0.00121180       0.31861752
Si       9.59897455       3.32518233      20.62128289  F        1       0.01269087      -0.03359248      -0.28546670
F        5.75938473       3.32518233      22.87128289  F        0       0.00009582      -0.00010470       0.02191110
H        5.75938473       3.32518233      23.83251543  F        0       0.00000059      -0.00000034      -0.73434599
38
Lattice="11.518769465528859 0.0 0.0 3.839589821842953 6.650364651656328 0.0 0.0 0.0 32.62128289467409" Properties=species:S:1:pos:R:3:move_mask:L:1:tags:I:1:forces:R:3 surface=Si111 species=HF height_A=1.9 substrate_atoms=36 calculation_kind="Rigid approach energy evaluation; not NEB or TS" energy=-175.61732243377045 pbc="T T F"
Si       1.91979491       1.10839411      12.00000000  F        6       0.00006745       0.00009021       0.17297116
Si       5.75938473       1.10839411      12.00000000  F        6       0.00013753      -0.00015111       0.16765455
Si       9.59897455       1.10839411      12.00000000  F        6      -0.00020498      -0.00001802       0.17166195
Si       3.83958982       4.43357643      12.00000000  F        6      -0.00003848      -0.00010693       0.16705797
Si       7.67917964       4.43357643      12.00000000  F        6       0.00019963      -0.00004355       0.16765455
Si      11.51876947       4.43357643      12.00000000  F        6      -0.00016115       0.00022940       0.17008990
Si       1.91979491       1.10839411      14.35125897  F        5       0.00485759      -0.00323449      -0.36119848
Si       5.75938473       1.10839411      14.35125897  F        5      -0.00343395       0.00229581      -0.35270703
Si       9.59897455       1.10839411      14.35125897  F        5      -0.00142772       0.00060431      -0.36390781
Si       3.83958982       4.43357643      14.35125897  F        5       0.00393958      -0.00184456      -0.35851179
Si       7.67917964       4.43357643      14.35125897  F        5      -0.00412046       0.00206572      -0.35331092
Si      11.51876947       4.43357643      14.35125897  F        5       0.00018276       0.00011447      -0.36134150
Si      -0.00000000       2.21678822      15.13501196  F        4       0.00032751      -0.00172079      -0.10912135
Si       3.83958982       2.21678822      15.13501196  F        4      -0.00836721      -0.00999411      -0.11034023
Si       7.67917964       2.21678822      15.13501196  F        4       0.00804249      -0.00554785      -0.12323992
Si       1.91979491       5.54197054      15.13501196  F        4      -0.00970454       0.00713463      -0.12435602
Si       5.75938473       5.54197054      15.13501196  F        4       0.00427271       0.01235807      -0.10943140
Si       9.59897455       5.54197054      15.13501196  F        4       0.00544249      -0.00223770      -0.12418832
Si      -0.00000000       2.21678822      17.48627093  F        3      -0.00407003       0.01209799       0.09841914
Si       3.83958982       2.21678822      17.48627093  F        3       0.11574908       0.08770794       0.08783866
Si       7.67917964       2.21678822      17.48627093  F        3      -0.11229727       0.06588506       0.10035600
Si       1.91979491       5.54197054      17.48627093  F        3       0.01293568      -0.01681186       0.07629654
Si       5.75938473       5.54197054      17.48627093  F        3      -0.01507649      -0.14580559       0.08673592
Si       9.59897455       5.54197054      17.48627093  F        3       0.00250939      -0.00230047       0.04675414
Si       0.00000000       0.00000000      18.27002392  F        2      -0.02601952       0.06669930       0.56267138
Si       3.83958982       0.00000000      18.27002392  F        2      -0.00574289       0.00232112       0.63906561
Si       7.67917964       0.00000000      18.27002392  F        2       0.03193315      -0.06075707       0.55583586
Si       1.91979491       3.32518233      18.27002392  F        2      -0.10905571       0.01080391       0.62772404
Si       5.75938473       3.32518233      18.27002392  F        2      -0.00877446       0.00606721       0.28826469
Si       9.59897455       3.32518233      18.27002392  F        2       0.11799206      -0.02522438       0.62405453
Si       0.00000000       0.00000000      20.62128289  F        1      -0.05600468       0.03544049      -0.26178375
Si       3.83958982       0.00000000      20.62128289  F        1      -0.00172620      -0.00089388      -0.21981724
Si       7.67917964       0.00000000      20.62128289  F        1       0.05753228      -0.03767982      -0.25842774
Si       1.91979491       3.32518233      20.62128289  F        1      -0.10036532       0.05367046      -0.28700142
Si       5.75938473       3.32518233      20.62128289  F        1       0.00077014       0.00138598      -0.32719925
Si       9.59897455       3.32518233      20.62128289  F        1       0.09970481      -0.05265160      -0.28544728
F        5.75938473       3.32518233      22.52128289  F        0      -0.00000562       0.00004366      -0.92233882
H        5.75938473       3.32518233      23.48251543  F        0       0.00000035       0.00000803       0.60256369
38
Lattice="11.518769465528859 0.0 0.0 3.839589821842953 6.650364651656328 0.0 0.0 0.0 32.62128289467409" Properties=species:S:1:pos:R:3:move_mask:L:1:tags:I:1:forces:R:3 surface=Si111 species=HF height_A=1.6 substrate_atoms=36 calculation_kind="Rigid approach energy evaluation; not NEB or TS" energy=-175.27541230045483 pbc="T T F"
Si       1.91979491       1.10839411      12.00000000  F        6      -0.00009653       0.00017313       0.17387828
Si       5.75938473       1.10839411      12.00000000  F        6       0.00014738      -0.00025090       0.16752681
Si       9.59897455       1.10839411      12.00000000  F        6      -0.00005085      -0.00006294       0.17213272
Si       3.83958982       4.43357643      12.00000000  F        6      -0.00016703      -0.00002096       0.16681772
Si       7.67917964       4.43357643      12.00000000  F        6       0.00029097      -0.00000219       0.16752681
Si      11.51876947       4.43357643      12.00000000  F        6      -0.00012395       0.00016386       0.17010596
Si       1.91979491       1.10839411      14.35125897  F        5       0.00543320      -0.00385225      -0.35193301
Si       5.75938473       1.10839411      14.35125897  F        5      -0.00524136       0.00510604      -0.33918676
Si       9.59897455       1.10839411      14.35125897  F        5      -0.00019437       0.00029110      -0.35780592
Si       3.83958982       4.43357643      14.35125897  F        5       0.00740900      -0.00356220      -0.34767618
Si       7.67917964       4.43357643      14.35125897  F        5      -0.00772630       0.00238084      -0.34020774
Si      11.51876947       4.43357643      14.35125897  F        5       0.00032130      -0.00036438      -0.35659313
Si      -0.00000000       2.21678822      15.13501196  F        4       0.00085502      -0.00318559      -0.10427185
Si       3.83958982       2.21678822      15.13501196  F        4      -0.00659111      -0.01136171      -0.12531129
Si       7.67917964       2.21678822      15.13501196  F        4       0.00575799      -0.00465736      -0.14039990
Si       1.91979491       5.54197054      15.13501196  F        4      -0.00873086       0.00773271      -0.12230561
Si       5.75938473       5.54197054      15.13501196  F        4       0.00606402       0.01166602      -0.12417127
Si       9.59897455       5.54197054      15.13501196  F        4       0.00267438      -0.00021107      -0.12155853
Si      -0.00000000       2.21678822      17.48627093  F        3      -0.00692937       0.01946850       0.10019566
Si       3.83958982       2.21678822      17.48627093  F        3       0.04893017       0.05632538       0.06415977
Si       7.67917964       2.21678822      17.48627093  F        3      -0.04328405       0.02717652       0.07933341
Si       1.91979491       5.54197054      17.48627093  F        3       0.00885134      -0.02013992       0.06396481
Si       5.75938473       5.54197054      17.48627093  F        3      -0.02049545      -0.07260475       0.06299268
Si       9.59897455       5.54197054      17.48627093  F        3       0.01205247      -0.00887423       0.01762978
Si       0.00000000       0.00000000      18.27002392  F        2      -0.02872753       0.05873036       0.58974917
Si       3.83958982       0.00000000      18.27002392  F        2       0.00926361      -0.00643187       0.68426062
Si       7.67917964       0.00000000      18.27002392  F        2       0.01929766      -0.05890061       0.58465011
Si       1.91979491       3.32518233      18.27002392  F        2      -0.13368115       0.03295560       0.70636140
Si       5.75938473       3.32518233      18.27002392  F        2      -0.01030440       0.00703325      -0.23321481
Si       9.59897455       3.32518233      18.27002392  F        2       0.14397894      -0.03313428       0.70330918
Si       0.00000000       0.00000000      20.62128289  F        1      -0.09764944       0.08600206      -0.34159037
Si       3.83958982       0.00000000      20.62128289  F        1      -0.00323763      -0.00012576      -0.34800121
Si       7.67917964       0.00000000      20.62128289  F        1       0.10219809      -0.08602287      -0.33840368
Si       1.91979491       3.32518233      20.62128289  F        1      -0.17253120       0.06893667      -0.39889502
Si       5.75938473       3.32518233      20.62128289  F        1       0.00172902       0.00092627      -2.42614407
Si       9.59897455       3.32518233      20.62128289  F        1       0.17087597      -0.07172933      -0.39750513
F        5.75938473       3.32518233      22.22128289  F        0      -0.00038356       0.00037958       2.64608059
H        5.75938473       3.32518233      23.18251543  F        0       0.00001562       0.00004727      -0.00550000
38
Lattice="11.518769465528859 0.0 0.0 3.839589821842953 6.650364651656328 0.0 0.0 0.0 32.62128289467409" Properties=species:S:1:pos:R:3:move_mask:L:1:tags:I:1:forces:R:3 surface=Si111 species=HF height_A=1.3 substrate_atoms=36 calculation_kind="Rigid approach energy evaluation; not NEB or TS" energy=-172.06523148737432 pbc="T T F"
Si       1.91979491       1.10839411      12.00000000  F        6      -0.00013701       0.00019575       0.17389638
Si       5.75938473       1.10839411      12.00000000  F        6       0.00016909      -0.00030987       0.16813828
Si       9.59897455       1.10839411      12.00000000  F        6      -0.00003207      -0.00009042       0.17230035
Si       3.83958982       4.43357643      12.00000000  F        6      -0.00020995       0.00000457       0.16727429
Si       7.67917964       4.43357643      12.00000000  F        6       0.00035290       0.00000850       0.16813828
Si      11.51876947       4.43357643      12.00000000  F        6      -0.00014295       0.00019146       0.17046974
Si       1.91979491       1.10839411      14.35125897  F        5       0.00728308      -0.00504577      -0.34454565
Si       5.75938473       1.10839411      14.35125897  F        5      -0.00631595      -0.01115775      -0.35243433
Si       9.59897455       1.10839411      14.35125897  F        5      -0.00096291       0.00034863      -0.35189861
Si       3.83958982       4.43357643      14.35125897  F        5      -0.00552075       0.00402829      -0.36289377
Si       7.67917964       4.43357643      14.35125897  F        5       0.00568800       0.01152029      -0.35364528
Si      11.51876947       4.43357643      14.35125897  F        5      -0.00015807       0.00029857      -0.35043745
Si      -0.00000000       2.21678822      15.13501196  F        4       0.00044607      -0.00270245      -0.10380109
Si       3.83958982       2.21678822      15.13501196  F        4      -0.02126453      -0.02102691      -0.14420907
Si       7.67917964       2.21678822      15.13501196  F        4       0.02084576      -0.01355736      -0.16043756
Si       1.91979491       5.54197054      15.13501196  F        4      -0.00912783       0.00771487      -0.12368558
Si       5.75938473       5.54197054      15.13501196  F        4       0.00690282       0.02931864      -0.14287863
Si       9.59897455       5.54197054      15.13501196  F        4       0.00221781       0.00024161      -0.12309907
Si      -0.00000000       2.21678822      17.48627093  F        3      -0.01075040       0.02573208       0.09313051
Si       3.83958982       2.21678822      17.48627093  F        3      -0.21321966      -0.08917515      -0.14165502
Si       7.67917964       2.21678822      17.48627093  F        3       0.22132358      -0.12703683      -0.12186199
Si       1.91979491       5.54197054      17.48627093  F        3      -0.01555667      -0.01002367       0.04097315
Si       5.75938473       5.54197054      17.48627093  F        3      -0.02687579       0.22804896      -0.14209898
Si       9.59897455       5.54197054      17.48627093  F        3       0.04276956      -0.02510766      -0.02509464
Si       0.00000000       0.00000000      18.27002392  F        2      -0.02627740       0.06498079       0.61616186
Si       3.83958982       0.00000000      18.27002392  F        2       0.00384832      -0.00357888       0.71889366
Si       7.67917964       0.00000000      18.27002392  F        2       0.02208565      -0.06254649       0.61087578
Si       1.91979491       3.32518233      18.27002392  F        2      -0.16709515       0.04256730       0.78048112
Si       5.75938473       3.32518233      18.27002392  F        2      -0.01151865       0.00800077      -0.83280390
Si       9.59897455       3.32518233      18.27002392  F        2       0.17834629      -0.04889571       0.77714013
Si       0.00000000       0.00000000      20.62128289  F        1      -0.12631902       0.11683324      -0.41595739
Si       3.83958982       0.00000000      20.62128289  F        1      -0.01055645       0.00350599      -0.44551281
Si       7.67917964       0.00000000      20.62128289  F        1       0.14121454      -0.11086999      -0.41287522
Si       1.91979491       3.32518233      20.62128289  F        1      -0.20408653       0.07275625      -0.49763838
Si       5.75938473       3.32518233      20.62128289  F        1       0.00244708       0.00109494     -22.63436278
Si       9.59897455       3.32518233      20.62128289  F        1       0.20140785      -0.08726022      -0.49638972
F        5.75938473       3.32518233      21.92128289  F        0      -0.00101570       0.00075161      21.20650383
H        5.75938473       3.32518233      22.88251543  F        0      -0.00020493       0.00024200       3.21583954
