38
Lattice="11.518769465528859 0.0 0.0 0.0 7.679179643685906 0.0 0.0 0.0 30.7875" Properties=species:S:1:pos:R:3:move_mask:L:1:tags:I:1:forces:R:3 surface=Si100 species=Cl2 site=bridge_Si_Si orientation=parallel height_A=6.5 substrate_atoms=36 calculation_kind="Rigid evaluated approach scan; not NEB" energy=-183.74098081409068 pbc="T T F"
Si       0.00000000       0.00000000      12.00000000  F        6      -0.00000004       0.00000000       0.24903484
Si       3.83958982       0.00000000      12.00000000  F        6      -0.00000000       0.00000000       0.24903482
Si       7.67917964       0.00000000      12.00000000  F        6       0.00000000       0.00000000       0.24903482
Si       0.00000000       3.83958982      12.00000000  F        6      -0.00000004      -0.00000000       0.24903484
Si       3.83958982       3.83958982      12.00000000  F        6      -0.00000000      -0.00000000       0.24903482
Si       7.67917964       3.83958982      12.00000000  F        6       0.00000000      -0.00000000       0.24903482
Si       1.91979491       0.00000000      13.35750000  F        5       0.00000000      -0.00000002      -0.52822352
Si       5.75938473       0.00000000      13.35750000  F        5       0.00000000      -0.00000002      -0.52822353
Si       9.59897455       0.00000000      13.35750000  F        5       0.00000003      -0.00000002      -0.52822354
Si       1.91979491       3.83958982      13.35750000  F        5       0.00000000       0.00000000      -0.52822354
Si       5.75938473       3.83958982      13.35750000  F        5       0.00000000       0.00000000      -0.52822354
Si       9.59897455       3.83958982      13.35750000  F        5       0.00000003       0.00000000      -0.52822356
Si       1.91979491       1.91979491      14.71500000  F        4      -0.00000000       0.00000000       0.14537709
Si       5.75938473       1.91979491      14.71500000  F        4       0.00000000       0.00000000       0.14537709
Si       9.59897455       1.91979491      14.71500000  F        4       0.00000004       0.00000000       0.14537711
Si       1.91979491       5.75938473      14.71500000  F        4      -0.00000000       0.00000002       0.14537707
Si       5.75938473       5.75938473      14.71500000  F        4       0.00000000       0.00000002       0.14537707
Si       9.59897455       5.75938473      14.71500000  F        4       0.00000004       0.00000002       0.14537709
Si       0.00000000       1.91979491      16.07250000  F        3      -0.00000004       0.00000000      -0.14537711
Si       3.83958982       1.91979491      16.07250000  F        3      -0.00000000       0.00000000      -0.14537709
Si       7.67917964       1.91979491      16.07250000  F        3       0.00000000       0.00000000      -0.14537709
Si       0.00000000       5.75938473      16.07250000  F        3      -0.00000004       0.00000002      -0.14537709
Si       3.83958982       5.75938473      16.07250000  F        3      -0.00000000       0.00000002      -0.14537707
Si       7.67917964       5.75938473      16.07250000  F        3       0.00000000       0.00000002      -0.14537707
Si       0.00000000       0.00000000      17.43000000  F        2      -0.00000003      -0.00000002       0.52822354
Si       3.83958982       0.00000000      17.43000000  F        2      -0.00000000      -0.00000002       0.52822353
Si       7.67917964       0.00000000      17.43000000  F        2      -0.00000000      -0.00000002       0.52822352
Si       0.00000000       3.83958982      17.43000000  F        2      -0.00000003       0.00000000       0.52822356
Si       3.83958982       3.83958982      17.43000000  F        2      -0.00000000       0.00000000       0.52822354
Si       7.67917964       3.83958982      17.43000000  F        2      -0.00000000       0.00000000       0.52822354
Si       1.91979491       0.00000000      18.78750000  F        1      -0.00000000       0.00000000      -0.24903482
Si       5.75938473       0.00000000      18.78750000  F        1       0.00000000       0.00000000      -0.24903482
Si       9.59897455       0.00000000      18.78750000  F        1       0.00000004       0.00000000      -0.24903484
Si       1.91979491       3.83958982      18.78750000  F        1      -0.00000000      -0.00000000      -0.24903482
Si       5.75938473       3.83958982      18.78750000  F        1       0.00000000      -0.00000000      -0.24903482
Si       9.59897455       3.83958982      18.78750000  F        1       0.00000004      -0.00000000      -0.24903484
Cl       6.67988348       3.83958982      25.28750000  T        0      -0.00087253       0.00000000       0.00000000
Cl       8.67847580       3.83958982      25.28750000  T        0       0.00087253       0.00000000       0.00000000
38
Lattice="11.518769465528859 0.0 0.0 0.0 7.679179643685906 0.0 0.0 0.0 30.7875" Properties=species:S:1:pos:R:3:move_mask:L:1:tags:I:1:forces:R:3 surface=Si100 species=Cl2 site=bridge_Si_Si orientation=parallel height_A=5.0 substrate_atoms=36 calculation_kind="Rigid evaluated approach scan; not NEB" energy=-183.74098081409068 pbc="T T F"
Si       0.00000000       0.00000000      12.00000000  F        6      -0.00000004       0.00000000       0.24903484
Si       3.83958982       0.00000000      12.00000000  F        6      -0.00000000       0.00000000       0.24903482
Si       7.67917964       0.00000000      12.00000000  F        6       0.00000000       0.00000000       0.24903482
Si       0.00000000       3.83958982      12.00000000  F        6      -0.00000004      -0.00000000       0.24903484
Si       3.83958982       3.83958982      12.00000000  F        6      -0.00000000      -0.00000000       0.24903482
Si       7.67917964       3.83958982      12.00000000  F        6       0.00000000      -0.00000000       0.24903482
Si       1.91979491       0.00000000      13.35750000  F        5       0.00000000      -0.00000002      -0.52822352
Si       5.75938473       0.00000000      13.35750000  F        5       0.00000000      -0.00000002      -0.52822353
Si       9.59897455       0.00000000      13.35750000  F        5       0.00000003      -0.00000002      -0.52822354
Si       1.91979491       3.83958982      13.35750000  F        5       0.00000000       0.00000000      -0.52822354
Si       5.75938473       3.83958982      13.35750000  F        5       0.00000000       0.00000000      -0.52822354
Si       9.59897455       3.83958982      13.35750000  F        5       0.00000003       0.00000000      -0.52822356
Si       1.91979491       1.91979491      14.71500000  F        4      -0.00000000       0.00000000       0.14537709
Si       5.75938473       1.91979491      14.71500000  F        4       0.00000000       0.00000000       0.14537709
Si       9.59897455       1.91979491      14.71500000  F        4       0.00000004       0.00000000       0.14537711
Si       1.91979491       5.75938473      14.71500000  F        4      -0.00000000       0.00000002       0.14537707
Si       5.75938473       5.75938473      14.71500000  F        4       0.00000000       0.00000002       0.14537707
Si       9.59897455       5.75938473      14.71500000  F        4       0.00000004       0.00000002       0.14537709
Si       0.00000000       1.91979491      16.07250000  F        3      -0.00000004       0.00000000      -0.14537711
Si       3.83958982       1.91979491      16.07250000  F        3      -0.00000000       0.00000000      -0.14537709
Si       7.67917964       1.91979491      16.07250000  F        3       0.00000000       0.00000000      -0.14537709
Si       0.00000000       5.75938473      16.07250000  F        3      -0.00000004       0.00000002      -0.14537709
Si       3.83958982       5.75938473      16.07250000  F        3      -0.00000000       0.00000002      -0.14537707
Si       7.67917964       5.75938473      16.07250000  F        3       0.00000000       0.00000002      -0.14537707
Si       0.00000000       0.00000000      17.43000000  F        2      -0.00000003      -0.00000002       0.52822354
Si       3.83958982       0.00000000      17.43000000  F        2      -0.00000000      -0.00000002       0.52822353
Si       7.67917964       0.00000000      17.43000000  F        2      -0.00000000      -0.00000002       0.52822352
Si       0.00000000       3.83958982      17.43000000  F        2      -0.00000003       0.00000000       0.52822356
Si       3.83958982       3.83958982      17.43000000  F        2      -0.00000000       0.00000000       0.52822354
Si       7.67917964       3.83958982      17.43000000  F        2      -0.00000000       0.00000000       0.52822354
Si       1.91979491       0.00000000      18.78750000  F        1      -0.00000000       0.00000000      -0.24903482
Si       5.75938473       0.00000000      18.78750000  F        1       0.00000000       0.00000000      -0.24903482
Si       9.59897455       0.00000000      18.78750000  F        1       0.00000004       0.00000000      -0.24903484
Si       1.91979491       3.83958982      18.78750000  F        1      -0.00000000      -0.00000000      -0.24903482
Si       5.75938473       3.83958982      18.78750000  F        1       0.00000000      -0.00000000      -0.24903482
Si       9.59897455       3.83958982      18.78750000  F        1       0.00000004      -0.00000000      -0.24903484
Cl       6.67988348       3.83958982      23.78750000  T        0      -0.00087253       0.00000000       0.00000000
Cl       8.67847580       3.83958982      23.78750000  T        0       0.00087253       0.00000000       0.00000000
38
Lattice="11.518769465528859 0.0 0.0 0.0 7.679179643685906 0.0 0.0 0.0 30.7875" Properties=species:S:1:pos:R:3:move_mask:L:1:tags:I:1:forces:R:3 surface=Si100 species=Cl2 site=bridge_Si_Si orientation=parallel height_A=4.0 substrate_atoms=36 calculation_kind="Rigid evaluated approach scan; not NEB" energy=-183.85039543739867 pbc="T T F"
Si       0.00000000       0.00000000      12.00000000  F        6      -0.00018094       0.00000000       0.24831334
Si       3.83958982       0.00000000      12.00000000  F        6       0.00018091       0.00000000       0.24831332
Si       7.67917964       0.00000000      12.00000000  F        6       0.00000000       0.00000000       0.24790452
Si       0.00000000       3.83958982      12.00000000  F        6      -0.00033074      -0.00000000       0.24871398
Si       3.83958982       3.83958982      12.00000000  F        6       0.00033071      -0.00000000       0.24871396
Si       7.67917964       3.83958982      12.00000000  F        6       0.00000000      -0.00000000       0.24869936
Si       1.91979491       0.00000000      13.35750000  F        5       0.00000000      -0.00000002      -0.52732585
Si       5.75938473       0.00000000      13.35750000  F        5       0.00012816      -0.00000002      -0.52660193
Si       9.59897455       0.00000000      13.35750000  F        5      -0.00012813      -0.00000002      -0.52660195
Si       1.91979491       3.83958982      13.35750000  F        5       0.00000000       0.00000000      -0.52682925
Si       5.75938473       3.83958982      13.35750000  F        5       0.00123434       0.00000000      -0.52375485
Si       9.59897455       3.83958982      13.35750000  F        5      -0.00123431       0.00000000      -0.52375487
Si       1.91979491       1.91979491      14.71500000  F        4      -0.00000000      -0.00018507       0.14731382
Si       5.75938473       1.91979491      14.71500000  F        4       0.00189063       0.00459146       0.15418596
Si       9.59897455       1.91979491      14.71500000  F        4      -0.00189060       0.00459146       0.15418598
Si       1.91979491       5.75938473      14.71500000  F        4      -0.00000000       0.00018509       0.14731381
Si       5.75938473       5.75938473      14.71500000  F        4       0.00189063      -0.00459144       0.15418595
Si       9.59897455       5.75938473      14.71500000  F        4      -0.00189060      -0.00459144       0.15418597
Si       0.00000000       1.91979491      16.07250000  F        3      -0.00218535       0.01043487      -0.13874253
Si       3.83958982       1.91979491      16.07250000  F        3       0.00218531       0.01043487      -0.13874251
Si       7.67917964       1.91979491      16.07250000  F        3       0.00000000       0.01098838      -0.14716266
Si       0.00000000       5.75938473      16.07250000  F        3      -0.00218535      -0.01043485      -0.13874251
Si       3.83958982       5.75938473      16.07250000  F        3       0.00218531      -0.01043485      -0.13874249
Si       7.67917964       5.75938473      16.07250000  F        3       0.00000000      -0.01098836      -0.14716265
Si       0.00000000       0.00000000      17.43000000  F        2       0.01072203      -0.00000002       0.51749782
Si       3.83958982       0.00000000      17.43000000  F        2      -0.01072206      -0.00000002       0.51749780
Si       7.67917964       0.00000000      17.43000000  F        2      -0.00000000      -0.00000002       0.50571984
Si       0.00000000       3.83958982      17.43000000  F        2      -0.00060022       0.00000000       0.53977605
Si       3.83958982       3.83958982      17.43000000  F        2       0.00060018       0.00000000       0.53977603
Si       7.67917964       3.83958982      17.43000000  F        2      -0.00000000       0.00000000       0.52458825
Si       1.91979491       0.00000000      18.78750000  F        1      -0.00000000       0.00000000      -0.25122291
Si       5.75938473       0.00000000      18.78750000  F        1       0.00088799       0.00000000      -0.24195212
Si       9.59897455       0.00000000      18.78750000  F        1      -0.00088795       0.00000000      -0.24195213
Si       1.91979491       3.83958982      18.78750000  F        1      -0.00000000      -0.00000000      -0.26061629
Si       5.75938473       3.83958982      18.78750000  F        1      -0.01275686      -0.00000000      -0.29737679
Si       9.59897455       3.83958982      18.78750000  F        1       0.01275689      -0.00000000      -0.29737681
Cl       6.67988348       3.83958982      22.78750000  T        0       0.05685646       0.00000000       0.02388767
Cl       8.67847580       3.83958982      22.78750000  T        0      -0.05685646       0.00000000       0.02388767
38
Lattice="11.518769465528859 0.0 0.0 0.0 7.679179643685906 0.0 0.0 0.0 30.7875" Properties=species:S:1:pos:R:3:move_mask:L:1:tags:I:1:forces:R:3 surface=Si100 species=Cl2 site=bridge_Si_Si orientation=parallel height_A=3.25 substrate_atoms=36 calculation_kind="Rigid evaluated approach scan; not NEB" energy=-183.91451113928997 pbc="T T F"
Si       0.00000000       0.00000000      12.00000000  F        6       0.00009489       0.00000000       0.24987294
Si       3.83958982       0.00000000      12.00000000  F        6      -0.00009493       0.00000000       0.24987292
Si       7.67917964       0.00000000      12.00000000  F        6       0.00000000       0.00000000       0.24989550
Si       0.00000000       3.83958982      12.00000000  F        6      -0.00046361      -0.00000000       0.24874811
Si       3.83958982       3.83958982      12.00000000  F        6       0.00046357      -0.00000000       0.24874809
Si       7.67917964       3.83958982      12.00000000  F        6       0.00000000      -0.00000000       0.24932213
Si       1.91979491       0.00000000      13.35750000  F        5       0.00000000      -0.00000002      -0.52572101
Si       5.75938473       0.00000000      13.35750000  F        5      -0.00026576      -0.00000002      -0.52600737
Si       9.59897455       0.00000000      13.35750000  F        5       0.00026579      -0.00000002      -0.52600739
Si       1.91979491       3.83958982      13.35750000  F        5       0.00000000       0.00000000      -0.52614662
Si       5.75938473       3.83958982      13.35750000  F        5       0.00288387       0.00000000      -0.52204159
Si       9.59897455       3.83958982      13.35750000  F        5      -0.00288384       0.00000000      -0.52204161
Si       1.91979491       1.91979491      14.71500000  F        4      -0.00000000      -0.00023466       0.15125893
Si       5.75938473       1.91979491      14.71500000  F        4       0.00337630       0.00689952       0.17041055
Si       9.59897455       1.91979491      14.71500000  F        4      -0.00337626       0.00689952       0.17041057
Si       1.91979491       5.75938473      14.71500000  F        4      -0.00000000       0.00023468       0.15125892
Si       5.75938473       5.75938473      14.71500000  F        4       0.00337630      -0.00689950       0.17041054
Si       9.59897455       5.75938473      14.71500000  F        4      -0.00337626      -0.00689950       0.17041056
Si       0.00000000       1.91979491      16.07250000  F        3      -0.01894075       0.03412025      -0.13315392
Si       3.83958982       1.91979491      16.07250000  F        3       0.01894072       0.03412025      -0.13315390
Si       7.67917964       1.91979491      16.07250000  F        3       0.00000000      -0.00000565      -0.19288358
Si       0.00000000       5.75938473      16.07250000  F        3      -0.01894075      -0.03412022      -0.13315391
Si       3.83958982       5.75938473      16.07250000  F        3       0.01894072      -0.03412022      -0.13315389
Si       7.67917964       5.75938473      16.07250000  F        3       0.00000000       0.00000568      -0.19288357
Si       0.00000000       0.00000000      17.43000000  F        2       0.02226045      -0.00000002       0.50038894
Si       3.83958982       0.00000000      17.43000000  F        2      -0.02226048      -0.00000002       0.50038892
Si       7.67917964       0.00000000      17.43000000  F        2      -0.00000000      -0.00000002       0.46266631
Si       0.00000000       3.83958982      17.43000000  F        2      -0.03298910       0.00000000       0.56831252
Si       3.83958982       3.83958982      17.43000000  F        2       0.03298907       0.00000000       0.56831250
Si       7.67917964       3.83958982      17.43000000  F        2      -0.00000000       0.00000000       0.55874255
Si       1.91979491       0.00000000      18.78750000  F        1      -0.00000000       0.00000000      -0.24983661
Si       5.75938473       0.00000000      18.78750000  F        1       0.00145794       0.00000000      -0.25139162
Si       9.59897455       0.00000000      18.78750000  F        1      -0.00145790       0.00000000      -0.25139163
Si       1.91979491       3.83958982      18.78750000  F        1      -0.00000000      -0.00000000      -0.26369731
Si       5.75938473       3.83958982      18.78750000  F        1      -0.03113207      -0.00000000      -0.13464140
Si       9.59897455       3.83958982      18.78750000  F        1       0.03113211      -0.00000000      -0.13464142
Cl       6.67988348       3.83958982      22.03750000  T        0      -0.56799976       0.00000000      -0.14374157
Cl       8.67847580       3.83958982      22.03750000  T        0       0.56799976       0.00000000      -0.14374157
38
Lattice="11.518769465528859 0.0 0.0 0.0 7.679179643685906 0.0 0.0 0.0 30.7875" Properties=species:S:1:pos:R:3:move_mask:L:1:tags:I:1:forces:R:3 surface=Si100 species=Cl2 site=bridge_Si_Si orientation=parallel height_A=2.75 substrate_atoms=36 calculation_kind="Rigid evaluated approach scan; not NEB" energy=-184.04306118541564 pbc="T T F"
Si       0.00000000       0.00000000      12.00000000  F        6       0.00148147       0.00000000       0.25066469
Si       3.83958982       0.00000000      12.00000000  F        6      -0.00148150       0.00000000       0.25066467
Si       7.67917964       0.00000000      12.00000000  F        6       0.00000000       0.00000000       0.25258985
Si       0.00000000       3.83958982      12.00000000  F        6      -0.00031090      -0.00000000       0.24745881
Si       3.83958982       3.83958982      12.00000000  F        6       0.00031086      -0.00000000       0.24745879
Si       7.67917964       3.83958982      12.00000000  F        6       0.00000000      -0.00000000       0.25159728
Si       1.91979491       0.00000000      13.35750000  F        5       0.00000000      -0.00000002      -0.52768973
Si       5.75938473       0.00000000      13.35750000  F        5       0.00010102      -0.00000002      -0.52695749
Si       9.59897455       0.00000000      13.35750000  F        5      -0.00010099      -0.00000002      -0.52695750
Si       1.91979491       3.83958982      13.35750000  F        5       0.00000000       0.00000000      -0.52784509
Si       5.75938473       3.83958982      13.35750000  F        5       0.00204185       0.00000000      -0.52838989
Si       9.59897455       3.83958982      13.35750000  F        5      -0.00204182       0.00000000      -0.52838991
Si       1.91979491       1.91979491      14.71500000  F        4      -0.00000000      -0.00240646       0.15354035
Si       5.75938473       1.91979491      14.71500000  F        4       0.00770253      -0.00552485       0.16438772
Si       9.59897455       1.91979491      14.71500000  F        4      -0.00770249      -0.00552485       0.16438774
Si       1.91979491       5.75938473      14.71500000  F        4      -0.00000000       0.00240648       0.15354033
Si       5.75938473       5.75938473      14.71500000  F        4       0.00770253       0.00552487       0.16438770
Si       9.59897455       5.75938473      14.71500000  F        4      -0.00770249       0.00552487       0.16438772
Si       0.00000000       1.91979491      16.07250000  F        3      -0.02349894       0.06933516      -0.11786268
Si       3.83958982       1.91979491      16.07250000  F        3       0.02349891       0.06933516      -0.11786266
Si       7.67917964       1.91979491      16.07250000  F        3       0.00000000      -0.01461207      -0.22185207
Si       0.00000000       5.75938473      16.07250000  F        3      -0.02349894      -0.06933514      -0.11786267
Si       3.83958982       5.75938473      16.07250000  F        3       0.02349891      -0.06933514      -0.11786265
Si       7.67917964       5.75938473      16.07250000  F        3       0.00000000       0.01461209      -0.22185205
Si       0.00000000       0.00000000      17.43000000  F        2       0.03633185      -0.00000002       0.48399126
Si       3.83958982       0.00000000      17.43000000  F        2      -0.03633188      -0.00000002       0.48399124
Si       7.67917964       0.00000000      17.43000000  F        2      -0.00000000      -0.00000002       0.41440731
Si       0.00000000       3.83958982      17.43000000  F        2      -0.04075503       0.00000000       0.55486294
Si       3.83958982       3.83958982      17.43000000  F        2       0.04075500       0.00000000       0.55486292
Si       7.67917964       3.83958982      17.43000000  F        2      -0.00000000       0.00000000       0.44078817
Si       1.91979491       0.00000000      18.78750000  F        1      -0.00000000       0.00000000      -0.25102442
Si       5.75938473       0.00000000      18.78750000  F        1       0.02388079       0.00000000      -0.13529094
Si       9.59897455       0.00000000      18.78750000  F        1      -0.02388075       0.00000000      -0.13529096
Si       1.91979491       3.83958982      18.78750000  F        1      -0.00000000      -0.00000000      -0.29529551
Si       5.75938473       3.83958982      18.78750000  F        1      -0.07244679      -0.00000000      -0.19174738
Si       9.59897455       3.83958982      18.78750000  F        1       0.07244683      -0.00000000      -0.19174740
Cl       6.67988348       3.83958982      21.53750000  T        0      -0.87587052      -0.00000000      -0.05809426
Cl       8.67847580       3.83958982      21.53750000  T        0       0.87587052      -0.00000000      -0.05809426
38
Lattice="11.518769465528859 0.0 0.0 0.0 7.679179643685906 0.0 0.0 0.0 30.7875" Properties=species:S:1:pos:R:3:move_mask:L:1:tags:I:1:forces:R:3 surface=Si100 species=Cl2 site=bridge_Si_Si orientation=parallel height_A=2.25 substrate_atoms=36 calculation_kind="Rigid evaluated approach scan; not NEB" energy=-184.00965558632853 pbc="T T F"
Si       0.00000000       0.00000000      12.00000000  F        6       0.00208131       0.00000000       0.25607113
Si       3.83958982       0.00000000      12.00000000  F        6      -0.00208135       0.00000000       0.25607111
Si       7.67917964       0.00000000      12.00000000  F        6       0.00000000       0.00000000       0.25799470
Si       0.00000000       3.83958982      12.00000000  F        6       0.00124016      -0.00000000       0.24812049
Si       3.83958982       3.83958982      12.00000000  F        6      -0.00124019      -0.00000000       0.24812047
Si       7.67917964       3.83958982      12.00000000  F        6       0.00000000      -0.00000000       0.24799150
Si       1.91979491       0.00000000      13.35750000  F        5       0.00000000      -0.00000002      -0.52761973
Si       5.75938473       0.00000000      13.35750000  F        5      -0.00025080      -0.00000002      -0.52815185
Si       9.59897455       0.00000000      13.35750000  F        5       0.00025084      -0.00000002      -0.52815186
Si       1.91979491       3.83958982      13.35750000  F        5       0.00000000       0.00000000      -0.54325354
Si       5.75938473       3.83958982      13.35750000  F        5       0.00426598       0.00000000      -0.52668899
Si       9.59897455       3.83958982      13.35750000  F        5      -0.00426595       0.00000000      -0.52668901
Si       1.91979491       1.91979491      14.71500000  F        4      -0.00000000      -0.01117146       0.14487300
Si       5.75938473       1.91979491      14.71500000  F        4       0.02008111      -0.05588692       0.10478578
Si       9.59897455       1.91979491      14.71500000  F        4      -0.02008107      -0.05588692       0.10478580
Si       1.91979491       5.75938473      14.71500000  F        4      -0.00000000       0.01117149       0.14487299
Si       5.75938473       5.75938473      14.71500000  F        4       0.02008111       0.05588695       0.10478576
Si       9.59897455       5.75938473      14.71500000  F        4      -0.02008107       0.05588695       0.10478578
Si       0.00000000       1.91979491      16.07250000  F        3      -0.03629936       0.09178265      -0.08735370
Si       3.83958982       1.91979491      16.07250000  F        3       0.03629932       0.09178265      -0.08735368
Si       7.67917964       1.91979491      16.07250000  F        3       0.00000000      -0.03613007      -0.21302590
Si       0.00000000       5.75938473      16.07250000  F        3      -0.03629936      -0.09178263      -0.08735369
Si       3.83958982       5.75938473      16.07250000  F        3       0.03629932      -0.09178263      -0.08735367
Si       7.67917964       5.75938473      16.07250000  F        3       0.00000000       0.03613009      -0.21302589
Si       0.00000000       0.00000000      17.43000000  F        2       0.07805096      -0.00000002       0.45476099
Si       3.83958982       0.00000000      17.43000000  F        2      -0.07805099      -0.00000002       0.45476097
Si       7.67917964       0.00000000      17.43000000  F        2      -0.00000000      -0.00000002       0.37503173
Si       0.00000000       3.83958982      17.43000000  F        2      -0.17673262       0.00000000       0.70087461
Si       3.83958982       3.83958982      17.43000000  F        2       0.17673259       0.00000000       0.70087459
Si       7.67917964       3.83958982      17.43000000  F        2      -0.00000000       0.00000000       0.75809442
Si       1.91979491       0.00000000      18.78750000  F        1      -0.00000000       0.00000000      -0.26012050
Si       5.75938473       0.00000000      18.78750000  F        1       0.06455025       0.00000000       0.04692476
Si       9.59897455       0.00000000      18.78750000  F        1      -0.06455021       0.00000000       0.04692474
Si       1.91979491       3.83958982      18.78750000  F        1      -0.00000000      -0.00000000      -0.26042286
Si       5.75938473       3.83958982      18.78750000  F        1      -0.56657579      -0.00000000      -0.71114725
Si       9.59897455       3.83958982      18.78750000  F        1       0.56657582      -0.00000000      -0.71114727
Cl       6.67988348       3.83958982      21.03750000  T        0      -2.52606255       0.00000000       0.06867705
Cl       8.67847580       3.83958982      21.03750000  T        0       2.52606255       0.00000000       0.06867704
38
Lattice="11.518769465528859 0.0 0.0 0.0 7.679179643685906 0.0 0.0 0.0 30.7875" Properties=species:S:1:pos:R:3:move_mask:L:1:tags:I:1:forces:R:3 surface=Si100 species=Cl2 site=bridge_Si_Si orientation=parallel height_A=1.9 substrate_atoms=36 calculation_kind="Rigid evaluated approach scan; not NEB" energy=-184.02737046904605 pbc="T T F"
Si       0.00000000       0.00000000      12.00000000  F        6       0.00173456       0.00000000       0.26015927
Si       3.83958982       0.00000000      12.00000000  F        6      -0.00173459       0.00000000       0.26015926
Si       7.67917964       0.00000000      12.00000000  F        6       0.00000000       0.00000000       0.26106992
Si       0.00000000       3.83958982      12.00000000  F        6       0.00256437      -0.00000000       0.25024510
Si       3.83958982       3.83958982      12.00000000  F        6      -0.00256441      -0.00000000       0.25024509
Si       7.67917964       3.83958982      12.00000000  F        6       0.00000000      -0.00000000       0.24388368
Si       1.91979491       0.00000000      13.35750000  F        5       0.00000000      -0.00000002      -0.52069190
Si       5.75938473       0.00000000      13.35750000  F        5       0.00028490      -0.00000002      -0.52319036
Si       9.59897455       0.00000000      13.35750000  F        5      -0.00028487      -0.00000002      -0.52319038
Si       1.91979491       3.83958982      13.35750000  F        5       0.00000000       0.00000000      -0.55367244
Si       5.75938473       3.83958982      13.35750000  F        5       0.00424736       0.00000000      -0.51804273
Si       9.59897455       3.83958982      13.35750000  F        5      -0.00424733       0.00000000      -0.51804274
Si       1.91979491       1.91979491      14.71500000  F        4      -0.00000000      -0.02189023       0.13565180
Si       5.75938473       1.91979491      14.71500000  F        4       0.02457946      -0.07888765       0.08069704
Si       9.59897455       1.91979491      14.71500000  F        4      -0.02457942      -0.07888765       0.08069706
Si       1.91979491       5.75938473      14.71500000  F        4      -0.00000000       0.02189025       0.13565179
Si       5.75938473       5.75938473      14.71500000  F        4       0.02457946       0.07888767       0.08069703
Si       9.59897455       5.75938473      14.71500000  F        4      -0.02457942       0.07888767       0.08069705
Si       0.00000000       1.91979491      16.07250000  F        3      -0.03215597       0.08664824      -0.07493146
Si       3.83958982       1.91979491      16.07250000  F        3       0.03215593       0.08664824      -0.07493144
Si       7.67917964       1.91979491      16.07250000  F        3       0.00000000      -0.03961938      -0.17382958
Si       0.00000000       5.75938473      16.07250000  F        3      -0.03215597      -0.08664821      -0.07493144
Si       3.83958982       5.75938473      16.07250000  F        3       0.03215593      -0.08664821      -0.07493143
Si       7.67917964       5.75938473      16.07250000  F        3       0.00000000       0.03961941      -0.17382956
Si       0.00000000       0.00000000      17.43000000  F        2       0.12185868      -0.00000002       0.42335034
Si       3.83958982       0.00000000      17.43000000  F        2      -0.12185871      -0.00000002       0.42335032
Si       7.67917964       0.00000000      17.43000000  F        2      -0.00000000      -0.00000002       0.35948563
Si       0.00000000       3.83958982      17.43000000  F        2       0.15158578       0.00000000       0.47218862
Si       3.83958982       3.83958982      17.43000000  F        2      -0.15158581       0.00000000       0.47218860
Si       7.67917964       3.83958982      17.43000000  F        2      -0.00000000       0.00000000       0.41375814
Si       1.91979491       0.00000000      18.78750000  F        1      -0.00000000       0.00000000      -0.25312253
Si       5.75938473       0.00000000      18.78750000  F        1       0.07102991       0.00000000       0.06522324
Si       9.59897455       0.00000000      18.78750000  F        1      -0.07102987       0.00000000       0.06522323
Si       1.91979491       3.83958982      18.78750000  F        1      -0.00000000      -0.00000000      -0.20236774
Si       5.75938473       3.83958982      18.78750000  F        1      -0.69701525      -0.00000000      -0.51508218
Si       9.59897455       3.83958982      18.78750000  F        1       0.69701529      -0.00000000      -0.51508219
Cl       6.67988348       3.83958982      20.68750000  T        0      -4.06741600       0.00000000       0.23762395
Cl       8.67847580       3.83958982      20.68750000  T        0       4.06741600       0.00000000       0.23762394
38
Lattice="11.518769465528859 0.0 0.0 0.0 7.679179643685906 0.0 0.0 0.0 30.7875" Properties=species:S:1:pos:R:3:move_mask:L:1:tags:I:1:forces:R:3 surface=Si100 species=Cl2 site=bridge_Si_Si orientation=parallel height_A=1.6 substrate_atoms=36 calculation_kind="Rigid evaluated approach scan; not NEB" energy=-182.47511617318355 pbc="T T F"
Si       0.00000000       0.00000000      12.00000000  F        6       0.00037995       0.00000000       0.26177368
Si       3.83958982       0.00000000      12.00000000  F        6      -0.00037999       0.00000000       0.26177367
Si       7.67917964       0.00000000      12.00000000  F        6       0.00000000       0.00000000       0.26283248
Si       0.00000000       3.83958982      12.00000000  F        6       0.00262416      -0.00000000       0.25073884
Si       3.83958982       3.83958982      12.00000000  F        6      -0.00262420      -0.00000000       0.25073882
Si       7.67917964       3.83958982      12.00000000  F        6       0.00000000      -0.00000000       0.24146837
Si       1.91979491       0.00000000      13.35750000  F        5       0.00000000      -0.00000002      -0.51716892
Si       5.75938473       0.00000000      13.35750000  F        5      -0.00106118      -0.00000002      -0.52177223
Si       9.59897455       0.00000000      13.35750000  F        5       0.00106121      -0.00000002      -0.52177225
Si       1.91979491       3.83958982      13.35750000  F        5       0.00000000       0.00000000      -0.53834106
Si       5.75938473       3.83958982      13.35750000  F        5       0.00628256       0.00000000      -0.50384827
Si       9.59897455       3.83958982      13.35750000  F        5      -0.00628252       0.00000000      -0.50384829
Si       1.91979491       1.91979491      14.71500000  F        4      -0.00000000      -0.01683899       0.12902294
Si       5.75938473       1.91979491      14.71500000  F        4       0.03263628      -0.06393662       0.10336224
Si       9.59897455       1.91979491      14.71500000  F        4      -0.03263625      -0.06393662       0.10336226
Si       1.91979491       5.75938473      14.71500000  F        4      -0.00000000       0.01683901       0.12902293
Si       5.75938473       5.75938473      14.71500000  F        4       0.03263628       0.06393664       0.10336223
Si       9.59897455       5.75938473      14.71500000  F        4      -0.03263625       0.06393664       0.10336225
Si       0.00000000       1.91979491      16.07250000  F        3      -0.01255537       0.01409680      -0.12308309
Si       3.83958982       1.91979491      16.07250000  F        3       0.01255533       0.01409680      -0.12308307
Si       7.67917964       1.91979491      16.07250000  F        3       0.00000000       0.02035715      -0.11010091
Si       0.00000000       5.75938473      16.07250000  F        3      -0.01255537      -0.01409678      -0.12308307
Si       3.83958982       5.75938473      16.07250000  F        3       0.01255534      -0.01409678      -0.12308305
Si       7.67917964       5.75938473      16.07250000  F        3       0.00000000      -0.02035712      -0.11010089
Si       0.00000000       0.00000000      17.43000000  F        2       0.13553178      -0.00000002       0.41793365
Si       3.83958982       0.00000000      17.43000000  F        2      -0.13553181      -0.00000002       0.41793363
Si       7.67917964       0.00000000      17.43000000  F        2      -0.00000000      -0.00000002       0.34484471
Si       0.00000000       3.83958982      17.43000000  F        2       0.15268923       0.00000000       0.37475895
Si       3.83958982       3.83958982      17.43000000  F        2      -0.15268927       0.00000000       0.37475894
Si       7.67917964       3.83958982      17.43000000  F        2      -0.00000000       0.00000000      -0.54058483
Si       1.91979491       0.00000000      18.78750000  F        1      -0.00000000       0.00000000      -0.24181920
Si       5.75938473       0.00000000      18.78750000  F        1       0.07144926      -0.00000000       0.05242042
Si       9.59897455       0.00000000      18.78750000  F        1      -0.07144922      -0.00000000       0.05242040
Si       1.91979491       3.83958982      18.78750000  F        1      -0.00000000      -0.00000000      -0.07284077
Si       5.75938473       3.83958982      18.78750000  F        1      -3.89325366      -0.00000000      -6.04317926
Si       9.59897455       3.83958982      18.78750000  F        1       3.89325370      -0.00000000      -6.04317928
Cl       6.67988348       3.83958982      20.38750000  T        0      -2.48940086       0.00000000       6.26249853
Cl       8.67847580       3.83958982      20.38750000  T        0       2.48940086       0.00000000       6.26249853
38
Lattice="11.518769465528859 0.0 0.0 0.0 7.679179643685906 0.0 0.0 0.0 30.7875" Properties=species:S:1:pos:R:3:move_mask:L:1:tags:I:1:forces:R:3 surface=Si100 species=Cl2 site=bridge_Si_Si orientation=parallel height_A=1.3 substrate_atoms=36 calculation_kind="Rigid evaluated approach scan; not NEB" energy=-175.45834132431193 pbc="T T F"
Si       0.00000000       0.00000000      12.00000000  F        6      -0.00016568       0.00000000       0.26170063
Si       3.83958982       0.00000000      12.00000000  F        6       0.00016564       0.00000000       0.26170061
Si       7.67917964       0.00000000      12.00000000  F        6       0.00000000       0.00000000       0.26677165
Si       0.00000000       3.83958982      12.00000000  F        6       0.00405714      -0.00000000       0.24902478
Si       3.83958982       3.83958982      12.00000000  F        6      -0.00405718      -0.00000000       0.24902477
Si       7.67917964       3.83958982      12.00000000  F        6       0.00000000      -0.00000000       0.24313557
Si       1.91979491       0.00000000      13.35750000  F        5       0.00000000      -0.00000002      -0.51588567
Si       5.75938473       0.00000000      13.35750000  F        5       0.00327485      -0.00000002      -0.51831990
Si       9.59897455       0.00000000      13.35750000  F        5      -0.00327481      -0.00000002      -0.51831991
Si       1.91979491       3.83958982      13.35750000  F        5       0.00000000       0.00000000      -0.54155400
Si       5.75938473       3.83958982      13.35750000  F        5       0.04220894       0.00000000      -0.46760196
Si       9.59897455       3.83958982      13.35750000  F        5      -0.04220890       0.00000000      -0.46760198
Si       1.91979491       1.91979491      14.71500000  F        4      -0.00000000      -0.01676982       0.11794488
Si       5.75938473       1.91979491      14.71500000  F        4       0.04728942      -0.00859325       0.17062759
Si       9.59897455       1.91979491      14.71500000  F        4      -0.04728938      -0.00859325       0.17062761
Si       1.91979491       5.75938473      14.71500000  F        4      -0.00000000       0.01676984       0.11794487
Si       5.75938473       5.75938473      14.71500000  F        4       0.04728942       0.00859327       0.17062758
Si       9.59897455       5.75938473      14.71500000  F        4      -0.04728938       0.00859327       0.17062760
Si       0.00000000       1.91979491      16.07250000  F        3      -0.01937082      -0.09878515      -0.23121572
Si       3.83958982       1.91979491      16.07250000  F        3       0.01937078      -0.09878515      -0.23121570
Si       7.67917964       1.91979491      16.07250000  F        3       0.00000000       0.07730859      -0.10291043
Si       0.00000000       5.75938473      16.07250000  F        3      -0.01937082       0.09878517      -0.23121570
Si       3.83958982       5.75938473      16.07250000  F        3       0.01937078       0.09878517      -0.23121568
Si       7.67917964       5.75938473      16.07250000  F        3       0.00000000      -0.07730856      -0.10291041
Si       0.00000000       0.00000000      17.43000000  F        2       0.10722394      -0.00000002       0.44299199
Si       3.83958982       0.00000000      17.43000000  F        2      -0.10722397      -0.00000002       0.44299197
Si       7.67917964       0.00000000      17.43000000  F        2      -0.00000000      -0.00000002       0.41876368
Si       0.00000000       3.83958982      17.43000000  F        2      -0.21326101       0.00000000       0.44210499
Si       3.83958982       3.83958982      17.43000000  F        2       0.21326097       0.00000000       0.44210497
Si       7.67917964       3.83958982      17.43000000  F        2      -0.00000000       0.00000000      -2.23274222
Si       1.91979491       0.00000000      18.78750000  F        1      -0.00000000       0.00000000      -0.20570290
Si       5.75938473       0.00000000      18.78750000  F        1       0.08017956      -0.00000000       0.05313413
Si       9.59897455       0.00000000      18.78750000  F        1      -0.08017952      -0.00000000       0.05313411
Si       1.91979491       3.83958982      18.78750000  F        1      -0.00000001      -0.00000000       0.12588630
Si       5.75938473       3.83958982      18.78750000  F        1     -13.09308509      -0.00000000     -17.76106918
Si       9.59897455       3.83958982      18.78750000  F        1      13.09308514      -0.00000000     -17.76106920
Cl       6.67988348       3.83958982      20.08750000  T        0       3.81667864       0.00000000      18.62484015
Cl       8.67847580       3.83958982      20.08750000  T        0      -3.81667865       0.00000000      18.62484015
