30
Lattice="7.6044 0.0 0.0 -3.802199999999998 6.585603580538386 0.0 0.0 -0.0 28.35945" Properties=species:S:1:pos:R:3:move_mask:L:1:spacegroup_kinds:I:1:tags:I:1:forces:R:3 surface=beta_Si3N4_001 calculation_kind="Single-HF reference relaxation; not a reaction path" energy=-219.65117742872644 pbc="T T F"
Si       5.18010587       1.14956320      12.00000000  F        0        2       1.65573265       1.16704696       1.54654943
Si      -1.37790587       5.43604038      13.45315000  F        0        2      -0.10428164       0.56744586      -1.75082826
Si       4.01879613       3.91132168      12.00000000  F        0        2      -1.83866936       0.85031572       1.54651451
Si      -0.21659613       2.67428190      13.45315000  F        0        2      -0.43912536      -0.37391978      -1.75085774
Si       2.20769800       1.52471870      12.00000000  F        0        2       0.18231684      -2.01778672       1.54661221
Si       1.59450200       5.06088488      13.45315000  F        0        2       0.54418233      -0.19307160      -1.75081344
N       -1.02370433       2.17482973      12.00000000  F        1        2      -0.63427814      -0.63257152       0.20233496
N        4.82590433       4.41077385      13.45315000  F        1        2       0.15086585      -0.01734708       0.42545442
N        2.43059437       4.61163476      12.00000000  F        1        2       0.86506412      -0.23290306       0.20227125
N        1.37160563       1.97396882      13.45315000  F        1        2      -0.06046018       0.13922375       0.42546560
N       -1.40689004       6.38474267      12.00000000  F        1        2      -0.23086432       0.86546706       0.20229272
N        5.20909004       0.20086091      13.45315000  F        1        2      -0.09032887      -0.12181911       0.42546137
N        3.80216198       2.19517924      12.00000000  F        2        2       0.00084695       0.00049064      -1.77675231
N        0.00003802       4.39042434      13.45315000  F        2        2      -0.00100570      -0.00058047       0.56533404
Si       5.20023492       1.17955861      14.99256694  T        0        1      -0.00190678      -0.00366134      -0.01701414
Si      -1.48099634       5.21480077      16.22727735  T        0        1       0.00438619       0.00820791      -0.00035736
Si       3.98276082       3.91375525      14.99257655  T        0        1       0.00412168       0.00018022      -0.01701196
Si       0.02655218       2.69562649      16.22727412  T        0        1      -0.00930512      -0.00030344      -0.00036013
Si       2.22360933       1.49229199      14.99257038  T        0        1      -0.00221197       0.00348124      -0.01701744
Si       1.45445270       5.26078959      16.22727383  T        0        1       0.00491535      -0.00790332      -0.00035861
N       -1.04058067       2.28402803      14.95980633  T        1        1       0.00125879       0.00805819      -0.00641290
N        4.70002149       4.44453654      16.41664310  T        1        1      -0.00463853      -0.00132006       0.00892529
N        2.34448209       4.54243067      14.95981148  T        1        1      -0.00760707      -0.00293954      -0.00641498
N        1.40530550       1.84806266      16.41663599  T        1        1       0.00346179      -0.00335526       0.00892848
N       -1.30389838       6.34476350      14.95980999  T        1        1       0.00634941      -0.00511323      -0.00641555
N        5.30128482       0.29300409      16.41663377  T        1        1       0.00117588       0.00467563       0.00892604
N        3.80220056       2.19520166      14.85024917  T        2        1      -0.00000183      -0.00000167       0.01177987
N        0.00000413       4.39040680      16.62968156  T        2        1       0.00000233       0.00000074      -0.00464886
F        0.00004484       4.39042911      19.56298308  T        0        0       0.00000703       0.00000487      -0.01023675
H        0.00003558       4.39042274      20.51211435  T        0        0      -0.00000234      -0.00000158      -0.01134972
