30
Lattice="7.6044 0.0 0.0 -3.802199999999998 6.585603580538386 0.0 0.0 -0.0 28.35945" Properties=species:S:1:pos:R:3:move_mask:L:1:spacegroup_kinds:I:1:tags:I:1:forces:R:3 surface=beta_Si3N4_001 calculation_kind="Single-HF reference relaxation; not a reaction path" energy=-219.65024826997808 pbc="T T F"
Si       5.18010587       1.14956320      12.00000000  F        0        2       1.65653180       1.16915120       1.54692922
Si      -1.37790587       5.43604038      13.45315000  F        0        2      -0.11442020       0.58382193      -1.75229291
Si       4.01879613       3.91132168      12.00000000  F        0        2      -1.84089067       0.84995570       1.54689426
Si      -0.21659613       2.67428190      13.45315000  F        0        2      -0.44823899      -0.39088840      -1.75232138
Si       2.20769800       1.52471870      12.00000000  F        0        2       0.18373934      -2.01953049       1.54699207
Si       1.59450200       5.06088488      13.45315000  F        0        2       0.56343425      -0.19247899      -1.75227949
N       -1.02370433       2.17482973      12.00000000  F        1        2      -0.63287889      -0.63284517       0.19699646
N        4.82590433       4.41077385      13.45315000  F        1        2       0.16716440      -0.01892986       0.41477515
N        2.43059437       4.61163476      12.00000000  F        1        2       0.86460126      -0.23155444       0.19693287
N        1.37160563       1.97396882      13.45315000  F        1        2      -0.06724031       0.15413021       0.41478592
N       -1.40689004       6.38474267      12.00000000  F        1        2      -0.23180088       0.86439203       0.19695429
N        5.20909004       0.20086091      13.45315000  F        1        2      -0.09984871      -0.13514456       0.41478147
N        3.80216198       2.19517924      12.00000000  F        2        2       0.00084691       0.00049066      -1.77475438
N        0.00003802       4.39042434      13.45315000  F        2        2      -0.00100659      -0.00058143       0.58498550
Si       5.19680957       1.17519717      14.99220133  T        0        1       0.00819303       0.01047925       0.00152127
Si      -1.47802520       5.22046747      16.22830882  T        0        1      -0.00825406      -0.01417762      -0.00224892
Si       3.98825013       3.91296947      14.99221087  T        0        1      -0.01317061       0.00185582       0.00152130
Si       0.02015845       2.69536542      16.22830586  T        0        1       0.01640731      -0.00005772      -0.00224932
Si       2.22154490       1.49743862      14.99220474  T        0        1       0.00497840      -0.01233367       0.00152156
Si       1.45787501       5.25538295      16.22830532  T        0        1      -0.00815207       0.01423759      -0.00224890
N       -1.04155282       2.27817300      14.95816773  T        1        1       0.00214077       0.01363342       0.00399634
N        4.70836503       4.43881925      16.41698047  T        1        1      -0.01880677       0.01411423      -0.00117264
N        2.35003859       4.54451646      14.95817279  T        1        1      -0.01287698      -0.00496308       0.00399671
N        1.40608426       1.85814569      16.41697371  T        1        1      -0.00281821      -0.02334103      -0.00117368
N       -1.30848276       6.34853264      14.95817140  T        1        1       0.01073613      -0.00867046       0.00399653
N        5.29216188       0.28863680      16.41697145  T        1        1       0.02162633       0.00923063      -0.00117344
N        3.80220028       2.19520147      14.85264229  T        2        1       0.00000085       0.00000058      -0.00619455
N        0.00000443       4.39040648      16.62766275  T        2        1      -0.00000085       0.00000076       0.00501415
F        0.00004222       4.39042726      19.57034682  T        0        0       0.00000600       0.00000424      -0.01712712
H        0.00003645       4.39042332      20.51953725  T        0        0      -0.00000199      -0.00000134      -0.01735835
30
Lattice="7.6044 0.0 0.0 -3.802199999999998 6.585603580538386 0.0 0.0 -0.0 28.35945" Properties=species:S:1:pos:R:3:move_mask:L:1:spacegroup_kinds:I:1:tags:I:1:forces:R:3 surface=beta_Si3N4_001 calculation_kind="Single-HF reference relaxation; not a reaction path" energy=-219.65030856131298 pbc="T T F"
Si       5.18010587       1.14956320      12.00000000  F        0        2       1.65650268       1.16907658       1.54695414
Si      -1.37790587       5.43604038      13.45315000  F        0        2      -0.11408975       0.58329756      -1.75218638
Si       4.01879613       3.91132168      12.00000000  F        0        2      -1.84081150       0.84996779       1.54691917
Si      -0.21659613       2.67428190      13.45315000  F        0        2      -0.44795010      -0.39034003      -1.75221485
Si       2.20769800       1.52471870      12.00000000  F        0        2       0.18368929      -2.01946797       1.54701698
Si       1.59450200       5.06088488      13.45315000  F        0        2       0.56281490      -0.19250301      -1.75217290
N       -1.02370433       2.17482973      12.00000000  F        1        2      -0.63292850      -0.63283427       0.19716018
N        4.82590433       4.41077385      13.45315000  F        1        2       0.16660918      -0.01887811       0.41517216
N        2.43059437       4.61163476      12.00000000  F        1        2       0.86461663      -0.23160285       0.19709660
N        1.37160563       1.97396882      13.45315000  F        1        2      -0.06700746       0.15362349       0.41518299
N       -1.40689004       6.38474267      12.00000000  F        1        2      -0.23176664       0.86442955       0.19711802
N        5.20909004       0.20086091      13.45315000  F        1        2      -0.09952629      -0.13468954       0.41517852
N        3.80216198       2.19517924      12.00000000  F        2        2       0.00084692       0.00049066      -1.77484332
N        0.00003802       4.39042434      13.45315000  F        2        2      -0.00100656      -0.00058140       0.58433630
Si       5.19692661       1.17534687      14.99222306  T        0        1       0.00785905       0.01000062       0.00075427
Si      -1.47814312       5.22026493      16.22827669  T        0        1      -0.00666687      -0.01292001      -0.00239511
Si       3.98806198       3.91299598      14.99223260  T        0        1      -0.01258922       0.00180597       0.00075445
Si       0.02039284       2.69536460      16.22827373  T        0        1       0.01452392       0.00068820      -0.00239576
Si       2.22161602       1.49726242      14.99222648  T        0        1       0.00473127      -0.01180524       0.00075433
Si       1.45775855       5.25558634      16.22827319  T        0        1      -0.00785646       0.01223414      -0.00239518
N       -1.04152224       2.27836776      14.95822482  T        1        1       0.00225460       0.01348216       0.00374948
N        4.70809636       4.43902088      16.41696372  T        1        1      -0.01929361       0.01306018      -0.00072623
N        2.34985463       4.54444556      14.95822989  T        1        1      -0.01280278      -0.00478898       0.00374968
N        1.40604400       1.85781225      16.41695694  T        1        1      -0.00166183      -0.02323580      -0.00072701
N       -1.30832939       6.34840878      14.95822849  T        1        1       0.01054826      -0.00869291       0.00374945
N        5.29247083       0.28876867      16.41695469  T        1        1       0.02095691       0.01017915      -0.00072694
N        3.80220029       2.19520148      14.85255380  T        2        1       0.00000062       0.00000042      -0.00542919
N        0.00000442       4.39040649      16.62773438  T        2        1      -0.00000068       0.00000073       0.00460766
F        0.00004231       4.39042732      19.57010215  T        0        0       0.00000604       0.00000426      -0.01695875
H        0.00003642       4.39042330      20.51928927  T        0        0      -0.00000200      -0.00000135      -0.01708276
30
Lattice="7.6044 0.0 0.0 -3.802199999999998 6.585603580538386 0.0 0.0 -0.0 28.35945" Properties=species:S:1:pos:R:3:move_mask:L:1:spacegroup_kinds:I:1:tags:I:1:forces:R:3 surface=beta_Si3N4_001 calculation_kind="Single-HF reference relaxation; not a reaction path" energy=-219.65117742872644 pbc="T T F"
Si       5.18010587       1.14956320      12.00000000  F        0        2       1.65573265       1.16704696       1.54654943
Si      -1.37790587       5.43604038      13.45315000  F        0        2      -0.10428164       0.56744586      -1.75082826
Si       4.01879613       3.91132168      12.00000000  F        0        2      -1.83866936       0.85031572       1.54651451
Si      -0.21659613       2.67428190      13.45315000  F        0        2      -0.43912536      -0.37391978      -1.75085774
Si       2.20769800       1.52471870      12.00000000  F        0        2       0.18231684      -2.01778672       1.54661221
Si       1.59450200       5.06088488      13.45315000  F        0        2       0.54418233      -0.19307160      -1.75081344
N       -1.02370433       2.17482973      12.00000000  F        1        2      -0.63427814      -0.63257152       0.20233496
N        4.82590433       4.41077385      13.45315000  F        1        2       0.15086585      -0.01734708       0.42545442
N        2.43059437       4.61163476      12.00000000  F        1        2       0.86506412      -0.23290306       0.20227125
N        1.37160563       1.97396882      13.45315000  F        1        2      -0.06046018       0.13922375       0.42546560
N       -1.40689004       6.38474267      12.00000000  F        1        2      -0.23086432       0.86546706       0.20229272
N        5.20909004       0.20086091      13.45315000  F        1        2      -0.09032887      -0.12181911       0.42546137
N        3.80216198       2.19517924      12.00000000  F        2        2       0.00084695       0.00049064      -1.77675231
N        0.00003802       4.39042434      13.45315000  F        2        2      -0.00100570      -0.00058047       0.56533404
Si       5.20023492       1.17955861      14.99256694  T        0        1      -0.00190678      -0.00366134      -0.01701414
Si      -1.48099634       5.21480077      16.22727735  T        0        1       0.00438619       0.00820791      -0.00035736
Si       3.98276082       3.91375525      14.99257655  T        0        1       0.00412168       0.00018022      -0.01701196
Si       0.02655218       2.69562649      16.22727412  T        0        1      -0.00930512      -0.00030344      -0.00036013
Si       2.22360933       1.49229199      14.99257038  T        0        1      -0.00221197       0.00348124      -0.01701744
Si       1.45445270       5.26078959      16.22727383  T        0        1       0.00491535      -0.00790332      -0.00035861
N       -1.04058067       2.28402803      14.95980633  T        1        1       0.00125879       0.00805819      -0.00641290
N        4.70002149       4.44453654      16.41664310  T        1        1      -0.00463853      -0.00132006       0.00892529
N        2.34448209       4.54243067      14.95981148  T        1        1      -0.00760707      -0.00293954      -0.00641498
N        1.40530550       1.84806266      16.41663599  T        1        1       0.00346179      -0.00335526       0.00892848
N       -1.30389838       6.34476350      14.95980999  T        1        1       0.00634941      -0.00511323      -0.00641555
N        5.30128482       0.29300409      16.41663377  T        1        1       0.00117588       0.00467563       0.00892604
N        3.80220056       2.19520166      14.85024917  T        2        1      -0.00000183      -0.00000167       0.01177987
N        0.00000413       4.39040680      16.62968156  T        2        1       0.00000233       0.00000074      -0.00464886
F        0.00004484       4.39042911      19.56298308  T        0        0       0.00000703       0.00000487      -0.01023675
H        0.00003558       4.39042274      20.51211435  T        0        0      -0.00000234      -0.00000158      -0.01134972
