9
Lattice="24.0 0.0 0.0 0.0 24.0 0.0 0.0 0.0 24.0" Properties=species:S:1:pos:R:3:move_mask:L:1:forces:R:3 charge_spin="0 1" energy=-12182.801233947277 pbc="F F F"
Si       0.00000000       0.00000000       0.00000000  F      -0.08313756      -0.16000628       0.40438139
H        1.39535738       0.00000000      -0.49333333  F       0.14638190       0.05778815      -0.17454138
H       -0.69767869       1.20841494      -0.49333333  F      -0.01857426       0.01013309      -0.14998314
H       -0.69767869      -1.20841494      -0.49333333  F      -0.03291553       0.09092336      -0.08376940
N        0.15895596      -0.10287879       1.70242519  T      -0.00335912      -0.00004023       0.00398663
H        0.95905281       0.30697586       2.15772614  T      -0.00317446       0.00117882      -0.00033590
H       -0.62476052      -0.19429742       2.32536201  T      -0.00080490      -0.00088066      -0.00356212
F        3.11314576       0.74601647       1.58992378  T      -0.00153750       0.00052088       0.00432434
H        2.85246907       0.41422564       0.76227436  T      -0.00287866       0.00038284      -0.00050055
