38
Lattice="11.518769465528859 0.0 0.0 0.0 7.679179643685906 0.0 0.0 0.0 30.7875" Properties=species:S:1:pos:R:3:move_mask:L:1:tags:I:1:forces:R:3 surface=Si100 species=HF site=hollow orientation=upright height_A=6.5 substrate_atoms=36 calculation_kind="Rigid evaluated approach scan; not NEB" energy=-187.83852526514107 pbc="T T F"
Si       0.00000000       0.00000000      12.00000000  F        6      -0.00000004       0.00000000       0.24903484
Si       3.83958982       0.00000000      12.00000000  F        6      -0.00000000       0.00000000       0.24903482
Si       7.67917964       0.00000000      12.00000000  F        6       0.00000000       0.00000000       0.24903482
Si       0.00000000       3.83958982      12.00000000  F        6      -0.00000004      -0.00000000       0.24903484
Si       3.83958982       3.83958982      12.00000000  F        6      -0.00000000      -0.00000000       0.24903482
Si       7.67917964       3.83958982      12.00000000  F        6       0.00000000      -0.00000000       0.24903482
Si       1.91979491       0.00000000      13.35750000  F        5       0.00000000      -0.00000002      -0.52822352
Si       5.75938473       0.00000000      13.35750000  F        5       0.00000000      -0.00000002      -0.52822353
Si       9.59897455       0.00000000      13.35750000  F        5       0.00000003      -0.00000002      -0.52822354
Si       1.91979491       3.83958982      13.35750000  F        5       0.00000000       0.00000000      -0.52822354
Si       5.75938473       3.83958982      13.35750000  F        5       0.00000000       0.00000000      -0.52822354
Si       9.59897455       3.83958982      13.35750000  F        5       0.00000003       0.00000000      -0.52822356
Si       1.91979491       1.91979491      14.71500000  F        4      -0.00000000       0.00000000       0.14537709
Si       5.75938473       1.91979491      14.71500000  F        4       0.00000000       0.00000000       0.14537709
Si       9.59897455       1.91979491      14.71500000  F        4       0.00000004       0.00000000       0.14537711
Si       1.91979491       5.75938473      14.71500000  F        4      -0.00000000       0.00000002       0.14537707
Si       5.75938473       5.75938473      14.71500000  F        4       0.00000000       0.00000002       0.14537707
Si       9.59897455       5.75938473      14.71500000  F        4       0.00000004       0.00000002       0.14537709
Si       0.00000000       1.91979491      16.07250000  F        3      -0.00000004       0.00000000      -0.14537711
Si       3.83958982       1.91979491      16.07250000  F        3      -0.00000000       0.00000000      -0.14537709
Si       7.67917964       1.91979491      16.07250000  F        3       0.00000000       0.00000000      -0.14537709
Si       0.00000000       5.75938473      16.07250000  F        3      -0.00000004       0.00000002      -0.14537709
Si       3.83958982       5.75938473      16.07250000  F        3      -0.00000000       0.00000002      -0.14537707
Si       7.67917964       5.75938473      16.07250000  F        3       0.00000000       0.00000002      -0.14537707
Si       0.00000000       0.00000000      17.43000000  F        2      -0.00000003      -0.00000002       0.52822354
Si       3.83958982       0.00000000      17.43000000  F        2      -0.00000000      -0.00000002       0.52822353
Si       7.67917964       0.00000000      17.43000000  F        2      -0.00000000      -0.00000002       0.52822352
Si       0.00000000       3.83958982      17.43000000  F        2      -0.00000003       0.00000000       0.52822356
Si       3.83958982       3.83958982      17.43000000  F        2      -0.00000000       0.00000000       0.52822354
Si       7.67917964       3.83958982      17.43000000  F        2      -0.00000000       0.00000000       0.52822354
Si       1.91979491       0.00000000      18.78750000  F        1      -0.00000000       0.00000000      -0.24903482
Si       5.75938473       0.00000000      18.78750000  F        1       0.00000000       0.00000000      -0.24903482
Si       9.59897455       0.00000000      18.78750000  F        1       0.00000004       0.00000000      -0.24903484
Si       1.91979491       3.83958982      18.78750000  F        1      -0.00000000      -0.00000000      -0.24903482
Si       5.75938473       3.83958982      18.78750000  F        1       0.00000000      -0.00000000      -0.24903482
Si       9.59897455       3.83958982      18.78750000  F        1       0.00000004      -0.00000000      -0.24903484
F        7.67917964       1.91979491      25.28750000  T        0       0.00000000       0.00000000       0.00058289
H        7.67917964       1.91979491      26.24873254  T        0       0.00000000       0.00000000      -0.00058289
38
Lattice="11.518769465528859 0.0 0.0 0.0 7.679179643685906 0.0 0.0 0.0 30.7875" Properties=species:S:1:pos:R:3:move_mask:L:1:tags:I:1:forces:R:3 surface=Si100 species=HF site=hollow orientation=upright height_A=5.0 substrate_atoms=36 calculation_kind="Rigid evaluated approach scan; not NEB" energy=-187.83852526514107 pbc="T T F"
Si       0.00000000       0.00000000      12.00000000  F        6      -0.00000004       0.00000000       0.24903484
Si       3.83958982       0.00000000      12.00000000  F        6      -0.00000000       0.00000000       0.24903482
Si       7.67917964       0.00000000      12.00000000  F        6       0.00000000       0.00000000       0.24903482
Si       0.00000000       3.83958982      12.00000000  F        6      -0.00000004      -0.00000000       0.24903484
Si       3.83958982       3.83958982      12.00000000  F        6      -0.00000000      -0.00000000       0.24903482
Si       7.67917964       3.83958982      12.00000000  F        6       0.00000000      -0.00000000       0.24903482
Si       1.91979491       0.00000000      13.35750000  F        5       0.00000000      -0.00000002      -0.52822352
Si       5.75938473       0.00000000      13.35750000  F        5       0.00000000      -0.00000002      -0.52822353
Si       9.59897455       0.00000000      13.35750000  F        5       0.00000003      -0.00000002      -0.52822354
Si       1.91979491       3.83958982      13.35750000  F        5       0.00000000       0.00000000      -0.52822354
Si       5.75938473       3.83958982      13.35750000  F        5       0.00000000       0.00000000      -0.52822354
Si       9.59897455       3.83958982      13.35750000  F        5       0.00000003       0.00000000      -0.52822356
Si       1.91979491       1.91979491      14.71500000  F        4      -0.00000000       0.00000000       0.14537709
Si       5.75938473       1.91979491      14.71500000  F        4       0.00000000       0.00000000       0.14537709
Si       9.59897455       1.91979491      14.71500000  F        4       0.00000004       0.00000000       0.14537711
Si       1.91979491       5.75938473      14.71500000  F        4      -0.00000000       0.00000002       0.14537707
Si       5.75938473       5.75938473      14.71500000  F        4       0.00000000       0.00000002       0.14537707
Si       9.59897455       5.75938473      14.71500000  F        4       0.00000004       0.00000002       0.14537709
Si       0.00000000       1.91979491      16.07250000  F        3      -0.00000004       0.00000000      -0.14537711
Si       3.83958982       1.91979491      16.07250000  F        3      -0.00000000       0.00000000      -0.14537709
Si       7.67917964       1.91979491      16.07250000  F        3       0.00000000       0.00000000      -0.14537709
Si       0.00000000       5.75938473      16.07250000  F        3      -0.00000004       0.00000002      -0.14537709
Si       3.83958982       5.75938473      16.07250000  F        3      -0.00000000       0.00000002      -0.14537707
Si       7.67917964       5.75938473      16.07250000  F        3       0.00000000       0.00000002      -0.14537707
Si       0.00000000       0.00000000      17.43000000  F        2      -0.00000003      -0.00000002       0.52822354
Si       3.83958982       0.00000000      17.43000000  F        2      -0.00000000      -0.00000002       0.52822353
Si       7.67917964       0.00000000      17.43000000  F        2      -0.00000000      -0.00000002       0.52822352
Si       0.00000000       3.83958982      17.43000000  F        2      -0.00000003       0.00000000       0.52822356
Si       3.83958982       3.83958982      17.43000000  F        2      -0.00000000       0.00000000       0.52822354
Si       7.67917964       3.83958982      17.43000000  F        2      -0.00000000       0.00000000       0.52822354
Si       1.91979491       0.00000000      18.78750000  F        1      -0.00000000       0.00000000      -0.24903482
Si       5.75938473       0.00000000      18.78750000  F        1       0.00000000       0.00000000      -0.24903482
Si       9.59897455       0.00000000      18.78750000  F        1       0.00000004       0.00000000      -0.24903484
Si       1.91979491       3.83958982      18.78750000  F        1      -0.00000000      -0.00000000      -0.24903482
Si       5.75938473       3.83958982      18.78750000  F        1       0.00000000      -0.00000000      -0.24903482
Si       9.59897455       3.83958982      18.78750000  F        1       0.00000004      -0.00000000      -0.24903484
F        7.67917964       1.91979491      23.78750000  T        0       0.00000000       0.00000000       0.00058289
H        7.67917964       1.91979491      24.74873254  T        0       0.00000000       0.00000000      -0.00058289
38
Lattice="11.518769465528859 0.0 0.0 0.0 7.679179643685906 0.0 0.0 0.0 30.7875" Properties=species:S:1:pos:R:3:move_mask:L:1:tags:I:1:forces:R:3 surface=Si100 species=HF site=hollow orientation=upright height_A=4.0 substrate_atoms=36 calculation_kind="Rigid evaluated approach scan; not NEB" energy=-187.85120842123737 pbc="T T F"
Si       0.00000000       0.00000000      12.00000000  F        6       0.00001169       0.00000022       0.24905591
Si       3.83958982       0.00000000      12.00000000  F        6      -0.00001172       0.00000022       0.24905590
Si       7.67917964       0.00000000      12.00000000  F        6       0.00000000       0.00000019       0.24906305
Si       0.00000000       3.83958982      12.00000000  F        6       0.00001169      -0.00000022       0.24905591
Si       3.83958982       3.83958982      12.00000000  F        6      -0.00001172      -0.00000022       0.24905590
Si       7.67917964       3.83958982      12.00000000  F        6       0.00000000      -0.00000019       0.24906305
Si       1.91979491       0.00000000      13.35750000  F        5       0.00000000       0.00000049      -0.52811691
Si       5.75938473       0.00000000      13.35750000  F        5       0.00002412       0.00000883      -0.52810767
Si       9.59897455       0.00000000      13.35750000  F        5      -0.00002409       0.00000883      -0.52810769
Si       1.91979491       3.83958982      13.35750000  F        5       0.00000000      -0.00000051      -0.52811693
Si       5.75938473       3.83958982      13.35750000  F        5       0.00002412      -0.00000885      -0.52810768
Si       9.59897455       3.83958982      13.35750000  F        5      -0.00002409      -0.00000885      -0.52810770
Si       1.91979491       1.91979491      14.71500000  F        4      -0.00000000       0.00000000       0.14554806
Si       5.75938473       1.91979491      14.71500000  F        4       0.00023672       0.00000000       0.14520257
Si       9.59897455       1.91979491      14.71500000  F        4      -0.00023668       0.00000000       0.14520259
Si       1.91979491       5.75938473      14.71500000  F        4      -0.00000000       0.00000002       0.14550104
Si       5.75938473       5.75938473      14.71500000  F        4       0.00027696       0.00000002       0.14525787
Si       9.59897455       5.75938473      14.71500000  F        4      -0.00027692       0.00000002       0.14525789
Si       0.00000000       1.91979491      16.07250000  F        3       0.00003997       0.00000000      -0.14539347
Si       3.83958982       1.91979491      16.07250000  F        3      -0.00004001       0.00000000      -0.14539344
Si       7.67917964       1.91979491      16.07250000  F        3       0.00000000       0.00000000      -0.14621193
Si       0.00000000       5.75938473      16.07250000  F        3      -0.00018226       0.00000002      -0.14502362
Si       3.83958982       5.75938473      16.07250000  F        3       0.00018222       0.00000002      -0.14502360
Si       7.67917964       5.75938473      16.07250000  F        3       0.00000000       0.00000002      -0.14536152
Si       0.00000000       0.00000000      17.43000000  F        2      -0.00025202       0.00028724       0.52905702
Si       3.83958982       0.00000000      17.43000000  F        2       0.00025199       0.00028724       0.52905700
Si       7.67917964       0.00000000      17.43000000  F        2      -0.00000000      -0.00060191       0.52928481
Si       0.00000000       3.83958982      17.43000000  F        2      -0.00025202      -0.00028726       0.52905703
Si       3.83958982       3.83958982      17.43000000  F        2       0.00025199      -0.00028726       0.52905701
Si       7.67917964       3.83958982      17.43000000  F        2      -0.00000000       0.00060188       0.52928482
Si       1.91979491       0.00000000      18.78750000  F        1      -0.00000000      -0.00003302      -0.24887072
Si       5.75938473       0.00000000      18.78750000  F        1       0.02241937       0.02123360      -0.20600765
Si       9.59897455       0.00000000      18.78750000  F        1      -0.02241933       0.02123360      -0.20600767
Si       1.91979491       3.83958982      18.78750000  F        1      -0.00000000       0.00003302      -0.24887072
Si       5.75938473       3.83958982      18.78750000  F        1       0.02241937      -0.02123360      -0.20600765
Si       9.59897455       3.83958982      18.78750000  F        1      -0.02241933      -0.02123360      -0.20600767
F        7.67917964       1.91979491      22.78750000  T        0      -0.00000000       0.00000000      -0.15258276
H        7.67917964       1.91979491      23.74873254  T        0      -0.00000000      -0.00000000      -0.02569043
38
Lattice="11.518769465528859 0.0 0.0 0.0 7.679179643685906 0.0 0.0 0.0 30.7875" Properties=species:S:1:pos:R:3:move_mask:L:1:tags:I:1:forces:R:3 surface=Si100 species=HF site=hollow orientation=upright height_A=3.25 substrate_atoms=36 calculation_kind="Rigid evaluated approach scan; not NEB" energy=-188.13365199705612 pbc="T T F"
Si       0.00000000       0.00000000      12.00000000  F        6       0.00035938      -0.00001001       0.24953085
Si       3.83958982       0.00000000      12.00000000  F        6      -0.00035942      -0.00001001       0.24953083
Si       7.67917964       0.00000000      12.00000000  F        6       0.00000000      -0.00000320       0.24969837
Si       0.00000000       3.83958982      12.00000000  F        6       0.00035938       0.00001001       0.24953085
Si       3.83958982       3.83958982      12.00000000  F        6      -0.00035942       0.00001001       0.24953083
Si       7.67917964       3.83958982      12.00000000  F        6       0.00000000       0.00000320       0.24969837
Si       1.91979491       0.00000000      13.35750000  F        5       0.00000000       0.00008946      -0.52569450
Si       5.75938473       0.00000000      13.35750000  F        5       0.00059660       0.00016386      -0.52546182
Si       9.59897455       0.00000000      13.35750000  F        5      -0.00059657       0.00016386      -0.52546184
Si       1.91979491       3.83958982      13.35750000  F        5       0.00000000      -0.00008949      -0.52569452
Si       5.75938473       3.83958982      13.35750000  F        5       0.00059660      -0.00016389      -0.52546184
Si       9.59897455       3.83958982      13.35750000  F        5      -0.00059657      -0.00016389      -0.52546185
Si       1.91979491       1.91979491      14.71500000  F        4      -0.00000000       0.00000000       0.15074459
Si       5.75938473       1.91979491      14.71500000  F        4       0.00601486       0.00000000       0.14688041
Si       9.59897455       1.91979491      14.71500000  F        4      -0.00601482       0.00000000       0.14688043
Si       1.91979491       5.75938473      14.71500000  F        4      -0.00000000       0.00000002       0.14937295
Si       5.75938473       5.75938473      14.71500000  F        4       0.00682320       0.00000002       0.14972226
Si       9.59897455       5.75938473      14.71500000  F        4      -0.00682316       0.00000002       0.14972228
Si       0.00000000       1.91979491      16.07250000  F        3       0.00165762       0.00000000      -0.14670142
Si       3.83958982       1.91979491      16.07250000  F        3      -0.00165766       0.00000000      -0.14670140
Si       7.67917964       1.91979491      16.07250000  F        3       0.00000000       0.00000000      -0.16966974
Si       0.00000000       5.75938473      16.07250000  F        3      -0.00957539       0.00000002      -0.12990032
Si       3.83958982       5.75938473      16.07250000  F        3       0.00957535       0.00000002      -0.12990030
Si       7.67917964       5.75938473      16.07250000  F        3       0.00000000       0.00000002      -0.14659062
Si       0.00000000       0.00000000      17.43000000  F        2      -0.00571040       0.00135068       0.53462666
Si       3.83958982       0.00000000      17.43000000  F        2       0.00571037       0.00135068       0.53462664
Si       7.67917964       0.00000000      17.43000000  F        2      -0.00000000      -0.01692179       0.52514715
Si       0.00000000       3.83958982      17.43000000  F        2      -0.00571040      -0.00135070       0.53462667
Si       3.83958982       3.83958982      17.43000000  F        2       0.00571037      -0.00135070       0.53462665
Si       7.67917964       3.83958982      17.43000000  F        2      -0.00000000       0.01692176       0.52514716
Si       1.91979491       0.00000000      18.78750000  F        1      -0.00000000      -0.00168548      -0.24123531
Si       5.75938473       0.00000000      18.78750000  F        1       0.06880203       0.06092609      -0.16763464
Si       9.59897455       0.00000000      18.78750000  F        1      -0.06880199       0.06092609      -0.16763466
Si       1.91979491       3.83958982      18.78750000  F        1      -0.00000000       0.00168548      -0.24123531
Si       5.75938473       3.83958982      18.78750000  F        1       0.06880203      -0.06092609      -0.16763464
Si       9.59897455       3.83958982      18.78750000  F        1      -0.06880199      -0.06092609      -0.16763466
F        7.67917964       1.91979491      22.03750000  T        0      -0.00000000       0.00000000       0.18515468
H        7.67917964       1.91979491      22.99873254  T        0      -0.00000000      -0.00000000      -0.58908923
38
Lattice="11.518769465528859 0.0 0.0 0.0 7.679179643685906 0.0 0.0 0.0 30.7875" Properties=species:S:1:pos:R:3:move_mask:L:1:tags:I:1:forces:R:3 surface=Si100 species=HF site=hollow orientation=upright height_A=2.75 substrate_atoms=36 calculation_kind="Rigid evaluated approach scan; not NEB" energy=-188.3656142390153 pbc="T T F"
Si       0.00000000       0.00000000      12.00000000  F        6       0.00033130      -0.00001556       0.24942219
Si       3.83958982       0.00000000      12.00000000  F        6      -0.00033134      -0.00001556       0.24942218
Si       7.67917964       0.00000000      12.00000000  F        6       0.00000000      -0.00002528       0.24942793
Si       0.00000000       3.83958982      12.00000000  F        6       0.00033130       0.00001556       0.24942219
Si       3.83958982       3.83958982      12.00000000  F        6      -0.00033134       0.00001556       0.24942218
Si       7.67917964       3.83958982      12.00000000  F        6       0.00000000       0.00002528       0.24942793
Si       1.91979491       0.00000000      13.35750000  F        5       0.00000000       0.00049278      -0.52515644
Si       5.75938473       0.00000000      13.35750000  F        5       0.00004248       0.00061573      -0.52437318
Si       9.59897455       0.00000000      13.35750000  F        5      -0.00004245       0.00061573      -0.52437320
Si       1.91979491       3.83958982      13.35750000  F        5       0.00000000      -0.00049280      -0.52515645
Si       5.75938473       3.83958982      13.35750000  F        5       0.00004248      -0.00061576      -0.52437319
Si       9.59897455       3.83958982      13.35750000  F        5      -0.00004245      -0.00061576      -0.52437321
Si       1.91979491       1.91979491      14.71500000  F        4      -0.00000000       0.00000000       0.15190487
Si       5.75938473       1.91979491      14.71500000  F        4       0.00855811       0.00000000       0.15386997
Si       9.59897455       1.91979491      14.71500000  F        4      -0.00855807       0.00000000       0.15386999
Si       1.91979491       5.75938473      14.71500000  F        4      -0.00000000       0.00000002       0.15132768
Si       5.75938473       5.75938473      14.71500000  F        4       0.00691426       0.00000002       0.16729760
Si       9.59897455       5.75938473      14.71500000  F        4      -0.00691422       0.00000002       0.16729762
Si       0.00000000       1.91979491      16.07250000  F        3       0.00146325       0.00000000      -0.15018375
Si       3.83958982       1.91979491      16.07250000  F        3      -0.00146328       0.00000000      -0.15018373
Si       7.67917964       1.91979491      16.07250000  F        3       0.00000000      -0.00000000      -0.17298629
Si       0.00000000       5.75938473      16.07250000  F        3      -0.02062677       0.00000002      -0.11752135
Si       3.83958982       5.75938473      16.07250000  F        3       0.02062673       0.00000002      -0.11752133
Si       7.67917964       5.75938473      16.07250000  F        3       0.00000000       0.00000002      -0.16976842
Si       0.00000000       0.00000000      17.43000000  F        2      -0.01742070      -0.01247750       0.52816692
Si       3.83958982       0.00000000      17.43000000  F        2       0.01742066      -0.01247751       0.52816690
Si       7.67917964       0.00000000      17.43000000  F        2      -0.00000000       0.03117158       0.54525733
Si       0.00000000       3.83958982      17.43000000  F        2      -0.01742070       0.01247748       0.52816693
Si       3.83958982       3.83958982      17.43000000  F        2       0.01742066       0.01247748       0.52816692
Si       7.67917964       3.83958982      17.43000000  F        2      -0.00000000      -0.03117160       0.54525734
Si       1.91979491       0.00000000      18.78750000  F        1      -0.00000000      -0.00425623      -0.24269942
Si       5.75938473       0.00000000      18.78750000  F        1       0.01365497       0.05585827      -0.19289454
Si       9.59897455       0.00000000      18.78750000  F        1      -0.01365493       0.05585827      -0.19289456
Si       1.91979491       3.83958982      18.78750000  F        1      -0.00000000       0.00425623      -0.24269942
Si       5.75938473       3.83958982      18.78750000  F        1       0.01365497      -0.05585827      -0.19289454
Si       9.59897455       3.83958982      18.78750000  F        1      -0.01365493      -0.05585827      -0.19289456
F        7.67917964       1.91979491      21.53750000  T        0      -0.00000000       0.00000000       0.31451770
H        7.67917964       1.91979491      22.49873254  T        0      -0.00000000       0.00000000      -0.67686477
38
Lattice="11.518769465528859 0.0 0.0 0.0 7.679179643685906 0.0 0.0 0.0 30.7875" Properties=species:S:1:pos:R:3:move_mask:L:1:tags:I:1:forces:R:3 surface=Si100 species=HF site=hollow orientation=upright height_A=2.25 substrate_atoms=36 calculation_kind="Rigid evaluated approach scan; not NEB" energy=-188.48665156614757 pbc="T T F"
Si       0.00000000       0.00000000      12.00000000  F        6      -0.00019102      -0.00008636       0.24982351
Si       3.83958982       0.00000000      12.00000000  F        6       0.00019098      -0.00008636       0.24982349
Si       7.67917964       0.00000000      12.00000000  F        6       0.00000000      -0.00010956       0.24935770
Si       0.00000000       3.83958982      12.00000000  F        6      -0.00019102       0.00008636       0.24982351
Si       3.83958982       3.83958982      12.00000000  F        6       0.00019098       0.00008636       0.24982349
Si       7.67917964       3.83958982      12.00000000  F        6       0.00000000       0.00010956       0.24935770
Si       1.91979491       0.00000000      13.35750000  F        5       0.00000000       0.00114248      -0.52579581
Si       5.75938473       0.00000000      13.35750000  F        5      -0.00014015       0.00069901      -0.52233237
Si       9.59897455       0.00000000      13.35750000  F        5       0.00014019       0.00069901      -0.52233239
Si       1.91979491       3.83958982      13.35750000  F        5       0.00000000      -0.00114251      -0.52579582
Si       5.75938473       3.83958982      13.35750000  F        5      -0.00014015      -0.00069903      -0.52233239
Si       9.59897455       3.83958982      13.35750000  F        5       0.00014019      -0.00069903      -0.52233241
Si       1.91979491       1.91979491      14.71500000  F        4      -0.00000000      -0.00000000       0.15163839
Si       5.75938473       1.91979491      14.71500000  F        4       0.01219880      -0.00000000       0.16112198
Si       9.59897455       1.91979491      14.71500000  F        4      -0.01219876      -0.00000000       0.16112200
Si       1.91979491       5.75938473      14.71500000  F        4      -0.00000000       0.00000002       0.15066782
Si       5.75938473       5.75938473      14.71500000  F        4       0.01656558       0.00000002       0.17503716
Si       9.59897455       5.75938473      14.71500000  F        4      -0.01656554       0.00000002       0.17503718
Si       0.00000000       1.91979491      16.07250000  F        3      -0.00146118      -0.00000000      -0.14728555
Si       3.83958982       1.91979491      16.07250000  F        3       0.00146114      -0.00000000      -0.14728553
Si       7.67917964       1.91979491      16.07250000  F        3       0.00000000      -0.00000000      -0.16978157
Si       0.00000000       5.75938473      16.07250000  F        3      -0.01656531       0.00000002      -0.11765987
Si       3.83958982       5.75938473      16.07250000  F        3       0.01656527       0.00000002      -0.11765985
Si       7.67917964       5.75938473      16.07250000  F        3       0.00000000       0.00000002      -0.16802994
Si       0.00000000       0.00000000      17.43000000  F        2      -0.02906821      -0.02503473       0.53545591
Si       3.83958982       0.00000000      17.43000000  F        2       0.02906818      -0.02503473       0.53545589
Si       7.67917964       0.00000000      17.43000000  F        2      -0.00000000       0.02921604       0.52630639
Si       0.00000000       3.83958982      17.43000000  F        2      -0.02906821       0.02503471       0.53545592
Si       3.83958982       3.83958982      17.43000000  F        2       0.02906818       0.02503471       0.53545590
Si       7.67917964       3.83958982      17.43000000  F        2      -0.00000000      -0.02921606       0.52630641
Si       1.91979491       0.00000000      18.78750000  F        1      -0.00000000      -0.00712372      -0.25440845
Si       5.75938473       0.00000000      18.78750000  F        1      -0.04675233       0.05199483      -0.22802037
Si       9.59897455       0.00000000      18.78750000  F        1       0.04675236       0.05199483      -0.22802039
Si       1.91979491       3.83958982      18.78750000  F        1      -0.00000000       0.00712372      -0.25440845
Si       5.75938473       3.83958982      18.78750000  F        1      -0.04675233      -0.05199483      -0.22802037
Si       9.59897455       3.83958982      18.78750000  F        1       0.04675236      -0.05199483      -0.22802039
F        7.67917964       1.91979491      21.03750000  T        0      -0.00000000       0.00000000       0.58686793
H        7.67917964       1.91979491      21.99873254  T        0       0.00000000      -0.00000000      -0.82441635
38
Lattice="11.518769465528859 0.0 0.0 0.0 7.679179643685906 0.0 0.0 0.0 30.7875" Properties=species:S:1:pos:R:3:move_mask:L:1:tags:I:1:forces:R:3 surface=Si100 species=HF site=hollow orientation=upright height_A=1.9 substrate_atoms=36 calculation_kind="Rigid evaluated approach scan; not NEB" energy=-188.5336075655369 pbc="T T F"
Si       0.00000000       0.00000000      12.00000000  F        6      -0.00039517      -0.00017029       0.25031138
Si       3.83958982       0.00000000      12.00000000  F        6       0.00039513      -0.00017029       0.25031136
Si       7.67917964       0.00000000      12.00000000  F        6       0.00000000      -0.00118497       0.24834612
Si       0.00000000       3.83958982      12.00000000  F        6      -0.00039517       0.00017029       0.25031138
Si       3.83958982       3.83958982      12.00000000  F        6       0.00039513       0.00017029       0.25031136
Si       7.67917964       3.83958982      12.00000000  F        6       0.00000000       0.00118497       0.24834612
Si       1.91979491       0.00000000      13.35750000  F        5       0.00000000       0.00151635      -0.52697925
Si       5.75938473       0.00000000      13.35750000  F        5       0.00100830       0.00090358      -0.51876229
Si       9.59897455       0.00000000      13.35750000  F        5      -0.00100827       0.00090358      -0.51876230
Si       1.91979491       3.83958982      13.35750000  F        5       0.00000000      -0.00151637      -0.52697927
Si       5.75938473       3.83958982      13.35750000  F        5       0.00100830      -0.00090360      -0.51876230
Si       9.59897455       3.83958982      13.35750000  F        5      -0.00100827      -0.00090360      -0.51876232
Si       1.91979491       1.91979491      14.71500000  F        4      -0.00000000      -0.00000000       0.15336393
Si       5.75938473       1.91979491      14.71500000  F        4       0.01588182      -0.00000000       0.17291505
Si       9.59897455       1.91979491      14.71500000  F        4      -0.01588178      -0.00000000       0.17291507
Si       1.91979491       5.75938473      14.71500000  F        4      -0.00000000       0.00000002       0.15127025
Si       5.75938473       5.75938473      14.71500000  F        4       0.02836051       0.00000002       0.16701317
Si       9.59897455       5.75938473      14.71500000  F        4      -0.02836048       0.00000002       0.16701319
Si       0.00000000       1.91979491      16.07250000  F        3      -0.00566237      -0.00000000      -0.14373707
Si       3.83958982       1.91979491      16.07250000  F        3       0.00566233      -0.00000000      -0.14373705
Si       7.67917964       1.91979491      16.07250000  F        3       0.00000000      -0.00000000      -0.17830018
Si       0.00000000       5.75938473      16.07250000  F        3      -0.00591388       0.00000002      -0.13008838
Si       3.83958982       5.75938473      16.07250000  F        3       0.00591384       0.00000002      -0.13008836
Si       7.67917964       5.75938473      16.07250000  F        3       0.00000000       0.00000002      -0.13778875
Si       0.00000000       0.00000000      17.43000000  F        2      -0.01836355      -0.02925107       0.53157003
Si       3.83958982       0.00000000      17.43000000  F        2       0.01836352      -0.02925107       0.53157002
Si       7.67917964       0.00000000      17.43000000  F        2      -0.00000000      -0.03189103       0.43592199
Si       0.00000000       3.83958982      17.43000000  F        2      -0.01836355       0.02925104       0.53157005
Si       3.83958982       3.83958982      17.43000000  F        2       0.01836352       0.02925104       0.53157003
Si       7.67917964       3.83958982      17.43000000  F        2      -0.00000000       0.03189101       0.43592201
Si       1.91979491       0.00000000      18.78750000  F        1      -0.00000000      -0.00810149      -0.25519957
Si       5.75938473       0.00000000      18.78750000  F        1      -0.06537717       0.04272242      -0.25263629
Si       9.59897455       0.00000000      18.78750000  F        1       0.06537720       0.04272242      -0.25263630
Si       1.91979491       3.83958982      18.78750000  F        1      -0.00000000       0.00810149      -0.25519957
Si       5.75938473       3.83958982      18.78750000  F        1      -0.06537717      -0.04272242      -0.25263629
Si       9.59897455       3.83958982      18.78750000  F        1       0.06537720      -0.04272242      -0.25263630
F        7.67917964       1.91979491      20.68750000  T        0       0.00000000       0.00000000       0.70707001
H        7.67917964       1.91979491      21.64873254  T        0       0.00000000      -0.00000000      -0.67393068
38
Lattice="11.518769465528859 0.0 0.0 0.0 7.679179643685906 0.0 0.0 0.0 30.7875" Properties=species:S:1:pos:R:3:move_mask:L:1:tags:I:1:forces:R:3 surface=Si100 species=HF site=hollow orientation=upright height_A=1.6 substrate_atoms=36 calculation_kind="Rigid evaluated approach scan; not NEB" energy=-188.49945878625866 pbc="T T F"
Si       0.00000000       0.00000000      12.00000000  F        6      -0.00036370      -0.00020776       0.25036888
Si       3.83958982       0.00000000      12.00000000  F        6       0.00036366      -0.00020776       0.25036887
Si       7.67917964       0.00000000      12.00000000  F        6       0.00000000      -0.00272155       0.24705582
Si       0.00000000       3.83958982      12.00000000  F        6      -0.00036370       0.00020776       0.25036888
Si       3.83958982       3.83958982      12.00000000  F        6       0.00036366       0.00020776       0.25036887
Si       7.67917964       3.83958982      12.00000000  F        6       0.00000000       0.00272155       0.24705582
Si       1.91979491       0.00000000      13.35750000  F        5       0.00000000       0.00174258      -0.52816828
Si       5.75938473       0.00000000      13.35750000  F        5       0.00290444       0.00207713      -0.51450310
Si       9.59897455       0.00000000      13.35750000  F        5      -0.00290440       0.00207713      -0.51450312
Si       1.91979491       3.83958982      13.35750000  F        5       0.00000000      -0.00174261      -0.52816829
Si       5.75938473       3.83958982      13.35750000  F        5       0.00290444      -0.00207715      -0.51450311
Si       9.59897455       3.83958982      13.35750000  F        5      -0.00290440      -0.00207715      -0.51450313
Si       1.91979491       1.91979491      14.71500000  F        4      -0.00000000      -0.00000000       0.15565156
Si       5.75938473       1.91979491      14.71500000  F        4       0.01956178      -0.00000000       0.18789819
Si       9.59897455       1.91979491      14.71500000  F        4      -0.01956174      -0.00000000       0.18789821
Si       1.91979491       5.75938473      14.71500000  F        4      -0.00000000       0.00000002       0.15253008
Si       5.75938473       5.75938473      14.71500000  F        4       0.03475108       0.00000002       0.16169303
Si       9.59897455       5.75938473      14.71500000  F        4      -0.03475105       0.00000002       0.16169305
Si       0.00000000       1.91979491      16.07250000  F        3      -0.00566127      -0.00000000      -0.14594951
Si       3.83958982       1.91979491      16.07250000  F        3       0.00566124      -0.00000000      -0.14594949
Si       7.67917964       1.91979491      16.07250000  F        3       0.00000000      -0.00000000      -0.19461127
Si       0.00000000       5.75938473      16.07250000  F        3      -0.00397245       0.00000002      -0.13555071
Si       3.83958982       5.75938473      16.07250000  F        3       0.00397241       0.00000002      -0.13555069
Si       7.67917964       5.75938473      16.07250000  F        3       0.00000000       0.00000002      -0.13197682
Si       0.00000000       0.00000000      17.43000000  F        2      -0.00119936      -0.03534779       0.51516787
Si       3.83958982       0.00000000      17.43000000  F        2       0.00119932      -0.03534779       0.51516785
Si       7.67917964       0.00000000      17.43000000  F        2      -0.00000000      -0.04702074       0.39778349
Si       0.00000000       3.83958982      17.43000000  F        2      -0.00119936       0.03534777       0.51516788
Si       3.83958982       3.83958982      17.43000000  F        2       0.00119932       0.03534777       0.51516787
Si       7.67917964       3.83958982      17.43000000  F        2      -0.00000000       0.04702071       0.39778350
Si       1.91979491       0.00000000      18.78750000  F        1      -0.00000000      -0.00793248      -0.25118456
Si       5.75938473       0.00000000      18.78750000  F        1      -0.06648356       0.04751329      -0.23816357
Si       9.59897455       0.00000000      18.78750000  F        1       0.06648360       0.04751329      -0.23816358
Si       1.91979491       3.83958982      18.78750000  F        1      -0.00000000       0.00793248      -0.25118456
Si       5.75938473       3.83958982      18.78750000  F        1      -0.06648356      -0.04751329      -0.23816357
Si       9.59897455       3.83958982      18.78750000  F        1       0.06648360      -0.04751329      -0.23816358
F        7.67917964       1.91979491      20.38750000  T        0       0.00000000       0.00000000       0.83736586
H        7.67917964       1.91979491      21.34873254  T        0       0.00000000      -0.00000000      -0.73759464
38
Lattice="11.518769465528859 0.0 0.0 0.0 7.679179643685906 0.0 0.0 0.0 30.7875" Properties=species:S:1:pos:R:3:move_mask:L:1:tags:I:1:forces:R:3 surface=Si100 species=HF site=hollow orientation=upright height_A=1.3 substrate_atoms=36 calculation_kind="Rigid evaluated approach scan; not NEB" energy=-188.50171797712758 pbc="T T F"
Si       0.00000000       0.00000000      12.00000000  F        6      -0.00004359      -0.00005846       0.24988249
Si       3.83958982       0.00000000      12.00000000  F        6       0.00004355      -0.00005846       0.24988248
Si       7.67917964       0.00000000      12.00000000  F        6       0.00000000      -0.00234021       0.24855301
Si       0.00000000       3.83958982      12.00000000  F        6      -0.00004359       0.00005846       0.24988249
Si       3.83958982       3.83958982      12.00000000  F        6       0.00004355       0.00005846       0.24988248
Si       7.67917964       3.83958982      12.00000000  F        6       0.00000000       0.00234021       0.24855301
Si       1.91979491       0.00000000      13.35750000  F        5       0.00000000       0.00212925      -0.52822176
Si       5.75938473       0.00000000      13.35750000  F        5       0.00564243       0.00397117      -0.51145418
Si       9.59897455       0.00000000      13.35750000  F        5      -0.00564240       0.00397117      -0.51145420
Si       1.91979491       3.83958982      13.35750000  F        5       0.00000000      -0.00212927      -0.52822178
Si       5.75938473       3.83958982      13.35750000  F        5       0.00564243      -0.00397119      -0.51145419
Si       9.59897455       3.83958982      13.35750000  F        5      -0.00564240      -0.00397119      -0.51145421
Si       1.91979491       1.91979491      14.71500000  F        4      -0.00000000      -0.00000000       0.15817781
Si       5.75938473       1.91979491      14.71500000  F        4       0.01868805      -0.00000000       0.19480148
Si       9.59897455       1.91979491      14.71500000  F        4      -0.01868802      -0.00000000       0.19480150
Si       1.91979491       5.75938473      14.71500000  F        4      -0.00000000       0.00000002       0.15549930
Si       5.75938473       5.75938473      14.71500000  F        4       0.03214316       0.00000002       0.16740856
Si       9.59897455       5.75938473      14.71500000  F        4      -0.03214312       0.00000002       0.16740858
Si       0.00000000       1.91979491      16.07250000  F        3      -0.00167517      -0.00000000      -0.15327018
Si       3.83958982       1.91979491      16.07250000  F        3       0.00167513      -0.00000000      -0.15327016
Si       7.67917964       1.91979491      16.07250000  F        3       0.00000000      -0.00000000      -0.16464342
Si       0.00000000       5.75938473      16.07250000  F        3      -0.00945845       0.00000002      -0.13533591
Si       3.83958982       5.75938473      16.07250000  F        3       0.00945842       0.00000002      -0.13533589
Si       7.67917964       5.75938473      16.07250000  F        3       0.00000000       0.00000002      -0.15897818
Si       0.00000000       0.00000000      17.43000000  F        2       0.02446667      -0.04273703       0.48912760
Si       3.83958982       0.00000000      17.43000000  F        2      -0.02446670      -0.04273703       0.48912758
Si       7.67917964       0.00000000      17.43000000  F        2      -0.00000000      -0.01299670       0.41308525
Si       0.00000000       3.83958982      17.43000000  F        2       0.02446667       0.04273701       0.48912762
Si       3.83958982       3.83958982      17.43000000  F        2      -0.02446670       0.04273701       0.48912760
Si       7.67917964       3.83958982      17.43000000  F        2      -0.00000000       0.01299667       0.41308526
Si       1.91979491       0.00000000      18.78750000  F        1      -0.00000000      -0.00678470      -0.24711438
Si       5.75938473       0.00000000      18.78750000  F        1      -0.03987755       0.06035023      -0.18560361
Si       9.59897455       0.00000000      18.78750000  F        1       0.03987759       0.06035023      -0.18560363
Si       1.91979491       3.83958982      18.78750000  F        1      -0.00000000       0.00678470      -0.24711438
Si       5.75938473       3.83958982      18.78750000  F        1      -0.03987755      -0.06035023      -0.18560361
Si       9.59897455       3.83958982      18.78750000  F        1       0.03987759      -0.06035023      -0.18560363
F        7.67917964       1.91979491      20.08750000  T        0       0.00000000       0.00000000       0.77065769
H        7.67917964       1.91979491      21.04873254  T        0       0.00000000      -0.00000000      -0.84833446
