38
Lattice="11.518769465528859 0.0 0.0 0.0 7.679179643685906 0.0 0.0 0.0 30.7875" Properties=species:S:1:pos:R:3:move_mask:L:1:tags:I:1:forces:R:3 surface=Si100 species=HF site=atop_Si orientation=parallel height_A=6.5 substrate_atoms=36 calculation_kind="Rigid evaluated approach scan; not NEB" energy=-187.83852526514107 pbc="T T F"
Si       0.00000000       0.00000000      12.00000000  F        6      -0.00000004       0.00000000       0.24903484
Si       3.83958982       0.00000000      12.00000000  F        6      -0.00000000       0.00000000       0.24903482
Si       7.67917964       0.00000000      12.00000000  F        6       0.00000000       0.00000000       0.24903482
Si       0.00000000       3.83958982      12.00000000  F        6      -0.00000004      -0.00000000       0.24903484
Si       3.83958982       3.83958982      12.00000000  F        6      -0.00000000      -0.00000000       0.24903482
Si       7.67917964       3.83958982      12.00000000  F        6       0.00000000      -0.00000000       0.24903482
Si       1.91979491       0.00000000      13.35750000  F        5       0.00000000      -0.00000002      -0.52822352
Si       5.75938473       0.00000000      13.35750000  F        5       0.00000000      -0.00000002      -0.52822353
Si       9.59897455       0.00000000      13.35750000  F        5       0.00000003      -0.00000002      -0.52822354
Si       1.91979491       3.83958982      13.35750000  F        5       0.00000000       0.00000000      -0.52822354
Si       5.75938473       3.83958982      13.35750000  F        5       0.00000000       0.00000000      -0.52822354
Si       9.59897455       3.83958982      13.35750000  F        5       0.00000003       0.00000000      -0.52822356
Si       1.91979491       1.91979491      14.71500000  F        4      -0.00000000       0.00000000       0.14537709
Si       5.75938473       1.91979491      14.71500000  F        4       0.00000000       0.00000000       0.14537709
Si       9.59897455       1.91979491      14.71500000  F        4       0.00000004       0.00000000       0.14537711
Si       1.91979491       5.75938473      14.71500000  F        4      -0.00000000       0.00000002       0.14537707
Si       5.75938473       5.75938473      14.71500000  F        4       0.00000000       0.00000002       0.14537707
Si       9.59897455       5.75938473      14.71500000  F        4       0.00000004       0.00000002       0.14537709
Si       0.00000000       1.91979491      16.07250000  F        3      -0.00000004       0.00000000      -0.14537711
Si       3.83958982       1.91979491      16.07250000  F        3      -0.00000000       0.00000000      -0.14537709
Si       7.67917964       1.91979491      16.07250000  F        3       0.00000000       0.00000000      -0.14537709
Si       0.00000000       5.75938473      16.07250000  F        3      -0.00000004       0.00000002      -0.14537709
Si       3.83958982       5.75938473      16.07250000  F        3      -0.00000000       0.00000002      -0.14537707
Si       7.67917964       5.75938473      16.07250000  F        3       0.00000000       0.00000002      -0.14537707
Si       0.00000000       0.00000000      17.43000000  F        2      -0.00000003      -0.00000002       0.52822354
Si       3.83958982       0.00000000      17.43000000  F        2      -0.00000000      -0.00000002       0.52822353
Si       7.67917964       0.00000000      17.43000000  F        2      -0.00000000      -0.00000002       0.52822352
Si       0.00000000       3.83958982      17.43000000  F        2      -0.00000003       0.00000000       0.52822356
Si       3.83958982       3.83958982      17.43000000  F        2      -0.00000000       0.00000000       0.52822354
Si       7.67917964       3.83958982      17.43000000  F        2      -0.00000000       0.00000000       0.52822354
Si       1.91979491       0.00000000      18.78750000  F        1      -0.00000000       0.00000000      -0.24903482
Si       5.75938473       0.00000000      18.78750000  F        1       0.00000000       0.00000000      -0.24903482
Si       9.59897455       0.00000000      18.78750000  F        1       0.00000004       0.00000000      -0.24903484
Si       1.91979491       3.83958982      18.78750000  F        1      -0.00000000      -0.00000000      -0.24903482
Si       5.75938473       3.83958982      18.78750000  F        1       0.00000000      -0.00000000      -0.24903482
Si       9.59897455       3.83958982      18.78750000  F        1       0.00000004      -0.00000000      -0.24903484
F        5.27876846       3.83958982      25.28750000  T        0       0.00058289       0.00000000       0.00000000
H        6.24000100       3.83958982      25.28750000  T        0      -0.00058289       0.00000000       0.00000000
38
Lattice="11.518769465528859 0.0 0.0 0.0 7.679179643685906 0.0 0.0 0.0 30.7875" Properties=species:S:1:pos:R:3:move_mask:L:1:tags:I:1:forces:R:3 surface=Si100 species=HF site=atop_Si orientation=parallel height_A=5.0 substrate_atoms=36 calculation_kind="Rigid evaluated approach scan; not NEB" energy=-187.83852526514107 pbc="T T F"
Si       0.00000000       0.00000000      12.00000000  F        6      -0.00000004       0.00000000       0.24903484
Si       3.83958982       0.00000000      12.00000000  F        6      -0.00000000       0.00000000       0.24903482
Si       7.67917964       0.00000000      12.00000000  F        6       0.00000000       0.00000000       0.24903482
Si       0.00000000       3.83958982      12.00000000  F        6      -0.00000004      -0.00000000       0.24903484
Si       3.83958982       3.83958982      12.00000000  F        6      -0.00000000      -0.00000000       0.24903482
Si       7.67917964       3.83958982      12.00000000  F        6       0.00000000      -0.00000000       0.24903482
Si       1.91979491       0.00000000      13.35750000  F        5       0.00000000      -0.00000002      -0.52822352
Si       5.75938473       0.00000000      13.35750000  F        5       0.00000000      -0.00000002      -0.52822353
Si       9.59897455       0.00000000      13.35750000  F        5       0.00000003      -0.00000002      -0.52822354
Si       1.91979491       3.83958982      13.35750000  F        5       0.00000000       0.00000000      -0.52822354
Si       5.75938473       3.83958982      13.35750000  F        5       0.00000000       0.00000000      -0.52822354
Si       9.59897455       3.83958982      13.35750000  F        5       0.00000003       0.00000000      -0.52822356
Si       1.91979491       1.91979491      14.71500000  F        4      -0.00000000       0.00000000       0.14537709
Si       5.75938473       1.91979491      14.71500000  F        4       0.00000000       0.00000000       0.14537709
Si       9.59897455       1.91979491      14.71500000  F        4       0.00000004       0.00000000       0.14537711
Si       1.91979491       5.75938473      14.71500000  F        4      -0.00000000       0.00000002       0.14537707
Si       5.75938473       5.75938473      14.71500000  F        4       0.00000000       0.00000002       0.14537707
Si       9.59897455       5.75938473      14.71500000  F        4       0.00000004       0.00000002       0.14537709
Si       0.00000000       1.91979491      16.07250000  F        3      -0.00000004       0.00000000      -0.14537711
Si       3.83958982       1.91979491      16.07250000  F        3      -0.00000000       0.00000000      -0.14537709
Si       7.67917964       1.91979491      16.07250000  F        3       0.00000000       0.00000000      -0.14537709
Si       0.00000000       5.75938473      16.07250000  F        3      -0.00000004       0.00000002      -0.14537709
Si       3.83958982       5.75938473      16.07250000  F        3      -0.00000000       0.00000002      -0.14537707
Si       7.67917964       5.75938473      16.07250000  F        3       0.00000000       0.00000002      -0.14537707
Si       0.00000000       0.00000000      17.43000000  F        2      -0.00000003      -0.00000002       0.52822354
Si       3.83958982       0.00000000      17.43000000  F        2      -0.00000000      -0.00000002       0.52822353
Si       7.67917964       0.00000000      17.43000000  F        2      -0.00000000      -0.00000002       0.52822352
Si       0.00000000       3.83958982      17.43000000  F        2      -0.00000003       0.00000000       0.52822356
Si       3.83958982       3.83958982      17.43000000  F        2      -0.00000000       0.00000000       0.52822354
Si       7.67917964       3.83958982      17.43000000  F        2      -0.00000000       0.00000000       0.52822354
Si       1.91979491       0.00000000      18.78750000  F        1      -0.00000000       0.00000000      -0.24903482
Si       5.75938473       0.00000000      18.78750000  F        1       0.00000000       0.00000000      -0.24903482
Si       9.59897455       0.00000000      18.78750000  F        1       0.00000004       0.00000000      -0.24903484
Si       1.91979491       3.83958982      18.78750000  F        1      -0.00000000      -0.00000000      -0.24903482
Si       5.75938473       3.83958982      18.78750000  F        1       0.00000000      -0.00000000      -0.24903482
Si       9.59897455       3.83958982      18.78750000  F        1       0.00000004      -0.00000000      -0.24903484
F        5.27876846       3.83958982      23.78750000  T        0       0.00058289       0.00000000       0.00000000
H        6.24000100       3.83958982      23.78750000  T        0      -0.00058289       0.00000000       0.00000000
38
Lattice="11.518769465528859 0.0 0.0 0.0 7.679179643685906 0.0 0.0 0.0 30.7875" Properties=species:S:1:pos:R:3:move_mask:L:1:tags:I:1:forces:R:3 surface=Si100 species=HF site=atop_Si orientation=parallel height_A=4.0 substrate_atoms=36 calculation_kind="Rigid evaluated approach scan; not NEB" energy=-187.96833529808373 pbc="T T F"
Si       0.00000000       0.00000000      12.00000000  F        6      -0.00000004       0.00000000       0.24863387
Si       3.83958982       0.00000000      12.00000000  F        6       0.00037270       0.00000000       0.24905577
Si       7.67917964       0.00000000      12.00000000  F        6      -0.00037270       0.00000000       0.24905730
Si       0.00000000       3.83958982      12.00000000  F        6      -0.00000004      -0.00000000       0.24880675
Si       3.83958982       3.83958982      12.00000000  F        6       0.00014722      -0.00000000       0.24900506
Si       7.67917964       3.83958982      12.00000000  F        6      -0.00014721      -0.00000000       0.24900659
Si       1.91979491       0.00000000      13.35750000  F        5      -0.00013988      -0.00000002      -0.52745506
Si       5.75938473       0.00000000      13.35750000  F        5       0.00001959      -0.00000002      -0.52772972
Si       9.59897455       0.00000000      13.35750000  F        5       0.00012032      -0.00000002      -0.52742941
Si       1.91979491       3.83958982      13.35750000  F        5       0.00105474       0.00000000      -0.52540117
Si       5.75938473       3.83958982      13.35750000  F        5      -0.00011206       0.00000000      -0.52301903
Si       9.59897455       3.83958982      13.35750000  F        5      -0.00094265       0.00000000      -0.52553191
Si       1.91979491       1.91979491      14.71500000  F        4       0.00396551      -0.00019291       0.14774215
Si       5.75938473       1.91979491      14.71500000  F        4      -0.00020219      -0.00245706       0.14207487
Si       9.59897455       1.91979491      14.71500000  F        4      -0.00364111      -0.00011875       0.14775311
Si       1.91979491       5.75938473      14.71500000  F        4       0.00396551       0.00019293       0.14774214
Si       5.75938473       5.75938473      14.71500000  F        4      -0.00020219       0.00245709       0.14207485
Si       9.59897455       5.75938473      14.71500000  F        4      -0.00364111       0.00011878       0.14775310
Si       0.00000000       1.91979491      16.07250000  F        3      -0.00019339       0.00152760      -0.14469906
Si       3.83958982       1.91979491      16.07250000  F        3      -0.00676121       0.00186354      -0.15002140
Si       7.67917964       1.91979491      16.07250000  F        3       0.00652070       0.00251308      -0.14871197
Si       0.00000000       5.75938473      16.07250000  F        3      -0.00019339      -0.00152758      -0.14469905
Si       3.83958982       5.75938473      16.07250000  F        3      -0.00676121      -0.00186352      -0.15002138
Si       7.67917964       5.75938473      16.07250000  F        3       0.00652070      -0.00251306      -0.14871195
Si       0.00000000       0.00000000      17.43000000  F        2      -0.00006704      -0.00000002       0.52842309
Si       3.83958982       0.00000000      17.43000000  F        2       0.00294949      -0.00000002       0.52728642
Si       7.67917964       0.00000000      17.43000000  F        2      -0.00223269      -0.00000002       0.52691150
Si       0.00000000       3.83958982      17.43000000  F        2       0.00032668       0.00000000       0.53872493
Si       3.83958982       3.83958982      17.43000000  F        2       0.01428158       0.00000000       0.53392794
Si       7.67917964       3.83958982      17.43000000  F        2      -0.01089496       0.00000000       0.53273712
Si       1.91979491       0.00000000      18.78750000  F        1       0.00136182       0.00000000      -0.25126737
Si       5.75938473       0.00000000      18.78750000  F        1       0.00024968       0.00000000      -0.24078399
Si       9.59897455       0.00000000      18.78750000  F        1      -0.00138155       0.00000000      -0.25134235
Si       1.91979491       3.83958982      18.78750000  F        1      -0.00524041      -0.00000000      -0.25183683
Si       5.75938473       3.83958982      18.78750000  F        1      -0.01704051      -0.00000000      -0.02097443
Si       9.59897455       3.83958982      18.78750000  F        1       0.00002391      -0.00000000      -0.25240743
F        5.27876846       3.83958982      22.78750000  T        0       0.20806808       0.00000000      -0.19605941
H        6.24000100       3.83958982      22.78750000  T        0      -0.18978069      -0.00000000      -0.04861366
38
Lattice="11.518769465528859 0.0 0.0 0.0 7.679179643685906 0.0 0.0 0.0 30.7875" Properties=species:S:1:pos:R:3:move_mask:L:1:tags:I:1:forces:R:3 surface=Si100 species=HF site=atop_Si orientation=parallel height_A=3.25 substrate_atoms=36 calculation_kind="Rigid evaluated approach scan; not NEB" energy=-188.07121021086934 pbc="T T F"
Si       0.00000000       0.00000000      12.00000000  F        6      -0.00002279       0.00000000       0.24958838
Si       3.83958982       0.00000000      12.00000000  F        6      -0.00071203       0.00000000       0.24991399
Si       7.67917964       0.00000000      12.00000000  F        6       0.00073483       0.00000000       0.24995518
Si       0.00000000       3.83958982      12.00000000  F        6      -0.00009442      -0.00000000       0.24878316
Si       3.83958982       3.83958982      12.00000000  F        6      -0.00066259      -0.00000000       0.24869070
Si       7.67917964       3.83958982      12.00000000  F        6       0.00075706      -0.00000000       0.24886933
Si       1.91979491       0.00000000      13.35750000  F        5       0.00096475      -0.00000002      -0.52668236
Si       5.75938473       0.00000000      13.35750000  F        5       0.00012045      -0.00000002      -0.52709237
Si       9.59897455       0.00000000      13.35750000  F        5      -0.00108662      -0.00000002      -0.52644070
Si       1.91979491       3.83958982      13.35750000  F        5       0.00073777       0.00000000      -0.52403659
Si       5.75938473       3.83958982      13.35750000  F        5      -0.00044581       0.00000000      -0.52497337
Si       9.59897455       3.83958982      13.35750000  F        5      -0.00039197       0.00000000      -0.52498259
Si       1.91979491       1.91979491      14.71500000  F        4       0.00621895      -0.00317085       0.14832990
Si       5.75938473       1.91979491      14.71500000  F        4      -0.00112527      -0.00712074       0.14511061
Si       9.59897455       1.91979491      14.71500000  F        4      -0.00398079      -0.00331677       0.14729381
Si       1.91979491       5.75938473      14.71500000  F        4       0.00621895       0.00317087       0.14832988
Si       5.75938473       5.75938473      14.71500000  F        4      -0.00112527       0.00712076       0.14511060
Si       9.59897455       5.75938473      14.71500000  F        4      -0.00398079       0.00331679       0.14729379
Si       0.00000000       1.91979491      16.07250000  F        3       0.00104980       0.00367931      -0.14407712
Si       3.83958982       1.91979491      16.07250000  F        3      -0.00876011       0.00944751      -0.14695366
Si       7.67917964       1.91979491      16.07250000  F        3       0.01090424       0.00818753      -0.14668198
Si       0.00000000       5.75938473      16.07250000  F        3       0.00104980      -0.00367929      -0.14407711
Si       3.83958982       5.75938473      16.07250000  F        3      -0.00876011      -0.00944749      -0.14695364
Si       7.67917964       5.75938473      16.07250000  F        3       0.01090424      -0.00818751      -0.14668196
Si       0.00000000       0.00000000      17.43000000  F        2      -0.00015348      -0.00000002       0.52106233
Si       3.83958982       0.00000000      17.43000000  F        2      -0.00033732      -0.00000002       0.51655444
Si       7.67917964       0.00000000      17.43000000  F        2       0.00020490      -0.00000002       0.51868716
Si       0.00000000       3.83958982      17.43000000  F        2      -0.00482315       0.00000000       0.53548198
Si       3.83958982       3.83958982      17.43000000  F        2       0.03559721       0.00000000       0.53654238
Si       7.67917964       3.83958982      17.43000000  F        2      -0.05023563       0.00000000       0.50953028
Si       1.91979491       0.00000000      18.78750000  F        1      -0.00001233       0.00000000      -0.24716853
Si       5.75938473       0.00000000      18.78750000  F        1       0.00016252       0.00000000      -0.22130873
Si       9.59897455       0.00000000      18.78750000  F        1      -0.00211268       0.00000000      -0.24619502
Si       1.91979491       3.83958982      18.78750000  F        1       0.06746887      -0.00000000      -0.19913915
Si       5.75938473       3.83958982      18.78750000  F        1      -0.00130905      -0.00000000      -0.25668848
Si       9.59897455       3.83958982      18.78750000  F        1      -0.02606804      -0.00000000      -0.24293401
F        5.27876846       3.83958982      22.03750000  T        0       0.36239251       0.00000000      -0.20699513
H        6.24000100       3.83958982      22.03750000  T        0      -0.38928664      -0.00000000       0.13493458
38
Lattice="11.518769465528859 0.0 0.0 0.0 7.679179643685906 0.0 0.0 0.0 30.7875" Properties=species:S:1:pos:R:3:move_mask:L:1:tags:I:1:forces:R:3 surface=Si100 species=HF site=atop_Si orientation=parallel height_A=2.75 substrate_atoms=36 calculation_kind="Rigid evaluated approach scan; not NEB" energy=-188.02831179902194 pbc="T T F"
Si       0.00000000       0.00000000      12.00000000  F        6      -0.00006265       0.00000000       0.25198108
Si       3.83958982       0.00000000      12.00000000  F        6      -0.00155335       0.00000000       0.25075460
Si       7.67917964       0.00000000      12.00000000  F        6       0.00161505       0.00000000       0.25114478
Si       0.00000000       3.83958982      12.00000000  F        6      -0.00056412      -0.00000000       0.24857968
Si       3.83958982       3.83958982      12.00000000  F        6      -0.00051642      -0.00000000       0.24774507
Si       7.67917964       3.83958982      12.00000000  F        6       0.00108112      -0.00000000       0.24937919
Si       1.91979491       0.00000000      13.35750000  F        5       0.00085283      -0.00000002      -0.52686499
Si       5.75938473       0.00000000      13.35750000  F        5       0.00037025      -0.00000002      -0.52777477
Si       9.59897455       0.00000000      13.35750000  F        5      -0.00123136      -0.00000002      -0.52596336
Si       1.91979491       3.83958982      13.35750000  F        5      -0.00029319       0.00000000      -0.52489409
Si       5.75938473       3.83958982      13.35750000  F        5      -0.00050673       0.00000000      -0.51786475
Si       9.59897455       3.83958982      13.35750000  F        5      -0.00007891       0.00000000      -0.52563582
Si       1.91979491       1.91979491      14.71500000  F        4       0.00753499      -0.00474918       0.15361339
Si       5.75938473       1.91979491      14.71500000  F        4      -0.00894927      -0.01043224       0.15727210
Si       9.59897455       1.91979491      14.71500000  F        4       0.00191058      -0.00573748       0.14495898
Si       1.91979491       5.75938473      14.71500000  F        4       0.00753499       0.00474920       0.15361338
Si       5.75938473       5.75938473      14.71500000  F        4      -0.00894927       0.01043226       0.15727209
Si       9.59897455       5.75938473      14.71500000  F        4       0.00191058       0.00573751       0.14495896
Si       0.00000000       1.91979491      16.07250000  F        3       0.00385648       0.01428284      -0.13601048
Si       3.83958982       1.91979491      16.07250000  F        3       0.01265390       0.01777631      -0.14005951
Si       7.67917964       1.91979491      16.07250000  F        3      -0.01061756       0.00451350      -0.14098497
Si       0.00000000       5.75938473      16.07250000  F        3       0.00385648      -0.01428282      -0.13601046
Si       3.83958982       5.75938473      16.07250000  F        3       0.01265390      -0.01777629      -0.14005950
Si       7.67917964       5.75938473      16.07250000  F        3      -0.01061756      -0.00451348      -0.14098495
Si       0.00000000       0.00000000      17.43000000  F        2      -0.00210842      -0.00000002       0.51245323
Si       3.83958982       0.00000000      17.43000000  F        2       0.00374299      -0.00000002       0.50103901
Si       7.67917964       0.00000000      17.43000000  F        2      -0.00100538      -0.00000002       0.51823059
Si       0.00000000       3.83958982      17.43000000  F        2      -0.01433232       0.00000000       0.51562972
Si       3.83958982       3.83958982      17.43000000  F        2       0.07005377       0.00000000       0.49190736
Si       7.67917964       3.83958982      17.43000000  F        2      -0.05809911       0.00000000       0.44164125
Si       1.91979491       0.00000000      18.78750000  F        1      -0.00208409       0.00000000      -0.24416577
Si       5.75938473       0.00000000      18.78750000  F        1      -0.00844512       0.00000000      -0.18013002
Si       9.59897455       0.00000000      18.78750000  F        1      -0.00724219       0.00000000      -0.24454168
Si       1.91979491       3.83958982      18.78750000  F        1       0.08742705      -0.00000000      -0.16060379
Si       5.75938473       3.83958982      18.78750000  F        1       0.03403732      -0.00000000      -0.69453150
Si       9.59897455       3.83958982      18.78750000  F        1       0.00108133      -0.00000000      -0.26343147
F        5.27876846       3.83958982      21.53750000  T        0       0.45268791      -0.00000000      -0.02727494
H        6.24000100       3.83958982      21.53750000  T        0      -0.56760451       0.00000000       0.40561234
38
Lattice="11.518769465528859 0.0 0.0 0.0 7.679179643685906 0.0 0.0 0.0 30.7875" Properties=species:S:1:pos:R:3:move_mask:L:1:tags:I:1:forces:R:3 surface=Si100 species=HF site=atop_Si orientation=parallel height_A=2.25 substrate_atoms=36 calculation_kind="Rigid evaluated approach scan; not NEB" energy=-187.7122090960311 pbc="T T F"
Si       0.00000000       0.00000000      12.00000000  F        6      -0.00031822       0.00000000       0.25243436
Si       3.83958982       0.00000000      12.00000000  F        6      -0.00040784       0.00000000       0.25184064
Si       7.67917964       0.00000000      12.00000000  F        6       0.00072993       0.00000000       0.25198059
Si       0.00000000       3.83958982      12.00000000  F        6      -0.00053487      -0.00000000       0.24614052
Si       3.83958982       3.83958982      12.00000000  F        6       0.00069358      -0.00000000       0.24573888
Si       7.67917964       3.83958982      12.00000000  F        6      -0.00015613      -0.00000000       0.24631613
Si       1.91979491       0.00000000      13.35750000  F        5      -0.00128448      -0.00000002      -0.52934432
Si       5.75938473       0.00000000      13.35750000  F        5      -0.00002702      -0.00000002      -0.53060110
Si       9.59897455       0.00000000      13.35750000  F        5       0.00131117      -0.00000002      -0.52789865
Si       1.91979491       3.83958982      13.35750000  F        5       0.00568530       0.00000000      -0.51759282
Si       5.75938473       3.83958982      13.35750000  F        5      -0.00561170       0.00000000      -0.49076269
Si       9.59897455       3.83958982      13.35750000  F        5       0.00630655       0.00000000      -0.54281504
Si       1.91979491       1.91979491      14.71500000  F        4       0.01501896      -0.00525063       0.15486243
Si       5.75938473       1.91979491      14.71500000  F        4      -0.01225107      -0.03326601       0.15711318
Si       9.59897455       1.91979491      14.71500000  F        4      -0.00346926      -0.00825251       0.15742192
Si       1.91979491       5.75938473      14.71500000  F        4       0.01501896       0.00525065       0.15486242
Si       5.75938473       5.75938473      14.71500000  F        4      -0.01225107       0.03326603       0.15711317
Si       9.59897455       5.75938473      14.71500000  F        4      -0.00346926       0.00825253       0.15742191
Si       0.00000000       1.91979491      16.07250000  F        3      -0.00015784       0.01578966      -0.13206956
Si       3.83958982       1.91979491      16.07250000  F        3       0.03782097      -0.01202247      -0.17198656
Si       7.67917964       1.91979491      16.07250000  F        3      -0.04543844       0.00837954      -0.13845653
Si       0.00000000       5.75938473      16.07250000  F        3      -0.00015784      -0.01578964      -0.13206954
Si       3.83958982       5.75938473      16.07250000  F        3       0.03782097       0.01202249      -0.17198654
Si       7.67917964       5.75938473      16.07250000  F        3      -0.04543844      -0.00837951      -0.13845652
Si       0.00000000       0.00000000      17.43000000  F        2      -0.00868777      -0.00000002       0.50959828
Si       3.83958982       0.00000000      17.43000000  F        2      -0.03032226      -0.00000002       0.44111540
Si       7.67917964       0.00000000      17.43000000  F        2       0.04087593      -0.00000002       0.46199192
Si       0.00000000       3.83958982      17.43000000  F        2      -0.00428628       0.00000000       0.52824646
Si       3.83958982       3.83958982      17.43000000  F        2      -0.01626818       0.00000000       0.50903648
Si       7.67917964       3.83958982      17.43000000  F        2       0.06115404       0.00000000       0.35847233
Si       1.91979491       0.00000000      18.78750000  F        1      -0.00555166       0.00000000      -0.24596251
Si       5.75938473       0.00000000      18.78750000  F        1      -0.02480398       0.00000000      -0.11258063
Si       9.59897455       0.00000000      18.78750000  F        1      -0.00299292       0.00000000      -0.25766134
Si       1.91979491       3.83958982      18.78750000  F        1       0.12104797      -0.00000000      -0.09084823
Si       5.75938473       3.83958982      18.78750000  F        1       0.08572647      -0.00000000      -0.90650314
Si       9.59897455       3.83958982      18.78750000  F        1       0.02150194      -0.00000000      -0.24321943
F        5.27876846       3.83958982      21.03750000  T        0      -0.81757075       0.00000000       0.04171196
H        6.24000100       3.83958982      21.03750000  T        0       0.59074454       0.00000000       0.59739621
38
Lattice="11.518769465528859 0.0 0.0 0.0 7.679179643685906 0.0 0.0 0.0 30.7875" Properties=species:S:1:pos:R:3:move_mask:L:1:tags:I:1:forces:R:3 surface=Si100 species=HF site=atop_Si orientation=parallel height_A=1.9 substrate_atoms=36 calculation_kind="Rigid evaluated approach scan; not NEB" energy=-187.25305666384554 pbc="T T F"
Si       0.00000000       0.00000000      12.00000000  F        6      -0.00040405       0.00000000       0.25249476
Si       3.83958982       0.00000000      12.00000000  F        6      -0.00094094       0.00000000       0.25381268
Si       7.67917964       0.00000000      12.00000000  F        6       0.00134581       0.00000000       0.25311949
Si       0.00000000       3.83958982      12.00000000  F        6      -0.00077403      -0.00000000       0.24527514
Si       3.83958982       3.83958982      12.00000000  F        6       0.00005312      -0.00000000       0.24431470
Si       7.67917964       3.83958982      12.00000000  F        6       0.00072203      -0.00000000       0.24435128
Si       1.91979491       0.00000000      13.35750000  F        5      -0.00038988      -0.00000002      -0.52890937
Si       5.75938473       0.00000000      13.35750000  F        5      -0.00043754      -0.00000002      -0.53216102
Si       9.59897455       0.00000000      13.35750000  F        5       0.00082676      -0.00000002      -0.52660834
Si       1.91979491       3.83958982      13.35750000  F        5       0.01003169       0.00000000      -0.51128195
Si       5.75938473       3.83958982      13.35750000  F        5      -0.00725856       0.00000000      -0.47809991
Si       9.59897455       3.83958982      13.35750000  F        5       0.00715217       0.00000000      -0.54566979
Si       1.91979491       1.91979491      14.71500000  F        4       0.02016071      -0.01214641       0.15503148
Si       5.75938473       1.91979491      14.71500000  F        4      -0.01247371      -0.04839262       0.15560220
Si       9.59897455       1.91979491      14.71500000  F        4      -0.01019870      -0.01220157       0.16575485
Si       1.91979491       5.75938473      14.71500000  F        4       0.02016071       0.01214643       0.15503146
Si       5.75938473       5.75938473      14.71500000  F        4      -0.01247371       0.04839264       0.15560219
Si       9.59897455       5.75938473      14.71500000  F        4      -0.01019870       0.01220159       0.16575483
Si       0.00000000       1.91979491      16.07250000  F        3      -0.00053213       0.02175745      -0.13188331
Si       3.83958982       1.91979491      16.07250000  F        3       0.03012269      -0.05107731      -0.19441165
Si       7.67917964       1.91979491      16.07250000  F        3      -0.04238479      -0.01403400      -0.14987495
Si       0.00000000       5.75938473      16.07250000  F        3      -0.00053213      -0.02175743      -0.13188330
Si       3.83958982       5.75938473      16.07250000  F        3       0.03012269       0.05107734      -0.19441164
Si       7.67917964       5.75938473      16.07250000  F        3      -0.04238479       0.01403402      -0.14987494
Si       0.00000000       0.00000000      17.43000000  F        2      -0.01519480      -0.00000002       0.48406536
Si       3.83958982       0.00000000      17.43000000  F        2      -0.03565940      -0.00000002       0.41820225
Si       7.67917964       0.00000000      17.43000000  F        2       0.05175184      -0.00000002       0.44349103
Si       0.00000000       3.83958982      17.43000000  F        2       0.00294045       0.00000000       0.54190132
Si       3.83958982       3.83958982      17.43000000  F        2      -0.12496714       0.00000000       0.63335149
Si       7.67917964       3.83958982      17.43000000  F        2       0.51881739       0.00000000       0.28896391
Si       1.91979491       0.00000000      18.78750000  F        1      -0.00309477       0.00000000      -0.23558959
Si       5.75938473       0.00000000      18.78750000  F        1      -0.04217806       0.00000000      -0.09685849
Si       9.59897455       0.00000000      18.78750000  F        1      -0.00531162       0.00000000      -0.25429363
Si       1.91979491       3.83958982      18.78750000  F        1      -0.00968350      -0.00000000      -0.08315633
Si       5.75938473       3.83958982      18.78750000  F        1      -0.17745524      -0.00000000      -3.00845341
Si       9.59897455       3.83958982      18.78750000  F        1       0.05287258      -0.00000000      -0.19381346
F        5.27876846       3.83958982      20.68750000  T        0      -1.76776244      -0.00000000       1.25757128
H        6.24000100       3.83958982      20.68750000  T        0       1.57560999       0.00000000       1.43354336
38
Lattice="11.518769465528859 0.0 0.0 0.0 7.679179643685906 0.0 0.0 0.0 30.7875" Properties=species:S:1:pos:R:3:move_mask:L:1:tags:I:1:forces:R:3 surface=Si100 species=HF site=atop_Si orientation=parallel height_A=1.6 substrate_atoms=36 calculation_kind="Rigid evaluated approach scan; not NEB" energy=-186.29116908594662 pbc="T T F"
Si       0.00000000       0.00000000      12.00000000  F        6      -0.00046643       0.00000000       0.25365839
Si       3.83958982       0.00000000      12.00000000  F        6      -0.00018302       0.00000000       0.25900809
Si       7.67917964       0.00000000      12.00000000  F        6       0.00065442       0.00000000       0.25666732
Si       0.00000000       3.83958982      12.00000000  F        6      -0.00085603      -0.00000000       0.24674600
Si       3.83958982       3.83958982      12.00000000  F        6       0.00002776      -0.00000000       0.24790094
Si       7.67917964       3.83958982      12.00000000  F        6       0.00083064      -0.00000000       0.24645594
Si       1.91979491       0.00000000      13.35750000  F        5       0.00196245      -0.00000002      -0.52539454
Si       5.75938473       0.00000000      13.35750000  F        5      -0.00115651      -0.00000002      -0.53602893
Si       9.59897455       0.00000000      13.35750000  F        5      -0.00080981      -0.00000002      -0.52312201
Si       1.91979491       3.83958982      13.35750000  F        5       0.01674181       0.00000000      -0.50467439
Si       5.75938473       3.83958982      13.35750000  F        5      -0.00311886       0.00000000      -0.48029305
Si       9.59897455       3.83958982      13.35750000  F        5      -0.00170098       0.00000000      -0.53117185
Si       1.91979491       1.91979491      14.71500000  F        4       0.01155707      -0.01795461       0.14744518
Si       5.75938473       1.91979491      14.71500000  F        4      -0.01046978      -0.02582648       0.18891630
Si       9.59897455       1.91979491      14.71500000  F        4      -0.00696916      -0.01674301       0.16037916
Si       1.91979491       5.75938473      14.71500000  F        4       0.01155707       0.01795464       0.14744517
Si       5.75938473       5.75938473      14.71500000  F        4      -0.01046978       0.02582650       0.18891629
Si       9.59897455       5.75938473      14.71500000  F        4      -0.00696916       0.01674303       0.16037914
Si       0.00000000       1.91979491      16.07250000  F        3      -0.00392839       0.02476610      -0.13532132
Si       3.83958982       1.91979491      16.07250000  F        3       0.03555313       0.00413197      -0.16376324
Si       7.67917964       1.91979491      16.07250000  F        3      -0.05109071       0.00227952      -0.14224960
Si       0.00000000       5.75938473      16.07250000  F        3      -0.00392839      -0.02476608      -0.13532130
Si       3.83958982       5.75938473      16.07250000  F        3       0.03555313      -0.00413195      -0.16376322
Si       7.67917964       5.75938473      16.07250000  F        3      -0.05109071      -0.00227950      -0.14224958
Si       0.00000000       0.00000000      17.43000000  F        2      -0.01751500      -0.00000002       0.45196698
Si       3.83958982       0.00000000      17.43000000  F        2      -0.06297149      -0.00000002       0.41346073
Si       7.67917964       0.00000000      17.43000000  F        2       0.08595976      -0.00000002       0.43113036
Si       0.00000000       3.83958982      17.43000000  F        2       0.03196088       0.00000000       0.54495866
Si       3.83958982       3.83958982      17.43000000  F        2      -0.33199200       0.00000000       0.70131581
Si       7.67917964       3.83958982      17.43000000  F        2       0.56513054       0.00000000       0.58390749
Si       1.91979491       0.00000000      18.78750000  F        1      -0.00361042       0.00000000      -0.21110798
Si       5.75938473       0.00000000      18.78750000  F        1      -0.03852862       0.00000000      -0.05283732
Si       9.59897455       0.00000000      18.78750000  F        1      -0.00870508       0.00000000      -0.23395787
Si       1.91979491       3.83958982      18.78750000  F        1      -0.20051238      -0.00000000      -0.16914735
Si       5.75938473       3.83958982      18.78750000  F        1       0.03194376      -0.00000000      -4.88785328
Si       9.59897455       3.83958982      18.78750000  F        1       0.13353757      -0.00000000      -0.11340868
F        5.27876846       3.83958982      20.38750000  T        0      -2.91819713      -0.00000000       2.55951771
H        6.24000100       3.83958982      20.38750000  T        0       2.77226989      -0.00000000       1.46148984
38
Lattice="11.518769465528859 0.0 0.0 0.0 7.679179643685906 0.0 0.0 0.0 30.7875" Properties=species:S:1:pos:R:3:move_mask:L:1:tags:I:1:forces:R:3 surface=Si100 species=HF site=atop_Si orientation=parallel height_A=1.3 substrate_atoms=36 calculation_kind="Rigid evaluated approach scan; not NEB" energy=-182.65475887185747 pbc="T T F"
Si       0.00000000       0.00000000      12.00000000  F        6      -0.00052271       0.00000000       0.25544249
Si       3.83958982       0.00000000      12.00000000  F        6       0.00199046       0.00000000       0.25850529
Si       7.67917964       0.00000000      12.00000000  F        6      -0.00104206       0.00000000       0.26268602
Si       0.00000000       3.83958982      12.00000000  F        6      -0.00127640      -0.00000000       0.24832632
Si       3.83958982       3.83958982      12.00000000  F        6       0.00132648      -0.00000000       0.24914215
Si       7.67917964       3.83958982      12.00000000  F        6       0.00013013      -0.00000000       0.25088734
Si       1.91979491       0.00000000      13.35750000  F        5      -0.00113086      -0.00000002      -0.52189733
Si       5.75938473       0.00000000      13.35750000  F        5       0.00080443      -0.00000002      -0.55057576
Si       9.59897455       0.00000000      13.35750000  F        5       0.00009139      -0.00000002      -0.52315823
Si       1.91979491       3.83958982      13.35750000  F        5       0.01627238       0.00000000      -0.50247520
Si       5.75938473       3.83958982      13.35750000  F        5       0.00362200       0.00000000      -0.48551100
Si       9.59897455       3.83958982      13.35750000  F        5      -0.00616068       0.00000000      -0.52187760
Si       1.91979491       1.91979491      14.71500000  F        4      -0.01120097      -0.00759314       0.14281879
Si       5.75938473       1.91979491      14.71500000  F        4      -0.01747804       0.03944730       0.22688917
Si       9.59897455       1.91979491      14.71500000  F        4       0.00889520      -0.01286039       0.15068403
Si       1.91979491       5.75938473      14.71500000  F        4      -0.01120097       0.00759317       0.14281878
Si       5.75938473       5.75938473      14.71500000  F        4      -0.01747804      -0.03944728       0.22688915
Si       9.59897455       5.75938473      14.71500000  F        4       0.00889520       0.01286042       0.15068402
Si       0.00000000       1.91979491      16.07250000  F        3      -0.00468972       0.01343899      -0.15088764
Si       3.83958982       1.91979491      16.07250000  F        3       0.06482961       0.14320740      -0.04112030
Si       7.67917964       1.91979491      16.07250000  F        3      -0.00369155      -0.08883929      -0.26398411
Si       0.00000000       5.75938473      16.07250000  F        3      -0.00468972      -0.01343896      -0.15088762
Si       3.83958982       5.75938473      16.07250000  F        3       0.06482961      -0.14320738      -0.04112029
Si       7.67917964       5.75938473      16.07250000  F        3      -0.00369155       0.08883932      -0.26398409
Si       0.00000000       0.00000000      17.43000000  F        2      -0.01732020      -0.00000002       0.43508882
Si       3.83958982       0.00000000      17.43000000  F        2      -0.07378149      -0.00000002       0.48668236
Si       7.67917964       0.00000000      17.43000000  F        2       0.13297339      -0.00000002       0.44488261
Si       0.00000000       3.83958982      17.43000000  F        2       0.05632121       0.00000000       0.52741895
Si       3.83958982       3.83958982      17.43000000  F        2      -0.55242618       0.00000000       0.33387557
Si       7.67917964       3.83958982      17.43000000  F        2      -0.37369710       0.00000000       0.95985827
Si       1.91979491       0.00000000      18.78750000  F        1      -0.01094194       0.00000000      -0.19276565
Si       5.75938473       0.00000000      18.78750000  F        1       0.00290984       0.00000000       0.04658635
Si       9.59897455       0.00000000      18.78750000  F        1      -0.01079579       0.00000000      -0.21869996
Si       1.91979491       3.83958982      18.78750000  F        1      -0.27734863      -0.00000000      -0.20151235
Si       5.75938473       3.83958982      18.78750000  F        1       5.85700237       0.00000000     -27.86409540
Si       9.59897455       3.83958982      18.78750000  F        1       0.12205241      -0.00000000       0.06818931
F        5.27876846       3.83958982      20.08750000  T        0     -11.62231189      -0.00000000      20.22342557
H        6.24000100       3.83958982      20.08750000  T        0       6.67993042      -0.00000000       6.40277116
