9
Lattice="24.0 0.0 0.0 0.0 24.0 0.0 0.0 0.0 24.0" Properties=species:S:1:pos:R:3:move_mask:L:1:forces:R:3 charge_spin="0 1" energy=-12167.721879318799 pbc="F F F"
Si       0.00000000       0.00000000       0.00000000  F      -0.14180989      -0.10708945       0.41714086
H        1.39535738       0.00000000      -0.49333333  F       0.55946152       0.06763729      -0.33167701
H       -0.69767869       1.20841494      -0.49333333  F      -0.20913517       0.41940017      -0.40638329
H       -0.69767869      -1.20841494      -0.49333333  F      -0.24259487      -0.29824597      -0.32243102
N        0.15895596      -0.10287879       1.70242519  T       0.10847520      -0.29896897       0.00368696
H        0.95905281       0.30697586       2.15772614  T       0.61409940       0.30148742       0.25892736
H       -0.62476052      -0.19429742       2.32536201  T      -0.56160732      -0.06570890       0.40471293
F        3.11314576       0.74601647       1.58992378  T       0.04384512       0.18821454       0.44799161
H        2.85246907       0.41422564       0.76227436  T      -0.16995130      -0.20723611      -0.47232634
9
Lattice="24.0 0.0 0.0 0.0 24.0 0.0 0.0 0.0 24.0" Properties=species:S:1:pos:R:3:move_mask:L:1:forces:R:3 charge_spin="0 1" energy=-12167.992246007738 pbc="F F F"
Si       0.00000000       0.00000000       0.00000000  F       0.18597070       0.01653100      -0.21919234
H        1.39535738       0.00000000      -0.49333333  F       0.32658084       0.00684385      -0.27542913
H       -0.69767869       1.20841494      -0.49333333  F      -0.20680110       0.36681515      -0.12981588
H       -0.69767869      -1.20841494      -0.49333333  F      -0.20583943      -0.36327664      -0.08584890
N        0.05017013      -0.00461319       1.75024848  T       0.51438118      -0.02677285       0.04556482
H       -0.20795258       0.84611227       2.22947691  T      -0.20331836       0.55348632       0.30814800
H       -0.34412285      -0.79504668       2.23910344  T      -0.25851384      -0.52177821       0.31468559
F        2.75151021       0.14580712       2.21708614  T       0.38417725       0.05657532      -0.01359389
H        1.82351336       0.04020361       2.05418139  T      -0.53657860      -0.08819593       0.05563466
9
Lattice="24.0 0.0 0.0 0.0 24.0 0.0 0.0 0.0 24.0" Properties=species:S:1:pos:R:3:move_mask:L:1:forces:R:3 charge_spin="0 1" energy=-12168.048682721112 pbc="F F F"
Si       0.00000000       0.00000000       0.00000000  F       0.09687396       0.12452528      -0.16009440
H        1.39535738       0.00000000      -0.49333333  F       0.35330537      -0.07813645      -0.13952341
H       -0.69767869       1.20841494      -0.49333333  F      -0.20019819       0.30858635      -0.09232776
H       -0.69767869      -1.20841494      -0.49333333  F      -0.22622049      -0.39829576      -0.22686426
N        0.02751078       0.10296612       1.74828746  T       0.40889837       0.35523118       0.08096153
H       -0.80339903       0.48236300       2.18335382  T      -0.54365806       0.20935777       0.27698967
H        0.29256665      -0.73843864       2.24546042  T       0.16301572      -0.51437461       0.31876591
F        1.93045494       1.60137928       2.93338836  T       0.28726153       0.20600197       0.17846382
H        1.27589482       1.11914015       2.44155637  T      -0.33867727      -0.21310908      -0.23685342
9
Lattice="24.0 0.0 0.0 0.0 24.0 0.0 0.0 0.0 24.0" Properties=species:S:1:pos:R:3:move_mask:L:1:forces:R:3 charge_spin="0 1" energy=-12168.066021315464 pbc="F F F"
Si       0.00000000       0.00000000       0.00000000  F       0.06697252       0.14189834      -0.26834548
H        1.39535738       0.00000000      -0.49333333  F       0.35673234      -0.07206598      -0.09322805
H       -0.69767869       1.20841494      -0.49333333  F      -0.21098959       0.28988869      -0.11002220
H       -0.69767869      -1.20841494      -0.49333333  F      -0.22480915      -0.40500399      -0.23670439
N        0.02281891       0.11456712       1.74345196  T       0.36096023       0.42309498       0.10121556
H        0.42726661      -0.66233336       2.25006163  T       0.24396712      -0.50396943       0.33225386
H       -0.85476725       0.36564908       2.17914419  T      -0.57489162       0.13052834       0.30727275
F        1.65281626       2.01502855       2.69502203  T       0.26233449       0.29703568       0.11299664
H        1.07133017       1.36967810       2.30666407  T      -0.27961095      -0.30195127      -0.14613125
9
Lattice="24.0 0.0 0.0 0.0 24.0 0.0 0.0 0.0 24.0" Properties=species:S:1:pos:R:3:move_mask:L:1:forces:R:3 charge_spin="0 1" energy=-12167.670231532278 pbc="F F F"
Si       0.00000000       0.00000000       0.00000000  F       0.78213502       1.97669133       1.78694988
H        1.39535738       0.00000000      -0.49333333  F       0.42286696      -0.55252081      -0.41945182
H       -0.69767869       1.20841494      -0.49333333  F      -0.66554695      -0.02232324      -0.56685826
H       -0.69767869      -1.20841494      -0.49333333  F       0.02192934      -0.66943990      -1.08250930
N       -0.93511060      -0.57873932       1.65757936  T      -0.00576328       0.00073674      -0.01556641
H       -0.60310312      -1.45175257       2.04735865  T       0.12799882      -0.56864218       0.32253567
H       -1.91597698      -0.63554698       1.43306119  T      -0.95842622      -0.13894203       0.14145790
F        0.62665585       1.07352597       1.40032743  T       0.23747746      -0.37887206      -0.64845914
H       -0.64125541       0.24128189       2.20112126  T       0.03154040       0.34661130       0.48289205
9
Lattice="24.0 0.0 0.0 0.0 24.0 0.0 0.0 0.0 24.0" Properties=species:S:1:pos:R:3:move_mask:L:1:forces:R:3 charge_spin="0 1" energy=-12168.180477387326 pbc="F F F"
Si       0.00000000       0.00000000       0.00000000  F       0.40812507       0.76659666       0.68818388
H        1.39535738       0.00000000      -0.49333333  F       0.37637729      -0.35320833      -1.08593153
H       -0.69767869       1.20841494      -0.49333333  F      -0.47089482       0.18038273      -0.26539659
H       -0.69767869      -1.20841494      -0.49333333  F      -0.01413060      -0.50844734      -0.08649799
N       -1.36395343      -0.62833195       1.92168113  T       0.07631572       0.16970483      -0.67988578
H       -0.85055094      -1.43913166       2.24892967  T       0.18960694      -0.54018933       0.24093298
H       -2.35251423      -0.80985197       2.01355872  T      -0.79416718      -0.18295475       0.06123438
F        0.65662269       0.53152236       1.44428094  T       0.21631041       0.00891539       0.73855504
H       -1.08110741       0.13691887       2.52101490  T       0.01087091       0.46844607       0.39064095
9
Lattice="24.0 0.0 0.0 0.0 24.0 0.0 0.0 0.0 24.0" Properties=species:S:1:pos:R:3:move_mask:L:1:forces:R:3 charge_spin="0 1" energy=-12168.483318638288 pbc="F F F"
Si       0.00000000       0.00000000       0.00000000  F       0.12225663       0.05013380      -0.99501472
H        1.39535738       0.00000000      -0.49333333  F       0.37215191      -0.01777649      -0.26595621
H       -0.69767869       1.20841494      -0.49333333  F      -0.24315933       0.31851472      -0.11398405
H       -0.69767869      -1.20841494      -0.49333333  F      -0.15681627      -0.31508211       0.13782286
N       -1.90286659      -1.55164731       2.43810130  T      -0.05782531      -0.24100226      -0.92042518
H       -1.65186634      -2.35091252       3.00514629  T       0.12058623      -0.51697770       0.40821495
H       -2.81599363      -1.24240741       2.74233715  T      -0.60841429       0.19499480       0.29954127
F        0.15573604       0.14721272       1.59918730  T       0.06207460       0.04858596       1.18139987
H       -1.24278589      -0.81708151       2.65245363  T       0.38868462       0.47828218       0.26748169
9
Lattice="24.0 0.0 0.0 0.0 24.0 0.0 0.0 0.0 24.0" Properties=species:S:1:pos:R:3:move_mask:L:1:forces:R:3 charge_spin="0 1" energy=-12168.464152854614 pbc="F F F"
Si       0.00000000       0.00000000       0.00000000  F       0.01772078      -0.02866324      -0.96890907
H        1.39535738       0.00000000      -0.49333333  F       0.38511214       0.00684896      -0.09126013
H       -0.69767869       1.20841494      -0.49333333  F      -0.19430936       0.33941989      -0.07116998
H       -0.69767869      -1.20841494      -0.49333333  F      -0.19285108      -0.32574255      -0.02361268
N       -1.54729314      -1.77776660       3.49264483  T      -0.23511931      -0.82678326      -0.58459499
H       -1.57940877      -2.00242992       4.47908247  T      -0.00140729      -0.02426906       0.63025069
H       -2.19638400      -1.01719592       3.33181020  T      -0.33408196       0.51821710       0.01251795
F        0.02193845       0.02632953       1.61024420  T       0.00121841       0.01309308       1.15393580
H       -0.62534490      -1.41643426       3.28543622  T       0.55363270       0.32763260      -0.05689419
9
Lattice="24.0 0.0 0.0 0.0 24.0 0.0 0.0 0.0 24.0" Properties=species:S:1:pos:R:3:move_mask:L:1:forces:R:3 charge_spin="0 1" energy=-12168.45238900769 pbc="F F F"
Si       0.00000000       0.00000000       0.00000000  F      -0.00795700      -0.02802414      -0.94420165
H        1.39535738       0.00000000      -0.49333333  F       0.38880708       0.00599296      -0.06915090
H       -0.69767869       1.20841494      -0.49333333  F      -0.19063760       0.34134729      -0.07107855
H       -0.69767869      -1.20841494      -0.49333333  F      -0.19099806      -0.32967535      -0.05706269
N       -0.94084980      -1.29619124       4.20988964  T      -0.35006709      -0.95562049      -0.15958606
H       -0.93264586      -1.06334180       5.19545298  T       0.05422100       0.26806013       0.55018154
H       -1.51038027      -0.60688959       3.73436024  T      -0.26661126       0.49468791      -0.22100845
F        0.00401083       0.00983171       1.61002969  T       0.00486277       0.01753009       1.14402429
H       -0.00043457      -1.17566223       3.85465650  T       0.55818139       0.18562040      -0.17147418
9
Lattice="24.0 0.0 0.0 0.0 24.0 0.0 0.0 0.0 24.0" Properties=species:S:1:pos:R:3:move_mask:L:1:forces:R:3 charge_spin="0 1" energy=-12168.46073733902 pbc="F F F"
Si       0.00000000       0.00000000       0.00000000  F       0.00711414      -0.01889402      -0.97730738
H        1.39535738       0.00000000      -0.49333333  F       0.38746353       0.00443770      -0.07036615
H       -0.69767869       1.20841494      -0.49333333  F      -0.19334714       0.33598407      -0.06369590
H       -0.69767869      -1.20841494      -0.49333333  F      -0.19483561      -0.32936303      -0.05232684
N       -0.35922702      -0.73184107       4.62748894  T      -0.13552335      -0.99600896       0.19548877
H        0.09749088      -0.27335140       5.40633552  T       0.26769316       0.39562448       0.39657000
H       -1.23870323      -0.25510208       4.46886838  T      -0.46890510       0.38506972      -0.08496248
F        0.00469820       0.00852050       1.60988227  T       0.00875435       0.02011910       1.14852362
H        0.20408793      -0.57565837       3.80101920  T       0.32152007       0.20292798      -0.49178694
9
Lattice="24.0 0.0 0.0 0.0 24.0 0.0 0.0 0.0 24.0" Properties=species:S:1:pos:R:3:move_mask:L:1:forces:R:3 charge_spin="0 1" energy=-12168.46852707592 pbc="F F F"
Si       0.00000000       0.00000000       0.00000000  F       0.00035201      -0.02026407      -0.94137647
H        1.39535738       0.00000000      -0.49333333  F       0.38651986       0.00369882      -0.06436731
H       -0.69767869       1.20841494      -0.49333333  F      -0.19361339       0.33884342      -0.06661833
H       -0.69767869      -1.20841494      -0.49333333  F      -0.19279350      -0.33001897      -0.06060174
N       -0.00070298      -0.11518281       5.00688953  T       0.00026517      -0.95984379       0.27772520
H        0.81505237       0.38304893       5.34060902  T       0.45177289       0.40700690       0.14276896
H       -0.81626085       0.38320405       5.34087881  T      -0.45141452       0.40702986       0.14212423
F        0.00039946       0.00387669       1.60994397  T      -0.00057823       0.01662282       1.17325711
H       -0.00074955      -0.05764707       3.99494159  T      -0.00051335       0.13685214      -0.60249183
