28
Lattice="7.6044 0.0 0.0 -3.802199999999998 6.585603580538386 0.0 0.0 -0.0 28.35945" Properties=species:S:1:pos:R:3:move_mask:L:1:spacegroup_kinds:I:1:tags:I:1:forces:R:3 spacegroup="P 63/m" unit_cell=conventional occupancy="_JSON {\"0\": {\"Si\": 1.0}, \"1\": {\"N\": 1.0}, \"2\": {\"N\": 1.0}}" surface=beta_Si3N4_001 species=HF site=atop_N orientation=upright height_A=3.25 substrate_atoms=28 calculation_kind="Rigid evaluated approach scan; not NEB" energy=-211.75686301475216 pbc="T T F"
Si       5.18010587       1.14956320      12.00000000  F        0        2       1.65326456       1.17082278       1.53915304
Si      -1.37790587       5.43604038      13.45315000  F        0        2      -0.12799115       0.58580423      -1.79000518
Si       4.01879613       3.91132168      12.00000000  F        0        2      -1.84070510       0.84629019       1.53911732
Si      -0.21659613       2.67428190      13.45315000  F        0        2      -0.44317103      -0.40363303      -1.79003238
Si       2.20769800       1.52471870      12.00000000  F        0        2       0.18682091      -2.01753671       1.53921638
Si       1.59450200       5.06088488      13.45315000  F        0        2       0.57193438      -0.18171871      -1.78999082
N       -1.02370433       2.17482973      12.00000000  F        1        2      -0.63339467      -0.63225859       0.19732507
N        4.82590433       4.41077385      13.45315000  F        1        2       0.18151542      -0.01178511       0.43447120
N        2.43059437       4.61163476      12.00000000  F        1        2       0.86435140      -0.23229448       0.19726163
N        1.37160563       1.97396882      13.45315000  F        1        2      -0.08060322       0.16298547       0.43448289
N       -1.40689004       6.38474267      12.00000000  F        1        2      -0.23103509       0.86454517       0.19728354
N        5.20909004       0.20086091      13.45315000  F        1        2      -0.10083680      -0.15114563       0.43447762
N        3.80216198       2.19517924      12.00000000  F        2        2       0.00084708       0.00049088      -1.77999072
N        0.00003802       4.39042434      13.45315000  F        2        2      -0.00100440      -0.00058002       0.64818321
Si       5.19465495       1.17230078      14.99348297  T        0        1      -0.01991874       0.02686332      -0.04994830
Si      -1.47573232       5.22227666      16.22670424  T        0        1      -0.30430797       0.14453673      -0.11007739
Si       3.99183582       3.91255157      14.99349229  T        0        1      -0.01330560      -0.03067968      -0.04994564
Si       0.01744504       2.69644613      16.22670146  T        0        1       0.02697603      -0.33580419      -0.11008036
Si       2.22011369       1.50075266      14.99348659  T        0        1       0.03323071       0.00381767      -0.04995581
Si       1.45829551       5.25249266      16.22670088  T        0        1       0.27732623       0.19126983      -0.11008216
N       -1.04225524       2.27359228      14.95730167  T        1        1       0.05342241       0.06626753       0.01642705
N        4.71277687       4.43781771      16.41731048  T        1        1       0.08664506       0.03652260       0.02995730
N        2.35435680       4.54619861      14.95730697  T        1        1      -0.08409794       0.01312928       0.01642246
N        1.40474549       1.86246669      16.41730375  T        1        1      -0.07495216       0.05678088       0.02996276
N       -1.31209857       6.35143101      14.95730553  T        1        1       0.03067752      -0.07939183       0.01642319
N        5.28908863       0.28531685      16.41730161  T        1        1      -0.01169331      -0.09330052       0.02995664
N        3.80220030       2.19520148      14.85159431  T        2        1      -0.00000290      -0.00000223       0.02510212
N        0.00000439       4.39040630      16.62870125  T        2        1       0.00000836       0.00000417       0.30488532
