41
Lattice="11.518769465528859 0.0 0.0 0.0 7.679179643685906 0.0 0.0 0.0 30.7875" Properties=species:S:1:pos:R:3:move_mask:L:1:tags:I:1:forces:R:3 surface=Si100 species=SiF4 site=bridge_Si_Si orientation=parallel height_A=6.5 substrate_atoms=36 calculation_kind="Rigid evaluated approach scan; not NEB" energy=-208.21619064940802 pbc="T T F"
Si       0.00000000       0.00000000      12.00000000  F        6      -0.00000004       0.00000000       0.24903484
Si       3.83958982       0.00000000      12.00000000  F        6      -0.00000000       0.00000000       0.24903482
Si       7.67917964       0.00000000      12.00000000  F        6       0.00000000       0.00000000       0.24903482
Si       0.00000000       3.83958982      12.00000000  F        6      -0.00000004      -0.00000000       0.24903484
Si       3.83958982       3.83958982      12.00000000  F        6      -0.00000000      -0.00000000       0.24903482
Si       7.67917964       3.83958982      12.00000000  F        6       0.00000000      -0.00000000       0.24903482
Si       1.91979491       0.00000000      13.35750000  F        5       0.00000000      -0.00000002      -0.52822352
Si       5.75938473       0.00000000      13.35750000  F        5       0.00000000      -0.00000002      -0.52822353
Si       9.59897455       0.00000000      13.35750000  F        5       0.00000003      -0.00000002      -0.52822354
Si       1.91979491       3.83958982      13.35750000  F        5       0.00000000       0.00000000      -0.52822354
Si       5.75938473       3.83958982      13.35750000  F        5       0.00000000       0.00000000      -0.52822354
Si       9.59897455       3.83958982      13.35750000  F        5       0.00000003       0.00000000      -0.52822356
Si       1.91979491       1.91979491      14.71500000  F        4      -0.00000000       0.00000000       0.14537709
Si       5.75938473       1.91979491      14.71500000  F        4       0.00000000       0.00000000       0.14537709
Si       9.59897455       1.91979491      14.71500000  F        4       0.00000004       0.00000000       0.14537711
Si       1.91979491       5.75938473      14.71500000  F        4      -0.00000000       0.00000002       0.14537707
Si       5.75938473       5.75938473      14.71500000  F        4       0.00000000       0.00000002       0.14537707
Si       9.59897455       5.75938473      14.71500000  F        4       0.00000004       0.00000002       0.14537709
Si       0.00000000       1.91979491      16.07250000  F        3      -0.00000004       0.00000000      -0.14537711
Si       3.83958982       1.91979491      16.07250000  F        3      -0.00000000       0.00000000      -0.14537709
Si       7.67917964       1.91979491      16.07250000  F        3       0.00000000       0.00000000      -0.14537709
Si       0.00000000       5.75938473      16.07250000  F        3      -0.00000004       0.00000002      -0.14537709
Si       3.83958982       5.75938473      16.07250000  F        3      -0.00000000       0.00000002      -0.14537707
Si       7.67917964       5.75938473      16.07250000  F        3       0.00000000       0.00000002      -0.14537707
Si       0.00000000       0.00000000      17.43000000  F        2      -0.00000003      -0.00000002       0.52822354
Si       3.83958982       0.00000000      17.43000000  F        2      -0.00000000      -0.00000002       0.52822353
Si       7.67917964       0.00000000      17.43000000  F        2      -0.00000000      -0.00000002       0.52822352
Si       0.00000000       3.83958982      17.43000000  F        2      -0.00000003       0.00000000       0.52822356
Si       3.83958982       3.83958982      17.43000000  F        2      -0.00000000       0.00000000       0.52822354
Si       7.67917964       3.83958982      17.43000000  F        2      -0.00000000       0.00000000       0.52822354
Si       1.91979491       0.00000000      18.78750000  F        1      -0.00000000       0.00000000      -0.24903482
Si       5.75938473       0.00000000      18.78750000  F        1       0.00000000       0.00000000      -0.24903482
Si       9.59897455       0.00000000      18.78750000  F        1       0.00000004       0.00000000      -0.24903484
Si       1.91979491       3.83958982      18.78750000  F        1      -0.00000000      -0.00000000      -0.24903482
Si       5.75938473       3.83958982      18.78750000  F        1       0.00000000      -0.00000000      -0.24903482
Si       9.59897455       3.83958982      18.78750000  F        1       0.00000004      -0.00000000      -0.24903484
Si       7.67917964       3.83958982      26.77902565  T        0      -0.00000004      -0.00000000      -0.00000017
F        6.09717779       3.83958982      26.77902565  T        0      -0.00049033       0.00000000       0.00000000
F        8.20651359       3.83958982      25.28750000  T        0       0.00016342       0.00000000      -0.00046224
F        8.20651359       5.13128892      27.52478847  T        0       0.00016348       0.00040043       0.00023120
F        8.20651359       2.54789072      27.52478847  T        0       0.00016348      -0.00040043       0.00023120
41
Lattice="11.518769465528859 0.0 0.0 0.0 7.679179643685906 0.0 0.0 0.0 30.7875" Properties=species:S:1:pos:R:3:move_mask:L:1:tags:I:1:forces:R:3 surface=Si100 species=SiF4 site=bridge_Si_Si orientation=parallel height_A=5.0 substrate_atoms=36 calculation_kind="Rigid evaluated approach scan; not NEB" energy=-208.21619064940802 pbc="T T F"
Si       0.00000000       0.00000000      12.00000000  F        6      -0.00000004       0.00000000       0.24903484
Si       3.83958982       0.00000000      12.00000000  F        6      -0.00000000       0.00000000       0.24903482
Si       7.67917964       0.00000000      12.00000000  F        6       0.00000000       0.00000000       0.24903482
Si       0.00000000       3.83958982      12.00000000  F        6      -0.00000004      -0.00000000       0.24903484
Si       3.83958982       3.83958982      12.00000000  F        6      -0.00000000      -0.00000000       0.24903482
Si       7.67917964       3.83958982      12.00000000  F        6       0.00000000      -0.00000000       0.24903482
Si       1.91979491       0.00000000      13.35750000  F        5       0.00000000      -0.00000002      -0.52822352
Si       5.75938473       0.00000000      13.35750000  F        5       0.00000000      -0.00000002      -0.52822353
Si       9.59897455       0.00000000      13.35750000  F        5       0.00000003      -0.00000002      -0.52822354
Si       1.91979491       3.83958982      13.35750000  F        5       0.00000000       0.00000000      -0.52822354
Si       5.75938473       3.83958982      13.35750000  F        5       0.00000000       0.00000000      -0.52822354
Si       9.59897455       3.83958982      13.35750000  F        5       0.00000003       0.00000000      -0.52822356
Si       1.91979491       1.91979491      14.71500000  F        4      -0.00000000       0.00000000       0.14537709
Si       5.75938473       1.91979491      14.71500000  F        4       0.00000000       0.00000000       0.14537709
Si       9.59897455       1.91979491      14.71500000  F        4       0.00000004       0.00000000       0.14537711
Si       1.91979491       5.75938473      14.71500000  F        4      -0.00000000       0.00000002       0.14537707
Si       5.75938473       5.75938473      14.71500000  F        4       0.00000000       0.00000002       0.14537707
Si       9.59897455       5.75938473      14.71500000  F        4       0.00000004       0.00000002       0.14537709
Si       0.00000000       1.91979491      16.07250000  F        3      -0.00000004       0.00000000      -0.14537711
Si       3.83958982       1.91979491      16.07250000  F        3      -0.00000000       0.00000000      -0.14537709
Si       7.67917964       1.91979491      16.07250000  F        3       0.00000000       0.00000000      -0.14537709
Si       0.00000000       5.75938473      16.07250000  F        3      -0.00000004       0.00000002      -0.14537709
Si       3.83958982       5.75938473      16.07250000  F        3      -0.00000000       0.00000002      -0.14537707
Si       7.67917964       5.75938473      16.07250000  F        3       0.00000000       0.00000002      -0.14537707
Si       0.00000000       0.00000000      17.43000000  F        2      -0.00000003      -0.00000002       0.52822354
Si       3.83958982       0.00000000      17.43000000  F        2      -0.00000000      -0.00000002       0.52822353
Si       7.67917964       0.00000000      17.43000000  F        2      -0.00000000      -0.00000002       0.52822352
Si       0.00000000       3.83958982      17.43000000  F        2      -0.00000003       0.00000000       0.52822356
Si       3.83958982       3.83958982      17.43000000  F        2      -0.00000000       0.00000000       0.52822354
Si       7.67917964       3.83958982      17.43000000  F        2      -0.00000000       0.00000000       0.52822354
Si       1.91979491       0.00000000      18.78750000  F        1      -0.00000000       0.00000000      -0.24903482
Si       5.75938473       0.00000000      18.78750000  F        1       0.00000000       0.00000000      -0.24903482
Si       9.59897455       0.00000000      18.78750000  F        1       0.00000004       0.00000000      -0.24903484
Si       1.91979491       3.83958982      18.78750000  F        1      -0.00000000      -0.00000000      -0.24903482
Si       5.75938473       3.83958982      18.78750000  F        1       0.00000000      -0.00000000      -0.24903482
Si       9.59897455       3.83958982      18.78750000  F        1       0.00000004      -0.00000000      -0.24903484
Si       7.67917964       3.83958982      25.27902565  T        0      -0.00000004      -0.00000000      -0.00000017
F        6.09717779       3.83958982      25.27902565  T        0      -0.00049033       0.00000000       0.00000000
F        8.20651359       3.83958982      23.78750000  T        0       0.00016342       0.00000000      -0.00046224
F        8.20651359       5.13128892      26.02478847  T        0       0.00016348       0.00040043       0.00023120
F        8.20651359       2.54789072      26.02478847  T        0       0.00016348      -0.00040043       0.00023120
41
Lattice="11.518769465528859 0.0 0.0 0.0 7.679179643685906 0.0 0.0 0.0 30.7875" Properties=species:S:1:pos:R:3:move_mask:L:1:tags:I:1:forces:R:3 surface=Si100 species=SiF4 site=bridge_Si_Si orientation=parallel height_A=4.0 substrate_atoms=36 calculation_kind="Rigid evaluated approach scan; not NEB" energy=-208.26925143707095 pbc="T T F"
Si       0.00000000       0.00000000      12.00000000  F        6       0.00006942       0.00000000       0.24960728
Si       3.83958982       0.00000000      12.00000000  F        6      -0.00003052       0.00000000       0.24927061
Si       7.67917964       0.00000000      12.00000000  F        6      -0.00003892       0.00000000       0.24964564
Si       0.00000000       3.83958982      12.00000000  F        6       0.00023877      -0.00000000       0.24903697
Si       3.83958982       3.83958982      12.00000000  F        6      -0.00007305      -0.00000000       0.24899507
Si       7.67917964       3.83958982      12.00000000  F        6      -0.00016575      -0.00000000       0.24896688
Si       1.91979491       0.00000000      13.35750000  F        5      -0.00032084      -0.00000002      -0.52736449
Si       5.75938473       0.00000000      13.35750000  F        5       0.00040042      -0.00000002      -0.52759509
Si       9.59897455       0.00000000      13.35750000  F        5      -0.00007949      -0.00000002      -0.52834214
Si       1.91979491       3.83958982      13.35750000  F        5      -0.00039360       0.00000000      -0.52699719
Si       5.75938473       3.83958982      13.35750000  F        5       0.00016557       0.00000000      -0.52740771
Si       9.59897455       3.83958982      13.35750000  F        5       0.00022769       0.00000000      -0.52678135
Si       1.91979491       1.91979491      14.71500000  F        4      -0.00081823      -0.00043172       0.14684911
Si       5.75938473       1.91979491      14.71500000  F        4       0.00166536      -0.00071703       0.14656174
Si       9.59897455       1.91979491      14.71500000  F        4      -0.00124487      -0.00086667       0.14475501
Si       1.91979491       5.75938473      14.71500000  F        4      -0.00081823       0.00043174       0.14684910
Si       5.75938473       5.75938473      14.71500000  F        4       0.00166536       0.00071706       0.14656173
Si       9.59897455       5.75938473      14.71500000  F        4      -0.00124487       0.00086669       0.14475499
Si       0.00000000       1.91979491      16.07250000  F        3      -0.00109217       0.00732055      -0.13967007
Si       3.83958982       1.91979491      16.07250000  F        3       0.00036493       0.00100558      -0.14434016
Si       7.67917964       1.91979491      16.07250000  F        3      -0.00195051       0.00619314      -0.14503945
Si       0.00000000       5.75938473      16.07250000  F        3      -0.00109217      -0.00732053      -0.13967005
Si       3.83958982       5.75938473      16.07250000  F        3       0.00036493      -0.00100555      -0.14434015
Si       7.67917964       5.75938473      16.07250000  F        3      -0.00195051      -0.00619312      -0.14503943
Si       0.00000000       0.00000000      17.43000000  F        2      -0.00174735      -0.00000002       0.52890917
Si       3.83958982       0.00000000      17.43000000  F        2       0.00039573      -0.00000002       0.52632345
Si       7.67917964       0.00000000      17.43000000  F        2       0.00312498      -0.00000002       0.52966902
Si       0.00000000       3.83958982      17.43000000  F        2       0.00304376       0.00000000       0.52647109
Si       3.83958982       3.83958982      17.43000000  F        2      -0.00424055       0.00000000       0.52975079
Si       7.67917964       3.83958982      17.43000000  F        2       0.01273599       0.00000000       0.53033523
Si       1.91979491       0.00000000      18.78750000  F        1       0.00011304       0.00000000      -0.24840436
Si       5.75938473       0.00000000      18.78750000  F        1      -0.00045505       0.00000000      -0.24905872
Si       9.59897455       0.00000000      18.78750000  F        1       0.00032775       0.00000000      -0.25143551
Si       1.91979491       3.83958982      18.78750000  F        1      -0.00435947      -0.00000000      -0.25140200
Si       5.75938473       3.83958982      18.78750000  F        1       0.02964328      -0.00000000      -0.21657867
Si       9.59897455       3.83958982      18.78750000  F        1      -0.05542594      -0.00000000      -0.14807342
Si       7.67917964       3.83958982      24.27902565  T        0       0.04799238      -0.00000000      -0.13707082
F        6.09717779       3.83958982      24.27902565  T        0      -0.02967068       0.00000000       0.01897460
F        8.20651359       3.83958982      22.78750000  T        0       0.00336268       0.00000000      -0.09733822
F        8.20651359       5.13128892      25.02478847  T        0       0.00065538       0.01941021       0.02983074
F        8.20651359       2.54789072      25.02478847  T        0       0.00065538      -0.01941021       0.02983074
41
Lattice="11.518769465528859 0.0 0.0 0.0 7.679179643685906 0.0 0.0 0.0 30.7875" Properties=species:S:1:pos:R:3:move_mask:L:1:tags:I:1:forces:R:3 surface=Si100 species=SiF4 site=bridge_Si_Si orientation=parallel height_A=3.25 substrate_atoms=36 calculation_kind="Rigid evaluated approach scan; not NEB" energy=-208.40923888194092 pbc="T T F"
Si       0.00000000       0.00000000      12.00000000  F        6       0.00056816       0.00000000       0.25009216
Si       3.83958982       0.00000000      12.00000000  F        6      -0.00024293       0.00000000       0.25035760
Si       7.67917964       0.00000000      12.00000000  F        6      -0.00032521       0.00000000       0.25061220
Si       0.00000000       3.83958982      12.00000000  F        6       0.00073856      -0.00000000       0.24847120
Si       3.83958982       3.83958982      12.00000000  F        6      -0.00058631      -0.00000000       0.24862609
Si       7.67917964       3.83958982      12.00000000  F        6      -0.00015218      -0.00000000       0.24802265
Si       1.91979491       0.00000000      13.35750000  F        5      -0.00015815      -0.00000002      -0.52650666
Si       5.75938473       0.00000000      13.35750000  F        5       0.00054951      -0.00000002      -0.52811620
Si       9.59897455       0.00000000      13.35750000  F        5      -0.00039159      -0.00000002      -0.52878727
Si       1.91979491       3.83958982      13.35750000  F        5      -0.00003269       0.00000000      -0.52558182
Si       5.75938473       3.83958982      13.35750000  F        5      -0.00063790       0.00000000      -0.52646342
Si       9.59897455       3.83958982      13.35750000  F        5       0.00033816       0.00000000      -0.52736595
Si       1.91979491       1.91979491      14.71500000  F        4       0.00039028      -0.00261546       0.14739106
Si       5.75938473       1.91979491      14.71500000  F        4       0.00401632      -0.00397994       0.14676110
Si       9.59897455       1.91979491      14.71500000  F        4      -0.00369458      -0.00096720       0.15370803
Si       1.91979491       5.75938473      14.71500000  F        4       0.00039028       0.00261548       0.14739104
Si       5.75938473       5.75938473      14.71500000  F        4       0.00401632       0.00397996       0.14676109
Si       9.59897455       5.75938473      14.71500000  F        4      -0.00369458       0.00096722       0.15370802
Si       0.00000000       1.91979491      16.07250000  F        3      -0.00118193       0.01950355      -0.13350436
Si       3.83958982       1.91979491      16.07250000  F        3       0.00368322       0.01233187      -0.13745231
Si       7.67917964       1.91979491      16.07250000  F        3       0.00238277       0.01865527      -0.14346837
Si       0.00000000       5.75938473      16.07250000  F        3      -0.00118193      -0.01950353      -0.13350434
Si       3.83958982       5.75938473      16.07250000  F        3       0.00368322      -0.01233185      -0.13745230
Si       7.67917964       5.75938473      16.07250000  F        3       0.00238277      -0.01865525      -0.14346835
Si       0.00000000       0.00000000      17.43000000  F        2      -0.00189631      -0.00000002       0.52307458
Si       3.83958982       0.00000000      17.43000000  F        2       0.00125745      -0.00000002       0.52138593
Si       7.67917964       0.00000000      17.43000000  F        2      -0.00128973      -0.00000002       0.52282147
Si       0.00000000       3.83958982      17.43000000  F        2      -0.01602090       0.00000000       0.51761521
Si       3.83958982       3.83958982      17.43000000  F        2      -0.00660079       0.00000000       0.52279476
Si       7.67917964       3.83958982      17.43000000  F        2       0.01414937       0.00000000       0.52997275
Si       1.91979491       0.00000000      18.78750000  F        1      -0.00099110       0.00000000      -0.24500439
Si       5.75938473       0.00000000      18.78750000  F        1       0.00022317       0.00000000      -0.24440353
Si       9.59897455       0.00000000      18.78750000  F        1       0.00053330       0.00000000      -0.24236302
Si       1.91979491       3.83958982      18.78750000  F        1      -0.00495317      -0.00000000      -0.25515258
Si       5.75938473       3.83958982      18.78750000  F        1       0.05290261      -0.00000000      -0.13903889
Si       9.59897455       3.83958982      18.78750000  F        1      -0.02140676      -0.00000000      -0.20582682
Si       7.67917964       3.83958982      23.52902565  T        0       0.02266714      -0.00000000      -0.10869235
F        6.09717779       3.83958982      23.52902565  T        0      -0.02108127       0.00000000      -0.04326045
F        8.20651359       3.83958982      22.03750000  T        0      -0.02980260       0.00000000      -0.10434700
F        8.20651359       5.13128892      24.27478847  T        0       0.00072501       0.01551807       0.02509672
F        8.20651359       2.54789072      24.27478847  T        0       0.00072501      -0.01551807       0.02509672
41
Lattice="11.518769465528859 0.0 0.0 0.0 7.679179643685906 0.0 0.0 0.0 30.7875" Properties=species:S:1:pos:R:3:move_mask:L:1:tags:I:1:forces:R:3 surface=Si100 species=SiF4 site=bridge_Si_Si orientation=parallel height_A=2.75 substrate_atoms=36 calculation_kind="Rigid evaluated approach scan; not NEB" energy=-208.48613007085964 pbc="T T F"
Si       0.00000000       0.00000000      12.00000000  F        6       0.00108528       0.00000000       0.24988503
Si       3.83958982       0.00000000      12.00000000  F        6      -0.00041126       0.00000000       0.25101286
Si       7.67917964       0.00000000      12.00000000  F        6      -0.00067408       0.00000000       0.25043563
Si       0.00000000       3.83958982      12.00000000  F        6       0.00087883      -0.00000000       0.24834094
Si       3.83958982       3.83958982      12.00000000  F        6      -0.00089514      -0.00000000       0.24831318
Si       7.67917964       3.83958982      12.00000000  F        6       0.00001683      -0.00000000       0.24719389
Si       1.91979491       0.00000000      13.35750000  F        5       0.00009683      -0.00000002      -0.52634394
Si       5.75938473       0.00000000      13.35750000  F        5       0.00006342      -0.00000002      -0.52955891
Si       9.59897455       0.00000000      13.35750000  F        5      -0.00015995      -0.00000002      -0.52909979
Si       1.91979491       3.83958982      13.35750000  F        5       0.00060882       0.00000000      -0.52648301
Si       5.75938473       3.83958982      13.35750000  F        5      -0.00081963       0.00000000      -0.52644791
Si       9.59897455       3.83958982      13.35750000  F        5      -0.00053125       0.00000000      -0.52631524
Si       1.91979491       1.91979491      14.71500000  F        4       0.00267667      -0.00230041       0.14844131
Si       5.75938473       1.91979491      14.71500000  F        4       0.00776211      -0.00412373       0.15141676
Si       9.59897455       1.91979491      14.71500000  F        4      -0.00945894      -0.00036993       0.16030107
Si       1.91979491       5.75938473      14.71500000  F        4       0.00267667       0.00230043       0.14844130
Si       5.75938473       5.75938473      14.71500000  F        4       0.00776211       0.00412375       0.15141675
Si       9.59897455       5.75938473      14.71500000  F        4      -0.00945894       0.00036996       0.16030106
Si       0.00000000       1.91979491      16.07250000  F        3      -0.00625026       0.03030692      -0.12207584
Si       3.83958982       1.91979491      16.07250000  F        3       0.00588884       0.02419975      -0.12938913
Si       7.67917964       1.91979491      16.07250000  F        3       0.01157592       0.03491469      -0.12727609
Si       0.00000000       5.75938473      16.07250000  F        3      -0.00625027      -0.03030689      -0.12207583
Si       3.83958982       5.75938473      16.07250000  F        3       0.00588884      -0.02419972      -0.12938912
Si       7.67917964       5.75938473      16.07250000  F        3       0.01157592      -0.03491467      -0.12727607
Si       0.00000000       0.00000000      17.43000000  F        2      -0.00500134      -0.00000002       0.52850885
Si       3.83958982       0.00000000      17.43000000  F        2       0.00054565      -0.00000002       0.52273700
Si       7.67917964       0.00000000      17.43000000  F        2      -0.00084817      -0.00000002       0.51400183
Si       0.00000000       3.83958982      17.43000000  F        2       0.01823610       0.00000000       0.44968625
Si       3.83958982       3.83958982      17.43000000  F        2       0.01141419       0.00000000       0.51269293
Si       7.67917964       3.83958982      17.43000000  F        2       0.01606133       0.00000000       0.56838397
Si       1.91979491       0.00000000      18.78750000  F        1      -0.00198163       0.00000000      -0.24570392
Si       5.75938473       0.00000000      18.78750000  F        1       0.00268104       0.00000000      -0.25024838
Si       9.59897455       0.00000000      18.78750000  F        1      -0.00156609       0.00000000      -0.24338825
Si       1.91979491       3.83958982      18.78750000  F        1      -0.01625728      -0.00000000      -0.25430002
Si       5.75938473       3.83958982      18.78750000  F        1      -0.03392337      -0.00000000      -0.26963768
Si       9.59897455       3.83958982      18.78750000  F        1       0.04235955      -0.00000000      -0.32583153
Si       7.67917964       3.83958982      23.02902565  T        0      -0.00466859       0.00000000       0.03080441
F        6.09717779       3.83958982      23.02902565  T        0      -0.00994950       0.00000000      -0.06042234
F        8.20651359       3.83958982      21.53750000  T        0      -0.05739046      -0.00000000       0.00594541
F        8.20651359       5.13128892      23.77478847  T        0       0.00832059       0.01381625       0.01150129
F        8.20651359       2.54789072      23.77478847  T        0       0.00832059      -0.01381625       0.01150129
41
Lattice="11.518769465528859 0.0 0.0 0.0 7.679179643685906 0.0 0.0 0.0 30.7875" Properties=species:S:1:pos:R:3:move_mask:L:1:tags:I:1:forces:R:3 surface=Si100 species=SiF4 site=bridge_Si_Si orientation=parallel height_A=2.25 substrate_atoms=36 calculation_kind="Rigid evaluated approach scan; not NEB" energy=-208.35104160129768 pbc="T T F"
Si       0.00000000       0.00000000      12.00000000  F        6       0.00178627       0.00000000       0.25010178
Si       3.83958982       0.00000000      12.00000000  F        6      -0.00121427       0.00000000       0.25064342
Si       7.67917964       0.00000000      12.00000000  F        6      -0.00057052       0.00000000       0.24929712
Si       0.00000000       3.83958982      12.00000000  F        6       0.00157003      -0.00000000       0.24738740
Si       3.83958982       3.83958982      12.00000000  F        6      -0.00109402      -0.00000000       0.24732857
Si       7.67917964       3.83958982      12.00000000  F        6      -0.00047554      -0.00000000       0.24506876
Si       1.91979491       0.00000000      13.35750000  F        5       0.00049310      -0.00000002      -0.52642180
Si       5.75938473       0.00000000      13.35750000  F        5      -0.00142603      -0.00000002      -0.53001637
Si       9.59897455       0.00000000      13.35750000  F        5       0.00093910      -0.00000002      -0.53388972
Si       1.91979491       3.83958982      13.35750000  F        5       0.00049171       0.00000000      -0.53117130
Si       5.75938473       3.83958982      13.35750000  F        5       0.00649277       0.00000000      -0.51514085
Si       9.59897455       3.83958982      13.35750000  F        5      -0.00611773       0.00000000      -0.52128918
Si       1.91979491       1.91979491      14.71500000  F        4       0.00739836       0.00166055       0.15022194
Si       5.75938473       1.91979491      14.71500000  F        4       0.01298751       0.00472410       0.16615376
Si       9.59897455       1.91979491      14.71500000  F        4      -0.02166437       0.00095514       0.16810629
Si       1.91979491       5.75938473      14.71500000  F        4       0.00739836      -0.00166053       0.15022192
Si       5.75938473       5.75938473      14.71500000  F        4       0.01298751      -0.00472408       0.16615374
Si       9.59897455       5.75938473      14.71500000  F        4      -0.02166437      -0.00095512       0.16810627
Si       0.00000000       1.91979491      16.07250000  F        3      -0.02026893       0.04597040      -0.10256042
Si       3.83958982       1.91979491      16.07250000  F        3       0.00837793       0.02560470      -0.13023965
Si       7.67917964       1.91979491      16.07250000  F        3       0.01625582       0.03114940      -0.13228752
Si       0.00000000       5.75938473      16.07250000  F        3      -0.02026893      -0.04597038      -0.10256041
Si       3.83958982       5.75938473      16.07250000  F        3       0.00837793      -0.02560468      -0.13023963
Si       7.67917964       5.75938473      16.07250000  F        3       0.01625582      -0.03114938      -0.13228751
Si       0.00000000       0.00000000      17.43000000  F        2      -0.02851524      -0.00000002       0.55451446
Si       3.83958982       0.00000000      17.43000000  F        2      -0.00712393      -0.00000002       0.51882970
Si       7.67917964       0.00000000      17.43000000  F        2       0.02522570      -0.00000002       0.50146740
Si       0.00000000       3.83958982      17.43000000  F        2       0.20004418       0.00000000       0.25525645
Si       3.83958982       3.83958982      17.43000000  F        2      -0.00498986       0.00000000       0.44025267
Si       7.67917964       3.83958982      17.43000000  F        2       0.05669771       0.00000000       0.52459029
Si       1.91979491       0.00000000      18.78750000  F        1       0.00030069       0.00000000      -0.24903714
Si       5.75938473       0.00000000      18.78750000  F        1       0.00271453       0.00000000      -0.24905804
Si       9.59897455       0.00000000      18.78750000  F        1      -0.03888782       0.00000000      -0.21157947
Si       1.91979491       3.83958982      18.78750000  F        1      -0.03224672      -0.00000000      -0.21174864
Si       5.75938473       3.83958982      18.78750000  F        1       0.00401712      -0.00000000      -0.22992420
Si       9.59897455       3.83958982      18.78750000  F        1       0.27492964      -0.00000000      -0.86911836
Si       7.67917964       3.83958982      22.52902565  T        0      -0.18655859      -0.00000000       0.36303292
F        6.09717779       3.83958982      22.52902565  T        0       0.04186717      -0.00000000       0.00494238
F        8.20651359       3.83958982      21.03750000  T        0      -0.35680734      -0.00000000       0.40437917
F        8.20651359       5.13128892      23.27478847  T        0       0.02114262      -0.01651829      -0.05874310
F        8.20651359       2.54789072      23.27478847  T        0       0.02114262       0.01651829      -0.05874310
41
Lattice="11.518769465528859 0.0 0.0 0.0 7.679179643685906 0.0 0.0 0.0 30.7875" Properties=species:S:1:pos:R:3:move_mask:L:1:tags:I:1:forces:R:3 surface=Si100 species=SiF4 site=bridge_Si_Si orientation=parallel height_A=1.9 substrate_atoms=36 calculation_kind="Rigid evaluated approach scan; not NEB" energy=-208.01566233940028 pbc="T T F"
Si       0.00000000       0.00000000      12.00000000  F        6       0.00201640       0.00000000       0.25081709
Si       3.83958982       0.00000000      12.00000000  F        6      -0.00195449       0.00000000       0.24948331
Si       7.67917964       0.00000000      12.00000000  F        6      -0.00005388       0.00000000       0.24891526
Si       0.00000000       3.83958982      12.00000000  F        6       0.00212552      -0.00000000       0.24584449
Si       3.83958982       3.83958982      12.00000000  F        6      -0.00098483      -0.00000000       0.24585548
Si       7.67917964       3.83958982      12.00000000  F        6      -0.00113926      -0.00000000       0.24379788
Si       1.91979491       0.00000000      13.35750000  F        5       0.00168481      -0.00000002      -0.52757218
Si       5.75938473       0.00000000      13.35750000  F        5      -0.00333297      -0.00000002      -0.53029168
Si       9.59897455       0.00000000      13.35750000  F        5       0.00165247      -0.00000002      -0.53956879
Si       1.91979491       3.83958982      13.35750000  F        5       0.00197643       0.00000000      -0.53641054
Si       5.75938473       3.83958982      13.35750000  F        5       0.01343096       0.00000000      -0.50078637
Si       9.59897455       3.83958982      13.35750000  F        5      -0.01137853       0.00000000      -0.51662132
Si       1.91979491       1.91979491      14.71500000  F        4       0.01034340       0.00364103       0.15084862
Si       5.75938473       1.91979491      14.71500000  F        4       0.01353928       0.00937408       0.16948364
Si       9.59897455       1.91979491      14.71500000  F        4      -0.02896404      -0.00292143       0.16479472
Si       1.91979491       5.75938473      14.71500000  F        4       0.01034340      -0.00364101       0.15084861
Si       5.75938473       5.75938473      14.71500000  F        4       0.01353928      -0.00937405       0.16948363
Si       9.59897455       5.75938473      14.71500000  F        4      -0.02896404       0.00292145       0.16479471
Si       0.00000000       1.91979491      16.07250000  F        3      -0.03351282       0.07431987      -0.08255503
Si       3.83958982       1.91979491      16.07250000  F        3       0.00873857       0.02095956      -0.13851863
Si       7.67917964       1.91979491      16.07250000  F        3       0.00931518       0.00437038      -0.14838149
Si       0.00000000       5.75938473      16.07250000  F        3      -0.03351282      -0.07431984      -0.08255502
Si       3.83958982       5.75938473      16.07250000  F        3       0.00873857      -0.02095954      -0.13851861
Si       7.67917964       5.75938473      16.07250000  F        3       0.00931518      -0.00437035      -0.14838148
Si       0.00000000       0.00000000      17.43000000  F        2      -0.04162105      -0.00000002       0.57663139
Si       3.83958982       0.00000000      17.43000000  F        2      -0.01501568      -0.00000002       0.51273307
Si       7.67917964       0.00000000      17.43000000  F        2       0.04762315      -0.00000002       0.50295295
Si       0.00000000       3.83958982      17.43000000  F        2       0.38553444       0.00000000       0.11375621
Si       3.83958982       3.83958982      17.43000000  F        2      -0.02997327       0.00000000       0.38656027
Si       7.67917964       3.83958982      17.43000000  F        2       0.12304838       0.00000000       0.55180010
Si       1.91979491       0.00000000      18.78750000  F        1       0.00533342       0.00000000      -0.25230716
Si       5.75938473       0.00000000      18.78750000  F        1       0.00330178       0.00000000      -0.23320033
Si       9.59897455       0.00000000      18.78750000  F        1      -0.05365391       0.00000000      -0.22512328
Si       1.91979491       3.83958982      18.78750000  F        1      -0.04716737      -0.00000000      -0.17508043
Si       5.75938473       3.83958982      18.78750000  F        1      -0.01435948      -0.00000000      -0.27741878
Si       9.59897455       3.83958982      18.78750000  F        1       0.51341721      -0.00000000      -1.25339011
Si       7.67917964       3.83958982      22.17902565  T        0      -0.36902104       0.00000000       1.11228377
F        6.09717779       3.83958982      22.17902565  T        0       0.08724145      -0.00000000      -0.01185761
F        8.20651359       3.83958982      20.68750000  T        0      -0.71426160      -0.00000000       0.51657270
F        8.20651359       5.13128892      22.92478847  T        0       0.07830590      -0.03759412      -0.20485953
F        8.20651359       2.54789072      22.92478847  T        0       0.07830590       0.03759412      -0.20485953
41
Lattice="11.518769465528859 0.0 0.0 0.0 7.679179643685906 0.0 0.0 0.0 30.7875" Properties=species:S:1:pos:R:3:move_mask:L:1:tags:I:1:forces:R:3 surface=Si100 species=SiF4 site=bridge_Si_Si orientation=parallel height_A=1.6 substrate_atoms=36 calculation_kind="Rigid evaluated approach scan; not NEB" energy=-207.62260406044732 pbc="T T F"
Si       0.00000000       0.00000000      12.00000000  F        6       0.00378654       0.00000000       0.25418104
Si       3.83958982       0.00000000      12.00000000  F        6      -0.00267187       0.00000000       0.25030389
Si       7.67917964       0.00000000      12.00000000  F        6      -0.00103572       0.00000000       0.25008463
Si       0.00000000       3.83958982      12.00000000  F        6       0.00465772      -0.00000000       0.24351721
Si       3.83958982       3.83958982      12.00000000  F        6      -0.00128591      -0.00000000       0.24476396
Si       7.67917964       3.83958982      12.00000000  F        6      -0.00333562      -0.00000000       0.24100740
Si       1.91979491       0.00000000      13.35750000  F        5       0.00026707      -0.00000002      -0.52657025
Si       5.75938473       0.00000000      13.35750000  F        5      -0.00203145      -0.00000002      -0.52774435
Si       9.59897455       0.00000000      13.35750000  F        5       0.00213483      -0.00000002      -0.54289735
Si       1.91979491       3.83958982      13.35750000  F        5       0.00527424       0.00000000      -0.53892601
Si       5.75938473       3.83958982      13.35750000  F        5       0.01054441       0.00000000      -0.49534661
Si       9.59897455       3.83958982      13.35750000  F        5      -0.00984030       0.00000000      -0.52422360
Si       1.91979491       1.91979491      14.71500000  F        4       0.01067886      -0.00220428       0.15117212
Si       5.75938473       1.91979491      14.71500000  F        4       0.01174103       0.00898743       0.17544195
Si       9.59897455       1.91979491      14.71500000  F        4      -0.03185288      -0.00896182       0.17580153
Si       1.91979491       5.75938473      14.71500000  F        4       0.01067886       0.00220431       0.15117211
Si       5.75938473       5.75938473      14.71500000  F        4       0.01174103      -0.00898741       0.17544193
Si       9.59897455       5.75938473      14.71500000  F        4      -0.03185288       0.00896185       0.17580152
Si       0.00000000       1.91979491      16.07250000  F        3      -0.03780463       0.11204635      -0.07010983
Si       3.83958982       1.91979491      16.07250000  F        3       0.01894559       0.02104868      -0.14107117
Si       7.67917964       1.91979491      16.07250000  F        3      -0.01301620      -0.01269920      -0.16475340
Si       0.00000000       5.75938473      16.07250000  F        3      -0.03780463      -0.11204633      -0.07010982
Si       3.83958982       5.75938473      16.07250000  F        3       0.01894559      -0.02104866      -0.14107116
Si       7.67917964       5.75938473      16.07250000  F        3      -0.01301620       0.01269923      -0.16475338
Si       0.00000000       0.00000000      17.43000000  F        2      -0.04156980      -0.00000002       0.56681420
Si       3.83958982       0.00000000      17.43000000  F        2      -0.02108466      -0.00000002       0.48736330
Si       7.67917964       0.00000000      17.43000000  F        2       0.06317083      -0.00000002       0.49357893
Si       0.00000000       3.83958982      17.43000000  F        2       0.56187299       0.00000000      -0.02907885
Si       3.83958982       3.83958982      17.43000000  F        2      -0.08836039       0.00000000       0.34498302
Si       7.67917964       3.83958982      17.43000000  F        2       0.06800365       0.00000000       0.46200367
Si       1.91979491       0.00000000      18.78750000  F        1       0.01609818       0.00000000      -0.24193744
Si       5.75938473       0.00000000      18.78750000  F        1       0.01985439       0.00000000      -0.18731559
Si       9.59897455       0.00000000      18.78750000  F        1      -0.07371506       0.00000000      -0.18841878
Si       1.91979491       3.83958982      18.78750000  F        1      -0.06639587      -0.00000000      -0.15073123
Si       5.75938473       3.83958982      18.78750000  F        1       0.01546404      -0.00000000      -0.30259791
Si       9.59897455       3.83958982      18.78750000  F        1       0.72771709      -0.00000000      -1.16834369
Si       7.67917964       3.83958982      21.87902565  T        0      -0.39171088       0.00000000       1.67837852
F        6.09717779       3.83958982      21.87902565  T        0       0.10061206      -0.00000000      -0.09062607
F        8.20651359       3.83958982      20.38750000  T        0      -1.06901457      -0.00000000       0.33669274
F        8.20651359       5.13128892      22.62478847  T        0       0.12760527       0.02255716      -0.29593857
F        8.20651359       2.54789072      22.62478847  T        0       0.12760527      -0.02255716      -0.29593857
41
Lattice="11.518769465528859 0.0 0.0 0.0 7.679179643685906 0.0 0.0 0.0 30.7875" Properties=species:S:1:pos:R:3:move_mask:L:1:tags:I:1:forces:R:3 surface=Si100 species=SiF4 site=bridge_Si_Si orientation=parallel height_A=1.3 substrate_atoms=36 calculation_kind="Rigid evaluated approach scan; not NEB" energy=-207.14340503160597 pbc="T T F"
Si       0.00000000       0.00000000      12.00000000  F        6       0.00584229       0.00000000       0.25879339
Si       3.83958982       0.00000000      12.00000000  F        6      -0.00343931       0.00000000       0.25325568
Si       7.67917964       0.00000000      12.00000000  F        6      -0.00202041       0.00000000       0.24843302
Si       0.00000000       3.83958982      12.00000000  F        6       0.00846652      -0.00000000       0.24087309
Si       3.83958982       3.83958982      12.00000000  F        6      -0.00327273      -0.00000000       0.24325263
Si       7.67917964       3.83958982      12.00000000  F        6      -0.00500500      -0.00000000       0.23774313
Si       1.91979491       0.00000000      13.35750000  F        5      -0.00275201      -0.00000002      -0.52230155
Si       5.75938473       0.00000000      13.35750000  F        5       0.00280468      -0.00000002      -0.52107453
Si       9.59897455       0.00000000      13.35750000  F        5       0.00186335      -0.00000002      -0.54043348
Si       1.91979491       3.83958982      13.35750000  F        5       0.00639827       0.00000000      -0.52982529
Si       5.75938473       3.83958982      13.35750000  F        5      -0.00009075       0.00000000      -0.49986794
Si       9.59897455       3.83958982      13.35750000  F        5      -0.00277029       0.00000000      -0.53409147
Si       1.91979491       1.91979491      14.71500000  F        4       0.01463263      -0.01029733       0.14766573
Si       5.75938473       1.91979491      14.71500000  F        4       0.01296736       0.00773546       0.18849196
Si       9.59897455       1.91979491      14.71500000  F        4      -0.04425437      -0.01014824       0.20492515
Si       1.91979491       5.75938473      14.71500000  F        4       0.01463263       0.01029735       0.14766572
Si       5.75938473       5.75938473      14.71500000  F        4       0.01296736      -0.00773544       0.18849195
Si       9.59897455       5.75938473      14.71500000  F        4      -0.04425437       0.01014827       0.20492514
Si       0.00000000       1.91979491      16.07250000  F        3      -0.03380287       0.12877843      -0.06421596
Si       3.83958982       1.91979491      16.07250000  F        3       0.02774513       0.03700011      -0.13730012
Si       7.67917964       1.91979491      16.07250000  F        3      -0.02792513       0.02054026      -0.17406040
Si       0.00000000       5.75938473      16.07250000  F        3      -0.03380287      -0.12877841      -0.06421594
Si       3.83958982       5.75938473      16.07250000  F        3       0.02774513      -0.03700008      -0.13730011
Si       7.67917964       5.75938473      16.07250000  F        3      -0.02792513      -0.02054024      -0.17406039
Si       0.00000000       0.00000000      17.43000000  F        2      -0.02711452      -0.00000002       0.53584341
Si       3.83958982       0.00000000      17.43000000  F        2      -0.02149959      -0.00000002       0.45170874
Si       7.67917964       0.00000000      17.43000000  F        2       0.06716977      -0.00000002       0.47411736
Si       0.00000000       3.83958982      17.43000000  F        2       0.72155352       0.00000000      -0.12100265
Si       3.83958982       3.83958982      17.43000000  F        2      -0.09338165       0.00000000       0.33234265
Si       7.67917964       3.83958982      17.43000000  F        2      -0.14698450       0.00000000      -0.27969031
Si       1.91979491       0.00000000      18.78750000  F        1       0.01612040       0.00000000      -0.22468637
Si       5.75938473       0.00000000      18.78750000  F        1       0.05905276       0.00000000      -0.07790543
Si       9.59897455       0.00000000      18.78750000  F        1      -0.12519759       0.00000000      -0.06580882
Si       1.91979491       3.83958982      18.78750000  F        1      -0.06072911      -0.00000000      -0.14679086
Si       5.75938473       3.83958982      18.78750000  F        1      -0.20280662      -0.00000000      -0.83985166
Si       9.59897455       3.83958982      18.78750000  F        1       1.04750374      -0.00000000      -1.06842206
Si       7.67917964       3.83958982      21.57902565  T        0      -0.49803798       0.00000000       2.56472285
F        6.09717779       3.83958982      21.57902565  T        0       0.18332495      -0.00000000       0.15413909
F        8.20651359       3.83958982      20.08750000  T        0      -1.14526834      -0.00000000       0.42339322
F        8.20651359       5.13128892      22.32478847  T        0       0.16077234       0.04765420      -0.38893929
F        8.20651359       2.54789072      22.32478847  T        0       0.16077234      -0.04765420      -0.38893929
