41
Lattice="11.518769465528859 0.0 0.0 0.0 7.679179643685906 0.0 0.0 0.0 30.7875" Properties=species:S:1:pos:R:3:move_mask:L:1:tags:I:1:forces:R:3 surface=Si100 species=SiCl4 site=atop_Si orientation=parallel height_A=6.5 substrate_atoms=36 calculation_kind="Rigid evaluated approach scan; not NEB" energy=-199.31249491099615 pbc="T T F"
Si       0.00000000       0.00000000      12.00000000  F        6      -0.00000004       0.00000000       0.24903484
Si       3.83958982       0.00000000      12.00000000  F        6      -0.00000000       0.00000000       0.24903482
Si       7.67917964       0.00000000      12.00000000  F        6       0.00000000       0.00000000       0.24903482
Si       0.00000000       3.83958982      12.00000000  F        6      -0.00000004      -0.00000000       0.24903484
Si       3.83958982       3.83958982      12.00000000  F        6      -0.00000000      -0.00000000       0.24903482
Si       7.67917964       3.83958982      12.00000000  F        6       0.00000000      -0.00000000       0.24903482
Si       1.91979491       0.00000000      13.35750000  F        5       0.00000000      -0.00000002      -0.52822352
Si       5.75938473       0.00000000      13.35750000  F        5       0.00000000      -0.00000002      -0.52822353
Si       9.59897455       0.00000000      13.35750000  F        5       0.00000003      -0.00000002      -0.52822354
Si       1.91979491       3.83958982      13.35750000  F        5       0.00000000       0.00000000      -0.52822354
Si       5.75938473       3.83958982      13.35750000  F        5       0.00000000       0.00000000      -0.52822354
Si       9.59897455       3.83958982      13.35750000  F        5       0.00000003       0.00000000      -0.52822356
Si       1.91979491       1.91979491      14.71500000  F        4      -0.00000000       0.00000000       0.14537709
Si       5.75938473       1.91979491      14.71500000  F        4       0.00000000       0.00000000       0.14537709
Si       9.59897455       1.91979491      14.71500000  F        4       0.00000004       0.00000000       0.14537711
Si       1.91979491       5.75938473      14.71500000  F        4      -0.00000000       0.00000002       0.14537707
Si       5.75938473       5.75938473      14.71500000  F        4       0.00000000       0.00000002       0.14537707
Si       9.59897455       5.75938473      14.71500000  F        4       0.00000004       0.00000002       0.14537709
Si       0.00000000       1.91979491      16.07250000  F        3      -0.00000004       0.00000000      -0.14537711
Si       3.83958982       1.91979491      16.07250000  F        3      -0.00000000       0.00000000      -0.14537709
Si       7.67917964       1.91979491      16.07250000  F        3       0.00000000       0.00000000      -0.14537709
Si       0.00000000       5.75938473      16.07250000  F        3      -0.00000004       0.00000002      -0.14537709
Si       3.83958982       5.75938473      16.07250000  F        3      -0.00000000       0.00000002      -0.14537707
Si       7.67917964       5.75938473      16.07250000  F        3       0.00000000       0.00000002      -0.14537707
Si       0.00000000       0.00000000      17.43000000  F        2      -0.00000003      -0.00000002       0.52822354
Si       3.83958982       0.00000000      17.43000000  F        2      -0.00000000      -0.00000002       0.52822353
Si       7.67917964       0.00000000      17.43000000  F        2      -0.00000000      -0.00000002       0.52822352
Si       0.00000000       3.83958982      17.43000000  F        2      -0.00000003       0.00000000       0.52822356
Si       3.83958982       3.83958982      17.43000000  F        2      -0.00000000       0.00000000       0.52822354
Si       7.67917964       3.83958982      17.43000000  F        2      -0.00000000       0.00000000       0.52822354
Si       1.91979491       0.00000000      18.78750000  F        1      -0.00000000       0.00000000      -0.24903482
Si       5.75938473       0.00000000      18.78750000  F        1       0.00000000       0.00000000      -0.24903482
Si       9.59897455       0.00000000      18.78750000  F        1       0.00000004       0.00000000      -0.24903484
Si       1.91979491       3.83958982      18.78750000  F        1      -0.00000000      -0.00000000      -0.24903482
Si       5.75938473       3.83958982      18.78750000  F        1       0.00000000      -0.00000000      -0.24903482
Si       9.59897455       3.83958982      18.78750000  F        1       0.00000004      -0.00000000      -0.24903484
Si       5.75938473       3.83958982      27.20556301  T        0      -0.00052482       0.00000000      -0.00074226
Cl       3.72497169       3.83958982      27.20556301  T        0      -0.00472478       0.00000000      -0.00187593
Cl       6.43752241       3.83958982      25.28750000  T        0      -0.00019372       0.00000000      -0.00507986
Cl       6.43752241       5.50068111      28.16459451  T        0       0.00272166      -0.00477622       0.00384902
Cl       6.43752241       2.17849853      28.16459451  T        0       0.00272166       0.00477622       0.00384902
41
Lattice="11.518769465528859 0.0 0.0 0.0 7.679179643685906 0.0 0.0 0.0 30.7875" Properties=species:S:1:pos:R:3:move_mask:L:1:tags:I:1:forces:R:3 surface=Si100 species=SiCl4 site=atop_Si orientation=parallel height_A=5.0 substrate_atoms=36 calculation_kind="Rigid evaluated approach scan; not NEB" energy=-199.31249491099615 pbc="T T F"
Si       0.00000000       0.00000000      12.00000000  F        6      -0.00000004       0.00000000       0.24903484
Si       3.83958982       0.00000000      12.00000000  F        6      -0.00000000       0.00000000       0.24903482
Si       7.67917964       0.00000000      12.00000000  F        6       0.00000000       0.00000000       0.24903482
Si       0.00000000       3.83958982      12.00000000  F        6      -0.00000004      -0.00000000       0.24903484
Si       3.83958982       3.83958982      12.00000000  F        6      -0.00000000      -0.00000000       0.24903482
Si       7.67917964       3.83958982      12.00000000  F        6       0.00000000      -0.00000000       0.24903482
Si       1.91979491       0.00000000      13.35750000  F        5       0.00000000      -0.00000002      -0.52822352
Si       5.75938473       0.00000000      13.35750000  F        5       0.00000000      -0.00000002      -0.52822353
Si       9.59897455       0.00000000      13.35750000  F        5       0.00000003      -0.00000002      -0.52822354
Si       1.91979491       3.83958982      13.35750000  F        5       0.00000000       0.00000000      -0.52822354
Si       5.75938473       3.83958982      13.35750000  F        5       0.00000000       0.00000000      -0.52822354
Si       9.59897455       3.83958982      13.35750000  F        5       0.00000003       0.00000000      -0.52822356
Si       1.91979491       1.91979491      14.71500000  F        4      -0.00000000       0.00000000       0.14537709
Si       5.75938473       1.91979491      14.71500000  F        4       0.00000000       0.00000000       0.14537709
Si       9.59897455       1.91979491      14.71500000  F        4       0.00000004       0.00000000       0.14537711
Si       1.91979491       5.75938473      14.71500000  F        4      -0.00000000       0.00000002       0.14537707
Si       5.75938473       5.75938473      14.71500000  F        4       0.00000000       0.00000002       0.14537707
Si       9.59897455       5.75938473      14.71500000  F        4       0.00000004       0.00000002       0.14537709
Si       0.00000000       1.91979491      16.07250000  F        3      -0.00000004       0.00000000      -0.14537711
Si       3.83958982       1.91979491      16.07250000  F        3      -0.00000000       0.00000000      -0.14537709
Si       7.67917964       1.91979491      16.07250000  F        3       0.00000000       0.00000000      -0.14537709
Si       0.00000000       5.75938473      16.07250000  F        3      -0.00000004       0.00000002      -0.14537709
Si       3.83958982       5.75938473      16.07250000  F        3      -0.00000000       0.00000002      -0.14537707
Si       7.67917964       5.75938473      16.07250000  F        3       0.00000000       0.00000002      -0.14537707
Si       0.00000000       0.00000000      17.43000000  F        2      -0.00000003      -0.00000002       0.52822354
Si       3.83958982       0.00000000      17.43000000  F        2      -0.00000000      -0.00000002       0.52822353
Si       7.67917964       0.00000000      17.43000000  F        2      -0.00000000      -0.00000002       0.52822352
Si       0.00000000       3.83958982      17.43000000  F        2      -0.00000003       0.00000000       0.52822356
Si       3.83958982       3.83958982      17.43000000  F        2      -0.00000000       0.00000000       0.52822354
Si       7.67917964       3.83958982      17.43000000  F        2      -0.00000000       0.00000000       0.52822354
Si       1.91979491       0.00000000      18.78750000  F        1      -0.00000000       0.00000000      -0.24903482
Si       5.75938473       0.00000000      18.78750000  F        1       0.00000000       0.00000000      -0.24903482
Si       9.59897455       0.00000000      18.78750000  F        1       0.00000004       0.00000000      -0.24903484
Si       1.91979491       3.83958982      18.78750000  F        1      -0.00000000      -0.00000000      -0.24903482
Si       5.75938473       3.83958982      18.78750000  F        1       0.00000000      -0.00000000      -0.24903482
Si       9.59897455       3.83958982      18.78750000  F        1       0.00000004      -0.00000000      -0.24903484
Si       5.75938473       3.83958982      25.70556301  T        0      -0.00052482       0.00000000      -0.00074226
Cl       3.72497169       3.83958982      25.70556301  T        0      -0.00472478       0.00000000      -0.00187593
Cl       6.43752241       3.83958982      23.78750000  T        0      -0.00019372       0.00000000      -0.00507986
Cl       6.43752241       5.50068111      26.66459451  T        0       0.00272166      -0.00477622       0.00384902
Cl       6.43752241       2.17849853      26.66459451  T        0       0.00272166       0.00477622       0.00384902
41
Lattice="11.518769465528859 0.0 0.0 0.0 7.679179643685906 0.0 0.0 0.0 30.7875" Properties=species:S:1:pos:R:3:move_mask:L:1:tags:I:1:forces:R:3 surface=Si100 species=SiCl4 site=atop_Si orientation=parallel height_A=4.0 substrate_atoms=36 calculation_kind="Rigid evaluated approach scan; not NEB" energy=-199.36563251639993 pbc="T T F"
Si       0.00000000       0.00000000      12.00000000  F        6      -0.00000004       0.00000000       0.24888536
Si       3.83958982       0.00000000      12.00000000  F        6       0.00025775       0.00000000       0.24853806
Si       7.67917964       0.00000000      12.00000000  F        6      -0.00025775       0.00000000       0.24856493
Si       0.00000000       3.83958982      12.00000000  F        6      -0.00000004      -0.00000000       0.24887369
Si       3.83958982       3.83958982      12.00000000  F        6       0.00040386      -0.00000000       0.24888825
Si       7.67917964       3.83958982      12.00000000  F        6      -0.00040386      -0.00000000       0.24891512
Si       1.91979491       0.00000000      13.35750000  F        5       0.00015218      -0.00000002      -0.52769142
Si       5.75938473       0.00000000      13.35750000  F        5       0.00002587      -0.00000002      -0.52715559
Si       9.59897455       0.00000000      13.35750000  F        5      -0.00017801      -0.00000002      -0.52768083
Si       1.91979491       3.83958982      13.35750000  F        5       0.00089234       0.00000000      -0.52612783
Si       5.75938473       3.83958982      13.35750000  F        5       0.00007165       0.00000000      -0.52410394
Si       9.59897455       3.83958982      13.35750000  F        5      -0.00096396       0.00000000      -0.52602198
Si       1.91979491       1.91979491      14.71500000  F        4       0.00187989       0.00013433       0.14628571
Si       5.75938473       1.91979491      14.71500000  F        4       0.00051699       0.00701336       0.15791430
Si       9.59897455       1.91979491      14.71500000  F        4      -0.00209957       0.00012625       0.14633796
Si       1.91979491       5.75938473      14.71500000  F        4       0.00187989      -0.00013431       0.14628569
Si       5.75938473       5.75938473      14.71500000  F        4       0.00051699      -0.00701333       0.15791429
Si       9.59897455       5.75938473      14.71500000  F        4      -0.00209957      -0.00012622       0.14633795
Si       0.00000000       1.91979491      16.07250000  F        3       0.00002795       0.00362835      -0.14320201
Si       3.83958982       1.91979491      16.07250000  F        3       0.00088647       0.00979822      -0.14019136
Si       7.67917964       1.91979491      16.07250000  F        3       0.00001198       0.00888926      -0.14455795
Si       0.00000000       5.75938473      16.07250000  F        3       0.00002795      -0.00362833      -0.14320200
Si       3.83958982       5.75938473      16.07250000  F        3       0.00088647      -0.00979819      -0.14019135
Si       7.67917964       5.75938473      16.07250000  F        3       0.00001198      -0.00888924      -0.14455794
Si       0.00000000       0.00000000      17.43000000  F        2       0.00003316      -0.00000002       0.52894409
Si       3.83958982       0.00000000      17.43000000  F        2      -0.00565621      -0.00000002       0.51948358
Si       7.67917964       0.00000000      17.43000000  F        2       0.00517871      -0.00000002       0.51890369
Si       0.00000000       3.83958982      17.43000000  F        2      -0.00030660       0.00000000       0.52855706
Si       3.83958982       3.83958982      17.43000000  F        2      -0.02256729       0.00000000       0.51470174
Si       7.67917964       3.83958982      17.43000000  F        2       0.02106501       0.00000000       0.49960234
Si       1.91979491       0.00000000      18.78750000  F        1       0.00151804       0.00000000      -0.25007605
Si       5.75938473       0.00000000      18.78750000  F        1      -0.00036267       0.00000000      -0.24561111
Si       9.59897455       0.00000000      18.78750000  F        1      -0.00153256       0.00000000      -0.25003830
Si       1.91979491       3.83958982      18.78750000  F        1      -0.00690342      -0.00000000      -0.26225618
Si       5.75938473       3.83958982      18.78750000  F        1       0.00530123      -0.00000000      -0.21111038
Si       9.59897455       3.83958982      18.78750000  F        1       0.01362109      -0.00000000      -0.26195495
Si       5.75938473       3.83958982      24.70556301  T        0       0.02942628       0.00000000      -0.07234453
Cl       3.72497169       3.83958982      24.70556301  T        0      -0.00386747       0.00000000      -0.00426835
Cl       6.43752241       3.83958982      22.78750000  T        0      -0.04255318       0.00000000       0.03786515
Cl       6.43752241       5.50068111      25.66459451  T        0       0.00257922       0.00476753       0.01527255
Cl       6.43752241       2.17849853      25.66459451  T        0       0.00257922      -0.00476753       0.01527255
41
Lattice="11.518769465528859 0.0 0.0 0.0 7.679179643685906 0.0 0.0 0.0 30.7875" Properties=species:S:1:pos:R:3:move_mask:L:1:tags:I:1:forces:R:3 surface=Si100 species=SiCl4 site=atop_Si orientation=parallel height_A=3.25 substrate_atoms=36 calculation_kind="Rigid evaluated approach scan; not NEB" energy=-199.3416110813632 pbc="T T F"
Si       0.00000000       0.00000000      12.00000000  F        6      -0.00010675       0.00000000       0.24958924
Si       3.83958982       0.00000000      12.00000000  F        6      -0.00028941       0.00000000       0.24977093
Si       7.67917964       0.00000000      12.00000000  F        6       0.00039607       0.00000000       0.24984982
Si       0.00000000       3.83958982      12.00000000  F        6      -0.00021747      -0.00000000       0.24912453
Si       3.83958982       3.83958982      12.00000000  F        6       0.00000436      -0.00000000       0.24860854
Si       7.67917964       3.83958982      12.00000000  F        6       0.00021305      -0.00000000       0.24902705
Si       1.91979491       0.00000000      13.35750000  F        5       0.00065353      -0.00000002      -0.52682401
Si       5.75938473       0.00000000      13.35750000  F        5      -0.00031362      -0.00000002      -0.52872906
Si       9.59897455       0.00000000      13.35750000  F        5      -0.00033758      -0.00000002      -0.52680109
Si       1.91979491       3.83958982      13.35750000  F        5       0.00049481       0.00000000      -0.52529848
Si       5.75938473       3.83958982      13.35750000  F        5       0.00093558       0.00000000      -0.52595060
Si       9.59897455       3.83958982      13.35750000  F        5      -0.00129725       0.00000000      -0.52421414
Si       1.91979491       1.91979491      14.71500000  F        4       0.00228083      -0.00053303       0.14651420
Si       5.75938473       1.91979491      14.71500000  F        4       0.00096476       0.00287766       0.15939155
Si       9.59897455       1.91979491      14.71500000  F        4      -0.00260372       0.00012938       0.14827903
Si       1.91979491       5.75938473      14.71500000  F        4       0.00228083       0.00053305       0.14651419
Si       5.75938473       5.75938473      14.71500000  F        4       0.00096476      -0.00287764       0.15939153
Si       9.59897455       5.75938473      14.71500000  F        4      -0.00260372      -0.00012936       0.14827901
Si       0.00000000       1.91979491      16.07250000  F        3      -0.00350490       0.00329542      -0.14357452
Si       3.83958982       1.91979491      16.07250000  F        3       0.00343339       0.02982255      -0.13919101
Si       7.67917964       1.91979491      16.07250000  F        3       0.00689260       0.00883024      -0.16235860
Si       0.00000000       5.75938473      16.07250000  F        3      -0.00350490      -0.00329539      -0.14357451
Si       3.83958982       5.75938473      16.07250000  F        3       0.00343339      -0.02982253      -0.13919100
Si       7.67917964       5.75938473      16.07250000  F        3       0.00689260      -0.00883021      -0.16235859
Si       0.00000000       0.00000000      17.43000000  F        2      -0.00226208      -0.00000002       0.52616431
Si       3.83958982       0.00000000      17.43000000  F        2      -0.01109122      -0.00000002       0.51116422
Si       7.67917964       0.00000000      17.43000000  F        2       0.01764116      -0.00000002       0.50559131
Si       0.00000000       3.83958982      17.43000000  F        2       0.00435788       0.00000000       0.52906680
Si       3.83958982       3.83958982      17.43000000  F        2       0.02985773       0.00000000       0.53707692
Si       7.67917964       3.83958982      17.43000000  F        2      -0.04303212       0.00000000       0.51755322
Si       1.91979491       0.00000000      18.78750000  F        1       0.00161584       0.00000000      -0.24662673
Si       5.75938473       0.00000000      18.78750000  F        1       0.00172221       0.00000000      -0.24352248
Si       9.59897455       0.00000000      18.78750000  F        1      -0.00069050       0.00000000      -0.25620339
Si       1.91979491       3.83958982      18.78750000  F        1      -0.01345115      -0.00000000      -0.26151597
Si       5.75938473       3.83958982      18.78750000  F        1      -0.04733045      -0.00000000      -0.33332223
Si       9.59897455       3.83958982      18.78750000  F        1       0.01485933      -0.00000000      -0.25256344
Si       5.75938473       3.83958982      23.95556301  T        0      -0.00214909       0.00000000      -0.07972603
Cl       3.72497169       3.83958982      23.95556301  T        0      -0.02404657       0.00000000       0.00106007
Cl       6.43752241       3.83958982      22.03750000  T        0       0.03957260       0.00000000       0.18308248
Cl       6.43752241       5.50068111      24.91459451  T        0       0.00968258       0.00908685       0.00322348
Cl       6.43752241       2.17849853      24.91459451  T        0       0.00968258      -0.00908685       0.00322348
41
Lattice="11.518769465528859 0.0 0.0 0.0 7.679179643685906 0.0 0.0 0.0 30.7875" Properties=species:S:1:pos:R:3:move_mask:L:1:tags:I:1:forces:R:3 surface=Si100 species=SiCl4 site=atop_Si orientation=parallel height_A=2.75 substrate_atoms=36 calculation_kind="Rigid evaluated approach scan; not NEB" energy=-199.1513777050051 pbc="T T F"
Si       0.00000000       0.00000000      12.00000000  F        6       0.00015899       0.00000000       0.25065847
Si       3.83958982       0.00000000      12.00000000  F        6      -0.00136136       0.00000000       0.25090329
Si       7.67917964       0.00000000      12.00000000  F        6       0.00120063       0.00000000       0.25211589
Si       0.00000000       3.83958982      12.00000000  F        6      -0.00041599      -0.00000000       0.24894374
Si       3.83958982       3.83958982      12.00000000  F        6      -0.00034182      -0.00000000       0.24818173
Si       7.67917964       3.83958982      12.00000000  F        6       0.00075654      -0.00000000       0.25077212
Si       1.91979491       0.00000000      13.35750000  F        5       0.00107927      -0.00000002      -0.52770116
Si       5.75938473       0.00000000      13.35750000  F        5      -0.00005325      -0.00000002      -0.53008927
Si       9.59897455       0.00000000      13.35750000  F        5      -0.00102263      -0.00000002      -0.52758619
Si       1.91979491       3.83958982      13.35750000  F        5       0.00096938       0.00000000      -0.52807897
Si       5.75938473       3.83958982      13.35750000  F        5       0.00290652       0.00000000      -0.52799899
Si       9.59897455       3.83958982      13.35750000  F        5      -0.00214272       0.00000000      -0.52811040
Si       1.91979491       1.91979491      14.71500000  F        4       0.00246825      -0.00174182       0.14592839
Si       5.75938473       1.91979491      14.71500000  F        4       0.00203223      -0.00573878       0.15563794
Si       9.59897455       1.91979491      14.71500000  F        4      -0.00404738      -0.00370501       0.14509932
Si       1.91979491       5.75938473      14.71500000  F        4       0.00246825       0.00174184       0.14592837
Si       5.75938473       5.75938473      14.71500000  F        4       0.00203223       0.00573880       0.15563793
Si       9.59897455       5.75938473      14.71500000  F        4      -0.00404738       0.00370503       0.14509930
Si       0.00000000       1.91979491      16.07250000  F        3      -0.00846698       0.00677105      -0.13813286
Si       3.83958982       1.91979491      16.07250000  F        3       0.01200529       0.05228104      -0.12995316
Si       7.67917964       1.91979491      16.07250000  F        3       0.00027563       0.00023606      -0.17686150
Si       0.00000000       5.75938473      16.07250000  F        3      -0.00846698      -0.00677102      -0.13813284
Si       3.83958982       5.75938473      16.07250000  F        3       0.01200529      -0.05228102      -0.12995315
Si       7.67917964       5.75938473      16.07250000  F        3       0.00027563      -0.00023604      -0.17686149
Si       0.00000000       0.00000000      17.43000000  F        2       0.00065075      -0.00000002       0.52267326
Si       3.83958982       0.00000000      17.43000000  F        2      -0.00602607      -0.00000002       0.50999082
Si       7.67917964       0.00000000      17.43000000  F        2       0.00387883      -0.00000002       0.49460646
Si       0.00000000       3.83958982      17.43000000  F        2      -0.00983665       0.00000000       0.55892207
Si       3.83958982       3.83958982      17.43000000  F        2      -0.06110273       0.00000000       0.48937981
Si       7.67917964       3.83958982      17.43000000  F        2      -0.03584490       0.00000000       0.58655619
Si       1.91979491       0.00000000      18.78750000  F        1       0.00448599       0.00000000      -0.24767858
Si       5.75938473       0.00000000      18.78750000  F        1       0.01822197       0.00000000      -0.16220163
Si       9.59897455       0.00000000      18.78750000  F        1       0.00097071       0.00000000      -0.25731492
Si       1.91979491       3.83958982      18.78750000  F        1       0.00501931      -0.00000000      -0.27119107
Si       5.75938473       3.83958982      18.78750000  F        1      -0.21229891      -0.00000000      -1.05890120
Si       9.59897455       3.83958982      18.78750000  F        1      -0.01584252      -0.00000000      -0.22843440
Si       5.75938473       3.83958982      23.45556301  T        0      -0.19781687       0.00000000       0.23180433
Cl       3.72497169       3.83958982      23.45556301  T        0      -0.01514142      -0.00000000      -0.05208753
Cl       6.43752241       3.83958982      21.53750000  T        0       0.41961991      -0.00000000       0.75522682
Cl       6.43752241       5.50068111      24.41459451  T        0       0.04539750       0.00297052      -0.10339847
Cl       6.43752241       2.17849853      24.41459451  T        0       0.04539750      -0.00297052      -0.10339847
41
Lattice="11.518769465528859 0.0 0.0 0.0 7.679179643685906 0.0 0.0 0.0 30.7875" Properties=species:S:1:pos:R:3:move_mask:L:1:tags:I:1:forces:R:3 surface=Si100 species=SiCl4 site=atop_Si orientation=parallel height_A=2.25 substrate_atoms=36 calculation_kind="Rigid evaluated approach scan; not NEB" energy=-198.72713465410874 pbc="T T F"
Si       0.00000000       0.00000000      12.00000000  F        6       0.00020399       0.00000000       0.25204002
Si       3.83958982       0.00000000      12.00000000  F        6      -0.00282149       0.00000000       0.25523356
Si       7.67917964       0.00000000      12.00000000  F        6       0.00261779       0.00000000       0.25597420
Si       0.00000000       3.83958982      12.00000000  F        6       0.00030202      -0.00000000       0.24896332
Si       3.83958982       3.83958982      12.00000000  F        6      -0.00284237      -0.00000000       0.25001846
Si       7.67917964       3.83958982      12.00000000  F        6       0.00253948      -0.00000000       0.24973115
Si       1.91979491       0.00000000      13.35750000  F        5       0.00603342      -0.00000002      -0.52515031
Si       5.75938473       0.00000000      13.35750000  F        5      -0.00151832      -0.00000002      -0.52740528
Si       9.59897455       0.00000000      13.35750000  F        5      -0.00455065      -0.00000002      -0.52690915
Si       1.91979491       3.83958982      13.35750000  F        5       0.00094036       0.00000000      -0.53798765
Si       5.75938473       3.83958982      13.35750000  F        5       0.00489608       0.00000000      -0.51907045
Si       9.59897455       3.83958982      13.35750000  F        5      -0.00441689       0.00000000      -0.52796376
Si       1.91979491       1.91979491      14.71500000  F        4       0.00206129      -0.00450546       0.14784260
Si       5.75938473       1.91979491      14.71500000  F        4       0.00681071      -0.03840093       0.12323908
Si       9.59897455       1.91979491      14.71500000  F        4      -0.00927240      -0.00803674       0.15046031
Si       1.91979491       5.75938473      14.71500000  F        4       0.00206129       0.00450548       0.14784259
Si       5.75938473       5.75938473      14.71500000  F        4       0.00681071       0.03840096       0.12323907
Si       9.59897455       5.75938473      14.71500000  F        4      -0.00927240       0.00803676       0.15046030
Si       0.00000000       1.91979491      16.07250000  F        3      -0.01731692       0.01349964      -0.12314333
Si       3.83958982       1.91979491      16.07250000  F        3       0.02916602       0.05465544      -0.11562219
Si       7.67917964       1.91979491      16.07250000  F        3      -0.00146663      -0.01262230      -0.17422473
Si       0.00000000       5.75938473      16.07250000  F        3      -0.01731692      -0.01349962      -0.12314331
Si       3.83958982       5.75938473      16.07250000  F        3       0.02916602      -0.05465542      -0.11562218
Si       7.67917964       5.75938473      16.07250000  F        3      -0.00146663       0.01262232      -0.17422472
Si       0.00000000       0.00000000      17.43000000  F        2       0.01002233      -0.00000002       0.48750684
Si       3.83958982       0.00000000      17.43000000  F        2      -0.05017447      -0.00000002       0.48940802
Si       7.67917964       0.00000000      17.43000000  F        2       0.00941406      -0.00000002       0.46303589
Si       0.00000000       3.83958982      17.43000000  F        2      -0.04123182       0.00000000       0.56473758
Si       3.83958982       3.83958982      17.43000000  F        2      -0.16475869       0.00000000       0.47445009
Si       7.67917964       3.83958982      17.43000000  F        2       0.10570741       0.00000000       0.63202889
Si       1.91979491       0.00000000      18.78750000  F        1       0.00609980       0.00000000      -0.25135695
Si       5.75938473       0.00000000      18.78750000  F        1       0.04526262       0.00000000      -0.05702195
Si       9.59897455       0.00000000      18.78750000  F        1       0.01311518       0.00000000      -0.24373125
Si       1.91979491       3.83958982      18.78750000  F        1       0.03327827      -0.00000000      -0.16696067
Si       5.75938473       3.83958982      18.78750000  F        1      -0.45537715      -0.00000000      -1.34191865
Si       9.59897455       3.83958982      18.78750000  F        1      -0.01962583      -0.00000000      -0.22152104
Si       5.75938473       3.83958982      22.95556301  T        0      -0.65752023       0.00000000       0.96597582
Cl       3.72497169       3.83958982      22.95556301  T        0       0.02417042       0.00000000      -0.18690662
Cl       6.43752241       3.83958982      21.03750000  T        0       0.90425193       0.00000000       0.51220049
Cl       6.43752241       5.50068111      23.91459451  T        0       0.10800932       0.01134775      -0.24225205
Cl       6.43752241       2.17849853      23.91459451  T        0       0.10800932      -0.01134775      -0.24225205
41
Lattice="11.518769465528859 0.0 0.0 0.0 7.679179643685906 0.0 0.0 0.0 30.7875" Properties=species:S:1:pos:R:3:move_mask:L:1:tags:I:1:forces:R:3 surface=Si100 species=SiCl4 site=atop_Si orientation=parallel height_A=1.9 substrate_atoms=36 calculation_kind="Rigid evaluated approach scan; not NEB" energy=-198.34037242386853 pbc="T T F"
Si       0.00000000       0.00000000      12.00000000  F        6       0.00018117       0.00000000       0.25383326
Si       3.83958982       0.00000000      12.00000000  F        6      -0.00301889       0.00000000       0.25748087
Si       7.67917964       0.00000000      12.00000000  F        6       0.00283954       0.00000000       0.25781292
Si       0.00000000       3.83958982      12.00000000  F        6       0.00084194      -0.00000000       0.24994226
Si       3.83958982       3.83958982      12.00000000  F        6      -0.00422871      -0.00000000       0.24995354
Si       7.67917964       3.83958982      12.00000000  F        6       0.00338770      -0.00000000       0.24749341
Si       1.91979491       0.00000000      13.35750000  F        5       0.00827880      -0.00000002      -0.52087832
Si       5.75938473       0.00000000      13.35750000  F        5      -0.00199624      -0.00000002      -0.52619453
Si       9.59897455       0.00000000      13.35750000  F        5      -0.00633221      -0.00000002      -0.52293068
Si       1.91979491       3.83958982      13.35750000  F        5       0.00184910       0.00000000      -0.53095826
Si       5.75938473       3.83958982      13.35750000  F        5       0.00478033       0.00000000      -0.50226344
Si       9.59897455       3.83958982      13.35750000  F        5      -0.00777023       0.00000000      -0.51201694
Si       1.91979491       1.91979491      14.71500000  F        4      -0.00061961      -0.00480912       0.15155050
Si       5.75938473       1.91979491      14.71500000  F        4       0.01163884      -0.03927341       0.12526719
Si       9.59897455       1.91979491      14.71500000  F        4      -0.00776588      -0.01025677       0.15291369
Si       1.91979491       5.75938473      14.71500000  F        4      -0.00061961       0.00480915       0.15155048
Si       5.75938473       5.75938473      14.71500000  F        4       0.01163884       0.03927343       0.12526718
Si       9.59897455       5.75938473      14.71500000  F        4      -0.00776588       0.01025679       0.15291368
Si       0.00000000       1.91979491      16.07250000  F        3      -0.01687857       0.02818207      -0.11514036
Si       3.83958982       1.91979491      16.07250000  F        3       0.02902484       0.04916484      -0.11897051
Si       7.67917964       1.91979491      16.07250000  F        3       0.00524499      -0.00864608      -0.16308050
Si       0.00000000       5.75938473      16.07250000  F        3      -0.01687857      -0.02818204      -0.11514035
Si       3.83958982       5.75938473      16.07250000  F        3       0.02902484      -0.04916482      -0.11897050
Si       7.67917964       5.75938473      16.07250000  F        3       0.00524499       0.00864610      -0.16308048
Si       0.00000000       0.00000000      17.43000000  F        2       0.01622525      -0.00000002       0.44946230
Si       3.83958982       0.00000000      17.43000000  F        2      -0.08958688      -0.00000002       0.47318185
Si       7.67917964       0.00000000      17.43000000  F        2       0.02954938      -0.00000002       0.43592619
Si       0.00000000       3.83958982      17.43000000  F        2      -0.04930726       0.00000000       0.55287610
Si       3.83958982       3.83958982      17.43000000  F        2      -0.30115221       0.00000000       0.42377617
Si       7.67917964       3.83958982      17.43000000  F        2       0.13197849       0.00000000       0.67459226
Si       1.91979491       0.00000000      18.78750000  F        1       0.00927923       0.00000000      -0.24459448
Si       5.75938473       0.00000000      18.78750000  F        1       0.05565270       0.00000000      -0.02151464
Si       9.59897455       0.00000000      18.78750000  F        1       0.01498487       0.00000000      -0.22098658
Si       1.91979491       3.83958982      18.78750000  F        1      -0.02506395      -0.00000000      -0.17446195
Si       5.75938473       3.83958982      18.78750000  F        1      -0.96352766      -0.00000000      -2.80523871
Si       9.59897455       3.83958982      18.78750000  F        1       0.00170730      -0.00000000      -0.22539470
Si       5.75938473       3.83958982      22.60556301  T        0      -0.85541880       0.00000000       1.22622669
Cl       3.72497169       3.83958982      22.60556301  T        0       0.14679125       0.00000000      -0.18997421
Cl       6.43752241       3.83958982      20.68750000  T        0       1.60618691       0.00000000       1.83340358
Cl       6.43752241       5.50068111      23.56459451  T        0       0.11579995      -0.03544844      -0.32681700
Cl       6.43752241       2.17849853      23.56459451  T        0       0.11579995       0.03544844      -0.32681700
41
Lattice="11.518769465528859 0.0 0.0 0.0 7.679179643685906 0.0 0.0 0.0 30.7875" Properties=species:S:1:pos:R:3:move_mask:L:1:tags:I:1:forces:R:3 surface=Si100 species=SiCl4 site=atop_Si orientation=parallel height_A=1.6 substrate_atoms=36 calculation_kind="Rigid evaluated approach scan; not NEB" energy=-196.57286960130804 pbc="T T F"
Si       0.00000000       0.00000000      12.00000000  F        6      -0.00006358       0.00000000       0.25495301
Si       3.83958982       0.00000000      12.00000000  F        6      -0.00099417       0.00000000       0.25856328
Si       7.67917964       0.00000000      12.00000000  F        6       0.00105908       0.00000000       0.25882897
Si       0.00000000       3.83958982      12.00000000  F        6       0.00100406      -0.00000000       0.25034372
Si       3.83958982       3.83958982      12.00000000  F        6      -0.00308065      -0.00000000       0.24946353
Si       7.67917964       3.83958982      12.00000000  F        6       0.00207706      -0.00000000       0.24595654
Si       1.91979491       0.00000000      13.35750000  F        5       0.00575486      -0.00000002      -0.51963464
Si       5.75938473       0.00000000      13.35750000  F        5      -0.00159640      -0.00000002      -0.52980444
Si       9.59897455       0.00000000      13.35750000  F        5      -0.00422820      -0.00000002      -0.52050317
Si       1.91979491       3.83958982      13.35750000  F        5       0.00340584       0.00000000      -0.52265045
Si       5.75938473       3.83958982      13.35750000  F        5       0.00679090       0.00000000      -0.50187987
Si       9.59897455       3.83958982      13.35750000  F        5      -0.01236290       0.00000000      -0.49717677
Si       1.91979491       1.91979491      14.71500000  F        4      -0.00485389       0.00181639       0.15640038
Si       5.75938473       1.91979491      14.71500000  F        4       0.02107515      -0.01569161       0.17453484
Si       9.59897455       1.91979491      14.71500000  F        4      -0.00715818      -0.00692656       0.15668941
Si       1.91979491       5.75938473      14.71500000  F        4      -0.00485389      -0.00181637       0.15640036
Si       5.75938473       5.75938473      14.71500000  F        4       0.02107515       0.01569163       0.17453482
Si       9.59897455       5.75938473      14.71500000  F        4      -0.00715818       0.00692658       0.15668939
Si       0.00000000       1.91979491      16.07250000  F        3      -0.00933566       0.04486942      -0.10960368
Si       3.83958982       1.91979491      16.07250000  F        3       0.03184052      -0.02141223      -0.17996148
Si       7.67917964       1.91979491      16.07250000  F        3      -0.00291157      -0.01433056      -0.18039982
Si       0.00000000       5.75938473      16.07250000  F        3      -0.00933566      -0.04486939      -0.10960366
Si       3.83958982       5.75938473      16.07250000  F        3       0.03184052       0.02141225      -0.17996147
Si       7.67917964       5.75938473      16.07250000  F        3      -0.00291157       0.01433058      -0.18039981
Si       0.00000000       0.00000000      17.43000000  F        2       0.02004768      -0.00000002       0.43594523
Si       3.83958982       0.00000000      17.43000000  F        2      -0.08794176      -0.00000002       0.46775407
Si       7.67917964       0.00000000      17.43000000  F        2       0.02433174      -0.00000002       0.41952160
Si       0.00000000       3.83958982      17.43000000  F        2      -0.01973316       0.00000000       0.54384265
Si       3.83958982       3.83958982      17.43000000  F        2      -0.05186117       0.00000000       0.40107539
Si       7.67917964       3.83958982      17.43000000  F        2       0.03362824       0.00000000       0.38091536
Si       1.91979491       0.00000000      18.78750000  F        1       0.00027604       0.00000000      -0.23457107
Si       5.75938473       0.00000000      18.78750000  F        1       0.07915134       0.00000000      -0.00052210
Si       9.59897455       0.00000000      18.78750000  F        1       0.01855029       0.00000000      -0.19885553
Si       1.91979491       3.83958982      18.78750000  F        1      -0.18277449      -0.00000000      -0.13430453
Si       5.75938473       3.83958982      18.78750000  F        1      -4.81220869      -0.00000000     -11.37764669
Si       9.59897455       3.83958982      18.78750000  F        1       0.07968685      -0.00000000      -0.19513737
Si       5.75938473       3.83958982      22.30556301  T        0      -0.87892038       0.00000000       1.43797529
Cl       3.72497169       3.83958982      22.30556301  T        0       0.23035754       0.00000000      -0.21789993
Cl       6.43752241       3.83958982      20.38750000  T        0       5.26432670       0.00000000      10.62731521
Cl       6.43752241       5.50068111      23.26459451  T        0       0.11400231      -0.06171995      -0.40859329
Cl       6.43752241       2.17849853      23.26459451  T        0       0.11400231       0.06171995      -0.40859329
41
Lattice="11.518769465528859 0.0 0.0 0.0 7.679179643685906 0.0 0.0 0.0 30.7875" Properties=species:S:1:pos:R:3:move_mask:L:1:tags:I:1:forces:R:3 surface=Si100 species=SiCl4 site=atop_Si orientation=parallel height_A=1.3 substrate_atoms=36 calculation_kind="Rigid evaluated approach scan; not NEB" energy=-190.4450651890489 pbc="T T F"
Si       0.00000000       0.00000000      12.00000000  F        6      -0.00080716       0.00000000       0.25542882
Si       3.83958982       0.00000000      12.00000000  F        6       0.00125612       0.00000000       0.25905345
Si       7.67917964       0.00000000      12.00000000  F        6      -0.00051886       0.00000000       0.25887965
Si       0.00000000       3.83958982      12.00000000  F        6       0.00169389      -0.00000000       0.25032154
Si       3.83958982       3.83958982      12.00000000  F        6      -0.00178787      -0.00000000       0.24951143
Si       7.67917964       3.83958982      12.00000000  F        6       0.00011129      -0.00000000       0.24577464
Si       1.91979491       0.00000000      13.35750000  F        5       0.00202979      -0.00000002      -0.51970175
Si       5.75938473       0.00000000      13.35750000  F        5       0.00106936      -0.00000002      -0.52801494
Si       9.59897455       0.00000000      13.35750000  F        5      -0.00263535      -0.00000002      -0.51837001
Si       1.91979491       3.83958982      13.35750000  F        5       0.00138598       0.00000000      -0.52147114
Si       5.75938473       3.83958982      13.35750000  F        5       0.02011708       0.00000000      -0.50611393
Si       9.59897455       3.83958982      13.35750000  F        5      -0.02181871       0.00000000      -0.47688610
Si       1.91979491       1.91979491      14.71500000  F        4       0.00817574       0.00015118       0.17130333
Si       5.75938473       1.91979491      14.71500000  F        4       0.02131608      -0.04803413       0.17171028
Si       9.59897455       1.91979491      14.71500000  F        4      -0.02094614       0.01344680       0.18361374
Si       1.91979491       5.75938473      14.71500000  F        4       0.00817574      -0.00015116       0.17130332
Si       5.75938473       5.75938473      14.71500000  F        4       0.02131608       0.04803416       0.17171027
Si       9.59897455       5.75938473      14.71500000  F        4      -0.02094614      -0.01344678       0.18361372
Si       0.00000000       1.91979491      16.07250000  F        3      -0.00844013       0.05501211      -0.10960423
Si       3.83958982       1.91979491      16.07250000  F        3      -0.02493970      -0.20342513      -0.36960526
Si       7.67917964       1.91979491      16.07250000  F        3       0.05657092      -0.04006210      -0.27149896
Si       0.00000000       5.75938473      16.07250000  F        3      -0.00844013      -0.05501208      -0.10960422
Si       3.83958982       5.75938473      16.07250000  F        3      -0.02493970       0.20342516      -0.36960525
Si       7.67917964       5.75938473      16.07250000  F        3       0.05657092       0.04006213      -0.27149895
Si       0.00000000       0.00000000      17.43000000  F        2       0.01563136      -0.00000002       0.43738179
Si       3.83958982       0.00000000      17.43000000  F        2      -0.10162233      -0.00000002       0.41456890
Si       7.67917964       0.00000000      17.43000000  F        2       0.01594133      -0.00000002       0.42543549
Si       0.00000000       3.83958982      17.43000000  F        2       0.08267198       0.00000000       0.50564043
Si       3.83958982       3.83958982      17.43000000  F        2       0.64793976       0.00000000       0.66439737
Si       7.67917964       3.83958982      17.43000000  F        2      -0.00441331       0.00000000      -0.42753913
Si       1.91979491       0.00000000      18.78750000  F        1      -0.02410463       0.00000000      -0.21593969
Si       5.75938473       0.00000000      18.78750000  F        1       0.16087370       0.00000000       0.16874296
Si       9.59897455       0.00000000      18.78750000  F        1       0.04088342       0.00000000      -0.17364033
Si       1.91979491       3.83958982      18.78750000  F        1      -0.38010565      -0.00000000      -0.01216258
Si       5.75938473       3.83958982      18.78750000  F        1     -19.81602737      -0.00000000     -36.84047073
Si       9.59897455       3.83958982      18.78750000  F        1       0.24339315      -0.00000000      -0.12499152
Si       5.75938473       3.83958982      22.00556301  T        0      -0.62947335      -0.00000000       1.04235771
Cl       3.72497169       3.83958982      22.00556301  T        0       0.23759270      -0.00000000      -0.32893509
Cl       6.43752241       3.83958982      20.08750000  T        0      19.23226923       0.00000000      37.12069919
Cl       6.43752241       5.50068111      22.96459451  T        0       0.10749045       0.06997750      -0.32789711
Cl       6.43752241       2.17849853      22.96459451  T        0       0.10749045      -0.06997750      -0.32789711
