38
Lattice="11.518769465528859 0.0 0.0 0.0 7.679179643685906 0.0 0.0 0.0 30.7875" Properties=species:S:1:pos:R:3:move_mask:L:1:tags:I:1:forces:R:3 surface=Si100 species=HCl site=atop_Si orientation=upright height_A=6.5 substrate_atoms=36 calculation_kind="Rigid evaluated approach scan; not NEB" energy=-186.32958991594327 pbc="T T F"
Si       0.00000000       0.00000000      12.00000000  F        6      -0.00000004       0.00000000       0.24903484
Si       3.83958982       0.00000000      12.00000000  F        6      -0.00000000       0.00000000       0.24903482
Si       7.67917964       0.00000000      12.00000000  F        6       0.00000000       0.00000000       0.24903482
Si       0.00000000       3.83958982      12.00000000  F        6      -0.00000004      -0.00000000       0.24903484
Si       3.83958982       3.83958982      12.00000000  F        6      -0.00000000      -0.00000000       0.24903482
Si       7.67917964       3.83958982      12.00000000  F        6       0.00000000      -0.00000000       0.24903482
Si       1.91979491       0.00000000      13.35750000  F        5       0.00000000      -0.00000002      -0.52822352
Si       5.75938473       0.00000000      13.35750000  F        5       0.00000000      -0.00000002      -0.52822353
Si       9.59897455       0.00000000      13.35750000  F        5       0.00000003      -0.00000002      -0.52822354
Si       1.91979491       3.83958982      13.35750000  F        5       0.00000000       0.00000000      -0.52822354
Si       5.75938473       3.83958982      13.35750000  F        5       0.00000000       0.00000000      -0.52822354
Si       9.59897455       3.83958982      13.35750000  F        5       0.00000003       0.00000000      -0.52822356
Si       1.91979491       1.91979491      14.71500000  F        4      -0.00000000       0.00000000       0.14537709
Si       5.75938473       1.91979491      14.71500000  F        4       0.00000000       0.00000000       0.14537709
Si       9.59897455       1.91979491      14.71500000  F        4       0.00000004       0.00000000       0.14537711
Si       1.91979491       5.75938473      14.71500000  F        4      -0.00000000       0.00000002       0.14537707
Si       5.75938473       5.75938473      14.71500000  F        4       0.00000000       0.00000002       0.14537707
Si       9.59897455       5.75938473      14.71500000  F        4       0.00000004       0.00000002       0.14537709
Si       0.00000000       1.91979491      16.07250000  F        3      -0.00000004       0.00000000      -0.14537711
Si       3.83958982       1.91979491      16.07250000  F        3      -0.00000000       0.00000000      -0.14537709
Si       7.67917964       1.91979491      16.07250000  F        3       0.00000000       0.00000000      -0.14537709
Si       0.00000000       5.75938473      16.07250000  F        3      -0.00000004       0.00000002      -0.14537709
Si       3.83958982       5.75938473      16.07250000  F        3      -0.00000000       0.00000002      -0.14537707
Si       7.67917964       5.75938473      16.07250000  F        3       0.00000000       0.00000002      -0.14537707
Si       0.00000000       0.00000000      17.43000000  F        2      -0.00000003      -0.00000002       0.52822354
Si       3.83958982       0.00000000      17.43000000  F        2      -0.00000000      -0.00000002       0.52822353
Si       7.67917964       0.00000000      17.43000000  F        2      -0.00000000      -0.00000002       0.52822352
Si       0.00000000       3.83958982      17.43000000  F        2      -0.00000003       0.00000000       0.52822356
Si       3.83958982       3.83958982      17.43000000  F        2      -0.00000000       0.00000000       0.52822354
Si       7.67917964       3.83958982      17.43000000  F        2      -0.00000000       0.00000000       0.52822354
Si       1.91979491       0.00000000      18.78750000  F        1      -0.00000000       0.00000000      -0.24903482
Si       5.75938473       0.00000000      18.78750000  F        1       0.00000000       0.00000000      -0.24903482
Si       9.59897455       0.00000000      18.78750000  F        1       0.00000004       0.00000000      -0.24903484
Si       1.91979491       3.83958982      18.78750000  F        1      -0.00000000      -0.00000000      -0.24903482
Si       5.75938473       3.83958982      18.78750000  F        1       0.00000000      -0.00000000      -0.24903482
Si       9.59897455       3.83958982      18.78750000  F        1       0.00000004      -0.00000000      -0.24903484
Cl       5.75938473       3.83958982      25.28750000  T        0       0.00000000       0.00000000      -0.00729331
H        5.75938473       3.83958982      26.58928926  T        0       0.00000000       0.00000000       0.00729331
38
Lattice="11.518769465528859 0.0 0.0 0.0 7.679179643685906 0.0 0.0 0.0 30.7875" Properties=species:S:1:pos:R:3:move_mask:L:1:tags:I:1:forces:R:3 surface=Si100 species=HCl site=atop_Si orientation=upright height_A=5.0 substrate_atoms=36 calculation_kind="Rigid evaluated approach scan; not NEB" energy=-186.32958991594327 pbc="T T F"
Si       0.00000000       0.00000000      12.00000000  F        6      -0.00000004       0.00000000       0.24903484
Si       3.83958982       0.00000000      12.00000000  F        6      -0.00000000       0.00000000       0.24903482
Si       7.67917964       0.00000000      12.00000000  F        6       0.00000000       0.00000000       0.24903482
Si       0.00000000       3.83958982      12.00000000  F        6      -0.00000004      -0.00000000       0.24903484
Si       3.83958982       3.83958982      12.00000000  F        6      -0.00000000      -0.00000000       0.24903482
Si       7.67917964       3.83958982      12.00000000  F        6       0.00000000      -0.00000000       0.24903482
Si       1.91979491       0.00000000      13.35750000  F        5       0.00000000      -0.00000002      -0.52822352
Si       5.75938473       0.00000000      13.35750000  F        5       0.00000000      -0.00000002      -0.52822353
Si       9.59897455       0.00000000      13.35750000  F        5       0.00000003      -0.00000002      -0.52822354
Si       1.91979491       3.83958982      13.35750000  F        5       0.00000000       0.00000000      -0.52822354
Si       5.75938473       3.83958982      13.35750000  F        5       0.00000000       0.00000000      -0.52822354
Si       9.59897455       3.83958982      13.35750000  F        5       0.00000003       0.00000000      -0.52822356
Si       1.91979491       1.91979491      14.71500000  F        4      -0.00000000       0.00000000       0.14537709
Si       5.75938473       1.91979491      14.71500000  F        4       0.00000000       0.00000000       0.14537709
Si       9.59897455       1.91979491      14.71500000  F        4       0.00000004       0.00000000       0.14537711
Si       1.91979491       5.75938473      14.71500000  F        4      -0.00000000       0.00000002       0.14537707
Si       5.75938473       5.75938473      14.71500000  F        4       0.00000000       0.00000002       0.14537707
Si       9.59897455       5.75938473      14.71500000  F        4       0.00000004       0.00000002       0.14537709
Si       0.00000000       1.91979491      16.07250000  F        3      -0.00000004       0.00000000      -0.14537711
Si       3.83958982       1.91979491      16.07250000  F        3      -0.00000000       0.00000000      -0.14537709
Si       7.67917964       1.91979491      16.07250000  F        3       0.00000000       0.00000000      -0.14537709
Si       0.00000000       5.75938473      16.07250000  F        3      -0.00000004       0.00000002      -0.14537709
Si       3.83958982       5.75938473      16.07250000  F        3      -0.00000000       0.00000002      -0.14537707
Si       7.67917964       5.75938473      16.07250000  F        3       0.00000000       0.00000002      -0.14537707
Si       0.00000000       0.00000000      17.43000000  F        2      -0.00000003      -0.00000002       0.52822354
Si       3.83958982       0.00000000      17.43000000  F        2      -0.00000000      -0.00000002       0.52822353
Si       7.67917964       0.00000000      17.43000000  F        2      -0.00000000      -0.00000002       0.52822352
Si       0.00000000       3.83958982      17.43000000  F        2      -0.00000003       0.00000000       0.52822356
Si       3.83958982       3.83958982      17.43000000  F        2      -0.00000000       0.00000000       0.52822354
Si       7.67917964       3.83958982      17.43000000  F        2      -0.00000000       0.00000000       0.52822354
Si       1.91979491       0.00000000      18.78750000  F        1      -0.00000000       0.00000000      -0.24903482
Si       5.75938473       0.00000000      18.78750000  F        1       0.00000000       0.00000000      -0.24903482
Si       9.59897455       0.00000000      18.78750000  F        1       0.00000004       0.00000000      -0.24903484
Si       1.91979491       3.83958982      18.78750000  F        1      -0.00000000      -0.00000000      -0.24903482
Si       5.75938473       3.83958982      18.78750000  F        1       0.00000000      -0.00000000      -0.24903482
Si       9.59897455       3.83958982      18.78750000  F        1       0.00000004      -0.00000000      -0.24903484
Cl       5.75938473       3.83958982      23.78750000  T        0       0.00000000       0.00000000      -0.00729331
H        5.75938473       3.83958982      25.08928926  T        0       0.00000000       0.00000000       0.00729331
38
Lattice="11.518769465528859 0.0 0.0 0.0 7.679179643685906 0.0 0.0 0.0 30.7875" Properties=species:S:1:pos:R:3:move_mask:L:1:tags:I:1:forces:R:3 surface=Si100 species=HCl site=atop_Si orientation=upright height_A=4.0 substrate_atoms=36 calculation_kind="Rigid evaluated approach scan; not NEB" energy=-186.47303028449937 pbc="T T F"
Si       0.00000000       0.00000000      12.00000000  F        6      -0.00000004       0.00000000       0.24889000
Si       3.83958982       0.00000000      12.00000000  F        6       0.00031922       0.00000000       0.24830737
Si       7.67917964       0.00000000      12.00000000  F        6      -0.00031922       0.00000000       0.24830737
Si       0.00000000       3.83958982      12.00000000  F        6      -0.00000004      -0.00000000       0.24885801
Si       3.83958982       3.83958982      12.00000000  F        6       0.00045525      -0.00000000       0.24859783
Si       7.67917964       3.83958982      12.00000000  F        6      -0.00045525      -0.00000000       0.24859783
Si       1.91979491       0.00000000      13.35750000  F        5       0.00023396      -0.00000002      -0.52736412
Si       5.75938473       0.00000000      13.35750000  F        5       0.00000000      -0.00000002      -0.52599830
Si       9.59897455       0.00000000      13.35750000  F        5      -0.00023392      -0.00000002      -0.52736414
Si       1.91979491       3.83958982      13.35750000  F        5       0.00115287       0.00000000      -0.52519144
Si       5.75938473       3.83958982      13.35750000  F        5       0.00000000       0.00000000      -0.52183919
Si       9.59897455       3.83958982      13.35750000  F        5      -0.00115283       0.00000000      -0.52519146
Si       1.91979491       1.91979491      14.71500000  F        4       0.00343645       0.00028516       0.14775350
Si       5.75938473       1.91979491      14.71500000  F        4       0.00000000       0.00535213       0.15971735
Si       9.59897455       1.91979491      14.71500000  F        4      -0.00343641       0.00028516       0.14775352
Si       1.91979491       5.75938473      14.71500000  F        4       0.00343645      -0.00028514       0.14775349
Si       5.75938473       5.75938473      14.71500000  F        4       0.00000000      -0.00535211       0.15971734
Si       9.59897455       5.75938473      14.71500000  F        4      -0.00343641      -0.00028514       0.14775351
Si       0.00000000       1.91979491      16.07250000  F        3      -0.00000004       0.00497654      -0.14224660
Si       3.83958982       1.91979491      16.07250000  F        3       0.00350437       0.00959279      -0.14162049
Si       7.67917964       1.91979491      16.07250000  F        3      -0.00350437       0.00959279      -0.14162049
Si       0.00000000       5.75938473      16.07250000  F        3      -0.00000004      -0.00497652      -0.14224659
Si       3.83958982       5.75938473      16.07250000  F        3       0.00350437      -0.00959277      -0.14162048
Si       7.67917964       5.75938473      16.07250000  F        3      -0.00350437      -0.00959277      -0.14162047
Si       0.00000000       0.00000000      17.43000000  F        2      -0.00000003      -0.00000002       0.52884103
Si       3.83958982       0.00000000      17.43000000  F        2      -0.00985409      -0.00000002       0.51206735
Si       7.67917964       0.00000000      17.43000000  F        2       0.00985409      -0.00000002       0.51206735
Si       0.00000000       3.83958982      17.43000000  F        2      -0.00000003       0.00000000       0.52478012
Si       3.83958982       3.83958982      17.43000000  F        2      -0.04483219       0.00000000       0.50207950
Si       7.67917964       3.83958982      17.43000000  F        2       0.04483219       0.00000000       0.50207949
Si       1.91979491       0.00000000      18.78750000  F        1       0.00129734       0.00000000      -0.25080380
Si       5.75938473       0.00000000      18.78750000  F        1       0.00000000       0.00000000      -0.23997457
Si       9.59897455       0.00000000      18.78750000  F        1      -0.00129731       0.00000000      -0.25080382
Si       1.91979491       3.83958982      18.78750000  F        1      -0.01496823      -0.00000000      -0.26103260
Si       5.75938473       3.83958982      18.78750000  F        1       0.00000000      -0.00000000      -0.17655089
Si       9.59897455       3.83958982      18.78750000  F        1       0.01496826      -0.00000000      -0.26103262
Cl       5.75938473       3.83958982      22.78750000  T        0      -0.00000000       0.00000000      -0.22171552
H        5.75938473       3.83958982      24.08928926  T        0       0.00000000       0.00000000       0.18191565
38
Lattice="11.518769465528859 0.0 0.0 0.0 7.679179643685906 0.0 0.0 0.0 30.7875" Properties=species:S:1:pos:R:3:move_mask:L:1:tags:I:1:forces:R:3 surface=Si100 species=HCl site=atop_Si orientation=upright height_A=3.25 substrate_atoms=36 calculation_kind="Rigid evaluated approach scan; not NEB" energy=-186.48899586311478 pbc="T T F"
Si       0.00000000       0.00000000      12.00000000  F        6      -0.00000004       0.00000000       0.24984613
Si       3.83958982       0.00000000      12.00000000  F        6      -0.00013930       0.00000000       0.24943203
Si       7.67917964       0.00000000      12.00000000  F        6       0.00013930       0.00000000       0.24943203
Si       0.00000000       3.83958982      12.00000000  F        6      -0.00000004      -0.00000000       0.24897790
Si       3.83958982       3.83958982      12.00000000  F        6       0.00021599      -0.00000000       0.24815165
Si       7.67917964       3.83958982      12.00000000  F        6      -0.00021599      -0.00000000       0.24815165
Si       1.91979491       0.00000000      13.35750000  F        5       0.00000059      -0.00000002      -0.52656828
Si       5.75938473       0.00000000      13.35750000  F        5       0.00000000      -0.00000002      -0.52630133
Si       9.59897455       0.00000000      13.35750000  F        5      -0.00000055      -0.00000002      -0.52656830
Si       1.91979491       3.83958982      13.35750000  F        5       0.00128875       0.00000000      -0.52282995
Si       5.75938473       3.83958982      13.35750000  F        5       0.00000000       0.00000000      -0.52195552
Si       9.59897455       3.83958982      13.35750000  F        5      -0.00128872       0.00000000      -0.52282997
Si       1.91979491       1.91979491      14.71500000  F        4       0.00494600      -0.00128494       0.14872011
Si       5.75938473       1.91979491      14.71500000  F        4       0.00000000       0.00070699       0.16526503
Si       9.59897455       1.91979491      14.71500000  F        4      -0.00494597      -0.00128494       0.14872013
Si       1.91979491       5.75938473      14.71500000  F        4       0.00494600       0.00128497       0.14872010
Si       5.75938473       5.75938473      14.71500000  F        4       0.00000000      -0.00070696       0.16526502
Si       9.59897455       5.75938473      14.71500000  F        4      -0.00494597       0.00128497       0.14872012
Si       0.00000000       1.91979491      16.07250000  F        3      -0.00000004       0.00868519      -0.14108832
Si       3.83958982       1.91979491      16.07250000  F        3       0.00371070       0.01876561      -0.15346025
Si       7.67917964       1.91979491      16.07250000  F        3      -0.00371070       0.01876561      -0.15346025
Si       0.00000000       5.75938473      16.07250000  F        3      -0.00000004      -0.00868516      -0.14108831
Si       3.83958982       5.75938473      16.07250000  F        3       0.00371070      -0.01876559      -0.15346024
Si       7.67917964       5.75938473      16.07250000  F        3      -0.00371070      -0.01876559      -0.15346024
Si       0.00000000       0.00000000      17.43000000  F        2      -0.00000003      -0.00000002       0.52418507
Si       3.83958982       0.00000000      17.43000000  F        2      -0.01557134      -0.00000002       0.49709172
Si       7.67917964       0.00000000      17.43000000  F        2       0.01557133      -0.00000002       0.49709172
Si       0.00000000       3.83958982      17.43000000  F        2      -0.00000003       0.00000000       0.52242059
Si       3.83958982       3.83958982      17.43000000  F        2       0.05125752       0.00000000       0.55731818
Si       7.67917964       3.83958982      17.43000000  F        2      -0.05125753       0.00000000       0.55731818
Si       1.91979491       0.00000000      18.78750000  F        1       0.00183254       0.00000000      -0.24683394
Si       5.75938473       0.00000000      18.78750000  F        1       0.00000000       0.00000000      -0.23309194
Si       9.59897455       0.00000000      18.78750000  F        1      -0.00183251       0.00000000      -0.24683396
Si       1.91979491       3.83958982      18.78750000  F        1      -0.02244933      -0.00000000      -0.25981660
Si       5.75938473       3.83958982      18.78750000  F        1       0.00000000      -0.00000000      -0.34197009
Si       9.59897455       3.83958982      18.78750000  F        1       0.02244936      -0.00000000      -0.25981662
Cl       5.75938473       3.83958982      22.03750000  T        0      -0.00000000       0.00000000       0.13190452
H        5.75938473       3.83958982      23.33928926  T        0       0.00000000      -0.00000000      -0.07529778
38
Lattice="11.518769465528859 0.0 0.0 0.0 7.679179643685906 0.0 0.0 0.0 30.7875" Properties=species:S:1:pos:R:3:move_mask:L:1:tags:I:1:forces:R:3 surface=Si100 species=HCl site=atop_Si orientation=upright height_A=2.75 substrate_atoms=36 calculation_kind="Rigid evaluated approach scan; not NEB" energy=-186.3378674719309 pbc="T T F"
Si       0.00000000       0.00000000      12.00000000  F        6      -0.00000004       0.00000000       0.25066644
Si       3.83958982       0.00000000      12.00000000  F        6      -0.00126361       0.00000000       0.25071640
Si       7.67917964       0.00000000      12.00000000  F        6       0.00126361       0.00000000       0.25071640
Si       0.00000000       3.83958982      12.00000000  F        6      -0.00000004      -0.00000000       0.24881388
Si       3.83958982       3.83958982      12.00000000  F        6      -0.00035325      -0.00000000       0.24922669
Si       7.67917964       3.83958982      12.00000000  F        6       0.00035325      -0.00000000       0.24922669
Si       1.91979491       0.00000000      13.35750000  F        5       0.00066486      -0.00000002      -0.52772088
Si       5.75938473       0.00000000      13.35750000  F        5       0.00000000      -0.00000002      -0.52653397
Si       9.59897455       0.00000000      13.35750000  F        5      -0.00066482      -0.00000002      -0.52772090
Si       1.91979491       3.83958982      13.35750000  F        5       0.00160904       0.00000000      -0.52933338
Si       5.75938473       3.83958982      13.35750000  F        5       0.00000000       0.00000000      -0.52595734
Si       9.59897455       3.83958982      13.35750000  F        5      -0.00160900       0.00000000      -0.52933340
Si       1.91979491       1.91979491      14.71500000  F        4       0.00648165      -0.00539029       0.14549499
Si       5.75938473       1.91979491      14.71500000  F        4       0.00000000      -0.00792925       0.16475139
Si       9.59897455       1.91979491      14.71500000  F        4      -0.00648162      -0.00539029       0.14549502
Si       1.91979491       5.75938473      14.71500000  F        4       0.00648165       0.00539031       0.14549498
Si       5.75938473       5.75938473      14.71500000  F        4       0.00000000       0.00792928       0.16475137
Si       9.59897455       5.75938473      14.71500000  F        4      -0.00648162       0.00539031       0.14549500
Si       0.00000000       1.91979491      16.07250000  F        3      -0.00000004       0.00140971      -0.14181316
Si       3.83958982       1.91979491      16.07250000  F        3       0.00985459       0.02243897      -0.15355738
Si       7.67917964       1.91979491      16.07250000  F        3      -0.00985459       0.02243897      -0.15355738
Si       0.00000000       5.75938473      16.07250000  F        3      -0.00000004      -0.00140969      -0.14181315
Si       3.83958982       5.75938473      16.07250000  F        3       0.00985459      -0.02243895      -0.15355737
Si       7.67917964       5.75938473      16.07250000  F        3      -0.00985459      -0.02243895      -0.15355737
Si       0.00000000       0.00000000      17.43000000  F        2      -0.00000003      -0.00000002       0.52439092
Si       3.83958982       0.00000000      17.43000000  F        2      -0.00240674      -0.00000002       0.49564147
Si       7.67917964       0.00000000      17.43000000  F        2       0.00240674      -0.00000002       0.49564147
Si       0.00000000       3.83958982      17.43000000  F        2      -0.00000003       0.00000000       0.55274240
Si       3.83958982       3.83958982      17.43000000  F        2       0.03091886       0.00000000       0.59999890
Si       7.67917964       3.83958982      17.43000000  F        2      -0.03091886       0.00000000       0.59999890
Si       1.91979491       0.00000000      18.78750000  F        1       0.00219463       0.00000000      -0.25211601
Si       5.75938473       0.00000000      18.78750000  F        1       0.00000000       0.00000000      -0.11647196
Si       9.59897455       0.00000000      18.78750000  F        1      -0.00219459       0.00000000      -0.25211603
Si       1.91979491       3.83958982      18.78750000  F        1      -0.00646673      -0.00000000      -0.27957227
Si       5.75938473       3.83958982      18.78750000  F        1       0.00000000      -0.00000000      -1.12592523
Si       9.59897455       3.83958982      18.78750000  F        1       0.00646676      -0.00000000      -0.27957229
Cl       5.75938473       3.83958982      21.53750000  T        0      -0.00000000      -0.00000000       0.75183404
H        5.75938473       3.83958982      22.83928926  T        0       0.00000000       0.00000000      -0.06086790
38
Lattice="11.518769465528859 0.0 0.0 0.0 7.679179643685906 0.0 0.0 0.0 30.7875" Properties=species:S:1:pos:R:3:move_mask:L:1:tags:I:1:forces:R:3 surface=Si100 species=HCl site=atop_Si orientation=upright height_A=2.25 substrate_atoms=36 calculation_kind="Rigid evaluated approach scan; not NEB" energy=-185.567474002026 pbc="T T F"
Si       0.00000000       0.00000000      12.00000000  F        6      -0.00000004       0.00000000       0.25164260
Si       3.83958982       0.00000000      12.00000000  F        6      -0.00377133       0.00000000       0.25506891
Si       7.67917964       0.00000000      12.00000000  F        6       0.00377133       0.00000000       0.25506891
Si       0.00000000       3.83958982      12.00000000  F        6      -0.00000004      -0.00000000       0.24918680
Si       3.83958982       3.83958982      12.00000000  F        6      -0.00391291      -0.00000000       0.25016337
Si       7.67917964       3.83958982      12.00000000  F        6       0.00391291      -0.00000000       0.25016336
Si       1.91979491       0.00000000      13.35750000  F        5       0.00888570      -0.00000002      -0.52475709
Si       5.75938473       0.00000000      13.35750000  F        5       0.00000000      -0.00000002      -0.52053249
Si       9.59897455       0.00000000      13.35750000  F        5      -0.00888566      -0.00000002      -0.52475711
Si       1.91979491       3.83958982      13.35750000  F        5       0.00119659       0.00000000      -0.54366463
Si       5.75938473       3.83958982      13.35750000  F        5       0.00000000       0.00000000      -0.52507158
Si       9.59897455       3.83958982      13.35750000  F        5      -0.00119656       0.00000000      -0.54366465
Si       1.91979491       1.91979491      14.71500000  F        4       0.00874670      -0.01388197       0.14700149
Si       5.75938473       1.91979491      14.71500000  F        4       0.00000000      -0.04513024       0.11967173
Si       9.59897455       1.91979491      14.71500000  F        4      -0.00874666      -0.01388197       0.14700152
Si       1.91979491       5.75938473      14.71500000  F        4       0.00874670       0.01388199       0.14700148
Si       5.75938473       5.75938473      14.71500000  F        4       0.00000000       0.04513026       0.11967172
Si       9.59897455       5.75938473      14.71500000  F        4      -0.00874666       0.01388199       0.14700150
Si       0.00000000       1.91979491      16.07250000  F        3      -0.00000004      -0.00452866      -0.13305977
Si       3.83958982       1.91979491      16.07250000  F        3      -0.00200963       0.00820371      -0.16105505
Si       7.67917964       1.91979491      16.07250000  F        3       0.00200963       0.00820371      -0.16105505
Si       0.00000000       5.75938473      16.07250000  F        3      -0.00000004       0.00452869      -0.13305975
Si       3.83958982       5.75938473      16.07250000  F        3      -0.00200963      -0.00820368      -0.16105504
Si       7.67917964       5.75938473      16.07250000  F        3       0.00200963      -0.00820368      -0.16105504
Si       0.00000000       0.00000000      17.43000000  F        2      -0.00000003      -0.00000002       0.49227530
Si       3.83958982       0.00000000      17.43000000  F        2      -0.06139508      -0.00000002       0.47062173
Si       7.67917964       0.00000000      17.43000000  F        2       0.06139508      -0.00000002       0.47062172
Si       0.00000000       3.83958982      17.43000000  F        2      -0.00000003       0.00000000       0.54139054
Si       3.83958982       3.83958982      17.43000000  F        2      -0.08219418       0.00000000       0.53392406
Si       7.67917964       3.83958982      17.43000000  F        2       0.08219418       0.00000000       0.53392405
Si       1.91979491       0.00000000      18.78750000  F        1      -0.00943976       0.00000000      -0.25710978
Si       5.75938473       0.00000000      18.78750000  F        1       0.00000000       0.00000000      -0.01296505
Si       9.59897455       0.00000000      18.78750000  F        1       0.00943980       0.00000000      -0.25710979
Si       1.91979491       3.83958982      18.78750000  F        1       0.00667690      -0.00000000      -0.23342679
Si       5.75938473       3.83958982      18.78750000  F        1       0.00000000      -0.00000000      -2.41533693
Si       9.59897455       3.83958982      18.78750000  F        1      -0.00667686      -0.00000000      -0.23342680
Cl       5.75938473       3.83958982      21.03750000  T        0      -0.00000000      -0.00000000       1.18018409
H        5.75938473       3.83958982      22.33928926  T        0       0.00000000       0.00000000       0.94057751
38
Lattice="11.518769465528859 0.0 0.0 0.0 7.679179643685906 0.0 0.0 0.0 30.7875" Properties=species:S:1:pos:R:3:move_mask:L:1:tags:I:1:forces:R:3 surface=Si100 species=HCl site=atop_Si orientation=upright height_A=1.9 substrate_atoms=36 calculation_kind="Rigid evaluated approach scan; not NEB" energy=-184.49516165133164 pbc="T T F"
Si       0.00000000       0.00000000      12.00000000  F        6      -0.00000004       0.00000000       0.25187062
Si       3.83958982       0.00000000      12.00000000  F        6      -0.00163983       0.00000000       0.25549750
Si       7.67917964       0.00000000      12.00000000  F        6       0.00163984       0.00000000       0.25549750
Si       0.00000000       3.83958982      12.00000000  F        6      -0.00000004      -0.00000000       0.24935554
Si       3.83958982       3.83958982      12.00000000  F        6      -0.00247941      -0.00000000       0.24955533
Si       7.67917964       3.83958982      12.00000000  F        6       0.00247942      -0.00000000       0.24955533
Si       1.91979491       0.00000000      13.35750000  F        5       0.00832254      -0.00000002      -0.52052200
Si       5.75938473       0.00000000      13.35750000  F        5       0.00000000      -0.00000002      -0.52207490
Si       9.59897455       0.00000000      13.35750000  F        5      -0.00832250      -0.00000002      -0.52052202
Si       1.91979491       3.83958982      13.35750000  F        5       0.00222961       0.00000000      -0.53765203
Si       5.75938473       3.83958982      13.35750000  F        5       0.00000000       0.00000000      -0.52007231
Si       9.59897455       3.83958982      13.35750000  F        5      -0.00222957       0.00000000      -0.53765205
Si       1.91979491       1.91979491      14.71500000  F        4       0.01021856      -0.01230395       0.14933672
Si       5.75938473       1.91979491      14.71500000  F        4       0.00000000      -0.05370195       0.09777083
Si       9.59897455       1.91979491      14.71500000  F        4      -0.01021853      -0.01230395       0.14933674
Si       1.91979491       5.75938473      14.71500000  F        4       0.01021856       0.01230397       0.14933671
Si       5.75938473       5.75938473      14.71500000  F        4       0.00000000       0.05370197       0.09777082
Si       9.59897455       5.75938473      14.71500000  F        4      -0.01021853       0.01230397       0.14933673
Si       0.00000000       1.91979491      16.07250000  F        3      -0.00000004       0.01072557      -0.12133639
Si       3.83958982       1.91979491      16.07250000  F        3      -0.00865804      -0.01892844      -0.16439701
Si       7.67917964       1.91979491      16.07250000  F        3       0.00865804      -0.01892844      -0.16439701
Si       0.00000000       5.75938473      16.07250000  F        3      -0.00000004      -0.01072555      -0.12133637
Si       3.83958982       5.75938473      16.07250000  F        3      -0.00865804       0.01892846      -0.16439700
Si       7.67917964       5.75938473      16.07250000  F        3       0.00865804       0.01892846      -0.16439700
Si       0.00000000       0.00000000      17.43000000  F        2      -0.00000003      -0.00000002       0.47606936
Si       3.83958982       0.00000000      17.43000000  F        2      -0.12104849      -0.00000002       0.44368377
Si       7.67917964       0.00000000      17.43000000  F        2       0.12104849      -0.00000002       0.44368377
Si       0.00000000       3.83958982      17.43000000  F        2      -0.00000003       0.00000000       0.53254476
Si       3.83958982       3.83958982      17.43000000  F        2       0.00138624       0.00000000       0.59173452
Si       7.67917964       3.83958982      17.43000000  F        2      -0.00138624       0.00000000       0.59173452
Si       1.91979491       0.00000000      18.78750000  F        1      -0.01664947       0.00000000      -0.25006069
Si       5.75938473       0.00000000      18.78750000  F        1       0.00000000       0.00000000       0.02454968
Si       9.59897455       0.00000000      18.78750000  F        1       0.01664950       0.00000000      -0.25006070
Si       1.91979491       3.83958982      18.78750000  F        1       0.02313493      -0.00000000      -0.14683980
Si       5.75938473       3.83958982      18.78750000  F        1       0.00000000      -0.00000000      -6.12886004
Si       9.59897455       3.83958982      18.78750000  F        1      -0.02313490      -0.00000000      -0.14683982
Cl       5.75938473       3.83958982      20.68750000  T        0      -0.00000000       0.00000000       3.79168707
H        5.75938473       3.83958982      21.98928926  T        0       0.00000000       0.00000000       1.78150933
38
Lattice="11.518769465528859 0.0 0.0 0.0 7.679179643685906 0.0 0.0 0.0 30.7875" Properties=species:S:1:pos:R:3:move_mask:L:1:tags:I:1:forces:R:3 surface=Si100 species=HCl site=atop_Si orientation=upright height_A=1.6 substrate_atoms=36 calculation_kind="Rigid evaluated approach scan; not NEB" energy=-181.1290550370252 pbc="T T F"
Si       0.00000000       0.00000000      12.00000000  F        6      -0.00000004       0.00000000       0.25196321
Si       3.83958982       0.00000000      12.00000000  F        6       0.00109252       0.00000000       0.25565093
Si       7.67917964       0.00000000      12.00000000  F        6      -0.00109251       0.00000000       0.25565093
Si       0.00000000       3.83958982      12.00000000  F        6      -0.00000004      -0.00000000       0.24963880
Si       3.83958982       3.83958982      12.00000000  F        6       0.00020516      -0.00000000       0.24949715
Si       7.67917964       3.83958982      12.00000000  F        6      -0.00020516      -0.00000000       0.24949715
Si       1.91979491       0.00000000      13.35750000  F        5       0.00391791      -0.00000002      -0.51925549
Si       5.75938473       0.00000000      13.35750000  F        5       0.00000000      -0.00000002      -0.52522082
Si       9.59897455       0.00000000      13.35750000  F        5      -0.00391788      -0.00000002      -0.51925551
Si       1.91979491       3.83958982      13.35750000  F        5       0.00427136       0.00000000      -0.52692826
Si       5.75938473       3.83958982      13.35750000  F        5       0.00000000       0.00000000      -0.52234108
Si       9.59897455       3.83958982      13.35750000  F        5      -0.00427133       0.00000000      -0.52692828
Si       1.91979491       1.91979491      14.71500000  F        4       0.01205683      -0.00462847       0.15643508
Si       5.75938473       1.91979491      14.71500000  F        4       0.00000000      -0.07136111       0.06427238
Si       9.59897455       1.91979491      14.71500000  F        4      -0.01205680      -0.00462847       0.15643511
Si       1.91979491       5.75938473      14.71500000  F        4       0.01205683       0.00462849       0.15643507
Si       5.75938473       5.75938473      14.71500000  F        4       0.00000000       0.07136114       0.06427237
Si       9.59897455       5.75938473      14.71500000  F        4      -0.01205680       0.00462849       0.15643509
Si       0.00000000       1.91979491      16.07250000  F        3      -0.00000004       0.02046532      -0.11848400
Si       3.83958982       1.91979491      16.07250000  F        3      -0.03927844      -0.12549000      -0.24485544
Si       7.67917964       1.91979491      16.07250000  F        3       0.03927844      -0.12549000      -0.24485544
Si       0.00000000       5.75938473      16.07250000  F        3      -0.00000004      -0.02046530      -0.11848398
Si       3.83958982       5.75938473      16.07250000  F        3      -0.03927844       0.12549002      -0.24485542
Si       7.67917964       5.75938473      16.07250000  F        3       0.03927844       0.12549002      -0.24485542
Si       0.00000000       0.00000000      17.43000000  F        2      -0.00000003      -0.00000002       0.47350086
Si       3.83958982       0.00000000      17.43000000  F        2      -0.12422257      -0.00000002       0.45934837
Si       7.67917964       0.00000000      17.43000000  F        2       0.12422256      -0.00000002       0.45934837
Si       0.00000000       3.83958982      17.43000000  F        2      -0.00000003       0.00000000       0.53682633
Si       3.83958982       3.83958982      17.43000000  F        2       0.48379322       0.00000000       0.65786284
Si       7.67917964       3.83958982      17.43000000  F        2      -0.48379322       0.00000000       0.65786284
Si       1.91979491       0.00000000      18.78750000  F        1      -0.02446567       0.00000000      -0.23042266
Si       5.75938473       0.00000000      18.78750000  F        1       0.00000000      -0.00000000       0.03543045
Si       9.59897455       0.00000000      18.78750000  F        1       0.02446571       0.00000000      -0.23042268
Si       1.91979491       3.83958982      18.78750000  F        1      -0.14078587      -0.00000000      -0.03045314
Si       5.75938473       3.83958982      18.78750000  F        1       0.00000000      -0.00000000     -20.18760895
Si       9.59897455       3.83958982      18.78750000  F        1       0.14078590      -0.00000000      -0.03045316
Cl       5.75938473       3.83958982      20.38750000  T        0      -0.00000000       0.00000000      17.57876639
H        5.75938473       3.83958982      21.68928926  T        0       0.00000000       0.00000000       1.94055000
38
Lattice="11.518769465528859 0.0 0.0 0.0 7.679179643685906 0.0 0.0 0.0 30.7875" Properties=species:S:1:pos:R:3:move_mask:L:1:tags:I:1:forces:R:3 surface=Si100 species=HCl site=atop_Si orientation=upright height_A=1.3 substrate_atoms=36 calculation_kind="Rigid evaluated approach scan; not NEB" energy=-166.70623902920866 pbc="T T F"
Si       0.00000000       0.00000000      12.00000000  F        6      -0.00000004       0.00000000       0.25327177
Si       3.83958982       0.00000000      12.00000000  F        6       0.00478361       0.00000000       0.25736718
Si       7.67917964       0.00000000      12.00000000  F        6      -0.00478360       0.00000000       0.25736718
Si       0.00000000       3.83958982      12.00000000  F        6      -0.00000004      -0.00000000       0.25058057
Si       3.83958982       3.83958982      12.00000000  F        6       0.00391048      -0.00000000       0.24962120
Si       7.67917964       3.83958982      12.00000000  F        6      -0.00391048      -0.00000000       0.24962120
Si       1.91979491       0.00000000      13.35750000  F        5       0.00002545      -0.00000002      -0.51757108
Si       5.75938473       0.00000000      13.35750000  F        5       0.00000000      -0.00000002      -0.53328597
Si       9.59897455       0.00000000      13.35750000  F        5      -0.00002541      -0.00000002      -0.51757110
Si       1.91979491       3.83958982      13.35750000  F        5       0.00383525       0.00000000      -0.51631092
Si       5.75938473       3.83958982      13.35750000  F        5       0.00000000       0.00000000      -0.53349636
Si       9.59897455       3.83958982      13.35750000  F        5      -0.00383522       0.00000000      -0.51631094
Si       1.91979491       1.91979491      14.71500000  F        4       0.01173851      -0.00098508       0.15915338
Si       5.75938473       1.91979491      14.71500000  F        4       0.00000000      -0.12455461      -0.05113369
Si       9.59897455       1.91979491      14.71500000  F        4      -0.01173847      -0.00098508       0.15915340
Si       1.91979491       5.75938473      14.71500000  F        4       0.01173851       0.00098510       0.15915337
Si       5.75938473       5.75938473      14.71500000  F        4       0.00000000       0.12455463      -0.05113371
Si       9.59897455       5.75938473      14.71500000  F        4      -0.01173847       0.00098510       0.15915339
Si       0.00000000       1.91979491      16.07250000  F        3      -0.00000004       0.01612634      -0.12620356
Si       3.83958982       1.91979491      16.07250000  F        3      -0.16623383      -0.33326850      -0.67556823
Si       7.67917964       1.91979491      16.07250000  F        3       0.16623383      -0.33326850      -0.67556823
Si       0.00000000       5.75938473      16.07250000  F        3      -0.00000004      -0.01612632      -0.12620354
Si       3.83958982       5.75938473      16.07250000  F        3      -0.16623383       0.33326852      -0.67556822
Si       7.67917964       5.75938473      16.07250000  F        3       0.16623383       0.33326852      -0.67556821
Si       0.00000000       0.00000000      17.43000000  F        2      -0.00000003      -0.00000002       0.46569191
Si       3.83958982       0.00000000      17.43000000  F        2      -0.40795423      -0.00000002       0.22655444
Si       7.67917964       0.00000000      17.43000000  F        2       0.40795423      -0.00000002       0.22655443
Si       0.00000000       3.83958982      17.43000000  F        2      -0.00000003       0.00000000       0.58818219
Si       3.83958982       3.83958982      17.43000000  F        2       1.83782514      -0.00000000       1.75230476
Si       7.67917964       3.83958982      17.43000000  F        2      -1.83782514      -0.00000000       1.75230475
Si       1.91979491       0.00000000      18.78750000  F        1      -0.08693642       0.00000000      -0.18793769
Si       5.75938473       0.00000000      18.78750000  F        1       0.00000000      -0.00000000       0.34421087
Si       9.59897455       0.00000000      18.78750000  F        1       0.08693645       0.00000000      -0.18793771
Si       1.91979491       3.83958982      18.78750000  F        1      -0.30771062      -0.00000000       0.20748960
Si       5.75938473       3.83958982      18.78750000  F        1       0.00000000       0.00000000     -94.01907679
Si       9.59897455       3.83958982      18.78750000  F        1       0.30771065      -0.00000000       0.20748958
Cl       5.75938473       3.83958982      20.08750000  T        0      -0.00000000      -0.00000000      93.98966388
H        5.75938473       3.83958982      21.38928926  T        0       0.00000000       0.00000000      -1.32844309
