36
Lattice="9.8418 0.0 0.0 -2.460449999999999 4.261624409482844 0.0 0.0 -0.0 34.16586254" Properties=species:S:1:pos:R:3:move_mask:L:1:spacegroup_kinds:I:1:tags:I:1:forces:R:3 spacegroup="P 32 2 1" unit_cell=conventional energy=-265.304106631801 pbc="T T F"
Si       2.31725181       0.00000000      12.00000000  F        0        2      -0.13649165      -0.37989796      -1.75846000
Si      -1.15862590       2.00679893      15.60606667  F        0        2      -0.14269431       0.05752774       1.16918842
Si       1.30182410       2.25482548      13.80303333  F        0        2       0.03365922      -0.16390340       0.98673462
O        1.38326499       1.13103512      12.65233746  F        1        2      -0.52978607       0.24144029      -0.19587316
O        0.28787265       1.76346018      14.95372921  F        1        2       0.43595771      -0.25102746      -0.36263225
O        3.24976236       0.63242506      16.25840413  F        1        2       0.32131472      -0.09409927      -0.78723914
O        0.78931236       3.62919935      13.15069587  F        1        2       0.45451076       0.27117008       0.57270981
O        2.74832265       2.49816423      14.45537079  F        1        2       0.00844227       0.38365657      -0.73059473
O       -1.07718501       3.13058929      16.75676254  F        1        2      -0.43600604      -0.29499100      -0.45509611
Si       2.31725181       0.00000000      17.40910000  T        0        1       0.03135135       0.03049998       1.06444551
Si      -1.15862590       2.00679893      21.01516667  T        0        1       0.20544809       0.24346052      -0.24892541
Si       1.30182410       2.25482548      19.21213333  T        0        1      -0.04671764       0.03282557       0.51671974
O        1.38326499       1.13103512      18.06143746  T        1        1      -0.25708786      -0.13270472      -0.58762916
O        0.28787265       1.76346018      20.36282921  T        1        1       0.49053243      -0.17439013      -0.26450019
O        3.24976236       0.63242506      21.66750413  T        1        1      -0.36047525      -0.95065513       0.88300301
O        0.78931236       3.62919935      18.55979587  T        1        1       0.02140861       0.42052291      -0.24199223
O        2.74832265       2.49816423      19.86447079  T        1        1      -0.05603677       0.34620393      -0.75998064
O       -1.07718501       3.13058929      22.16586254  T        1        1      -0.03732995       0.41436140       1.20012172
Si       7.23815181       0.00000000      12.00000000  F        0        2      -0.13649165      -0.37989795      -1.75845998
Si       3.76227409       2.00679893      15.60606667  F        0        2      -0.14269381       0.05752777       1.16918841
Si       6.22272410       2.25482548      13.80303333  F        0        2       0.03365922      -0.16390341       0.98673469
O        6.30416499       1.13103512      12.65233746  F        1        2      -0.52978606       0.24144027      -0.19587319
O        5.20877265       1.76346018      14.95372921  F        1        2       0.43595748      -0.25102743      -0.36263216
O        8.17066236       0.63242506      16.25840413  F        1        2       0.32131477      -0.09409919      -0.78723917
O        5.71021236       3.62919935      13.15069587  F        1        2       0.45451075       0.27117010       0.57270978
O        7.66922265       2.49816423      14.45537079  F        1        2       0.00844241       0.38365653      -0.73059463
O        3.84371499       3.13058929      16.75676254  F        1        2      -0.43600607      -0.29499102      -0.45509612
Si       7.23815181       0.00000000      17.40910000  T        0        1       0.03135136       0.03050000       1.06444548
Si       3.76227409       2.00679893      21.01516667  T        0        1       0.20544849       0.24346050      -0.24892541
Si       6.22272410       2.25482548      19.21213333  T        0        1      -0.04671765       0.03282556       0.51671976
O        6.30416499       1.13103512      18.06143746  T        1        1      -0.25708786      -0.13270472      -0.58762915
O        5.20877265       1.76346018      20.36282921  T        1        1       0.49053219      -0.17439009      -0.26450008
O        8.17066236       0.63242506      21.66750413  T        1        1      -0.36047522      -0.95065505       0.88300298
O        5.71021236       3.62919935      18.55979587  T        1        1       0.02140861       0.42052292      -0.24199223
O        7.66922265       2.49816423      19.86447079  T        1        1      -0.05603664       0.34620388      -0.75998051
O        3.84371499       3.13058929      22.16586254  T        1        1      -0.03732995       0.41436139       1.20012171
36
Lattice="9.8418 0.0 0.0 -2.460449999999999 4.261624409482844 0.0 0.0 -0.0 34.16586254" Properties=species:S:1:pos:R:3:move_mask:L:1:spacegroup_kinds:I:1:tags:I:1:forces:R:3 spacegroup="P 32 2 1" unit_cell=conventional energy=-265.3159228352504 pbc="T T F"
Si       2.31725181       0.00000000      12.00000000  F        0        2      -0.13631029      -0.37947306      -1.75602826
Si      -1.15862590       2.00679893      15.60606667  F        0        2      -0.14348823       0.05605947       1.17655255
Si       1.30182410       2.25482548      13.80303333  F        0        2       0.03380887      -0.16408135       0.99067162
O        1.38326499       1.13103512      12.65233746  F        1        2      -0.52899069       0.24033570      -0.19744871
O        0.28787265       1.76346018      14.95372921  F        1        2       0.43749597      -0.25049246      -0.36559298
O        3.24976236       0.63242506      16.25840413  F        1        2       0.31300658      -0.09992710      -0.77656724
O        0.78931236       3.62919935      13.15069587  F        1        2       0.45336777       0.27190994       0.57051312
O        2.74832265       2.49816423      14.45537079  F        1        2       0.00740953       0.38412707      -0.73331427
O       -1.07718501       3.13058929      16.75676254  F        1        2      -0.42918688      -0.28857933      -0.44969231
Si       2.31728003       0.00002745      17.41005800  T        0        1       0.02681711       0.02976733       1.00901883
Si      -1.15844100       2.00701804      21.01494264  T        0        1       0.19130768       0.23264010      -0.22456294
Si       1.30178205       2.25485502      19.21259838  T        0        1      -0.04713379       0.03422542       0.46893116
O        1.38303361       1.13091569      18.06090859  T        1        1      -0.26821055      -0.10265143      -0.55919529
O        0.28831413       1.76330323      20.36259116  T        1        1       0.46246474      -0.17728473      -0.24229765
O        3.24943793       0.63156947      21.66829883  T        1        1      -0.34621384      -0.91201817       0.86254661
O        0.78933163       3.62957782      18.55957808  T        1        1       0.04103609       0.39358658      -0.21107101
O        2.74827222       2.49847581      19.86378681  T        1        1      -0.02902138       0.34052705      -0.73566642
O       -1.07721861       3.13096222      22.16694265  T        1        1      -0.03815905       0.39132892       1.17320299
Si       7.23815181       0.00000000      12.00000000  F        0        2      -0.13631029      -0.37947305      -1.75602823
Si       3.76227409       2.00679893      15.60606667  F        0        2      -0.14348773       0.05605950       1.17655254
Si       6.22272410       2.25482548      13.80303333  F        0        2       0.03380887      -0.16408136       0.99067170
O        6.30416499       1.13103512      12.65233746  F        1        2      -0.52899068       0.24033568      -0.19744874
O        5.20877265       1.76346018      14.95372921  F        1        2       0.43749574      -0.25049243      -0.36559289
O        8.17066236       0.63242506      16.25840413  F        1        2       0.31300663      -0.09992703      -0.77656727
O        5.71021236       3.62919935      13.15069587  F        1        2       0.45336775       0.27190996       0.57051309
O        7.66922265       2.49816423      14.45537079  F        1        2       0.00740966       0.38412703      -0.73331417
O        3.84371499       3.13058929      16.75676254  F        1        2      -0.42918691      -0.28857935      -0.44969231
Si       7.23818003       0.00002745      17.41005800  T        0        1       0.02681712       0.02976734       1.00901881
Si       3.76245899       2.00701804      21.01494264  T        0        1       0.19130805       0.23264008      -0.22456294
Si       6.22268205       2.25485502      19.21259838  T        0        1      -0.04713380       0.03422541       0.46893119
O        6.30393361       1.13091569      18.06090859  T        1        1      -0.26821055      -0.10265143      -0.55919529
O        5.20921413       1.76330323      20.36259116  T        1        1       0.46246452      -0.17728469      -0.24229755
O        8.17033793       0.63156947      21.66829883  T        1        1      -0.34621381      -0.91201810       0.86254658
O        5.71023163       3.62957782      18.55957808  T        1        1       0.04103609       0.39358658      -0.21107101
O        7.66917222       2.49847581      19.86378681  T        1        1      -0.02902126       0.34052700      -0.73566630
O        3.84368139       3.13096222      22.16694265  T        1        1      -0.03815905       0.39132891       1.17320299
36
Lattice="9.8418 0.0 0.0 -2.460449999999999 4.261624409482844 0.0 0.0 -0.0 34.16586254" Properties=species:S:1:pos:R:3:move_mask:L:1:spacegroup_kinds:I:1:tags:I:1:forces:R:3 spacegroup="P 32 2 1" unit_cell=conventional energy=-265.3376712510342 pbc="T T F"
Si       2.31725181       0.00000000      12.00000000  F        0        2      -0.13596148      -0.37865084      -1.75133789
Si      -1.15862590       2.00679893      15.60606667  F        0        2      -0.14500162       0.05320521       1.19067249
Si       1.30182410       2.25482548      13.80303333  F        0        2       0.03409136      -0.16442202       0.99823628
O        1.38326499       1.13103512      12.65233746  F        1        2      -0.52745150       0.23820195      -0.20048161
O        0.28787265       1.76346018      14.95372921  F        1        2       0.44045159      -0.24945696      -0.37128255
O        3.24976236       0.63242506      16.25840413  F        1        2       0.29688589      -0.11124354      -0.75573818
O        0.78931236       3.62919935      13.15069587  F        1        2       0.45116039       0.27333878       0.56628100
O        2.74832265       2.49816423      14.45537079  F        1        2       0.00543722       0.38503906      -0.73853042
O       -1.07718501       3.13058929      16.75676254  F        1        2      -0.41591739      -0.27606015      -0.43902132
Si       2.31733207       0.00008174      17.41192297  T        0        1       0.01773099       0.02865858       0.90187612
Si      -1.15808446       2.00744645      21.01451784  T        0        1       0.16390951       0.21190220      -0.17725264
Si       1.30169737       2.25491563      19.21348295  T        0        1      -0.04725802       0.03693343       0.37779625
O        1.38255882       1.13070618      18.05987688  T        1        1      -0.28916956      -0.04578611      -0.50506963
O        0.28917106       1.76298579      20.36213612  T        1        1       0.40814899      -0.18278469      -0.19924873
O        3.24880188       0.62989307      21.66987127  T        1        1      -0.31869835      -0.83739551       0.82281200
O        0.78938975       3.63030959      18.55917230  T        1        1       0.07840045       0.34249814      -0.15181282
O        2.74819799       2.49909466      19.86244011  T        1        1       0.02289489       0.32930247      -0.68855051
O       -1.07728677       3.13168675      22.16908068  T        1        1      -0.03965368       0.34671993       1.12065198
Si       7.23815181       0.00000000      12.00000000  F        0        2      -0.13596147      -0.37865083      -1.75133787
Si       3.76227409       2.00679893      15.60606667  F        0        2      -0.14500112       0.05320525       1.19067248
Si       6.22272410       2.25482548      13.80303333  F        0        2       0.03409136      -0.16442203       0.99823635
O        6.30416499       1.13103512      12.65233746  F        1        2      -0.52745149       0.23820193      -0.20048164
O        5.20877265       1.76346018      14.95372921  F        1        2       0.44045135      -0.24945693      -0.37128246
O        8.17066236       0.63242506      16.25840413  F        1        2       0.29688595      -0.11124347      -0.75573821
O        5.71021236       3.62919935      13.15069587  F        1        2       0.45116037       0.27333880       0.56628097
O        7.66922265       2.49816423      14.45537079  F        1        2       0.00543735       0.38503902      -0.73853032
O        3.84371499       3.13058929      16.75676254  F        1        2      -0.41591742      -0.27606017      -0.43902133
Si       7.23823207       0.00008174      17.41192297  T        0        1       0.01773100       0.02865859       0.90187609
Si       3.76281553       2.00744645      21.01451784  T        0        1       0.16390983       0.21190218      -0.17725264
Si       6.22259737       2.25491563      19.21348295  T        0        1      -0.04725802       0.03693342       0.37779627
O        6.30345882       1.13070618      18.05987688  T        1        1      -0.28916956      -0.04578611      -0.50506962
O        5.21007106       1.76298579      20.36213612  T        1        1       0.40814881      -0.18278465      -0.19924865
O        8.16970188       0.62989307      21.66987127  T        1        1      -0.31869833      -0.83739545       0.82281198
O        5.71028975       3.63030959      18.55917230  T        1        1       0.07840045       0.34249814      -0.15181281
O        7.66909799       2.49909466      19.86244011  T        1        1       0.02289498       0.32930242      -0.68855041
O        3.84361323       3.13168675      22.16908068  T        1        1      -0.03965369       0.34671992       1.12065198
36
Lattice="9.8418 0.0 0.0 -2.460449999999999 4.261624409482844 0.0 0.0 -0.0 34.16586254" Properties=species:S:1:pos:R:3:move_mask:L:1:spacegroup_kinds:I:1:tags:I:1:forces:R:3 spacegroup="P 32 2 1" unit_cell=conventional energy=-265.3660584749037 pbc="T T F"
Si       2.31725181       0.00000000      12.00000000  F        0        2      -0.13547282      -0.37748673      -1.74473468
Si      -1.15862590       2.00679893      15.60606667  F        0        2      -0.14708528       0.04913012       1.21034555
Si       1.30182410       2.25482548      13.80303333  F        0        2       0.03447231      -0.16489602       1.00881736
O        1.38326499       1.13103512      12.65233746  F        1        2      -0.52527250       0.23519100      -0.20473628
O        0.28787265       1.76346018      14.95372921  F        1        2       0.44458201      -0.24799034      -0.37924247
O        3.24976236       0.63242506      16.25840413  F        1        2       0.27388971      -0.12740722      -0.72572105
O        0.78931236       3.62919935      13.15069587  F        1        2       0.44804713       0.27535414       0.56033484
O        2.74832265       2.49816423      14.45537079  F        1        2       0.00270960       0.38633504      -0.74580070
O       -1.07718501       3.13058929      16.75676254  F        1        2      -0.39690856      -0.25800984      -0.42334206
Si       2.31739841       0.00016211      17.41459313  T        0        1       0.00418056       0.02787169       0.75054394
Si      -1.15758335       2.00806501      21.01394061  T        0        1       0.12495259       0.18289899      -0.10970341
Si       1.30156919       2.25501078      19.21469448  T        0        1      -0.04571753       0.04065893       0.25231086
O        1.38181355       1.13046728      18.05839298  T        1        1      -0.31730759       0.03141722      -0.43066809
O        0.29039109       1.76249910      20.36150749  T        1        1       0.33132246      -0.19023976      -0.13818123
O        3.24787900       0.62746353      21.67219121  T        1        1      -0.27982684      -0.73174286       0.76601741
O        0.78952827       3.63134479      18.55864017  T        1        1       0.12955103       0.27290603      -0.06956212
O        2.74815635       2.50001371      19.86047098  T        1        1       0.09540437       0.31272037      -0.62161892
O       -1.07739171       3.13272008      22.17223716  T        1        1      -0.04152097       0.28328918       1.04494091
Si       7.23815181       0.00000000      12.00000000  F        0        2      -0.13547282      -0.37748672      -1.74473466
Si       3.76227409       2.00679893      15.60606667  F        0        2      -0.14708478       0.04913015       1.21034555
Si       6.22272410       2.25482548      13.80303333  F        0        2       0.03447231      -0.16489603       1.00881743
O        6.30416499       1.13103512      12.65233746  F        1        2      -0.52527249       0.23519098      -0.20473630
O        5.20877265       1.76346018      14.95372921  F        1        2       0.44458178      -0.24799031      -0.37924238
O        8.17066236       0.63242506      16.25840413  F        1        2       0.27388976      -0.12740715      -0.72572108
O        5.71021236       3.62919935      13.15069587  F        1        2       0.44804712       0.27535416       0.56033480
O        7.66922265       2.49816423      14.45537079  F        1        2       0.00270974       0.38633500      -0.74580059
O        3.84371499       3.13058929      16.75676254  F        1        2      -0.39690859      -0.25800986      -0.42334207
Si       7.23829841       0.00016211      17.41459312  T        0        1       0.00418057       0.02787170       0.75054391
Si       3.76331664       2.00806501      21.01394061  T        0        1       0.12495285       0.18289898      -0.10970342
Si       6.22246919       2.25501078      19.21469448  T        0        1      -0.04571753       0.04065892       0.25231089
O        6.30271355       1.13046728      18.05839298  T        1        1      -0.31730759       0.03141722      -0.43066808
O        5.21129109       1.76249910      20.36150749  T        1        1       0.33132233      -0.19023973      -0.13818119
O        8.16877900       0.62746353      21.67219121  T        1        1      -0.27982682      -0.73174281       0.76601739
O        5.71042827       3.63134479      18.55864017  T        1        1       0.12955103       0.27290602      -0.06956212
O        7.66905635       2.50001371      19.86047098  T        1        1       0.09540442       0.31272033      -0.62161886
O        3.84350829       3.13272008      22.17223716  T        1        1      -0.04152098       0.28328918       1.04494091
36
Lattice="9.8418 0.0 0.0 -2.460449999999999 4.261624409482844 0.0 0.0 -0.0 34.16586254" Properties=species:S:1:pos:R:3:move_mask:L:1:spacegroup_kinds:I:1:tags:I:1:forces:R:3 spacegroup="P 32 2 1" unit_cell=conventional energy=-265.397216189791 pbc="T T F"
Si       2.31725181       0.00000000      12.00000000  F        0        2      -0.13488466      -0.37606344      -1.73672881
Si      -1.15862590       2.00679893      15.60606667  F        0        2      -0.14951907       0.04408120       1.23382743
Si       1.30182410       2.25482548      13.80303333  F        0        2       0.03490006      -0.16546205       1.02152786
O        1.38326499       1.13103512      12.65233746  F        1        2      -0.52260942       0.23152985      -0.20986647
O        0.28787265       1.76346018      14.95372921  F        1        2       0.44952795      -0.24619629      -0.38880681
O        3.24976236       0.63242506      16.25840413  F        1        2       0.24530983      -0.14753174      -0.68785728
O        0.78931236       3.62919935      13.15069587  F        1        2       0.44426502       0.27780296       0.55314718
O        2.74832265       2.49816423      14.45537079  F        1        2      -0.00050657       0.38793071      -0.75447969
O       -1.07718501       3.13058929      16.75676254  F        1        2      -0.37317030      -0.23523296      -0.40303039
Si       2.31746324       0.00026863      17.41791684  T        0        1      -0.01341013       0.02835991       0.56641092
Si      -1.15697909       2.00884605      21.01328655  T        0        1       0.07686298       0.14778706      -0.02576891
Si       1.30139776       2.25514629      19.21609432  T        0        1      -0.04065629       0.04475804       0.10591958
O        1.38075360       1.13029080      18.05652923  T        1        1      -0.34856910       0.11951290      -0.34378225
O        0.29189550       1.76182775      20.36077224  T        1        1       0.23774948      -0.19853610      -0.06355083
O        3.24670518       0.62437943      21.67521871  T        1        1      -0.23220098      -0.60177526       0.69521800
O        0.78981184       3.63261120      18.55807593  T        1        1       0.18833453       0.19324288       0.02744577
O        2.74823590       2.50122442      19.85793630  T        1        1       0.18197623       0.29094333      -0.53922643
O       -1.07753709       3.13399755      22.17635966  T        1        1      -0.04339985       0.20484896       0.94960100
Si       7.23815181       0.00000000      12.00000000  F        0        2      -0.13488465      -0.37606343      -1.73672879
Si       3.76227409       2.00679893      15.60606667  F        0        2      -0.14951857       0.04408123       1.23382743
Si       6.22272410       2.25482548      13.80303333  F        0        2       0.03490006      -0.16546206       1.02152793
O        6.30416499       1.13103512      12.65233746  F        1        2      -0.52260941       0.23152983      -0.20986650
O        5.20877265       1.76346018      14.95372921  F        1        2       0.44952772      -0.24619626      -0.38880672
O        8.17066236       0.63242506      16.25840413  F        1        2       0.24530989      -0.14753166      -0.68785731
O        5.71021236       3.62919935      13.15069587  F        1        2       0.44426501       0.27780298       0.55314715
O        7.66922265       2.49816423      14.45537079  F        1        2      -0.00050643       0.38793066      -0.75447958
O        3.84371499       3.13058929      16.75676254  F        1        2      -0.37317034      -0.23523298      -0.40303040
Si       7.23836324       0.00026863      17.41791684  T        0        1      -0.01341013       0.02835991       0.56641090
Si       3.76392091       2.00884605      21.01328655  T        0        1       0.07686316       0.14778706      -0.02576891
Si       6.22229776       2.25514629      19.21609432  T        0        1      -0.04065630       0.04475803       0.10591962
O        6.30165360       1.13029080      18.05652923  T        1        1      -0.34856910       0.11951290      -0.34378223
O        5.21279550       1.76182775      20.36077224  T        1        1       0.23774942      -0.19853608      -0.06355082
O        8.16760518       0.62437943      21.67521871  T        1        1      -0.23220097      -0.60177523       0.69521798
O        5.71071184       3.63261120      18.55807593  T        1        1       0.18833453       0.19324288       0.02744578
O        7.66913590       2.50122442      19.85793630  T        1        1       0.18197624       0.29094330      -0.53922640
O        3.84336291       3.13399755      22.17635966  T        1        1      -0.04339985       0.20484895       0.94960099
36
Lattice="9.8418 0.0 0.0 -2.460449999999999 4.261624409482844 0.0 0.0 -0.0 34.16586254" Properties=species:S:1:pos:R:3:move_mask:L:1:spacegroup_kinds:I:1:tags:I:1:forces:R:3 spacegroup="P 32 2 1" unit_cell=conventional energy=-265.42768208324435 pbc="T T F"
Si       2.31725181       0.00000000      12.00000000  F        0        2      -0.13424872      -0.37449050      -1.72798503
Si      -1.15862590       2.00679893      15.60606667  F        0        2      -0.15201800       0.03838884       1.25890236
Si       1.30182410       2.25482548      13.80303333  F        0        2       0.03530694      -0.16606951       1.03523673
O        1.38326499       1.13103512      12.65233746  F        1        2      -0.51966920       0.22751885      -0.21542364
O        0.28787265       1.76346018      14.95372921  F        1        2       0.45482036      -0.24421240      -0.39912612
O        3.24976236       0.63242506      16.25840413  F        1        2       0.21271600      -0.17053092      -0.64381316
O        0.78931236       3.62919935      13.15069587  F        1        2       0.44012777       0.28048271       0.54533107
O        2.74832265       2.49816423      14.45537079  F        1        2      -0.00387386       0.38971641      -0.76374100
O       -1.07718501       3.13058929      16.75676254  F        1        2      -0.34598028      -0.20873578      -0.37860615
Si       2.31750305       0.00040371      17.42169134  T        0        1      -0.03394663       0.03115559       0.36483118
Si      -1.15632898       2.00975333      21.01266227  T        0        1       0.02277495       0.10900670       0.06956868
Si       1.30118725       2.25533013      19.21750064  T        0        1      -0.03006692       0.04807655      -0.04368397
O        1.37931771       1.13029722      18.05437653  T        1        1      -0.37754189       0.20651091      -0.25415965
O        0.29357819       1.76094902      20.36002265  T        1        1       0.13538277      -0.20596804       0.01833643
O        3.24532769       0.62077169      21.67890470  T        1        1      -0.17896130      -0.45547841       0.61415758
O        0.79032745       3.63401816      18.55760607  T        1        1       0.24627569       0.11453768       0.12797537
O        2.74855910       2.50271634      19.85490954  T        1        1       0.27383948       0.26403071      -0.44698938
O       -1.07772794       3.13543050      22.18138287  T        1        1      -0.04493742       0.11606056       0.83918859
Si       7.23815181       0.00000000      12.00000000  F        0        2      -0.13424872      -0.37449049      -1.72798500
Si       3.76227409       2.00679893      15.60606667  F        0        2      -0.15201750       0.03838887       1.25890236
Si       6.22272410       2.25482548      13.80303333  F        0        2       0.03530694      -0.16606952       1.03523680
O        6.30416499       1.13103512      12.65233746  F        1        2      -0.51966919       0.22751883      -0.21542366
O        5.20877265       1.76346018      14.95372921  F        1        2       0.45482012      -0.24421237      -0.39912603
O        8.17066236       0.63242506      16.25840413  F        1        2       0.21271606      -0.17053084      -0.64381320
O        5.71021236       3.62919935      13.15069587  F        1        2       0.44012776       0.28048273       0.54533104
O        7.66922265       2.49816423      14.45537079  F        1        2      -0.00387373       0.38971637      -0.76374090
O        3.84371499       3.13058929      16.75676254  F        1        2      -0.34598031      -0.20873580      -0.37860616
Si       7.23840305       0.00040371      17.42169134  T        0        1      -0.03394662       0.03115559       0.36483116
Si       3.76457102       2.00975333      21.01266227  T        0        1       0.02277505       0.10900670       0.06956868
Si       6.22208725       2.25533013      19.21750064  T        0        1      -0.03006692       0.04807654      -0.04368392
O        6.30021771       1.13029722      18.05437653  T        1        1      -0.37754189       0.20651092      -0.25415963
O        5.21447819       1.76094902      20.36002265  T        1        1       0.13538277      -0.20596801       0.01833640
O        8.16622770       0.62077169      21.67890470  T        1        1      -0.17896129      -0.45547839       0.61415758
O        5.71122745       3.63401816      18.55760607  T        1        1       0.24627569       0.11453767       0.12797538
O        7.66945910       2.50271634      19.85490954  T        1        1       0.27383945       0.26403069      -0.44698938
O        3.84317206       3.13543050      22.18138287  T        1        1      -0.04493742       0.11606056       0.83918859
36
Lattice="9.8418 0.0 0.0 -2.460449999999999 4.261624409482844 0.0 0.0 -0.0 34.16586254" Properties=species:S:1:pos:R:3:move_mask:L:1:spacegroup_kinds:I:1:tags:I:1:forces:R:3 spacegroup="P 32 2 1" unit_cell=conventional energy=-265.4552527647004 pbc="T T F"
Si       2.31725181       0.00000000      12.00000000  F        0        2      -0.13362608      -0.37290276      -1.71930408
Si      -1.15862590       2.00679893      15.60606667  F        0        2      -0.15424506       0.03247022       1.28299311
Si       1.30182410       2.25482548      13.80303333  F        0        2       0.03561345      -0.16666146       1.04861611
O        1.38326499       1.13103512      12.65233746  F        1        2      -0.51670715       0.22352583      -0.22087207
O        0.28787265       1.76346018      14.95372921  F        1        2       0.45989687      -0.24220851      -0.40920368
O        3.24976236       0.63242506      16.25840413  F        1        2       0.17792969      -0.19512075      -0.59563489
O        0.78931236       3.62919935      13.15069587  F        1        2       0.43601913       0.28314545       0.53762088
O        2.74832265       2.49816423      14.45537079  F        1        2      -0.00700375       0.39155851      -0.77261459
O       -1.07718501       3.13058929      16.75676254  F        1        2      -0.31688679      -0.17975149      -0.35082972
Si       2.31748580       0.00057399      17.42565880  T        0        1      -0.05530490       0.03705956       0.16503888
Si      -1.15570827       2.01074031      21.01220919  T        0        1      -0.03335828       0.06916867       0.16995321
Si       1.30095079       2.25557075      19.21869801  T        0        1      -0.01235011       0.04891593      -0.17524923
O        1.37743511       1.13062588      18.05204171  T        1        1      -0.39776806       0.27872486      -0.17283778
O        0.29530429       1.75983614      20.35937668  T        1        1       0.03440970      -0.21016703       0.09918687
O        3.24380815       0.61681257      21.68318235  T        1        1      -0.12371036      -0.30188503       0.52728706
O        0.79117655       3.63546350      18.55738328  T        1        1       0.29279472       0.04981082       0.21804972
O        2.74927814       2.50447188      19.85148657  T        1        1       0.36016769       0.23195915      -0.35166059
O       -1.07796996       3.13690162      22.18721585  T        1        1      -0.04587094       0.02235799       0.71946070
Si       7.23815181       0.00000000      12.00000000  F        0        2      -0.13362608      -0.37290275      -1.71930405
Si       3.76227409       2.00679893      15.60606667  F        0        2      -0.15424456       0.03247024       1.28299311
Si       6.22272410       2.25482548      13.80303333  F        0        2       0.03561344      -0.16666148       1.04861618
O        6.30416499       1.13103512      12.65233746  F        1        2      -0.51670714       0.22352581      -0.22087210
O        5.20877265       1.76346018      14.95372921  F        1        2       0.45989664      -0.24220848      -0.40920359
O        8.17066236       0.63242506      16.25840413  F        1        2       0.17792975      -0.19512067      -0.59563493
O        5.71021236       3.62919935      13.15069587  F        1        2       0.43601912       0.28314547       0.53762084
O        7.66922265       2.49816423      14.45537079  F        1        2      -0.00700361       0.39155847      -0.77261448
O        3.84371499       3.13058929      16.75676254  F        1        2      -0.31688682      -0.17975151      -0.35082973
Si       7.23838580       0.00057399      17.42565880  T        0        1      -0.05530489       0.03705956       0.16503887
Si       3.76519173       2.01074031      21.01220919  T        0        1      -0.03335827       0.06916868       0.16995321
Si       6.22185079       2.25557075      19.21869802  T        0        1      -0.01235011       0.04891592      -0.17524918
O        6.29833511       1.13062588      18.05204171  T        1        1      -0.39776806       0.27872487      -0.17283775
O        5.21620429       1.75983614      20.35937668  T        1        1       0.03440976      -0.21016701       0.09918681
O        8.16470815       0.61681257      21.68318235  T        1        1      -0.12371035      -0.30188503       0.52728706
O        5.71207655       3.63546350      18.55738328  T        1        1       0.29279472       0.04981081       0.21804973
O        7.67017814       2.50447188      19.85148657  T        1        1       0.36016763       0.23195914      -0.35166062
O        3.84293004       3.13690162      22.18721585  T        1        1      -0.04587095       0.02235799       0.71946070
36
Lattice="9.8418 0.0 0.0 -2.460449999999999 4.261624409482844 0.0 0.0 -0.0 34.16586254" Properties=species:S:1:pos:R:3:move_mask:L:1:spacegroup_kinds:I:1:tags:I:1:forces:R:3 spacegroup="P 32 2 1" unit_cell=conventional energy=-265.47937986385125 pbc="T T F"
Si       2.31725181       0.00000000      12.00000000  F        0        2      -0.13308022      -0.37144871      -1.71154185
Si      -1.15862590       2.00679893      15.60606667  F        0        2      -0.15585354       0.02680888       1.30347340
Si       1.30182410       2.25482548      13.80303333  F        0        2       0.03574160      -0.16718111       1.06028961
O        1.38326499       1.13103512      12.65233746  F        1        2      -0.51400404       0.21994987      -0.22564709
O        0.28787265       1.76346018      14.95372921  F        1        2       0.46416758      -0.24037232      -0.41800803
O        3.24976236       0.63242506      16.25840413  F        1        2       0.14299198      -0.21981740      -0.54585377
O        0.78931236       3.62919935      13.15069587  F        1        2       0.43235430       0.28552264       0.53079567
O        2.74832265       2.49816423      14.45537079  F        1        2      -0.00950944       0.39330857      -0.78010419
O       -1.07718501       3.13058929      16.75676254  F        1        2      -0.28767721      -0.14977779      -0.32084885
Si       2.31737431       0.00079155      17.42951589  T        0        1      -0.07427870       0.04618394      -0.01159102
Si      -1.15520751       2.01174861      21.01209630  T        0        1      -0.08673054       0.03096304       0.26744969
Si       1.30071654       2.25587219      19.21947158  T        0        1       0.01282955       0.04540084      -0.26687158
O        1.37505059       1.13140529      18.04964048  T        1        1      -0.40289390       0.32305376      -0.11050128
O        0.29691748       1.75846987      20.35896741  T        1        1      -0.05365411      -0.20835511       0.16939235
O        3.24222590       0.61272556      21.68794713  T        1        1      -0.07037658      -0.15081377       0.43979113
O        0.79244878       3.63685074      18.55756111  T        1        1       0.31678675       0.01192287       0.28285365
O        2.75055020       2.50645434      19.84779573  T        1        1       0.42929187       0.19484125      -0.26059835
O       -1.07826738       3.13826442      22.19371389  T        1        1      -0.04610554      -0.07018950       0.59752046
Si       7.23815181       0.00000000      12.00000000  F        0        2      -0.13308022      -0.37144870      -1.71154182
Si       3.76227409       2.00679893      15.60606667  F        0        2      -0.15585304       0.02680890       1.30347339
Si       6.22272410       2.25482548      13.80303333  F        0        2       0.03574160      -0.16718112       1.06028968
O        6.30416499       1.13103512      12.65233746  F        1        2      -0.51400403       0.21994985      -0.22564712
O        5.20877265       1.76346018      14.95372921  F        1        2       0.46416735      -0.24037229      -0.41800794
O        8.17066236       0.63242506      16.25840413  F        1        2       0.14299204      -0.21981732      -0.54585381
O        5.71021236       3.62919935      13.15069587  F        1        2       0.43235429       0.28552266       0.53079564
O        7.66922265       2.49816423      14.45537079  F        1        2      -0.00950930       0.39330853      -0.78010409
O        3.84371499       3.13058929      16.75676254  F        1        2      -0.28767724      -0.14977780      -0.32084886
Si       7.23827431       0.00079155      17.42951589  T        0        1      -0.07427870       0.04618394      -0.01159103
Si       3.76569249       2.01174861      21.01209630  T        0        1      -0.08673059       0.03096305       0.26744969
Si       6.22161654       2.25587219      19.21947158  T        0        1       0.01282955       0.04540084      -0.26687154
O        6.29595059       1.13140529      18.04964048  T        1        1      -0.40289390       0.32305376      -0.11050125
O        5.21781748       1.75846987      20.35896742  T        1        1      -0.05365401      -0.20835510       0.16939227
O        8.16312590       0.61272556      21.68794713  T        1        1      -0.07037658      -0.15081378       0.43979113
O        5.71334878       3.63685074      18.55756111  T        1        1       0.31678675       0.01192285       0.28285366
O        7.67145021       2.50645434      19.84779573  T        1        1       0.42929179       0.19484126      -0.26059841
O        3.84263262       3.13826442      22.19371389  T        1        1      -0.04610555      -0.07018950       0.59752046
36
Lattice="9.8418 0.0 0.0 -2.460449999999999 4.261624409482844 0.0 0.0 -0.0 34.16586254" Properties=species:S:1:pos:R:3:move_mask:L:1:spacegroup_kinds:I:1:tags:I:1:forces:R:3 spacegroup="P 32 2 1" unit_cell=conventional energy=-265.50292584606575 pbc="T T F"
Si       2.31725181       0.00000000      12.00000000  F        0        2      -0.13262372      -0.37014486      -1.70484209
Si      -1.15862590       2.00679893      15.60606667  F        0        2      -0.15660658       0.02138253       1.31960971
Si       1.30182410       2.25482548      13.80303333  F        0        2       0.03561722      -0.16762213       1.06996294
O        1.38326499       1.13103512      12.65233746  F        1        2      -0.51159476       0.21686606      -0.22962108
O        0.28787265       1.76346018      14.95372921  F        1        2       0.46741783      -0.23872582      -0.42532847
O        3.24976236       0.63242506      16.25840413  F        1        2       0.10652782      -0.24547144      -0.49226500
O        0.78931236       3.62919935      13.15069587  F        1        2       0.42921678       0.28756156       0.52500987
O        2.74832265       2.49816423      14.45537079  F        1        2      -0.01123411       0.39498175      -0.78589629
O       -1.07718501       3.13058929      16.75676254  F        1        2      -0.25730201      -0.11737735      -0.28692447
Si       2.31710524       0.00110561      17.43330963  T        0        1      -0.08841072       0.05892812      -0.15874686
Si      -1.15489707       2.01281299      21.01255598  T        0        1      -0.13665236      -0.00656019       0.36177991
Si       1.30051204       2.25626762      19.21966722  T        0        1       0.04736384       0.03514739      -0.30321233
O        1.37182911       1.13286714      18.04702717  T        1        1      -0.38637761       0.33011556      -0.07195669
O        0.29839991       1.75667210      20.35892416  T        1        1      -0.12447368      -0.19663358       0.22475945
O        3.24050911       0.60835720      21.69360392  T        1        1      -0.01791236       0.00243874       0.34856522
O        0.79438513       3.63824958      18.55834151  T        1        1       0.30795439       0.01081921       0.31234958
O        2.75272677       2.50883327      19.84358501  T        1        1       0.47477821       0.14861184      -0.17231490
O       -1.07866032       3.13946363      22.20142359  T        1        1      -0.04568833      -0.16431742       0.46907143
Si       7.23815181       0.00000000      12.00000000  F        0        2      -0.13262372      -0.37014486      -1.70484206
Si       3.76227409       2.00679893      15.60606667  F        0        2      -0.15660608       0.02138256       1.31960971
Si       6.22272410       2.25482548      13.80303333  F        0        2       0.03561721      -0.16762214       1.06996301
O        6.30416499       1.13103512      12.65233746  F        1        2      -0.51159475       0.21686604      -0.22962111
O        5.20877265       1.76346018      14.95372921  F        1        2       0.46741759      -0.23872579      -0.42532838
O        8.17066236       0.63242506      16.25840413  F        1        2       0.10652788      -0.24547136      -0.49226504
O        5.71021236       3.62919935      13.15069587  F        1        2       0.42921676       0.28756158       0.52500984
O        7.66922265       2.49816423      14.45537079  F        1        2      -0.01123397       0.39498170      -0.78589618
O        3.84371499       3.13058929      16.75676254  F        1        2      -0.25730204      -0.11737736      -0.28692447
Si       7.23800524       0.00110561      17.43330963  T        0        1      -0.08841072       0.05892811      -0.15874685
Si       3.76600293       2.01281299      21.01255598  T        0        1      -0.13665246      -0.00656017       0.36177992
Si       6.22141204       2.25626762      19.21966722  T        0        1       0.04736384       0.03514739      -0.30321231
O        6.29272911       1.13286714      18.04702717  T        1        1      -0.38637761       0.33011557      -0.07195667
O        5.21929990       1.75667211      20.35892416  T        1        1      -0.12447355      -0.19663357       0.22475937
O        8.16140911       0.60835720      21.69360392  T        1        1      -0.01791236       0.00243871       0.34856523
O        5.71528513       3.63824958      18.55834151  T        1        1       0.30795439       0.01081920       0.31234959
O        7.67362677       2.50883327      19.84358501  T        1        1       0.47477811       0.14861185      -0.17231497
O        3.84223968       3.13946363      22.20142359  T        1        1      -0.04568834      -0.16431742       0.46907143
36
Lattice="9.8418 0.0 0.0 -2.460449999999999 4.261624409482844 0.0 0.0 -0.0 34.16586254" Properties=species:S:1:pos:R:3:move_mask:L:1:spacegroup_kinds:I:1:tags:I:1:forces:R:3 spacegroup="P 32 2 1" unit_cell=conventional energy=-265.5265813357149 pbc="T T F"
Si       2.31725181       0.00000000      12.00000000  F        0        2      -0.13231956      -0.36915411      -1.70009725
Si      -1.15862590       2.00679893      15.60606667  F        0        2      -0.15608250       0.01679767       1.32880103
Si       1.30182410       2.25482548      13.80303333  F        0        2       0.03515912      -0.16793249       1.07625679
O        1.38326499       1.13103512      12.65233746  F        1        2      -0.50978253       0.21469594      -0.23221837
O        0.28787265       1.76346018      14.95372921  F        1        2       0.46903089      -0.23747788      -0.43014293
O        3.24976236       0.63242506      16.25840413  F        1        2       0.07090311      -0.27013594      -0.43834149
O        0.78931236       3.62919935      13.15069587  F        1        2       0.42704450       0.28898271       0.52107048
O        2.74832265       2.49816423      14.45537079  F        1        2      -0.01181234       0.39641272      -0.78899812
O       -1.07718501       3.13058929      16.75676254  F        1        2      -0.22776185      -0.08433317      -0.25069495
Si       2.31661320       0.00156708      17.43666497  T        0        1      -0.09254668       0.07360643      -0.25187457
Si      -1.15493771       2.01385116      21.01393373  T        0        1      -0.17515368      -0.04013779       0.43931644
Si       1.30043010       2.25674912      19.21908823  T        0        1       0.08843854       0.01718961      -0.26115680
O        1.36765142       1.13515744      18.04425370  T        1        1      -0.34199190       0.28836402      -0.06653925
O        0.29955186       1.75438912      20.35945420  T        1        1      -0.16446759      -0.17063487       0.25343312
O        3.23876195       0.60403393      21.70009885  T        1        1       0.02874343       0.14609113       0.26035279
O        0.79708922       3.63966354      18.55991113  T        1        1       0.25471256       0.05750901       0.29145026
O        2.75609416       2.51156985      19.83897253  T        1        1       0.48269376       0.09276500      -0.09420810
O       -1.07916623       3.14023332      22.21026033  T        1        1      -0.04480745      -0.25260803       0.34359086
Si       7.23815181       0.00000000      12.00000000  F        0        2      -0.13231956      -0.36915410      -1.70009722
Si       3.76227409       2.00679893      15.60606667  F        0        2      -0.15608201       0.01679770       1.32880103
Si       6.22272410       2.25482548      13.80303333  F        0        2       0.03515912      -0.16793250       1.07625686
O        6.30416499       1.13103512      12.65233746  F        1        2      -0.50978252       0.21469592      -0.23221840
O        5.20877265       1.76346018      14.95372921  F        1        2       0.46903066      -0.23747784      -0.43014284
O        8.17066236       0.63242506      16.25840413  F        1        2       0.07090317      -0.27013586      -0.43834153
O        5.71021236       3.62919935      13.15069587  F        1        2       0.42704448       0.28898273       0.52107045
O        7.66922265       2.49816423      14.45537079  F        1        2      -0.01181220       0.39641268      -0.78899802
O        3.84371499       3.13058929      16.75676254  F        1        2      -0.22776188      -0.08433319      -0.25069496
Si       7.23751320       0.00156708      17.43666497  T        0        1      -0.09254667       0.07360642      -0.25187455
Si       3.76596229       2.01385116      21.01393373  T        0        1      -0.17515381      -0.04013778       0.43931645
Si       6.22133010       2.25674912      19.21908823  T        0        1       0.08843854       0.01718962      -0.26115681
O        6.28855142       1.13515744      18.04425370  T        1        1      -0.34199189       0.28836402      -0.06653923
O        5.22045185       1.75438912      20.35945420  T        1        1      -0.16446747      -0.17063488       0.25343305
O        8.15966195       0.60403393      21.70009885  T        1        1       0.02874342       0.14609110       0.26035280
O        5.71798922       3.63966354      18.55991113  T        1        1       0.25471256       0.05750900       0.29145027
O        7.67699416       2.51156984      19.83897253  T        1        1       0.48269367       0.09276501      -0.09420816
O        3.84173377       3.14023332      22.21026033  T        1        1      -0.04480746      -0.25260803       0.34359086
36
Lattice="9.8418 0.0 0.0 -2.460449999999999 4.261624409482844 0.0 0.0 -0.0 34.16586254" Properties=species:S:1:pos:R:3:move_mask:L:1:spacegroup_kinds:I:1:tags:I:1:forces:R:3 spacegroup="P 32 2 1" unit_cell=conventional energy=-265.55067647480905 pbc="T T F"
Si       2.31725181       0.00000000      12.00000000  F        0        2      -0.13219966      -0.36858778      -1.69783103
Si      -1.15862590       2.00679893      15.60606667  F        0        2      -0.15398640       0.01362936       1.32983152
Si       1.30182410       2.25482548      13.80303333  F        0        2       0.03433892      -0.16809339       1.07847523
O        1.38326499       1.13103512      12.65233746  F        1        2      -0.50876381       0.21368635      -0.23313362
O        0.28787265       1.76346018      14.95372921  F        1        2       0.46869041      -0.23677409      -0.43195453
O        3.24976236       0.63242506      16.25840413  F        1        2       0.03871606      -0.29149400      -0.38865105
O        0.78931236       3.62919935      13.15069587  F        1        2       0.42609457       0.28963127       0.51943213
O        2.74832265       2.49816423      14.45537079  F        1        2      -0.01112284       0.39746874      -0.78895682
O       -1.07718501       3.13058929      16.75676254  F        1        2      -0.20098970      -0.05276076      -0.21457403
Si       2.31584398       0.00224847      17.43922924  T        0        1      -0.08265401       0.08686702      -0.27430529
Si      -1.15550992       2.01475935      21.01663478  T        0        1      -0.19288854      -0.06641380       0.48313752
Si       1.30061736       2.25727905      19.21772071  T        0        1       0.12931267      -0.00560058      -0.13230763
O        1.36246785       1.13830551      18.04129983  T        1        1      -0.26871306       0.19694028      -0.09592381
O        0.30019537       1.75160581      20.36074969  T        1        1      -0.16458645      -0.12715714       0.24726340
O        3.23711571       0.60018805      21.70733365  T        1        1       0.06454743       0.26788575       0.18295369
O        0.80054566       3.64124110      18.56235353  T        1        1       0.15458417       0.15039687       0.21596474
O        2.76090103       2.51456674      19.83411000  T        1        1       0.44354412       0.02775903      -0.03154999
O       -1.07980426       3.14022991      22.22007142  T        1        1      -0.04392404      -0.32738315       0.23212950
Si       7.23815181       0.00000000      12.00000000  F        0        2      -0.13219966      -0.36858777      -1.69783100
Si       3.76227409       2.00679893      15.60606667  F        0        2      -0.15398591       0.01362938       1.32983151
Si       6.22272410       2.25482548      13.80303333  F        0        2       0.03433891      -0.16809341       1.07847531
O        6.30416499       1.13103512      12.65233746  F        1        2      -0.50876380       0.21368633      -0.23313365
O        5.20877265       1.76346018      14.95372921  F        1        2       0.46869018      -0.23677406      -0.43195444
O        8.17066236       0.63242506      16.25840413  F        1        2       0.03871612      -0.29149392      -0.38865109
O        5.71021236       3.62919935      13.15069587  F        1        2       0.42609456       0.28963129       0.51943210
O        7.66922265       2.49816423      14.45537079  F        1        2      -0.01112270       0.39746870      -0.78895672
O        3.84371499       3.13058929      16.75676254  F        1        2      -0.20098974      -0.05276077      -0.21457404
Si       7.23674398       0.00224847      17.43922924  T        0        1      -0.08265401       0.08686702      -0.27430526
Si       3.76539008       2.01475935      21.01663478  T        0        1      -0.19288866      -0.06641380       0.48313752
Si       6.22151736       2.25727905      19.21772071  T        0        1       0.12931267      -0.00560057      -0.13230767
O        6.28336785       1.13830552      18.04129983  T        1        1      -0.26871305       0.19694027      -0.09592380
O        5.22109537       1.75160581      20.36074969  T        1        1      -0.16458635      -0.12715716       0.24726336
O        8.15801571       0.60018806      21.70733365  T        1        1       0.06454742       0.26788571       0.18295371
O        5.72144566       3.64124110      18.56235353  T        1        1       0.15458417       0.15039686       0.21596474
O        7.68180104       2.51456674      19.83411001  T        1        1       0.44354407       0.02775905      -0.03155004
O        3.84109574       3.14022991      22.22007142  T        1        1      -0.04392405      -0.32738315       0.23212950
36
Lattice="9.8418 0.0 0.0 -2.460449999999999 4.261624409482844 0.0 0.0 -0.0 34.16586254" Properties=species:S:1:pos:R:3:move_mask:L:1:spacegroup_kinds:I:1:tags:I:1:forces:R:3 spacegroup="P 32 2 1" unit_cell=conventional energy=-265.5744700030673 pbc="T T F"
Si       2.31725181       0.00000000      12.00000000  F        0        2      -0.13223786      -0.36844538      -1.69783367
Si      -1.15862590       2.00679893      15.60606667  F        0        2      -0.15026198       0.01228770       1.32403382
Si       1.30182410       2.25482548      13.80303333  F        0        2       0.03321376      -0.16814895       1.07721175
O        1.38326499       1.13103512      12.65233746  F        1        2      -0.50851033       0.21373263      -0.23258184
O        0.28787265       1.76346018      14.95372921  F        1        2       0.46664569      -0.23661923      -0.43125815
O        3.24976236       0.63242506      16.25840413  F        1        2       0.01258630      -0.30700696      -0.34872134
O        0.78931236       3.62919935      13.15069587  F        1        2       0.42626375       0.28959999       0.51986016
O        2.74832265       2.49816423      14.45537079  F        1        2      -0.00946975       0.39809722      -0.78630729
O       -1.07718501       3.13058929      16.75676254  F        1        2      -0.17832048      -0.02485642      -0.18160183
Si       2.31477651       0.00324415      17.44076927  T        0        1      -0.05851178       0.09402844      -0.22535340
Si      -1.15678637       2.01541761      21.02109123  T        0        1      -0.18030314      -0.08214556       0.47439013
Si       1.30127805       2.25778486      19.21587671  T        0        1       0.15882031      -0.02379461       0.06432314
O        1.35633274       1.14215536      18.03801372  T        1        1      -0.17358818       0.07256573      -0.14854927
O        0.30023037       1.74837444      20.36294416  T        1        1      -0.12495709      -0.06574177       0.20622019
O        3.23571751       0.59735148      21.71519136  T        1        1       0.08497010       0.35627814       0.12460838
O        0.80454631       3.64336014      18.56557229  T        1        1       0.02109401       0.26621925       0.10103476
O        2.76730379       2.51764535      19.82916440  T        1        1       0.35621008      -0.04436464       0.01454949
O       -1.08059923       3.13902471      22.23066860  T        1        1      -0.04364360      -0.38168558       0.14597489
Si       7.23815181       0.00000000      12.00000000  F        0        2      -0.13223786      -0.36844537      -1.69783364
Si       3.76227409       2.00679893      15.60606667  F        0        2      -0.15026149       0.01228772       1.32403382
Si       6.22272410       2.25482548      13.80303333  F        0        2       0.03321376      -0.16814897       1.07721183
O        6.30416499       1.13103512      12.65233746  F        1        2      -0.50851032       0.21373260      -0.23258187
O        5.20877265       1.76346018      14.95372921  F        1        2       0.46664546      -0.23661920      -0.43125807
O        8.17066236       0.63242506      16.25840413  F        1        2       0.01258636      -0.30700688      -0.34872139
O        5.71021236       3.62919935      13.15069587  F        1        2       0.42626374       0.28960001       0.51986013
O        7.66922265       2.49816423      14.45537079  F        1        2      -0.00946962       0.39809718      -0.78630718
O        3.84371499       3.13058929      16.75676254  F        1        2      -0.17832051      -0.02485643      -0.18160184
Si       7.23567651       0.00324415      17.44076927  T        0        1      -0.05851178       0.09402844      -0.22535337
Si       3.76411363       2.01541761      21.02109123  T        0        1      -0.18030322      -0.08214557       0.47439014
Si       6.22217805       2.25778486      19.21587671  T        0        1       0.15882031      -0.02379459       0.06432307
O        6.27723274       1.14215536      18.03801372  T        1        1      -0.17358816       0.07256571      -0.14854927
O        5.22113036       1.74837444      20.36294416  T        1        1      -0.12495705      -0.06574180       0.20622020
O        8.15661751       0.59735148      21.71519136  T        1        1       0.08497009       0.35627811       0.12460840
O        5.72544631       3.64336014      18.56557229  T        1        1       0.02109400       0.26621925       0.10103475
O        7.68820379       2.51764535      19.82916440  T        1        1       0.35621007      -0.04436462       0.01454947
O        3.84030077       3.13902471      22.23066860  T        1        1      -0.04364360      -0.38168557       0.14597489
36
Lattice="9.8418 0.0 0.0 -2.460449999999999 4.261624409482844 0.0 0.0 -0.0 34.16586254" Properties=species:S:1:pos:R:3:move_mask:L:1:spacegroup_kinds:I:1:tags:I:1:forces:R:3 spacegroup="P 32 2 1" unit_cell=conventional energy=-265.5970325114033 pbc="T T F"
Si       2.31725181       0.00000000      12.00000000  F        0        2      -0.13232465      -0.36855260      -1.69880807
Si      -1.15862590       2.00679893      15.60606667  F        0        2      -0.14521850       0.01283460       1.31638733
Si       1.30182410       2.25482548      13.80303333  F        0        2       0.03195167      -0.16823478       1.07491081
O        1.38326499       1.13103512      12.65233746  F        1        2      -0.50865210       0.21421216      -0.23153157
O        0.28787265       1.76346018      14.95372921  F        1        2       0.46395495      -0.23679484      -0.42997754
O        3.24976236       0.63242506      16.25840413  F        1        2      -0.00527977      -0.31441772      -0.32425068
O        0.78931236       3.62919935      13.15069587  F        1        2       0.42691949       0.28934156       0.52110915
O        2.74832265       2.49816423      14.45537079  F        1        2      -0.00773705       0.39837646      -0.78296964
O       -1.07718501       3.13058929      16.75676254  F        1        2      -0.15977105      -0.00237925      -0.15492952
Si       2.31345509       0.00465201      17.44129923  T        0        1      -0.02625303       0.09007678      -0.12735171
Si      -1.15885676       2.01570714      21.02763038  T        0        1      -0.13050545      -0.08450663       0.39661312
Si       1.30264072       2.25818207      19.21432897  T        0        1       0.16216470      -0.02141097       0.27073228
O        1.34946105       1.14630584      18.03408615  T        1        1      -0.07333116      -0.04493392      -0.19440249
O        0.29970991       1.74486926      20.36604253  T        1        1      -0.05835770       0.00957996       0.14213999
O        3.23470480       0.59611409      21.72355825  T        1        1       0.08691341       0.40218180       0.09282313
O        0.80861802       3.64665012      18.56922176  T        1        1      -0.11169749       0.35440212      -0.01345204
O        2.77525307       2.52050939      19.82431146  T        1        1       0.23167386      -0.11905545       0.04870223
O       -1.08158362       3.13613033      22.24185438  T        1        1      -0.04445032      -0.41071930       0.09425512
Si       7.23815181       0.00000000      12.00000000  F        0        2      -0.13232464      -0.36855260      -1.69880804
Si       3.76227409       2.00679893      15.60606667  F        0        2      -0.14521800       0.01283463       1.31638733
Si       6.22272410       2.25482548      13.80303333  F        0        2       0.03195167      -0.16823479       1.07491088
O        6.30416499       1.13103512      12.65233746  F        1        2      -0.50865209       0.21421213      -0.23153160
O        5.20877265       1.76346018      14.95372921  F        1        2       0.46395471      -0.23679481      -0.42997745
O        8.17066236       0.63242506      16.25840413  F        1        2      -0.00527970      -0.31441764      -0.32425072
O        5.71021236       3.62919935      13.15069587  F        1        2       0.42691948       0.28934159       0.52110912
O        7.66922265       2.49816423      14.45537079  F        1        2      -0.00773691       0.39837642      -0.78296954
O        3.84371499       3.13058929      16.75676254  F        1        2      -0.15977108      -0.00237926      -0.15492953
Si       7.23435509       0.00465201      17.44129923  T        0        1      -0.02625304       0.09007678      -0.12735167
Si       3.76204324       2.01570713      21.02763038  T        0        1      -0.13050548      -0.08450665       0.39661312
Si       6.22354072       2.25818207      19.21432897  T        0        1       0.16216470      -0.02141095       0.27073219
O        6.27036105       1.14630584      18.03408615  T        1        1      -0.07333115      -0.04493394      -0.19440250
O        5.22060991       1.74486926      20.36604253  T        1        1      -0.05835772       0.00957993       0.14214004
O        8.15560480       0.59611409      21.72355825  T        1        1       0.08691340       0.40218177       0.09282315
O        5.72951802       3.64665012      18.56922177  T        1        1      -0.11169751       0.35440213      -0.01345206
O        7.69615307       2.52050939      19.82431146  T        1        1       0.23167390      -0.11905543       0.04870225
O        3.83931638       3.13613033      22.24185438  T        1        1      -0.04445032      -0.41071930       0.09425513
36
Lattice="9.8418 0.0 0.0 -2.460449999999999 4.261624409482844 0.0 0.0 -0.0 34.16586254" Properties=species:S:1:pos:R:3:move_mask:L:1:spacegroup_kinds:I:1:tags:I:1:forces:R:3 spacegroup="P 32 2 1" unit_cell=conventional energy=-265.6187149920435 pbc="T T F"
Si       2.31725181       0.00000000      12.00000000  F        0        2      -0.13228417      -0.36857491      -1.69854556
Si      -1.15862590       2.00679893      15.60606667  F        0        2      -0.13951069       0.01484960       1.31469698
Si       1.30182410       2.25482548      13.80303333  F        0        2       0.03078818      -0.16855431       1.07545204
O        1.38326499       1.13103512      12.65233746  F        1        2      -0.50851663       0.21407629      -0.23154836
O        0.28787265       1.76346018      14.95372921  F        1        2       0.46230245      -0.23687282      -0.43114607
O        3.24976236       0.63242506      16.25840413  F        1        2      -0.01406174      -0.31299390      -0.31867850
O        0.78931236       3.62919935      13.15069587  F        1        2       0.42699231       0.28959510       0.52110777
O        2.74832265       2.49816423      14.45537079  F        1        2      -0.00720611       0.39851535      -0.78188498
O       -1.07718501       3.13058929      16.75676254  F        1        2      -0.14352611       0.01431597      -0.13646828
Si       2.31200230       0.00652503      17.44115992  T        0        1       0.00222262       0.07207909      -0.02232103
Si      -1.16160095       2.01555284      21.03621610  T        0        1      -0.04412448      -0.07179641       0.24483358
Si       1.30484622       2.25846534      19.21420594  T        0        1       0.12647382       0.01490591       0.40030811
O        1.34223706       1.15020191      18.02915877  T        1        1       0.01021157      -0.10129784      -0.19031009
O        0.29888629       1.74143039      20.36987088  T        1        1       0.01298670       0.09004279       0.07663759
O        3.23415184       0.59698827      21.73237260  T        1        1       0.07002551       0.40207467       0.09195173
O        0.81208610       3.65178062      18.57278398  T        1        1      -0.19842390       0.35266276      -0.07413005
O        2.78437879       2.52273685      19.81973590  T        1        1       0.09210376      -0.18894652       0.08001003
O       -1.08279623       3.13109872      22.25348213  T        1        1      -0.04645332      -0.41408086       0.08003499
Si       7.23815181       0.00000000      12.00000000  F        0        2      -0.13228417      -0.36857490      -1.69854553
Si       3.76227409       2.00679893      15.60606667  F        0        2      -0.13951019       0.01484963       1.31469697
Si       6.22272410       2.25482548      13.80303333  F        0        2       0.03078818      -0.16855432       1.07545211
O        6.30416499       1.13103512      12.65233746  F        1        2      -0.50851662       0.21407627      -0.23154839
O        5.20877265       1.76346018      14.95372921  F        1        2       0.46230222      -0.23687279      -0.43114599
O        8.17066236       0.63242506      16.25840413  F        1        2      -0.01406168      -0.31299382      -0.31867854
O        5.71021236       3.62919935      13.15069587  F        1        2       0.42699229       0.28959513       0.52110774
O        7.66922265       2.49816423      14.45537079  F        1        2      -0.00720597       0.39851531      -0.78188488
O        3.84371499       3.13058929      16.75676254  F        1        2      -0.14352613       0.01431596      -0.13646829
Si       7.23290230       0.00652503      17.44115992  T        0        1       0.00222261       0.07207909      -0.02232102
Si       3.75929905       2.01555284      21.03621610  T        0        1      -0.04412445      -0.07179643       0.24483358
Si       6.22574622       2.25846534      19.21420594  T        0        1       0.12647382       0.01490592       0.40030804
O        6.26313706       1.15020191      18.02915878  T        1        1       0.01021158      -0.10129786      -0.19031011
O        5.21978629       1.74143040      20.36987088  T        1        1       0.01298663       0.09004277       0.07663766
O        8.15505184       0.59698827      21.73237260  T        1        1       0.07002551       0.40207465       0.09195175
O        5.73298610       3.65178061      18.57278398  T        1        1      -0.19842391       0.35266278      -0.07413007
O        7.70527879       2.52273685      19.81973590  T        1        1       0.09210383      -0.18894651       0.08001006
O        3.83810377       3.13109871      22.25348213  T        1        1      -0.04645332      -0.41408086       0.08003499
36
Lattice="9.8418 0.0 0.0 -2.460449999999999 4.261624409482844 0.0 0.0 -0.0 34.16586254" Properties=species:S:1:pos:R:3:move_mask:L:1:spacegroup_kinds:I:1:tags:I:1:forces:R:3 spacegroup="P 32 2 1" unit_cell=conventional energy=-265.63969189363326 pbc="T T F"
Si       2.31725181       0.00000000      12.00000000  F        0        2      -0.13196283      -0.36817722      -1.69503340
Si      -1.15862590       2.00679893      15.60606667  F        0        2      -0.13379809       0.01761903       1.32558352
Si       1.30182410       2.25482548      13.80303333  F        0        2       0.02988941      -0.16926609       1.08210981
O        1.38326499       1.13103512      12.65233746  F        1        2      -0.50745351       0.21237972      -0.23398949
O        0.28787265       1.76346018      14.95372921  F        1        2       0.46312053      -0.23642699      -0.43732901
O        3.24976236       0.63242506      16.25840413  F        1        2      -0.01503499      -0.30459988      -0.33066146
O        0.78931236       3.62919935      13.15069587  F        1        2       0.42551077       0.29100924       0.51801356
O        2.74832265       2.49816423      14.45537079  F        1        2      -0.00886526       0.39873533      -0.78545146
O       -1.07718501       3.13058929      16.75676254  F        1        2      -0.12661936       0.02693141      -0.12551866
Si       2.31056833       0.00883398      17.44088404  T        0        1       0.01437950       0.04218833       0.04840280
Si      -1.16460631       2.01495822      21.04627465  T        0        1       0.06853781      -0.04391645       0.03265034
Si       1.30782049       2.25883914      19.21654149  T        0        1       0.04979816       0.08114891       0.38103586
O        1.33510152       1.15346207      18.02308033  T        1        1       0.06151241      -0.05681541      -0.10233406
O        0.29814535       1.73855670      20.37415619  T        1        1       0.06956555       0.16479177       0.03038349
O        3.23403085       0.60032832      21.74172020  T        1        1       0.03675698       0.35903016       0.12184926
O        0.81432339       3.65905840      18.57587830  T        1        1      -0.20715292       0.22636594      -0.04425157
O        2.79403757       2.52379612      19.81566795  T        1        1      -0.03865678      -0.24461845       0.11574149
O       -1.08428977       3.12354232      22.26555992  T        1        1      -0.04952761      -0.39637940       0.09879890
Si       7.23815181       0.00000000      12.00000000  F        0        2      -0.13196283      -0.36817721      -1.69503338
Si       3.76227409       2.00679893      15.60606667  F        0        2      -0.13379759       0.01761906       1.32558351
Si       6.22272410       2.25482548      13.80303333  F        0        2       0.02988940      -0.16926610       1.08210989
O        6.30416499       1.13103512      12.65233746  F        1        2      -0.50745350       0.21237970      -0.23398952
O        5.20877265       1.76346018      14.95372921  F        1        2       0.46312030      -0.23642696      -0.43732893
O        8.17066236       0.63242506      16.25840413  F        1        2      -0.01503494      -0.30459980      -0.33066150
O        5.71021236       3.62919935      13.15069587  F        1        2       0.42551076       0.29100927       0.51801352
O        7.66922265       2.49816423      14.45537079  F        1        2      -0.00886512       0.39873529      -0.78545136
O        3.84371499       3.13058929      16.75676254  F        1        2      -0.12661938       0.02693141      -0.12551867
Si       7.23146833       0.00883398      17.44088404  T        0        1       0.01437949       0.04218833       0.04840278
Si       3.75629369       2.01495822      21.04627465  T        0        1       0.06853786      -0.04391646       0.03265034
Si       6.22872049       2.25883914      19.21654149  T        0        1       0.04979815       0.08114891       0.38103583
O        6.25600152       1.15346206      18.02308033  T        1        1       0.06151241      -0.05681543      -0.10233408
O        5.21904535       1.73855670      20.37415619  T        1        1       0.06956548       0.16479175       0.03038355
O        8.15493085       0.60032832      21.74172020  T        1        1       0.03675698       0.35903016       0.12184926
O        5.73522339       3.65905840      18.57587830  T        1        1      -0.20715293       0.22636596      -0.04425159
O        7.71493757       2.52379612      19.81566795  T        1        1      -0.03865671      -0.24461844       0.11574152
O        3.83661023       3.12354232      22.26555992  T        1        1      -0.04952761      -0.39637940       0.09879890
36
Lattice="9.8418 0.0 0.0 -2.460449999999999 4.261624409482844 0.0 0.0 -0.0 34.16586254" Properties=species:S:1:pos:R:3:move_mask:L:1:spacegroup_kinds:I:1:tags:I:1:forces:R:3 spacegroup="P 32 2 1" unit_cell=conventional energy=-265.65750490631365 pbc="T T F"
Si       2.31725181       0.00000000      12.00000000  F        0        2      -0.13134715      -0.36723772      -1.68790886
Si      -1.15862590       2.00679893      15.60606667  F        0        2      -0.12837118       0.02051358       1.34946024
Si       1.30182410       2.25482548      13.80303333  F        0        2       0.02921222      -0.17033181       1.09494801
O        1.38326499       1.13103512      12.65233746  F        1        2      -0.50526574       0.20896434      -0.23896750
O        0.28787265       1.76346018      14.95372921  F        1        2       0.46650235      -0.23533056      -0.44859454
O        3.24976236       0.63242506      16.25840413  F        1        2      -0.01209362      -0.29427615      -0.35202474
O        0.78931236       3.62919935      13.15069587  F        1        2       0.42228908       0.29365546       0.51157612
O        2.74832265       2.49816423      14.45537079  F        1        2      -0.01257112       0.39911144      -0.79361723
O       -1.07718501       3.13058929      16.75676254  F        1        2      -0.10640290       0.03962138      -0.11782515
Si       2.30924534       0.01145205      17.44097019  T        0        1       0.00266877       0.01071071       0.06686611
Si      -1.16709243       2.01403725      21.05655153  T        0        1       0.18692006      -0.00403660      -0.20061925
Si       1.31115900       2.25981778      19.22171567  T        0        1      -0.05067870       0.14981862       0.20287685
O        1.32844321       1.15628984      18.01625330  T        1        1       0.08233349       0.07951848       0.06519423
O        0.29792561       1.73692048      20.37865750  T        1        1       0.10501931       0.22292859       0.01285874
O        3.23418456       0.60634018      21.75195380  T        1        1      -0.00737279       0.28434762       0.17631019
O        0.81500857       3.66800767      18.57863445  T        1        1      -0.14257863       0.00466027       0.06788057
O        2.80338336       2.52302658      19.81247432  T        1        1      -0.14431034      -0.27503320       0.15354825
O       -1.08614927       3.11304595      22.27834474  T        1        1      -0.05395332      -0.36760451       0.13803788
Si       7.23815181       0.00000000      12.00000000  F        0        2      -0.13134715      -0.36723771      -1.68790883
Si       3.76227409       2.00679893      15.60606667  F        0        2      -0.12837068       0.02051361       1.34946023
Si       6.22272410       2.25482548      13.80303333  F        0        2       0.02921222      -0.17033182       1.09494808
O        6.30416499       1.13103512      12.65233746  F        1        2      -0.50526573       0.20896432      -0.23896753
O        5.20877265       1.76346018      14.95372921  F        1        2       0.46650211      -0.23533053      -0.44859445
O        8.17066236       0.63242506      16.25840413  F        1        2      -0.01209357      -0.29427608      -0.35202476
O        5.71021236       3.62919935      13.15069587  F        1        2       0.42228907       0.29365548       0.51157609
O        7.66922265       2.49816423      14.45537079  F        1        2      -0.01257098       0.39911140      -0.79361713
O        3.84371499       3.13058929      16.75676254  F        1        2      -0.10640292       0.03962137      -0.11782515
Si       7.23014534       0.01145205      17.44097019  T        0        1       0.00266877       0.01071070       0.06686606
Si       3.75380757       2.01403725      21.05655153  T        0        1       0.18692010      -0.00403659      -0.20061927
Si       6.23205900       2.25981778      19.22171567  T        0        1      -0.05067870       0.14981860       0.20287687
O        6.24934321       1.15628984      18.01625330  T        1        1       0.08233347       0.07951848       0.06519421
O        5.21882561       1.73692048      20.37865750  T        1        1       0.10501928       0.22292859       0.01285877
O        8.15508457       0.60634018      21.75195380  T        1        1      -0.00737279       0.28434764       0.17631018
O        5.73590857       3.66800767      18.57863445  T        1        1      -0.14257863       0.00466029       0.06788057
O        7.72428336       2.52302658      19.81247432  T        1        1      -0.14431030      -0.27503320       0.15354827
O        3.83475073       3.11304595      22.27834474  T        1        1      -0.05395332      -0.36760451       0.13803788
36
Lattice="9.8418 0.0 0.0 -2.460449999999999 4.261624409482844 0.0 0.0 -0.0 34.16586254" Properties=species:S:1:pos:R:3:move_mask:L:1:spacegroup_kinds:I:1:tags:I:1:forces:R:3 spacegroup="P 32 2 1" unit_cell=conventional energy=-265.67288293278597 pbc="T T F"
Si       2.31725181       0.00000000      12.00000000  F        0        2      -0.13068867      -0.36607832      -1.67995722
Si      -1.15862590       2.00679893      15.60606667  F        0        2      -0.12295701       0.02342853       1.37579463
Si       1.30182410       2.25482548      13.80303333  F        0        2       0.02842617      -0.17137226       1.10835808
O        1.38326499       1.13103512      12.65233746  F        1        2      -0.50268074       0.20516912      -0.24431522
O        0.28787265       1.76346018      14.95372921  F        1        2       0.47018599      -0.23407085      -0.46053549
O        3.24976236       0.63242506      16.25840413  F        1        2      -0.01243214      -0.29004577      -0.36599915
O        0.78931236       3.62919935      13.15069587  F        1        2       0.41864326       0.29651695       0.50449811
O        2.74832265       2.49816423      14.45537079  F        1        2      -0.01630226       0.39944927      -0.80217050
O       -1.07718501       3.13058929      16.75676254  F        1        2      -0.08237337       0.05932877      -0.10497336
Si       2.30794778       0.01416029      17.44164372  T        0        1      -0.02734181      -0.00389473       0.05991538
Si      -1.16793249       2.01308220      21.06505029  T        0        1       0.27849804       0.03640923      -0.38133421
Si       1.31404722       2.26211130      19.22866459  T        0        1      -0.13477938       0.18089479      -0.04267319
O        1.32251831       1.15981204      18.01000933  T        1        1       0.09995903       0.22213065       0.24340615
O        0.29862892       1.73724542      20.38326502  T        1        1       0.13209918       0.25577005       0.01409335
O        3.23427327       0.61484135      21.76372114  T        1        1      -0.05090428       0.20506617       0.23695473
O        0.81444000       3.67698444      18.58198287  T        1        1      -0.06348287      -0.20310986       0.18757131
O        2.81144717       2.51984169      19.81063460  T        1        1      -0.22290390      -0.27109559       0.17682107
O       -1.08848002       3.09933549      22.29232319  T        1        1      -0.06096548      -0.34449620       0.17454544
Si       7.23815181       0.00000000      12.00000000  F        0        2      -0.13068867      -0.36607831      -1.67995720
Si       3.76227409       2.00679893      15.60606667  F        0        2      -0.12295651       0.02342856       1.37579462
Si       6.22272410       2.25482548      13.80303333  F        0        2       0.02842616      -0.17137227       1.10835816
O        6.30416499       1.13103512      12.65233746  F        1        2      -0.50268073       0.20516909      -0.24431524
O        5.20877265       1.76346018      14.95372921  F        1        2       0.47018575      -0.23407082      -0.46053540
O        8.17066236       0.63242506      16.25840413  F        1        2      -0.01243209      -0.29004570      -0.36599917
O        5.71021236       3.62919935      13.15069587  F        1        2       0.41864325       0.29651697       0.50449808
O        7.66922265       2.49816423      14.45537079  F        1        2      -0.01630213       0.39944923      -0.80217039
O        3.84371499       3.13058929      16.75676254  F        1        2      -0.08237339       0.05932876      -0.10497336
Si       7.22884778       0.01416029      17.44164372  T        0        1      -0.02734180      -0.00389475       0.05991531
Si       3.75296751       2.01308220      21.06505029  T        0        1       0.27849806       0.03640926      -0.38133423
Si       6.23494722       2.26211130      19.22866459  T        0        1      -0.13477937       0.18089477      -0.04267311
O        6.24341831       1.15981204      18.01000933  T        1        1       0.09995900       0.22213066       0.24340614
O        5.21952892       1.73724542      20.38326502  T        1        1       0.13209920       0.25577006       0.01409333
O        8.15517327       0.61484135      21.76372114  T        1        1      -0.05090427       0.20506619       0.23695472
O        5.73534000       3.67698444      18.58198287  T        1        1      -0.06348285      -0.20310986       0.18757132
O        7.73234717       2.51984169      19.81063460  T        1        1      -0.22290391      -0.27109559       0.17682106
O        3.83241998       3.09933549      22.29232319  T        1        1      -0.06096548      -0.34449620       0.17454544
36
Lattice="9.8418 0.0 0.0 -2.460449999999999 4.261624409482844 0.0 0.0 -0.0 34.16586254" Properties=species:S:1:pos:R:3:move_mask:L:1:spacegroup_kinds:I:1:tags:I:1:forces:R:3 spacegroup="P 32 2 1" unit_cell=conventional energy=-265.6977218144378 pbc="T T F"
Si       2.31725181       0.00000000      12.00000000  F        0        2      -0.13036601      -0.36526524      -1.67548565
Si      -1.15862590       2.00679893      15.60606667  F        0        2      -0.11718164       0.02686261       1.38930537
Si       1.30182410       2.25482548      13.80303333  F        0        2       0.02719983      -0.17185721       1.11437033
O        1.38326499       1.13103512      12.65233746  F        1        2      -0.50092948       0.20305728      -0.24684147
O        0.28787265       1.76346018      14.95372921  F        1        2       0.47094185      -0.23349498      -0.46674360
O        3.24976236       0.63242506      16.25840413  F        1        2      -0.02413144      -0.29887731      -0.35451221
O        0.78931236       3.62919935      13.15069587  F        1        2       0.41661438       0.29805343       0.50084285
O        2.74832265       2.49816423      14.45537079  F        1        2      -0.01737147       0.39946593      -0.80533168
O       -1.07718501       3.13058929      16.75676254  F        1        2      -0.05596297       0.09365460      -0.07794581
Si       2.30639612       0.01683093      17.44287512  T        0        1      -0.05591042       0.00942307       0.07511631
Si      -1.16617747       2.01246683      21.06999216  T        0        1       0.31043274       0.05849276      -0.43348380
Si       1.31567835       2.26608903      19.23521257  T        0        1      -0.16305349       0.15305443      -0.21802732
O        1.31752757       1.16540203      18.00603613  T        1        1       0.14583007       0.26415179       0.33979004
O        0.30056261       1.73995312      20.38800160  T        1        1       0.16978866       0.26013446       0.01250701
O        3.23388768       0.62524891      21.77769037  T        1        1      -0.07828081       0.15736083       0.27605847
O        0.81328025       3.68406455      18.58707720  T        1        1      -0.04505850      -0.28003742       0.22011066
O        2.81743033       2.51413265      19.81044315  T        1        1      -0.28072430      -0.23188854       0.16689126
O       -1.09137763       3.08242215      22.30792102  T        1        1      -0.07183721      -0.34229056       0.18337918
Si       7.23815181       0.00000000      12.00000000  F        0        2      -0.13036600      -0.36526524      -1.67548562
Si       3.76227409       2.00679893      15.60606667  F        0        2      -0.11718115       0.02686264       1.38930536
Si       6.22272410       2.25482548      13.80303333  F        0        2       0.02719983      -0.17185722       1.11437040
O        6.30416499       1.13103512      12.65233746  F        1        2      -0.50092947       0.20305726      -0.24684150
O        5.20877265       1.76346018      14.95372921  F        1        2       0.47094162      -0.23349495      -0.46674351
O        8.17066236       0.63242506      16.25840413  F        1        2      -0.02413138      -0.29887724      -0.35451225
O        5.71021236       3.62919935      13.15069587  F        1        2       0.41661436       0.29805346       0.50084282
O        7.66922265       2.49816423      14.45537079  F        1        2      -0.01737134       0.39946589      -0.80533157
O        3.84371499       3.13058929      16.75676254  F        1        2      -0.05596300       0.09365459      -0.07794582
Si       7.22729612       0.01683093      17.44287512  T        0        1      -0.05591042       0.00942306       0.07511626
Si       3.75472253       2.01246683      21.06999216  T        0        1       0.31043272       0.05849279      -0.43348381
Si       6.23657835       2.26608903      19.23521256  T        0        1      -0.16305348       0.15305441      -0.21802723
O        6.23842757       1.16540203      18.00603613  T        1        1       0.14583005       0.26415181       0.33979004
O        5.22146261       1.73995312      20.38800160  T        1        1       0.16978872       0.26013448       0.01250696
O        8.15478768       0.62524891      21.77769037  T        1        1      -0.07828080       0.15736085       0.27605846
O        5.73418025       3.68406455      18.58707720  T        1        1      -0.04505849      -0.28003743       0.22011067
O        7.73833033       2.51413265      19.81044315  T        1        1      -0.28072434      -0.23188853       0.16689123
O        3.82952237       3.08242215      22.30792102  T        1        1      -0.07183721      -0.34229057       0.18337918
36
Lattice="9.8418 0.0 0.0 -2.460449999999999 4.261624409482844 0.0 0.0 -0.0 34.16586254" Properties=species:S:1:pos:R:3:move_mask:L:1:spacegroup_kinds:I:1:tags:I:1:forces:R:3 spacegroup="P 32 2 1" unit_cell=conventional energy=-265.7433757349361 pbc="T T F"
Si       2.31725181       0.00000000      12.00000000  F        0        2      -0.13060211      -0.36508607      -1.67687159
Si      -1.15862590       2.00679893      15.60606667  F        0        2      -0.11131601       0.03137471       1.38095726
Si       1.30182410       2.25482548      13.80303333  F        0        2       0.02558098      -0.17139961       1.10845023
O        1.38326499       1.13103512      12.65233746  F        1        2      -0.50068755       0.20376046      -0.24476707
O        0.28787265       1.76346018      14.95372921  F        1        2       0.46710112      -0.23419590      -0.46327626
O        3.24976236       0.63242506      16.25840413  F        1        2      -0.05457529      -0.32499291      -0.30420082
O        0.78931236       3.62919935      13.15069587  F        1        2       0.41727020       0.29738525       0.50285586
O        2.74832265       2.49816423      14.45537079  F        1        2      -0.01434415       0.39911590      -0.80006729
O       -1.07718501       3.13058929      16.75676254  F        1        2      -0.02719747       0.15044167      -0.02927397
Si       2.30426218       0.01960095      17.44488838  T        0        1      -0.06274731       0.04271476       0.11864647
Si      -1.16119306       2.01245947      21.07042837  T        0        1       0.25618766       0.04378839      -0.31240188
Si       1.31561456       2.27166058      19.23949645  T        0        1      -0.11619302       0.07002796      -0.23676718
O        1.31405088       1.17374209      18.00559468  T        1        1       0.22187454       0.15596608       0.30017538
O        0.30426310       1.74536761      20.39287071  T        1        1       0.21798774       0.23340361      -0.00207789
O        3.23268777       0.63729841      21.79453783  T        1        1      -0.07461771       0.16883550       0.26708411
O        0.81165130       3.68823594      18.59446331  T        1        1      -0.11967951      -0.17539040       0.12202112
O        2.82049707       2.50600902      19.81198726  T        1        1      -0.30790554      -0.16083637       0.12011171
O       -1.09502384       3.06194025      22.32543406  T        1        1      -0.08613678      -0.36491309       0.14940174
Si       7.23815181       0.00000000      12.00000000  F        0        2      -0.13060211      -0.36508607      -1.67687157
Si       3.76227409       2.00679893      15.60606667  F        0        2      -0.11131552       0.03137473       1.38095725
Si       6.22272410       2.25482548      13.80303333  F        0        2       0.02558098      -0.17139963       1.10845030
O        6.30416499       1.13103512      12.65233746  F        1        2      -0.50068754       0.20376044      -0.24476710
O        5.20877265       1.76346018      14.95372921  F        1        2       0.46710088      -0.23419587      -0.46327617
O        8.17066236       0.63242506      16.25840413  F        1        2      -0.05457523      -0.32499283      -0.30420087
O        5.71021236       3.62919935      13.15069587  F        1        2       0.41727019       0.29738528       0.50285583
O        7.66922265       2.49816423      14.45537079  F        1        2      -0.01434402       0.39911585      -0.80006718
O        3.84371499       3.13058929      16.75676254  F        1        2      -0.02719751       0.15044164      -0.02927399
Si       7.22516218       0.01960095      17.44488838  T        0        1      -0.06274730       0.04271477       0.11864649
Si       3.75970694       2.01245947      21.07042837  T        0        1       0.25618763       0.04378841      -0.31240188
Si       6.23651456       2.27166058      19.23949645  T        0        1      -0.11619300       0.07002795      -0.23676713
O        6.23495088       1.17374209      18.00559468  T        1        1       0.22187452       0.15596610       0.30017538
O        5.22516310       1.74536761      20.39287071  T        1        1       0.21798779       0.23340363      -0.00207793
O        8.15358777       0.63729841      21.79453783  T        1        1      -0.07461770       0.16883551       0.26708410
O        5.73255130       3.68823594      18.59446331  T        1        1      -0.11967951      -0.17539042       0.12202112
O        7.74139707       2.50600902      19.81198726  T        1        1      -0.30790557      -0.16083637       0.12011169
O        3.82587615       3.06194025      22.32543406  T        1        1      -0.08613678      -0.36491309       0.14940174
36
Lattice="9.8418 0.0 0.0 -2.460449999999999 4.261624409482844 0.0 0.0 -0.0 34.16586254" Properties=species:S:1:pos:R:3:move_mask:L:1:spacegroup_kinds:I:1:tags:I:1:forces:R:3 spacegroup="P 32 2 1" unit_cell=conventional energy=-265.8026497789429 pbc="T T F"
Si       2.31725181       0.00000000      12.00000000  F        0        2      -0.13128476      -0.36522421      -1.68243503
Si      -1.15862590       2.00679893      15.60606667  F        0        2      -0.10679248       0.03716014       1.35444508
Si       1.30182410       2.25482548      13.80303333  F        0        2       0.02425587      -0.16991192       1.09289166
O        1.38326499       1.13103512      12.65233746  F        1        2      -0.50141264       0.20644881      -0.23922187
O        0.28787265       1.76346018      14.95372921  F        1        2       0.46014372      -0.23613744      -0.45129885
O        3.24976236       0.63242506      16.25840413  F        1        2      -0.10837549      -0.36820646      -0.21169914
O        0.78931236       3.62919935      13.15069587  F        1        2       0.41963808       0.29503989       0.50903101
O        2.74832265       2.49816423      14.45537079  F        1        2      -0.00821252       0.39879160      -0.78866320
O       -1.07718501       3.13058929      16.75676254  F        1        2       0.00657336       0.23609554       0.04456410
Si       2.30132316       0.02292102      17.44842090  T        0        1      -0.03833183       0.06337433       0.11824009
Si      -1.15292720       2.01301167      21.06687295  T        0        1       0.10980551      -0.01105083      -0.05085456
Si       1.31406581       2.27813547      19.24076109  T        0        1      -0.00873063      -0.02699344      -0.10811453
O        1.31340433       1.18408791      18.00898860  T        1        1       0.28207464      -0.05955881       0.13429008
O        0.31075492       1.75377303      20.39772063  T        1        1       0.23357390       0.17235406      -0.01139387
O        3.23053247       0.65152374      21.81482393  T        1        1      -0.03452365       0.23307393       0.19883604
O        0.80849046       3.69017227      18.60341994  T        1        1      -0.24046734       0.05417112      -0.05418039
O        2.81963363       2.49581772      19.81506866  T        1        1      -0.25785010      -0.06608769       0.06392871
O       -1.09977635       3.03676401      22.34488284  T        1        1      -0.10008386      -0.39333863       0.08163456
Si       7.23815181       0.00000000      12.00000000  F        0        2      -0.13128476      -0.36522420      -1.68243501
Si       3.76227409       2.00679893      15.60606667  F        0        2      -0.10679199       0.03716015       1.35444507
Si       6.22272410       2.25482548      13.80303333  F        0        2       0.02425587      -0.16991194       1.09289173
O        6.30416499       1.13103512      12.65233746  F        1        2      -0.50141263       0.20644879      -0.23922190
O        5.20877265       1.76346018      14.95372921  F        1        2       0.46014349      -0.23613741      -0.45129876
O        8.17066236       0.63242506      16.25840413  F        1        2      -0.10837542      -0.36820638      -0.21169921
O        5.71021236       3.62919935      13.15069587  F        1        2       0.41963807       0.29503991       0.50903098
O        7.66922265       2.49816423      14.45537079  F        1        2      -0.00821238       0.39879156      -0.78866310
O        3.84371499       3.13058929      16.75676254  F        1        2       0.00657332       0.23609550       0.04456407
Si       7.22222316       0.02292102      17.44842090  T        0        1      -0.03833183       0.06337435       0.11824017
Si       3.76797280       2.01301167      21.06687295  T        0        1       0.10980550      -0.01105084      -0.05085454
Si       6.23496581       2.27813547      19.24076109  T        0        1      -0.00873062      -0.02699343      -0.10811456
O        6.23430433       1.18408791      18.00898860  T        1        1       0.28207464      -0.05955880       0.13429008
O        5.23165492       1.75377303      20.39772063  T        1        1       0.23357389       0.17235406      -0.01139386
O        8.15143248       0.65152374      21.81482393  T        1        1      -0.03452366       0.23307393       0.19883604
O        5.72939046       3.69017227      18.60341994  T        1        1      -0.24046734       0.05417110      -0.05418040
O        7.74053363       2.49581772      19.81506866  T        1        1      -0.25785010      -0.06608769       0.06392872
O        3.82112365       3.03676401      22.34488285  T        1        1      -0.10008386      -0.39333863       0.08163456
36
Lattice="9.8418 0.0 0.0 -2.460449999999999 4.261624409482844 0.0 0.0 -0.0 34.16586254" Properties=species:S:1:pos:R:3:move_mask:L:1:spacegroup_kinds:I:1:tags:I:1:forces:R:3 spacegroup="P 32 2 1" unit_cell=conventional energy=-265.8588948481191 pbc="T T F"
Si       2.31725181       0.00000000      12.00000000  F        0        2      -0.13187618      -0.36478802      -1.68581655
Si      -1.15862590       2.00679893      15.60606667  F        0        2      -0.10610737       0.04362514       1.33162062
Si       1.30182410       2.25482548      13.80303333  F        0        2       0.02445600      -0.16790133       1.07895857
O        1.38326499       1.13103512      12.65233746  F        1        2      -0.50129204       0.20805236      -0.23491159
O        0.28787265       1.76346018      14.95372921  F        1        2       0.45545090      -0.23830165      -0.43930694
O        3.24976236       0.63242506      16.25840413  F        1        2      -0.17515245      -0.41615933      -0.10341361
O        0.78931236       3.62919935      13.15069587  F        1        2       0.42050688       0.29322836       0.51336561
O        2.74832265       2.49816423      14.45537079  F        1        2      -0.00324675       0.39920131      -0.78028165
O       -1.07718501       3.13058929      16.75676254  F        1        2       0.04496401       0.34117794       0.12971534
Si       2.29779167       0.02723805      17.45384362  T        0        1       0.00668467       0.01969184      -0.04737263
Si      -1.14296244       2.01337723      21.06252763  T        0        1      -0.06605664      -0.07499474       0.17605078
Si       1.31239209       2.28409637      19.24024649  T        0        1       0.08191488      -0.03757107       0.00972488
O        1.31736984       1.19334427      18.01453630  T        1        1       0.23519925      -0.20916368      -0.04671428
O        0.32098620       1.76489684      20.40232961  T        1        1       0.12195106       0.08258269       0.03473299
O        3.22783801       0.66939276      21.83812616  T        1        1       0.01814192       0.27011595       0.10202688
O        0.80143991       3.69297098      18.61139065  T        1        1      -0.25749972       0.18489497      -0.13216041
O        2.81457068       2.48466300      19.81915876  T        1        1      -0.06148745       0.03664142       0.05572823
O       -1.10610884       3.00545188      22.36544398  T        1        1      -0.10655117      -0.37033215       0.03805365
Si       7.23815181       0.00000000      12.00000000  F        0        2      -0.13187618      -0.36478801      -1.68581652
Si       3.76227409       2.00679893      15.60606667  F        0        2      -0.10610688       0.04362515       1.33162061
Si       6.22272410       2.25482548      13.80303333  F        0        2       0.02445599      -0.16790134       1.07895864
O        6.30416499       1.13103512      12.65233746  F        1        2      -0.50129203       0.20805233      -0.23491162
O        5.20877265       1.76346018      14.95372921  F        1        2       0.45545066      -0.23830162      -0.43930685
O        8.17066236       0.63242506      16.25840413  F        1        2      -0.17515237      -0.41615924      -0.10341368
O        5.71021236       3.62919935      13.15069587  F        1        2       0.42050687       0.29322838       0.51336557
O        7.66922265       2.49816423      14.45537079  F        1        2      -0.00324661       0.39920126      -0.78028154
O        3.84371499       3.13058929      16.75676254  F        1        2       0.04496396       0.34117790       0.12971531
Si       7.21869167       0.02723805      17.45384362  T        0        1       0.00668466       0.01969186      -0.04737255
Si       3.77793756       2.01337723      21.06252763  T        0        1      -0.06605663      -0.07499477       0.17605079
Si       6.23329209       2.28409637      19.24024649  T        0        1       0.08191488      -0.03757105       0.00972480
O        6.23826984       1.19334427      18.01453630  T        1        1       0.23519926      -0.20916368      -0.04671427
O        5.24188620       1.76489684      20.40232961  T        1        1       0.12195101       0.08258268       0.03473303
O        8.14873801       0.66939276      21.83812616  T        1        1       0.01814191       0.27011593       0.10202689
O        5.72233991       3.69297098      18.61139065  T        1        1      -0.25749972       0.18489496      -0.13216041
O        7.73547068       2.48466300      19.81915876  T        1        1      -0.06148741       0.03664141       0.05572826
O        3.81479116       3.00545188      22.36544398  T        1        1      -0.10655117      -0.37033215       0.03805366
36
Lattice="9.8418 0.0 0.0 -2.460449999999999 4.261624409482844 0.0 0.0 -0.0 34.16586254" Properties=species:S:1:pos:R:3:move_mask:L:1:spacegroup_kinds:I:1:tags:I:1:forces:R:3 spacegroup="P 32 2 1" unit_cell=conventional energy=-265.8979408765533 pbc="T T F"
Si       2.31725181       0.00000000      12.00000000  F        0        2      -0.13210987      -0.36400361      -1.68567557
Si      -1.15862590       2.00679893      15.60606667  F        0        2      -0.10856741       0.04902351       1.32469765
Si       1.30182410       2.25482548      13.80303333  F        0        2       0.02595272      -0.16621165       1.07217901
O        1.38326499       1.13103512      12.65233746  F        1        2      -0.50037429       0.20790001      -0.23360466
O        0.28787265       1.76346018      14.95372921  F        1        2       0.45484087      -0.23976617      -0.43295961
O        3.24976236       0.63242506      16.25840413  F        1        2      -0.21164728      -0.44112503      -0.04975145
O        0.78931236       3.62919935      13.15069587  F        1        2       0.41943814       0.29272881       0.51413160
O        2.74832265       2.49816423      14.45537079  F        1        2      -0.00171277       0.39980246      -0.77856106
O       -1.07718501       3.13058929      16.75676254  F        1        2       0.06688690       0.41203701       0.17870189
Si       2.29484548       0.03132754      17.45771775  T        0        1       0.04745178      -0.08029011      -0.29480963
Si      -1.13547570       2.01238098      21.06184150  T        0        1      -0.13569941      -0.09066590       0.17144653
Si       1.31237479       2.28860896      19.23997042  T        0        1       0.07794911       0.04750918      -0.01568261
O        1.32492846       1.19771042      18.01853037  T        1        1       0.06720825      -0.13054904      -0.09259698
O        0.33199657       1.77599198      20.40693575  T        1        1      -0.08569259       0.00530804       0.11303496
O        3.22581851       0.68962291      21.86012552  T        1        1       0.02471452       0.15935966       0.05391177
O        0.79081477       3.69863655      18.61599011  T        1        1      -0.09455966       0.05543030      -0.02143454
O        2.80910223       2.47562895      19.82368249  T        1        1       0.18613266       0.12433801       0.08099895
O       -1.11346768       2.97180600      22.38394536  T        1        1      -0.10021187      -0.24082552       0.09597366
Si       7.23815181       0.00000000      12.00000000  F        0        2      -0.13210987      -0.36400360      -1.68567555
Si       3.76227409       2.00679893      15.60606667  F        0        2      -0.10856691       0.04902354       1.32469764
Si       6.22272410       2.25482548      13.80303333  F        0        2       0.02595271      -0.16621166       1.07217908
O        6.30416499       1.13103512      12.65233746  F        1        2      -0.50037428       0.20789999      -0.23360469
O        5.20877265       1.76346018      14.95372921  F        1        2       0.45484063      -0.23976613      -0.43295952
O        8.17066236       0.63242506      16.25840413  F        1        2      -0.21164721      -0.44112495      -0.04975150
O        5.71021236       3.62919935      13.15069587  F        1        2       0.41943813       0.29272883       0.51413157
O        7.66922265       2.49816423      14.45537079  F        1        2      -0.00171263       0.39980242      -0.77856095
O        3.84371499       3.13058929      16.75676254  F        1        2       0.06688687       0.41203699       0.17870187
Si       7.21574548       0.03132754      17.45771775  T        0        1       0.04745177      -0.08029011      -0.29480962
Si       3.78542430       2.01238098      21.06184150  T        0        1      -0.13569941      -0.09066592       0.17144653
Si       6.23327479       2.28860896      19.23997042  T        0        1       0.07794910       0.04750918      -0.01568264
O        6.24582846       1.19771041      18.01853037  T        1        1       0.06720826      -0.13054904      -0.09259698
O        5.25289657       1.77599198      20.40693576  T        1        1      -0.08569260       0.00530804       0.11303497
O        8.14671851       0.68962291      21.86012552  T        1        1       0.02471451       0.15935965       0.05391178
O        5.71171477       3.69863655      18.61599011  T        1        1      -0.09455966       0.05543030      -0.02143454
O        7.73000223       2.47562895      19.82368249  T        1        1       0.18613267       0.12433801       0.08099896
O        3.80743232       2.97180600      22.38394536  T        1        1      -0.10021187      -0.24082551       0.09597367
36
Lattice="9.8418 0.0 0.0 -2.460449999999999 4.261624409482844 0.0 0.0 -0.0 34.16586254" Properties=species:S:1:pos:R:3:move_mask:L:1:spacegroup_kinds:I:1:tags:I:1:forces:R:3 spacegroup="P 32 2 1" unit_cell=conventional energy=-265.9168245742204 pbc="T T F"
Si       2.31725181       0.00000000      12.00000000  F        0        2      -0.13277545      -0.36481868      -1.69332348
Si      -1.15862590       2.00679893      15.60606667  F        0        2      -0.10882798       0.05361965       1.29949715
Si       1.30182410       2.25482548      13.80303333  F        0        2       0.02664367      -0.16433442       1.05406417
O        1.38326499       1.13103512      12.65233746  F        1        2      -0.50224781       0.21135628      -0.22758072
O        0.28787265       1.76346018      14.95372921  F        1        2       0.44911716      -0.24202105      -0.41948551
O        3.24976236       0.63242506      16.25840413  F        1        2      -0.18737152      -0.43478946      -0.08254320
O        0.78931236       3.62919935      13.15069587  F        1        2       0.42209340       0.28993461       0.52179887
O        2.74832265       2.49816423      14.45537079  F        1        2       0.00277779       0.39848515      -0.76806994
O       -1.07718501       3.13058929      16.75676254  F        1        2       0.04942372       0.41086372       0.16703561
Si       2.29311739       0.03343808      17.45534733  T        0        1       0.07482417      -0.14101676      -0.32659660
Si      -1.13138634       2.00966491      21.06464319  T        0        1      -0.09110378      -0.03825246       0.02821949
Si       1.31391623       2.29365679      19.23940639  T        0        1       0.03944309       0.06389631      -0.00468034
O        1.33313648       1.19906824      18.02030839  T        1        1      -0.09809816       0.04314361      -0.05573718
O        0.34028537       1.78617566      20.41337753  T        1        1      -0.18360995      -0.02743859       0.09529110
O        3.22447792       0.71118127      21.88118435  T        1        1      -0.03591218      -0.11826320       0.06962761
O        0.77927505       3.70488986      18.61973958  T        1        1       0.08677979      -0.11980418       0.07574075
O        2.80785356       2.46990721      19.82940944  T        1        1       0.26927180       0.19814785       0.03117104
O       -1.12215354       2.93643482      22.40266726  T        1        1      -0.08042798      -0.01870841       0.23557112
Si       7.23815181       0.00000000      12.00000000  F        0        2      -0.13277544      -0.36481867      -1.69332345
Si       3.76227409       2.00679893      15.60606667  F        0        2      -0.10882749       0.05361968       1.29949715
Si       6.22272410       2.25482548      13.80303333  F        0        2       0.02664366      -0.16433443       1.05406425
O        6.30416499       1.13103512      12.65233746  F        1        2      -0.50224780       0.21135625      -0.22758075
O        5.20877265       1.76346018      14.95372921  F        1        2       0.44911693      -0.24202102      -0.41948543
O        8.17066236       0.63242506      16.25840413  F        1        2      -0.18737147      -0.43478938      -0.08254323
O        5.71021236       3.62919935      13.15069587  F        1        2       0.42209339       0.28993463       0.52179884
O        7.66922265       2.49816423      14.45537079  F        1        2       0.00277793       0.39848510      -0.76806983
O        3.84371499       3.13058929      16.75676254  F        1        2       0.04942370       0.41086371       0.16703561
Si       7.21401739       0.03343808      17.45534733  T        0        1       0.07482417      -0.14101679      -0.32659666
Si       3.78951366       2.00966491      21.06464319  T        0        1      -0.09110381      -0.03825246       0.02821947
Si       6.23481623       2.29365679      19.23940639  T        0        1       0.03944308       0.06389629      -0.00468028
O        6.25403648       1.19906824      18.02030839  T        1        1      -0.09809816       0.04314362      -0.05573718
O        5.26118537       1.78617566      20.41337753  T        1        1      -0.18360990      -0.02743857       0.09529106
O        8.14537793       0.71118127      21.88118435  T        1        1      -0.03591217      -0.11826319       0.06962761
O        5.70017505       3.70488986      18.61973958  T        1        1       0.08677979      -0.11980417       0.07574076
O        7.72875356       2.46990721      19.82940944  T        1        1       0.26927177       0.19814784       0.03117102
O        3.79874646       2.93643482      22.40266726  T        1        1      -0.08042797      -0.01870840       0.23557112
36
Lattice="9.8418 0.0 0.0 -2.460449999999999 4.261624409482844 0.0 0.0 -0.0 34.16586254" Properties=species:S:1:pos:R:3:move_mask:L:1:spacegroup_kinds:I:1:tags:I:1:forces:R:3 spacegroup="P 32 2 1" unit_cell=conventional energy=-265.91867436129445 pbc="T T F"
Si       2.31725181       0.00000000      12.00000000  F        0        2      -0.13439007      -0.36812782      -1.71500352
Si      -1.15862590       2.00679893      15.60606667  F        0        2      -0.10336288       0.05763259       1.23099957
Si       1.30182410       2.25482548      13.80303333  F        0        2       0.02518563      -0.16179797       1.01262686
O        1.38326499       1.13103512      12.65233746  F        1        2      -0.50867618       0.22136594      -0.21210449
O        0.28787265       1.76346018      14.95372921  F        1        2       0.43186044      -0.24603318      -0.38978966
O        3.24976236       0.63242506      16.25840413  F        1        2      -0.10417146      -0.40534102      -0.18466946
O        0.78931236       3.62919935      13.15069587  F        1        2       0.43164106       0.28279725       0.54252286
O        2.74832265       2.49816423      14.45537079  F        1        2       0.01515826       0.39419461      -0.73791119
O       -1.07718501       3.13058929      16.75676254  F        1        2      -0.00964938       0.33947294       0.10565960
Si       2.29308847       0.03238754      17.44591690  T        0        1       0.05872789      -0.05782394       0.03597906
Si      -1.12943724       2.00620965      21.06796149  T        0        1      -0.04694941       0.03867124       0.03405832
Si       1.31626516       2.29992097      19.23876025  T        0        1       0.04951905      -0.06229329       0.14329169
O        1.33890307       1.20132112      18.02080303  T        1        1      -0.11540011       0.07747582      -0.06131689
O        0.34425902       1.79539273      20.42167237  T        1        1      -0.07696778      -0.02569103      -0.03762138
O        3.22239987       0.72937683      21.90300902  T        1        1      -0.10295528      -0.39411104       0.06223582
O        0.77004897       3.70829716      18.62501123  T        1        1       0.12166141      -0.11304004      -0.01868560
O        2.81254092       2.46872636      19.83561236  T        1        1       0.11759585       0.24927548      -0.10886233
O       -1.13228658       2.90192663      22.42586957  T        1        1      -0.04882726       0.17337339       0.29859067
Si       7.23815181       0.00000000      12.00000000  F        0        2      -0.13439007      -0.36812781      -1.71500350
Si       3.76227409       2.00679893      15.60606667  F        0        2      -0.10336238       0.05763263       1.23099956
Si       6.22272410       2.25482548      13.80303333  F        0        2       0.02518563      -0.16179798       1.01262694
O        6.30416499       1.13103512      12.65233746  F        1        2      -0.50867617       0.22136592      -0.21210452
O        5.20877265       1.76346018      14.95372921  F        1        2       0.43186020      -0.24603315      -0.38978957
O        8.17066236       0.63242506      16.25840413  F        1        2      -0.10417141      -0.40534094      -0.18466948
O        5.71021236       3.62919935      13.15069587  F        1        2       0.43164105       0.28279727       0.54252283
O        7.66922265       2.49816423      14.45537079  F        1        2       0.01515840       0.39419456      -0.73791109
O        3.84371499       3.13058929      16.75676254  F        1        2      -0.00964941       0.33947293       0.10565960
Si       7.21398847       0.03238754      17.44591690  T        0        1       0.05872791      -0.05782395       0.03597900
Si       3.79146276       2.00620965      21.06796149  T        0        1      -0.04694940       0.03867126       0.03405832
Si       6.23716516       2.29992097      19.23876025  T        0        1       0.04951905      -0.06229329       0.14329173
O        6.25980307       1.20132112      18.02080303  T        1        1      -0.11540010       0.07747581      -0.06131690
O        5.26515902       1.79539273      20.42167237  T        1        1      -0.07696777      -0.02569102      -0.03762139
O        8.14329987       0.72937683      21.90300903  T        1        1      -0.10295528      -0.39411102       0.06223580
O        5.69094897       3.70829716      18.62501123  T        1        1       0.12166140      -0.11304002      -0.01868560
O        7.73344092       2.46872636      19.83561236  T        1        1       0.11759583       0.24927547      -0.10886234
O        3.78861342       2.90192663      22.42586957  T        1        1      -0.04882726       0.17337339       0.29859066
36
Lattice="9.8418 0.0 0.0 -2.460449999999999 4.261624409482844 0.0 0.0 -0.0 34.16586254" Properties=species:S:1:pos:R:3:move_mask:L:1:spacegroup_kinds:I:1:tags:I:1:forces:R:3 spacegroup="P 32 2 1" unit_cell=conventional energy=-265.9229555148992 pbc="T T F"
Si       2.31725181       0.00000000      12.00000000  F        0        2      -0.13433681      -0.36803449      -1.71434574
Si      -1.15862590       2.00679893      15.60606667  F        0        2      -0.10320475       0.05742071       1.23295682
Si       1.30182410       2.25482548      13.80303333  F        0        2       0.02511245      -0.16191266       1.01373156
O        1.38326499       1.13103512      12.65233746  F        1        2      -0.50847847       0.22106292      -0.21252992
O        0.28787265       1.76346018      14.95372921  F        1        2       0.43204918      -0.24584971      -0.39068572
O        3.24976236       0.63242506      16.25840413  F        1        2      -0.10469584      -0.40636162      -0.18300741
O        0.78931236       3.62919935      13.15069587  F        1        2       0.43138449       0.28302882       0.54195794
O        2.74832265       2.49816423      14.45537079  F        1        2       0.01499431       0.39414841      -0.73835033
O       -1.07718501       3.13058929      16.75676254  F        1        2      -0.00842225       0.33973108       0.10615674
Si       2.29336746       0.03211284      17.44608782  T        0        1       0.04754705      -0.04370793       0.04265365
Si      -1.12966027       2.00639336      21.06812329  T        0        1      -0.06387997       0.02520047       0.08053831
Si       1.31650041       2.29962504      19.23944097  T        0        1       0.04992828      -0.05939147       0.11809499
O        1.33835485       1.20168917      18.02051174  T        1        1      -0.09605495       0.05981834      -0.05920255
O        0.34389338       1.79527068      20.42149364  T        1        1      -0.08055603      -0.02844249      -0.02180072
O        3.22191077       0.72750456      21.90330468  T        1        1      -0.08421102      -0.34332289       0.03609196
O        0.77062694       3.70776015      18.62492246  T        1        1       0.11268676      -0.10226903      -0.02146995
O        2.81309958       2.46991057      19.83509520  T        1        1       0.11996317       0.23833661      -0.09008088
O       -1.13251854       2.90275025      22.42728805  T        1        1      -0.04982580       0.14054488       0.25929118
Si       7.23815181       0.00000000      12.00000000  F        0        2      -0.13433681      -0.36803448      -1.71434571
Si       3.76227409       2.00679893      15.60606667  F        0        2      -0.10320425       0.05742074       1.23295681
Si       6.22272410       2.25482548      13.80303333  F        0        2       0.02511245      -0.16191268       1.01373163
O        6.30416499       1.13103512      12.65233746  F        1        2      -0.50847846       0.22106290      -0.21252995
O        5.20877265       1.76346018      14.95372921  F        1        2       0.43204894      -0.24584968      -0.39068563
O        8.17066236       0.63242506      16.25840413  F        1        2      -0.10469579      -0.40636155      -0.18300743
O        5.71021236       3.62919935      13.15069587  F        1        2       0.43138448       0.28302885       0.54195791
O        7.66922265       2.49816423      14.45537079  F        1        2       0.01499445       0.39414837      -0.73835023
O        3.84371499       3.13058929      16.75676254  F        1        2      -0.00842228       0.33973106       0.10615673
Si       7.21426746       0.03211284      17.44608782  T        0        1       0.04754705      -0.04370793       0.04265360
Si       3.79123973       2.00639336      21.06812329  T        0        1      -0.06387997       0.02520048       0.08053831
Si       6.23740041       2.29962504      19.23944097  T        0        1       0.04992828      -0.05939146       0.11809502
O        6.25925485       1.20168917      18.02051174  T        1        1      -0.09605495       0.05981833      -0.05920255
O        5.26479338       1.79527068      20.42149364  T        1        1      -0.08055603      -0.02844248      -0.02180073
O        8.14281077       0.72750456      21.90330468  T        1        1      -0.08421102      -0.34332288       0.03609195
O        5.69152694       3.70776015      18.62492246  T        1        1       0.11268676      -0.10226901      -0.02146995
O        7.73399958       2.46991057      19.83509520  T        1        1       0.11996316       0.23833660      -0.09008088
O        3.78838146       2.90275025      22.42728805  T        1        1      -0.04982579       0.14054487       0.25929118
36
Lattice="9.8418 0.0 0.0 -2.460449999999999 4.261624409482844 0.0 0.0 -0.0 34.16586254" Properties=species:S:1:pos:R:3:move_mask:L:1:spacegroup_kinds:I:1:tags:I:1:forces:R:3 spacegroup="P 32 2 1" unit_cell=conventional energy=-265.9297659613013 pbc="T T F"
Si       2.31725181       0.00000000      12.00000000  F        0        2      -0.13422557      -0.36783831      -1.71296298
Si      -1.15862590       2.00679893      15.60606667  F        0        2      -0.10295208       0.05706580       1.23717541
Si       1.30182410       2.25482548      13.80303333  F        0        2       0.02499441      -0.16214391       1.01611877
O        1.38326499       1.13103512      12.65233746  F        1        2      -0.50806619       0.22042526      -0.21344214
O        0.28787265       1.76346018      14.95372921  F        1        2       0.43255872      -0.24548587      -0.39259428
O        3.24976236       0.63242506      16.25840413  F        1        2      -0.10613936      -0.40841206      -0.17939378
O        0.78931236       3.62919935      13.15069587  F        1        2       0.43083449       0.28351226       0.54075094
O        2.74832265       2.49816423      14.45537079  F        1        2       0.01456907       0.39409123      -0.73943916
O       -1.07718501       3.13058929      16.75676254  F        1        2      -0.00571296       0.34079085       0.10741009
Si       2.29386977       0.03163468      17.44646701  T        0        1       0.02877092      -0.02075057       0.05212575
Si      -1.13019852       2.00669185      21.06869443  T        0        1      -0.08982053       0.00296967       0.15275958
Si       1.31697593       2.29904491      19.24067757  T        0        1       0.04983134      -0.05403680       0.07628523
O        1.33735395       1.20233648      18.01993678  T        1        1      -0.06165556       0.02961577      -0.05330742
O        0.34313868       1.79501057      20.42121761  T        1        1      -0.08613150      -0.03207455       0.00567056
O        3.22102565       0.72400558      21.90376146  T        1        1      -0.05265563      -0.25514808      -0.00790333
O        0.77174248       3.70673651      18.62472914  T        1        1       0.09593489      -0.08243679      -0.02650363
O        2.81423619       2.47223561      19.83415381  T        1        1       0.12144252       0.21645634      -0.05489404
O       -1.13299055       2.90423409      22.42993465  T        1        1      -0.05157719       0.08339974       0.19214435
Si       7.23815181       0.00000000      12.00000000  F        0        2      -0.13422557      -0.36783830      -1.71296295
Si       3.76227409       2.00679893      15.60606667  F        0        2      -0.10295159       0.05706583       1.23717540
Si       6.22272410       2.25482548      13.80303333  F        0        2       0.02499441      -0.16214393       1.01611884
O        6.30416499       1.13103512      12.65233746  F        1        2      -0.50806618       0.22042524      -0.21344217
O        5.20877265       1.76346018      14.95372921  F        1        2       0.43255849      -0.24548584      -0.39259419
O        8.17066236       0.63242506      16.25840413  F        1        2      -0.10613931      -0.40841198      -0.17939382
O        5.71021236       3.62919935      13.15069587  F        1        2       0.43083448       0.28351228       0.54075091
O        7.66922265       2.49816423      14.45537079  F        1        2       0.01456921       0.39409119      -0.73943905
O        3.84371499       3.13058929      16.75676254  F        1        2      -0.00571299       0.34079083       0.10741008
Si       7.21476977       0.03163468      17.44646701  T        0        1       0.02877093      -0.02075057       0.05212573
Si       3.79070148       2.00669185      21.06869443  T        0        1      -0.08982053       0.00296967       0.15275959
Si       6.23787593       2.29904491      19.24067757  T        0        1       0.04983134      -0.05403680       0.07628524
O        6.25825395       1.20233647      18.01993678  T        1        1      -0.06165555       0.02961576      -0.05330742
O        5.26403868       1.79501056      20.42121761  T        1        1      -0.08613151      -0.03207454       0.00567056
O        8.14192565       0.72400558      21.90376147  T        1        1      -0.05265563      -0.25514807      -0.00790334
O        5.69264248       3.70673651      18.62472914  T        1        1       0.09593488      -0.08243678      -0.02650363
O        7.73513619       2.47223561      19.83415381  T        1        1       0.12144252       0.21645633      -0.05489404
O        3.78790944       2.90423409      22.42993465  T        1        1      -0.05157719       0.08339974       0.19214435
36
Lattice="9.8418 0.0 0.0 -2.460449999999999 4.261624409482844 0.0 0.0 -0.0 34.16586254" Properties=species:S:1:pos:R:3:move_mask:L:1:spacegroup_kinds:I:1:tags:I:1:forces:R:3 spacegroup="P 32 2 1" unit_cell=conventional energy=-265.9369967819349 pbc="T T F"
Si       2.31725181       0.00000000      12.00000000  F        0        2      -0.13404845      -0.36752325      -1.71074208
Si      -1.15862590       2.00679893      15.60606667  F        0        2      -0.10273405       0.05667545       1.24418863
Si       1.30182410       2.25482548      13.80303333  F        0        2       0.02488461      -0.16249342       1.02009862
O        1.38326499       1.13103512      12.65233746  F        1        2      -0.50741141       0.21939998      -0.21494640
O        0.28787265       1.76346018      14.95372921  F        1        2       0.43362447      -0.24494827      -0.39571464
O        3.24976236       0.63242506      16.25840413  F        1        2      -0.10920102      -0.41148391      -0.17335448
O        0.78931236       3.62919935      13.15069587  F        1        2       0.42992789       0.28428091       0.53876905
O        2.74832265       2.49816423      14.45537079  F        1        2       0.01370977       0.39408997      -0.74155324
O       -1.07718501       3.13058929      16.75676254  F        1        2      -0.00111133       0.34358505       0.10984741
Si       2.29449363       0.03108045      17.44711951  T        0        1       0.00880576       0.00169883       0.05741433
Si      -1.13121923       2.00697822      21.07012054  T        0        1      -0.11083935      -0.01984747       0.21472811
Si       1.31770142       2.29820015      19.24224599  T        0        1       0.04737458      -0.04691940       0.03374815
O        1.33608501       1.20309587      18.01910104  T        1        1      -0.02001559      -0.00387415      -0.04070570
O        0.34194519       1.79458495      20.42100303  T        1        1      -0.09012821      -0.03308377       0.03668229
O        3.21991466       0.71933310      21.90412538  T        1        1      -0.01858710      -0.15298164      -0.05523911
O        0.77331927       3.70532303      18.62439690  T        1        1       0.07384581      -0.05706487      -0.03252302
O        2.81598423       2.47562053      19.83297881  T        1        1       0.11566647       0.18375254      -0.00810592
O       -1.13372332       2.90606749      22.43346382  T        1        1      -0.05376306       0.01673738       0.11740790
Si       7.23815181       0.00000000      12.00000000  F        0        2      -0.13404845      -0.36752325      -1.71074205
Si       3.76227409       2.00679893      15.60606667  F        0        2      -0.10273356       0.05667548       1.24418863
Si       6.22272410       2.25482548      13.80303333  F        0        2       0.02488461      -0.16249343       1.02009869
O        6.30416499       1.13103512      12.65233746  F        1        2      -0.50741140       0.21939996      -0.21494643
O        5.20877265       1.76346018      14.95372921  F        1        2       0.43362423      -0.24494823      -0.39571455
O        8.17066236       0.63242506      16.25840413  F        1        2      -0.10920096      -0.41148382      -0.17335452
O        5.71021236       3.62919935      13.15069587  F        1        2       0.42992788       0.28428093       0.53876902
O        7.66922265       2.49816423      14.45537079  F        1        2       0.01370990       0.39408993      -0.74155313
O        3.84371499       3.13058929      16.75676254  F        1        2      -0.00111136       0.34358503       0.10984740
Si       7.21539363       0.03108045      17.44711951  T        0        1       0.00880576       0.00169884       0.05741433
Si       3.78968078       2.00697822      21.07012054  T        0        1      -0.11083936      -0.01984748       0.21472812
Si       6.23860142       2.29820015      19.24224599  T        0        1       0.04737458      -0.04691940       0.03374813
O        6.25698501       1.20309587      18.01910104  T        1        1      -0.02001559      -0.00387415      -0.04070570
O        5.26284519       1.79458495      20.42100303  T        1        1      -0.09012822      -0.03308377       0.03668230
O        8.14081466       0.71933310      21.90412538  T        1        1      -0.01858710      -0.15298164      -0.05523911
O        5.69421927       3.70532302      18.62439690  T        1        1       0.07384581      -0.05706486      -0.03252302
O        7.73688423       2.47562053      19.83297881  T        1        1       0.11566648       0.18375254      -0.00810591
O        3.78717668       2.90606749      22.43346382  T        1        1      -0.05376306       0.01673738       0.11740790
36
Lattice="9.8418 0.0 0.0 -2.460449999999999 4.261624409482844 0.0 0.0 -0.0 34.16586254" Properties=species:S:1:pos:R:3:move_mask:L:1:spacegroup_kinds:I:1:tags:I:1:forces:R:3 spacegroup="P 32 2 1" unit_cell=conventional energy=-265.9434904519403 pbc="T T F"
Si       2.31725181       0.00000000      12.00000000  F        0        2      -0.13380201      -0.36708172      -1.70762832
Si      -1.15862590       2.00679893      15.60606667  F        0        2      -0.10273450       0.05631942       1.25435378
Si       1.30182410       2.25482548      13.80303333  F        0        2       0.02484955      -0.16294973       1.02588549
O        1.38326499       1.13103512      12.65233746  F        1        2      -0.50650414       0.21796165      -0.21710981
O        0.28787265       1.76346018      14.95372921  F        1        2       0.43546818      -0.24425726      -0.40015716
O        3.24976236       0.63242506      16.25840413  F        1        2      -0.11453100      -0.41543507      -0.16463472
O        0.78931236       3.62919935      13.15069587  F        1        2       0.42862318       0.28534640       0.53592856
O        2.74832265       2.49816423      14.45537079  F        1        2       0.01225851       0.39422463      -0.74503292
O       -1.07718501       3.13058929      16.75676254  F        1        2       0.00557705       0.34891348       0.11377968
Si       2.29511456       0.03059310      17.44809443  T        0        1      -0.00500775       0.01335592       0.05086689
Si      -1.13288626       2.00710194      21.07285390  T        0        1      -0.11197540      -0.03420703       0.22850257
Si       1.31867424       2.29712307      19.24388544  T        0        1       0.04023590      -0.03844797       0.00894543
O        1.33480782       1.20375317      18.01807402  T        1        1       0.01924635      -0.02965724      -0.01848923
O        0.34026250       1.79397851      20.42105760  T        1        1      -0.08702723      -0.02747677       0.06057659
O        3.21878926       0.71409491      21.90407993  T        1        1       0.00652760      -0.06367721      -0.08961326
O        0.77523700       3.70366558      18.62387828  T        1        1       0.05024153      -0.03166702      -0.03720951
O        2.81833846       2.47990768      19.83186657  T        1        1       0.09468691       0.14135259       0.04280519
O       -1.13474582       2.90783056      22.43743283  T        1        1      -0.05613292      -0.04261709       0.05823066
Si       7.23815181       0.00000000      12.00000000  F        0        2      -0.13380201      -0.36708172      -1.70762830
Si       3.76227409       2.00679893      15.60606667  F        0        2      -0.10273400       0.05631945       1.25435378
Si       6.22272410       2.25482548      13.80303333  F        0        2       0.02484955      -0.16294974       1.02588557
O        6.30416499       1.13103512      12.65233746  F        1        2      -0.50650413       0.21796162      -0.21710984
O        5.20877265       1.76346018      14.95372921  F        1        2       0.43546795      -0.24425723      -0.40015707
O        8.17066236       0.63242506      16.25840413  F        1        2      -0.11453093      -0.41543499      -0.16463477
O        5.71021236       3.62919935      13.15069587  F        1        2       0.42862316       0.28534642       0.53592853
O        7.66922265       2.49816423      14.45537079  F        1        2       0.01225865       0.39422459      -0.74503281
O        3.84371499       3.13058929      16.75676254  F        1        2       0.00557701       0.34891345       0.11377965
Si       7.21601456       0.03059310      17.44809442  T        0        1      -0.00500775       0.01335593       0.05086691
Si       3.78801374       2.00710194      21.07285390  T        0        1      -0.11197541      -0.03420704       0.22850258
Si       6.23957424       2.29712307      19.24388544  T        0        1       0.04023589      -0.03844797       0.00894540
O        6.25570782       1.20375317      18.01807402  T        1        1       0.01924635      -0.02965724      -0.01848922
O        5.26116250       1.79397851      20.42105760  T        1        1      -0.08702724      -0.02747677       0.06057660
O        8.13968926       0.71409491      21.90407993  T        1        1       0.00652759      -0.06367722      -0.08961326
O        5.69613700       3.70366558      18.62387828  T        1        1       0.05024152      -0.03166702      -0.03720951
O        7.73923846       2.47990768      19.83186657  T        1        1       0.09468693       0.14135259       0.04280520
O        3.78615418       2.90783056      22.43743283  T        1        1      -0.05613292      -0.04261709       0.05823066
36
Lattice="9.8418 0.0 0.0 -2.460449999999999 4.261624409482844 0.0 0.0 -0.0 34.16586254" Properties=species:S:1:pos:R:3:move_mask:L:1:spacegroup_kinds:I:1:tags:I:1:forces:R:3 spacegroup="P 32 2 1" unit_cell=conventional energy=-265.94888193283725 pbc="T T F"
Si       2.31725181       0.00000000      12.00000000  F        0        2      -0.13349905      -0.36653896      -1.70379041
Si      -1.15862590       2.00679893      15.60606667  F        0        2      -0.10314053       0.05592293       1.26717943
Si       1.30182410       2.25482548      13.80303333  F        0        2       0.02494356      -0.16346966       1.03322154
O        1.38326499       1.13103512      12.65233746  F        1        2      -0.50539817       0.21618916      -0.21982910
O        0.28787265       1.76346018      14.95372921  F        1        2       0.43809475      -0.24346100      -0.40566551
O        3.24976236       0.63242506      16.25840413  F        1        2      -0.12210933      -0.41983974      -0.15383484
O        0.78931236       3.62919935      13.15069587  F        1        2       0.42697820       0.28664506       0.53236450
O        2.74832265       2.49816423      14.45537079  F        1        2       0.01022758       0.39454534      -0.74983425
O       -1.07718501       3.13058929      16.75676254  F        1        2       0.01376988       0.35658191       0.11895286
Si       2.29563607       0.03025403      17.44935094  T        0        1      -0.00774801       0.00849341       0.02883860
Si      -1.13522111       2.00695835      21.07701687  T        0        1      -0.08543926      -0.03419254       0.17513762
Si       1.31984964       2.29586715      19.24542761  T        0        1       0.02700438      -0.02804857       0.01283416
O        1.33380178       1.20412371      18.01701191  T        1        1       0.04824702      -0.03970275       0.01412491
O        0.33809949       1.79322795      20.42155816  T        1        1      -0.07134962      -0.01322534       0.06848275
O        3.21782505       0.70890597      21.90337116  T        1        1       0.01498994      -0.00721430      -0.10005588
O        0.77733738       3.70193788      18.62313422  T        1        1       0.02970634      -0.01280087      -0.03744754
O        2.82116293       2.48481956      19.83118457  T        1        1       0.05316559       0.09258979       0.08875510
O       -1.13608441       2.90909972      22.44143890  T        1        1      -0.05844347      -0.08247390       0.03056596
Si       7.23815181       0.00000000      12.00000000  F        0        2      -0.13349905      -0.36653895      -1.70379039
Si       3.76227409       2.00679893      15.60606667  F        0        2      -0.10314004       0.05592295       1.26717943
Si       6.22272410       2.25482548      13.80303333  F        0        2       0.02494355      -0.16346968       1.03322161
O        6.30416499       1.13103512      12.65233746  F        1        2      -0.50539816       0.21618914      -0.21982913
O        5.20877265       1.76346018      14.95372921  F        1        2       0.43809451      -0.24346096      -0.40566542
O        8.17066236       0.63242506      16.25840413  F        1        2      -0.12210926      -0.41983965      -0.15383489
O        5.71021236       3.62919935      13.15069587  F        1        2       0.42697819       0.28664508       0.53236447
O        7.66922265       2.49816423      14.45537079  F        1        2       0.01022772       0.39454530      -0.74983414
O        3.84371499       3.13058929      16.75676254  F        1        2       0.01376984       0.35658188       0.11895284
Si       7.21653608       0.03025403      17.44935094  T        0        1      -0.00774802       0.00849342       0.02883864
Si       3.78567889       2.00695835      21.07701687  T        0        1      -0.08543927      -0.03419256       0.17513762
Si       6.24074964       2.29586715      19.24542761  T        0        1       0.02700437      -0.02804857       0.01283413
O        6.25470178       1.20412371      18.01701191  T        1        1       0.04824703      -0.03970275       0.01412491
O        5.25899949       1.79322795      20.42155816  T        1        1      -0.07134962      -0.01322534       0.06848275
O        8.13872505       0.70890597      21.90337116  T        1        1       0.01498993      -0.00721431      -0.10005587
O        5.69823738       3.70193788      18.62313422  T        1        1       0.02970635      -0.01280088      -0.03744754
O        7.74206293       2.48481956      19.83118457  T        1        1       0.05316559       0.09258979       0.08875510
O        3.78481559       2.90909972      22.44143890  T        1        1      -0.05844347      -0.08247390       0.03056597
36
Lattice="9.8418 0.0 0.0 -2.460449999999999 4.261624409482844 0.0 0.0 -0.0 34.16586254" Properties=species:S:1:pos:R:3:move_mask:L:1:spacegroup_kinds:I:1:tags:I:1:forces:R:3 spacegroup="P 32 2 1" unit_cell=conventional energy=-265.95269582980376 pbc="T T F"
Si       2.31725181       0.00000000      12.00000000  F        0        2      -0.13317232      -0.36596409      -1.69968360
Si      -1.15862590       2.00679893      15.60606667  F        0        2      -0.10408564       0.05522658       1.28107452
Si       1.30182410       2.25482548      13.80303333  F        0        2       0.02518561      -0.16397595       1.04122156
O        1.38326499       1.13103512      12.65233746  F        1        2      -0.50422943       0.21429560      -0.22277663
O        0.28787265       1.76346018      14.95372921  F        1        2       0.44118367      -0.24263507      -0.41151349
O        3.24976236       0.63242506      16.25840413  F        1        2      -0.13088564      -0.42397569      -0.14270002
O        0.78931236       3.62919935      13.15069587  F        1        2       0.42518523       0.28801881       0.52850064
O        2.74832265       2.49816423      14.45537079  F        1        2       0.00787856       0.39503598      -0.75534901
O       -1.07718501       3.13058929      16.75676254  F        1        2       0.02190488       0.36495273       0.12430731
Si       2.29604097       0.03001954      17.45072176  T        0        1       0.00061796      -0.01018532      -0.00457137
Si      -1.13803339       2.00654462      21.08222082  T        0        1      -0.03539362      -0.01967907       0.06691379
Si       1.32113220       2.29450344      19.24692235  T        0        1       0.00835262      -0.01415612       0.04100513
O        1.33329780       1.20412685      18.01617354  T        1        1       0.06424453      -0.03306118       0.05449316
O        0.33555910       1.79244239      20.42257850  T        1        1      -0.04093836       0.00795744       0.05804542
O        3.21708199       0.70417591      21.90190073  T        1        1       0.00617400       0.01097259      -0.08577735
O        0.77947491       3.70027644      18.62215297  T        1        1       0.01589735      -0.00565231      -0.03063276
O        2.82414734       2.49001067      19.83130929  T        1        1      -0.00762156       0.04300068       0.12168519
O       -1.13777544       2.90955571      22.44529870  T        1        1      -0.06029806      -0.10017565       0.03575741
Si       7.23815181       0.00000000      12.00000000  F        0        2      -0.13317231      -0.36596409      -1.69968357
Si       3.76227409       2.00679893      15.60606667  F        0        2      -0.10408515       0.05522660       1.28107452
Si       6.22272410       2.25482548      13.80303333  F        0        2       0.02518561      -0.16397596       1.04122164
O        6.30416499       1.13103512      12.65233746  F        1        2      -0.50422942       0.21429558      -0.22277666
O        5.20877265       1.76346018      14.95372921  F        1        2       0.44118344      -0.24263504      -0.41151340
O        8.17066236       0.63242506      16.25840413  F        1        2      -0.13088557      -0.42397561      -0.14270007
O        5.71021236       3.62919935      13.15069587  F        1        2       0.42518522       0.28801884       0.52850061
O        7.66922265       2.49816423      14.45537079  F        1        2       0.00787870       0.39503594      -0.75534890
O        3.84371499       3.13058929      16.75676254  F        1        2       0.02190484       0.36495271       0.12430729
Si       7.21694097       0.03001954      17.45072176  T        0        1       0.00061795      -0.01018532      -0.00457134
Si       3.78286661       2.00654462      21.08222082  T        0        1      -0.03539363      -0.01967908       0.06691379
Si       6.24203220       2.29450344      19.24692235  T        0        1       0.00835262      -0.01415612       0.04100511
O        6.25419780       1.20412684      18.01617354  T        1        1       0.06424453      -0.03306117       0.05449316
O        5.25645910       1.79244239      20.42257850  T        1        1      -0.04093835       0.00795745       0.05804541
O        8.13798199       0.70417591      21.90190073  T        1        1       0.00617400       0.01097258      -0.08577735
O        5.70037491       3.70027644      18.62215297  T        1        1       0.01589735      -0.00565232      -0.03063276
O        7.74504734       2.49001067      19.83130929  T        1        1      -0.00762156       0.04300068       0.12168519
O        3.78312456       2.90955571      22.44529870  T        1        1      -0.06029806      -0.10017565       0.03575742
36
Lattice="9.8418 0.0 0.0 -2.460449999999999 4.261624409482844 0.0 0.0 -0.0 34.16586254" Properties=species:S:1:pos:R:3:move_mask:L:1:spacegroup_kinds:I:1:tags:I:1:forces:R:3 spacegroup="P 32 2 1" unit_cell=conventional energy=-265.9546629133647 pbc="T T F"
Si       2.31725181       0.00000000      12.00000000  F        0        2      -0.13287554      -0.36547365      -1.69606276
Si      -1.15862590       2.00679893      15.60606667  F        0        2      -0.10559253       0.05388353       1.29340713
Si       1.30182410       2.25482548      13.80303333  F        0        2       0.02554448      -0.16436398       1.04836691
O        1.38326499       1.13103512      12.65233746  F        1        2      -0.50322157       0.21263467      -0.22539334
O        0.28787265       1.76346018      14.95372921  F        1        2       0.44407478      -0.24188932      -0.41652206
O        3.24976236       0.63242506      16.25840413  F        1        2      -0.13872562      -0.42690700      -0.13406430
O        0.78931236       3.62919935      13.15069587  F        1        2       0.42358353       0.28921196       0.52506125
O        2.74832265       2.49816423      14.45537079  F        1        2       0.00572684       0.39559130      -0.76038644
O       -1.07718501       3.13058929      16.75676254  F        1        2       0.02763378       0.37109676       0.12802969
Si       2.29641124       0.02971179      17.45191210  T        0        1       0.01459371      -0.03086785      -0.03592598
Si      -1.14090048       2.00598542      21.08753968  T        0        1       0.02194644       0.00266889      -0.05231387
Si       1.32236580       2.29314170      19.24865693  T        0        1      -0.01239194       0.00415235       0.07288326
O        1.33345418       1.20381577      18.01593638  T        1        1       0.07098573      -0.01779959       0.09550530
O        0.33288406       1.79181094      20.42404790  T        1        1      -0.00036713       0.03030852       0.03589480
O        3.21647185       0.70002302      21.89976295  T        1        1      -0.01264981       0.00230268      -0.05719950
O        0.78154962       3.69872747      18.62097901  T        1        1       0.00959851      -0.01093048      -0.01696118
O        2.82676094       2.49509094      19.83257684  T        1        1      -0.07677170       0.00005052       0.13682765
O       -1.13986985       2.90901501      22.44911201  T        1        1      -0.06109216      -0.10366934       0.05885337
Si       7.23815181       0.00000000      12.00000000  F        0        2      -0.13287553      -0.36547364      -1.69606274
Si       3.76227409       2.00679893      15.60606667  F        0        2      -0.10559204       0.05388355       1.29340713
Si       6.22272410       2.25482548      13.80303333  F        0        2       0.02554447      -0.16436399       1.04836698
O        6.30416499       1.13103512      12.65233746  F        1        2      -0.50322156       0.21263465      -0.22539337
O        5.20877265       1.76346018      14.95372921  F        1        2       0.44407455      -0.24188929      -0.41652197
O        8.17066236       0.63242506      16.25840413  F        1        2      -0.13872556      -0.42690692      -0.13406435
O        5.71021236       3.62919935      13.15069587  F        1        2       0.42358352       0.28921198       0.52506122
O        7.66922265       2.49816423      14.45537079  F        1        2       0.00572697       0.39559126      -0.76038634
O        3.84371499       3.13058929      16.75676254  F        1        2       0.02763375       0.37109673       0.12802967
Si       7.21731124       0.02971179      17.45191210  T        0        1       0.01459371      -0.03086785      -0.03592597
Si       3.77999952       2.00598542      21.08753968  T        0        1       0.02194644       0.00266888      -0.05231388
Si       6.24326580       2.29314170      19.24865693  T        0        1      -0.01239193       0.00415235       0.07288328
O        6.25435418       1.20381577      18.01593638  T        1        1       0.07098573      -0.01779958       0.09550530
O        5.25378406       1.79181094      20.42404790  T        1        1      -0.00036712       0.03030852       0.03589478
O        8.13737185       0.70002302      21.89976295  T        1        1      -0.01264981       0.00230267      -0.05719950
O        5.70244961       3.69872747      18.62097901  T        1        1       0.00959851      -0.01093048      -0.01696118
O        7.74766094       2.49509094      19.83257684  T        1        1      -0.07677172       0.00005052       0.13682764
O        3.78103014       2.90901501      22.44911201  T        1        1      -0.06109216      -0.10366934       0.05885338
36
Lattice="9.8418 0.0 0.0 -2.460449999999999 4.261624409482844 0.0 0.0 -0.0 34.16586254" Properties=species:S:1:pos:R:3:move_mask:L:1:spacegroup_kinds:I:1:tags:I:1:forces:R:3 spacegroup="P 32 2 1" unit_cell=conventional energy=-265.95597549303733 pbc="T T F"
Si       2.31725181       0.00000000      12.00000000  F        0        2      -0.13264603      -0.36515555      -1.69346644
Si      -1.15862590       2.00679893      15.60606667  F        0        2      -0.10761866       0.05166753       1.30234906
Si       1.30182410       2.25482548      13.80303333  F        0        2       0.02597243      -0.16457098       1.05355561
O        1.38326499       1.13103512      12.65233746  F        1        2      -0.50253774       0.21146010      -0.22727281
O        0.28787265       1.76346018      14.95372921  F        1        2       0.44622450      -0.24129650      -0.41984157
O        3.24976236       0.63242506      16.25840413  F        1        2      -0.14385166      -0.42817045      -0.12989231
O        0.78931236       3.62919935      13.15069587  F        1        2       0.42243206       0.29004422       0.52257636
O        2.74832265       2.49816423      14.45537079  F        1        2       0.00419077       0.39607568      -0.76397072
O       -1.07718501       3.13058929      16.75676254  F        1        2       0.02949182       0.37285049       0.12886231
Si       2.29693099       0.02908314      17.45271347  T        0        1       0.02641127      -0.03949953      -0.04968284
Si      -1.14350855       2.00545982      21.09225628  T        0        1       0.06867748       0.02261613      -0.13427792
Si       1.32345701       2.29183716      19.25113914  T        0        1      -0.03154324       0.02586719       0.08404466
O        1.33435404       1.20332099      18.01670400  T        1        1       0.07742396      -0.00738534       0.12998206
O        0.33023193       1.79150392      20.42587936  T        1        1       0.04115225       0.04790771       0.01429728
O        3.21573504       0.69593584      21.89704618  T        1        1      -0.03004918      -0.00924115      -0.03016697
O        0.78370432       3.69707927      18.61963877  T        1        1       0.00645472      -0.02216828      -0.00057850
O        2.82854263       2.50012093      19.83526784  T        1        1      -0.13989447      -0.03274037       0.13697410
O       -1.14258453       2.90739162      22.45350490  T        1        1      -0.06029051      -0.10826094       0.07650857
Si       7.23815181       0.00000000      12.00000000  F        0        2      -0.13264602      -0.36515554      -1.69346642
Si       3.76227409       2.00679893      15.60606667  F        0        2      -0.10761817       0.05166755       1.30234905
Si       6.22272410       2.25482548      13.80303333  F        0        2       0.02597243      -0.16457099       1.05355568
O        6.30416499       1.13103512      12.65233746  F        1        2      -0.50253773       0.21146008      -0.22727284
O        5.20877265       1.76346018      14.95372921  F        1        2       0.44622426      -0.24129647      -0.41984148
O        8.17066236       0.63242506      16.25840413  F        1        2      -0.14385160      -0.42817037      -0.12989236
O        5.71021236       3.62919935      13.15069587  F        1        2       0.42243205       0.29004425       0.52257633
O        7.66922265       2.49816423      14.45537079  F        1        2       0.00419091       0.39607564      -0.76397061
O        3.84371499       3.13058929      16.75676254  F        1        2       0.02949179       0.37285047       0.12886230
Si       7.21783099       0.02908314      17.45271347  T        0        1       0.02641127      -0.03949953      -0.04968284
Si       3.77739145       2.00545982      21.09225628  T        0        1       0.06867749       0.02261613      -0.13427793
Si       6.24435701       2.29183716      19.25113914  T        0        1      -0.03154323       0.02586718       0.08404469
O        6.25525404       1.20332099      18.01670400  T        1        1       0.07742395      -0.00738533       0.12998205
O        5.25113193       1.79150392      20.42587936  T        1        1       0.04115226       0.04790771       0.01429726
O        8.13663504       0.69593584      21.89704619  T        1        1      -0.03004918      -0.00924114      -0.03016697
O        5.70460432       3.69707927      18.61963877  T        1        1       0.00645472      -0.02216828      -0.00057850
O        7.74944263       2.50012093      19.83526784  T        1        1      -0.13989448      -0.03274037       0.13697410
O        3.77831547       2.90739162      22.45350490  T        1        1      -0.06029052      -0.10826094       0.07650858
36
Lattice="9.8418 0.0 0.0 -2.460449999999999 4.261624409482844 0.0 0.0 -0.0 34.16586254" Properties=species:S:1:pos:R:3:move_mask:L:1:spacegroup_kinds:I:1:tags:I:1:forces:R:3 spacegroup="P 32 2 1" unit_cell=conventional energy=-265.95873815059866 pbc="T T F"
Si       2.31725181       0.00000000      12.00000000  F        0        2      -0.13253624      -0.36509559      -1.69250712
Si      -1.15862590       2.00679893      15.60606667  F        0        2      -0.10984280       0.04899668       1.30588208
Si       1.30182410       2.25482548      13.80303333  F        0        2       0.02639446      -0.16454395       1.05555343
O        1.38326499       1.13103512      12.65233746  F        1        2      -0.50235213       0.21105272      -0.22796672
O        0.28787265       1.76346018      14.95372921  F        1        2       0.44708764      -0.24100415      -0.42058448
O        3.24976236       0.63242506      16.25840413  F        1        2      -0.14484531      -0.42768528      -0.13111105
O        0.78931236       3.62919935      13.15069587  F        1        2       0.42202161       0.29031426       0.52164571
O        2.74832265       2.49816423      14.45537079  F        1        2       0.00367995       0.39630208      -0.76510763
O       -1.07718501       3.13058929      16.75676254  F        1        2       0.02728124       0.36986190       0.12684479
Si       2.29772889       0.02803715      17.45297574  T        0        1       0.02925511      -0.02708339      -0.03445044
Si      -1.14535808       2.00518106      21.09549316  T        0        1       0.08668641       0.02875504      -0.13927573
Si       1.32420077       2.29082120      19.25449913  T        0        1      -0.04358248       0.04421847       0.05848960
O        1.33607489       1.20275153      18.01885652  T        1        1       0.08900097      -0.01358302       0.14772746
O        0.32804402       1.79171258      20.42784760  T        1        1       0.06788487       0.05481476       0.00648077
O        3.21468306       0.69178608      21.89403060  T        1        1      -0.03491120      -0.00237496      -0.01990673
O        0.78590896       3.69520838      18.61830426  T        1        1       0.00063576      -0.02799845       0.01023664
O        2.82881059       2.50475559      19.83940149  T        1        1      -0.17442966      -0.05030821       0.12798803
O       -1.14592059       2.90462351      22.45867789  T        1        1      -0.05742843      -0.12463895       0.07006130
Si       7.23815181       0.00000000      12.00000000  F        0        2      -0.13253624      -0.36509558      -1.69250710
Si       3.76227409       2.00679893      15.60606667  F        0        2      -0.10984231       0.04899670       1.30588207
Si       6.22272410       2.25482548      13.80303333  F        0        2       0.02639446      -0.16454397       1.05555351
O        6.30416499       1.13103512      12.65233746  F        1        2      -0.50235212       0.21105270      -0.22796675
O        5.20877265       1.76346018      14.95372921  F        1        2       0.44708740      -0.24100411      -0.42058439
O        8.17066236       0.63242506      16.25840413  F        1        2      -0.14484525      -0.42768520      -0.13111109
O        5.71021236       3.62919935      13.15069587  F        1        2       0.42202160       0.29031428       0.52164568
O        7.66922265       2.49816423      14.45537079  F        1        2       0.00368009       0.39630204      -0.76510753
O        3.84371499       3.13058929      16.75676254  F        1        2       0.02728121       0.36986189       0.12684478
Si       7.21862889       0.02803715      17.45297574  T        0        1       0.02925511      -0.02708339      -0.03445046
Si       3.77554192       2.00518106      21.09549316  T        0        1       0.08668642       0.02875505      -0.13927573
Si       6.24510077       2.29082120      19.25449913  T        0        1      -0.04358247       0.04421847       0.05848963
O        6.25697489       1.20275153      18.01885653  T        1        1       0.08900096      -0.01358302       0.14772745
O        5.24894402       1.79171258      20.42784760  T        1        1       0.06788487       0.05481477       0.00648077
O        8.13558306       0.69178608      21.89403060  T        1        1      -0.03491120      -0.00237496      -0.01990673
O        5.70680896       3.69520838      18.61830426  T        1        1       0.00063576      -0.02799845       0.01023665
O        7.74971059       2.50475559      19.83940149  T        1        1      -0.17442966      -0.05030821       0.12798803
O        3.77497941       2.90462351      22.45867789  T        1        1      -0.05742843      -0.12463895       0.07006130
36
Lattice="9.8418 0.0 0.0 -2.460449999999999 4.261624409482844 0.0 0.0 -0.0 34.16586254" Properties=species:S:1:pos:R:3:move_mask:L:1:spacegroup_kinds:I:1:tags:I:1:forces:R:3 spacegroup="P 32 2 1" unit_cell=conventional energy=-265.9642839128585 pbc="T T F"
Si       2.31725181       0.00000000      12.00000000  F        0        2      -0.13257648      -0.36529843      -1.69335869
Si      -1.15862590       2.00679893      15.60606667  F        0        2      -0.11192428       0.04685792       1.30341887
Si       1.30182410       2.25482548      13.80303333  F        0        2       0.02679399      -0.16428128       1.05398331
O        1.38326499       1.13103512      12.65233746  F        1        2      -0.50269974       0.21148119      -0.22735956
O        0.28787265       1.76346018      14.95372921  F        1        2       0.44660174      -0.24115910      -0.41848438
O        3.24976236       0.63242506      16.25840413  F        1        2      -0.14215731      -0.42613490      -0.13602152
O        0.78931236       3.62919935      13.15069587  F        1        2       0.42242978       0.28996510       0.52244813
O        2.74832265       2.49816423      14.45537079  F        1        2       0.00425026       0.39614162      -0.76357722
O       -1.07718501       3.13058929      16.75676254  F        1        2       0.02318856       0.36523034       0.12445486
Si       2.29887169       0.02667428      17.45282248  T        0        1       0.02157323       0.00223494       0.00552264
Si      -1.14615274       2.00524959      21.09703317  T        0        1       0.06893896       0.01600829      -0.06553364
Si       1.32441563       2.29034388      19.25853487  T        0        1      -0.04439368       0.05040910       0.00038676
O        1.33885048       1.20202350      18.02276527  T        1        1       0.10249904      -0.03767696       0.14248743
O        0.32668796       1.79257751      20.42987824  T        1        1       0.06702612       0.04920043       0.01801275
O        3.21322028       0.68764023      21.89079965  T        1        1      -0.02389722       0.02730413      -0.03062407
O        0.78810401       3.69301607      18.61710304  T        1        1      -0.01141962      -0.01856359       0.00896486
O        2.82698294       2.50875026      19.84503897  T        1        1      -0.16224474      -0.05037294       0.11640397
O       -1.14991985       2.90038110      22.46465135  T        1        1      -0.05198884      -0.15134590       0.03887544
Si       7.23815181       0.00000000      12.00000000  F        0        2      -0.13257648      -0.36529843      -1.69335867
Si       3.76227409       2.00679893      15.60606667  F        0        2      -0.11192378       0.04685794       1.30341887
Si       6.22272410       2.25482548      13.80303333  F        0        2       0.02679399      -0.16428130       1.05398338
O        6.30416499       1.13103512      12.65233746  F        1        2      -0.50269973       0.21148116      -0.22735959
O        5.20877265       1.76346018      14.95372921  F        1        2       0.44660150      -0.24115906      -0.41848429
O        8.17066236       0.63242506      16.25840413  F        1        2      -0.14215725      -0.42613482      -0.13602156
O        5.71021236       3.62919935      13.15069587  F        1        2       0.42242977       0.28996512       0.52244810
O        7.66922265       2.49816423      14.45537079  F        1        2       0.00425040       0.39614158      -0.76357711
O        3.84371499       3.13058929      16.75676254  F        1        2       0.02318853       0.36523032       0.12445484
Si       7.21977169       0.02667428      17.45282248  T        0        1       0.02157324       0.00223494       0.00552262
Si       3.77474726       2.00524959      21.09703317  T        0        1       0.06893898       0.01600830      -0.06553364
Si       6.24531563       2.29034388      19.25853487  T        0        1      -0.04439367       0.05040910       0.00038677
O        6.25975048       1.20202350      18.02276527  T        1        1       0.10249903      -0.03767696       0.14248742
O        5.24758796       1.79257751      20.42987824  T        1        1       0.06702611       0.04920042       0.01801275
O        8.13412028       0.68764023      21.89079965  T        1        1      -0.02389722       0.02730413      -0.03062407
O        5.70900401       3.69301607      18.61710304  T        1        1      -0.01141962      -0.01856359       0.00896486
O        7.74788294       2.50875026      19.84503897  T        1        1      -0.16224473      -0.05037294       0.11640398
O        3.77098015       2.90038110      22.46465135  T        1        1      -0.05198884      -0.15134590       0.03887543
36
Lattice="9.8418 0.0 0.0 -2.460449999999999 4.261624409482844 0.0 0.0 -0.0 34.16586254" Properties=species:S:1:pos:R:3:move_mask:L:1:spacegroup_kinds:I:1:tags:I:1:forces:R:3 spacegroup="P 32 2 1" unit_cell=conventional energy=-265.97212854778036 pbc="T T F"
Si       2.31725181       0.00000000      12.00000000  F        0        2      -0.13276191      -0.36564827      -1.69555013
Si      -1.15862590       2.00679893      15.60606667  F        0        2      -0.11360086       0.04678387       1.29640534
Si       1.30182410       2.25482548      13.80303333  F        0        2       0.02724580      -0.16384703       1.04970225
O        1.38326499       1.13103512      12.65233746  F        1        2      -0.50340722       0.21250494      -0.22581650
O        0.28787265       1.76346018      14.95372921  F        1        2       0.44540114      -0.24188322      -0.41416085
O        3.24976236       0.63242506      16.25840413  F        1        2      -0.13894192      -0.42508600      -0.13953581
O        0.78931236       3.62919935      13.15069587  F        1        2       0.42341346       0.28914849       0.52454236
O        2.74832265       2.49816423      14.45537079  F        1        2       0.00545740       0.39559411      -0.76027802
O       -1.07718501       3.13058929      16.75676254  F        1        2       0.02232188       0.36635839       0.12720297
Si       2.30032145       0.02535319      17.45275081  T        0        1       0.00825254       0.02702610       0.04133688
Si      -1.14593653       2.00555115      21.09760695  T        0        1       0.02529064      -0.00864446       0.03581876
Si       1.32398154       2.29060502      19.26254909  T        0        1      -0.03259545       0.03707068      -0.05600348
O        1.34310241       1.20075082      18.02872597  T        1        1       0.10207883      -0.06443854       0.11503690
O        0.32631864       1.79415423      20.43215795  T        1        1       0.03616442       0.03567744       0.03977620
O        3.21141879       0.68392055      21.88714378  T        1        1      -0.00616850       0.05661888      -0.04946251
O        0.79011771       3.69056775      18.61604066  T        1        1      -0.02546129       0.00685453      -0.00308331
O        2.82280115       2.51198330      19.85233633  T        1        1      -0.09904859      -0.03451041       0.10522283
O       -1.15465048       2.89395978      22.47115161  T        1        1      -0.04364060      -0.16957953       0.00884603
Si       7.23815181       0.00000000      12.00000000  F        0        2      -0.13276190      -0.36564826      -1.69555011
Si       3.76227409       2.00679893      15.60606667  F        0        2      -0.11360037       0.04678389       1.29640533
Si       6.22272410       2.25482548      13.80303333  F        0        2       0.02724580      -0.16384704       1.04970232
O        6.30416499       1.13103512      12.65233746  F        1        2      -0.50340721       0.21250492      -0.22581653
O        5.20877265       1.76346018      14.95372921  F        1        2       0.44540090      -0.24188319      -0.41416076
O        8.17066236       0.63242506      16.25840413  F        1        2      -0.13894186      -0.42508592      -0.13953585
O        5.71021236       3.62919935      13.15069587  F        1        2       0.42341345       0.28914851       0.52454233
O        7.66922265       2.49816423      14.45537079  F        1        2       0.00545754       0.39559407      -0.76027791
O        3.84371499       3.13058929      16.75676254  F        1        2       0.02232185       0.36635837       0.12720295
Si       7.22122145       0.02535319      17.45275081  T        0        1       0.00825255       0.02702610       0.04133688
Si       3.77496347       2.00555115      21.09760695  T        0        1       0.02529064      -0.00864445       0.03581877
Si       6.24488154       2.29060502      19.26254909  T        0        1      -0.03259545       0.03707069      -0.05600349
O        6.26400241       1.20075082      18.02872597  T        1        1       0.10207883      -0.06443854       0.11503690
O        5.24721864       1.79415423      20.43215795  T        1        1       0.03616441       0.03567744       0.03977621
O        8.13231879       0.68392055      21.88714378  T        1        1      -0.00616850       0.05661888      -0.04946251
O        5.71101771       3.69056775      18.61604066  T        1        1      -0.02546129       0.00685453      -0.00308331
O        7.74370115       2.51198330      19.85233633  T        1        1      -0.09904857      -0.03451040       0.10522284
O        3.76624952       2.89395978      22.47115161  T        1        1      -0.04364060      -0.16957954       0.00884602
36
Lattice="9.8418 0.0 0.0 -2.460449999999999 4.261624409482844 0.0 0.0 -0.0 34.16586254" Properties=species:S:1:pos:R:3:move_mask:L:1:spacegroup_kinds:I:1:tags:I:1:forces:R:3 spacegroup="P 32 2 1" unit_cell=conventional energy=-265.9813451836858 pbc="T T F"
Si       2.31725181       0.00000000      12.00000000  F        0        2      -0.13304735      -0.36594558      -1.69810020
Si      -1.15862590       2.00679893      15.60606667  F        0        2      -0.11496078       0.04991245       1.28801394
Si       1.30182410       2.25482548      13.80303333  F        0        2       0.02789601      -0.16334285       1.04457875
O        1.38326499       1.13103512      12.65233746  F        1        2      -0.50414318       0.21365201      -0.22407154
O        0.28787265       1.76346018      14.95372921  F        1        2       0.44463927      -0.24319467      -0.40897480
O        3.24976236       0.63242506      16.25840413  F        1        2      -0.14023327      -0.42610390      -0.13536375
O        0.78931236       3.62919935      13.15069587  F        1        2       0.42447488       0.28817311       0.52697994
O        2.74832265       2.49816423      14.45537079  F        1        2       0.00649171       0.39487012      -0.75700224
O       -1.07718501       3.13058929      16.75676254  F        1        2       0.03003810       0.38118398       0.14070095
Si       2.30191312       0.02453121      17.45343152  T        0        1      -0.00122478       0.01741911       0.02685078
Si      -1.14526147       2.00569375      21.09882908  T        0        1      -0.01435867      -0.02551539       0.07523745
Si       1.32295696       2.29153905      19.26552178  T        0        1      -0.01091378       0.00731598      -0.04999050
O        1.34918719       1.19831314      18.03674556  T        1        1       0.06491795      -0.06489362       0.07529715
O        0.32660930       1.79637103      20.43514831  T        1        1      -0.00552391       0.02615196       0.04402119
O        3.20951530       0.68125190      21.88260884  T        1        1      -0.00266098       0.03862735      -0.04831002
O        0.79165684       3.68825800      18.61492822  T        1        1      -0.02478606       0.02946208      -0.01047963
O        2.81684124       2.51457025      19.86150647  T        1        1      -0.01352337      -0.00827079       0.08457665
O       -1.16014818       2.88448997      22.47777597  T        1        1      -0.03308198      -0.14950139       0.02603581
Si       7.23815181       0.00000000      12.00000000  F        0        2      -0.13304734      -0.36594557      -1.69810018
Si       3.76227409       2.00679893      15.60606667  F        0        2      -0.11496029       0.04991247       1.28801394
Si       6.22272410       2.25482548      13.80303333  F        0        2       0.02789601      -0.16334286       1.04457882
O        6.30416499       1.13103512      12.65233746  F        1        2      -0.50414317       0.21365199      -0.22407157
O        5.20877265       1.76346018      14.95372921  F        1        2       0.44463903      -0.24319463      -0.40897471
O        8.17066236       0.63242506      16.25840413  F        1        2      -0.14023321      -0.42610383      -0.13536379
O        5.71021236       3.62919935      13.15069587  F        1        2       0.42447486       0.28817313       0.52697991
O        7.66922265       2.49816423      14.45537079  F        1        2       0.00649185       0.39487007      -0.75700213
O        3.84371499       3.13058929      16.75676254  F        1        2       0.03003807       0.38118396       0.14070093
Si       7.22281312       0.02453121      17.45343152  T        0        1      -0.00122478       0.01741912       0.02685078
Si       3.77563853       2.00569375      21.09882908  T        0        1      -0.01435869      -0.02551538       0.07523745
Si       6.24385696       2.29153905      19.26552178  T        0        1      -0.01091379       0.00731598      -0.04999051
O        6.27008719       1.19831314      18.03674556  T        1        1       0.06491795      -0.06489362       0.07529715
O        5.24750930       1.79637103      20.43514831  T        1        1      -0.00552390       0.02615195       0.04402119
O        8.13041530       0.68125190      21.88260884  T        1        1      -0.00266099       0.03862735      -0.04831002
O        5.71255684       3.68825800      18.61492822  T        1        1      -0.02478606       0.02946208      -0.01047963
O        7.73774124       2.51457025      19.86150647  T        1        1      -0.01352337      -0.00827078       0.08457665
O        3.76075182       2.88448997      22.47777597  T        1        1      -0.03308198      -0.14950139       0.02603581
36
Lattice="9.8418 0.0 0.0 -2.460449999999999 4.261624409482844 0.0 0.0 -0.0 34.16586254" Properties=species:S:1:pos:R:3:move_mask:L:1:spacegroup_kinds:I:1:tags:I:1:forces:R:3 spacegroup="P 32 2 1" unit_cell=conventional energy=-265.98962461177223 pbc="T T F"
Si       2.31725181       0.00000000      12.00000000  F        0        2      -0.13339981      -0.36618927      -1.70085781
Si      -1.15862590       2.00679893      15.60606667  F        0        2      -0.11662958       0.05489778       1.27893737
Si       1.30182410       2.25482548      13.80303333  F        0        2       0.02880475      -0.16274953       1.03903048
O        1.38326499       1.13103512      12.65233746  F        1        2      -0.50488060       0.21487368      -0.22223818
O        0.28787265       1.76346018      14.95372921  F        1        2       0.44454099      -0.24495938      -0.40319905
O        3.24976236       0.63242506      16.25840413  F        1        2      -0.14697551      -0.42777370      -0.12509877
O        0.78931236       3.62919935      13.15069587  F        1        2       0.42552759       0.28707251       0.52956878
O        2.74832265       2.49816423      14.45537079  F        1        2       0.00721036       0.39424746      -0.75416858
O       -1.07718501       3.13058929      16.75676254  F        1        2       0.04298508       0.40523114       0.16116695
Si       2.30346823       0.02412866      17.45474975  T        0        1      -0.00049348      -0.02822079      -0.04330028
Si      -1.14493214       2.00522689      21.10184076  T        0        1      -0.02132044      -0.01994254       0.01857861
Si       1.32167669       2.29264334      19.26728799  T        0        1       0.01655396      -0.01580693       0.04361944
O        1.35679289       1.19433831      18.04652482  T        1        1      -0.01185434      -0.02508232       0.03411989
O        0.32676682       1.79920162      20.43917526  T        1        1      -0.02763157       0.02854712       0.01018475
O        3.20755709       0.67951722      21.87694210  T        1        1      -0.02648257      -0.05167426      -0.01131199
O        0.79259747       3.68666187      18.61357085  T        1        1       0.00837148       0.01653085       0.00563740
O        2.81058612       2.51694792      19.87265239  T        1        1       0.03739928       0.02372832       0.03175460
O       -1.16640989       2.87149664      22.48499102  T        1        1      -0.02172578      -0.08273017       0.10757630
Si       7.23815181       0.00000000      12.00000000  F        0        2      -0.13339980      -0.36618927      -1.70085779
Si       3.76227409       2.00679893      15.60606667  F        0        2      -0.11662909       0.05489780       1.27893737
Si       6.22272410       2.25482548      13.80303333  F        0        2       0.02880474      -0.16274954       1.03903055
O        6.30416499       1.13103512      12.65233746  F        1        2      -0.50488059       0.21487366      -0.22223821
O        5.20877265       1.76346018      14.95372921  F        1        2       0.44454075      -0.24495935      -0.40319896
O        8.17066236       0.63242506      16.25840413  F        1        2      -0.14697544      -0.42777362      -0.12509882
O        5.71021236       3.62919935      13.15069587  F        1        2       0.42552757       0.28707253       0.52956875
O        7.66922265       2.49816423      14.45537079  F        1        2       0.00721050       0.39424742      -0.75416847
O        3.84371499       3.13058929      16.75676254  F        1        2       0.04298505       0.40523112       0.16116694
Si       7.22436823       0.02412866      17.45474975  T        0        1      -0.00049348      -0.02822079      -0.04330027
Si       3.77596786       2.00522689      21.10184076  T        0        1      -0.02132046      -0.01994254       0.01857860
Si       6.24257669       2.29264334      19.26728799  T        0        1       0.01655396      -0.01580693       0.04361943
O        6.27769289       1.19433831      18.04652482  T        1        1      -0.01185434      -0.02508233       0.03411989
O        5.24766682       1.79920162      20.43917526  T        1        1      -0.02763156       0.02854712       0.01018475
O        8.12845709       0.67951722      21.87694210  T        1        1      -0.02648257      -0.05167427      -0.01131198
O        5.71349747       3.68666187      18.61357085  T        1        1       0.00837147       0.01653085       0.00563740
O        7.73148612       2.51694792      19.87265239  T        1        1       0.03739926       0.02372833       0.03175459
O        3.75449011       2.87149664      22.48499102  T        1        1      -0.02172578      -0.08273017       0.10757631
36
Lattice="9.8418 0.0 0.0 -2.460449999999999 4.261624409482844 0.0 0.0 -0.0 34.16586254" Properties=species:S:1:pos:R:3:move_mask:L:1:spacegroup_kinds:I:1:tags:I:1:forces:R:3 spacegroup="P 32 2 1" unit_cell=conventional energy=-265.9957691646975 pbc="T T F"
Si       2.31725181       0.00000000      12.00000000  F        0        2      -0.13382974      -0.36690852      -1.70579195
Si      -1.15862590       2.00679893      15.60606667  F        0        2      -0.11921981       0.05642678       1.26337212
Si       1.30182410       2.25482548      13.80303333  F        0        2       0.02966673      -0.16185169       1.02978691
O        1.38326499       1.13103512      12.65233746  F        1        2      -0.50640006       0.21716422      -0.21889068
O        0.28787265       1.76346018      14.95372921  F        1        2       0.44266555      -0.24676453      -0.39438526
O        3.24976236       0.63242506      16.25840413  F        1        2      -0.14767994      -0.42340826      -0.12843079
O        0.78931236       3.62919935      13.15069587  F        1        2       0.42761729       0.28524823       0.53412410
O        2.74832265       2.49816423      14.45537079  F        1        2       0.00923860       0.39363923      -0.74828495
O       -1.07718501       3.13058929      16.75676254  F        1        2       0.04106771       0.40800652       0.16530401
Si       2.30500181       0.02281281      17.45465979  T        0        1       0.00475086      -0.03774610      -0.03818437
Si      -1.14529504       2.00411529      21.10544391  T        0        1      -0.02108530      -0.01244606       0.01173946
Si       1.32093755       2.29323133      19.27046174  T        0        1       0.03938015      -0.00643050       0.09779546
O        1.36398726       1.18956463      18.05737516  T        1        1      -0.06777027       0.00578773      -0.01050481
O        0.32602814       1.80294742      20.44351798  T        1        1      -0.03623251       0.02494061      -0.01312557
O        3.20474747       0.67611379      21.87092889  T        1        1      -0.04494371      -0.12960615       0.01705177
O        0.79380609       3.68560724      18.61240104  T        1        1       0.04786101      -0.02774033       0.02086584
O        2.80556552       2.52008624      19.88478786  T        1        1       0.04496160       0.05786945      -0.03836548
O       -1.17335349       2.85586806      22.49566726  T        1        1      -0.01004838      -0.03618065       0.15592409
Si       7.23815181       0.00000000      12.00000000  F        0        2      -0.13382973      -0.36690851      -1.70579193
Si       3.76227409       2.00679893      15.60606667  F        0        2      -0.11921932       0.05642681       1.26337212
Si       6.22272410       2.25482548      13.80303333  F        0        2       0.02966672      -0.16185171       1.02978699
O        6.30416499       1.13103512      12.65233746  F        1        2      -0.50640005       0.21716420      -0.21889071
O        5.20877265       1.76346018      14.95372921  F        1        2       0.44266531      -0.24676450      -0.39438517
O        8.17066236       0.63242506      16.25840413  F        1        2      -0.14767988      -0.42340818      -0.12843083
O        5.71021236       3.62919935      13.15069587  F        1        2       0.42761728       0.28524825       0.53412407
O        7.66922265       2.49816423      14.45537079  F        1        2       0.00923873       0.39363918      -0.74828484
O        3.84371499       3.13058929      16.75676254  F        1        2       0.04106768       0.40800650       0.16530400
Si       7.22590181       0.02281281      17.45465979  T        0        1       0.00475086      -0.03774611      -0.03818438
Si       3.77560496       2.00411529      21.10544391  T        0        1      -0.02108527      -0.01244606       0.01173946
Si       6.24183755       2.29323133      19.27046174  T        0        1       0.03938015      -0.00643050       0.09779547
O        6.28488726       1.18956463      18.05737516  T        1        1      -0.06777027       0.00578774      -0.01050481
O        5.24692814       1.80294742      20.44351798  T        1        1      -0.03623252       0.02494061      -0.01312557
O        8.12564747       0.67611379      21.87092889  T        1        1      -0.04494371      -0.12960615       0.01705177
O        5.71470609       3.68560724      18.61240104  T        1        1       0.04786101      -0.02774033       0.02086584
O        7.72646552       2.52008624      19.88478786  T        1        1       0.04496161       0.05786945      -0.03836547
O        3.74754651       2.85586806      22.49566726  T        1        1      -0.01004838      -0.03618065       0.15592409
36
Lattice="9.8418 0.0 0.0 -2.460449999999999 4.261624409482844 0.0 0.0 -0.0 34.16586254" Properties=species:S:1:pos:R:3:move_mask:L:1:spacegroup_kinds:I:1:tags:I:1:forces:R:3 spacegroup="P 32 2 1" unit_cell=conventional energy=-266.0037540836137 pbc="T T F"
Si       2.31725181       0.00000000      12.00000000  F        0        2      -0.13416341      -0.36791039      -1.71109688
Si      -1.15862590       2.00679893      15.60606667  F        0        2      -0.12186254       0.05367957       1.24681563
Si       1.30182410       2.25482548      13.80303333  F        0        2       0.03020713      -0.16097256       1.02011239
O        1.38326499       1.13103512      12.65233746  F        1        2      -0.50820774       0.21968658      -0.21525804
O        0.28787265       1.76346018      14.95372921  F        1        2       0.43945466      -0.24793590      -0.38525247
O        3.24976236       0.63242506      16.25840413  F        1        2      -0.14223053      -0.41674994      -0.14168171
O        0.78931236       3.62919935      13.15069587  F        1        2       0.43006408       0.28338175       0.53904908
O        2.74832265       2.49816423      14.45537079  F        1        2       0.01206893       0.39292554      -0.74070676
O       -1.07718501       3.13058929      16.75676254  F        1        2       0.02617860       0.38702251       0.15208996
Si       2.30668804       0.02025661      17.45331195  T        0        1       0.00886450       0.01247044       0.08474053
Si      -1.14635174       2.00259642      21.10942475  T        0        1      -0.05833517      -0.02681492       0.11665383
Si       1.32149779       2.29360597      19.27684968  T        0        1       0.03303772      -0.00717595       0.01694603
O        1.36893052       1.18499372      18.06785197  T        1        1      -0.06180535       0.00172905      -0.03975528
O        0.32409753       1.80750551      20.44741726  T        1        1      -0.05559690       0.00405449       0.01846414
O        3.20046413       0.66844866      21.86549271  T        1        1      -0.02475842      -0.10512465      -0.00519807
O        0.79658860       3.68364128      18.61192169  T        1        1       0.04299694      -0.03720671      -0.00914915
O        2.80203901       2.52512332      19.89562858  T        1        1       0.08348492       0.07390124      -0.04605278
O       -1.18061063       2.83908688      22.51145395  T        1        1       0.00060233      -0.05896018       0.09927949
Si       7.23815181       0.00000000      12.00000000  F        0        2      -0.13416341      -0.36791039      -1.71109685
Si       3.76227409       2.00679893      15.60606667  F        0        2      -0.12186204       0.05367960       1.24681562
Si       6.22272410       2.25482548      13.80303333  F        0        2       0.03020713      -0.16097257       1.02011247
O        6.30416499       1.13103512      12.65233746  F        1        2      -0.50820773       0.21968655      -0.21525806
O        5.20877265       1.76346018      14.95372921  F        1        2       0.43945443      -0.24793586      -0.38525238
O        8.17066236       0.63242506      16.25840413  F        1        2      -0.14223047      -0.41674986      -0.14168176
O        5.71021236       3.62919935      13.15069587  F        1        2       0.43006407       0.28338177       0.53904905
O        7.66922265       2.49816423      14.45537079  F        1        2       0.01206907       0.39292550      -0.74070666
O        3.84371499       3.13058929      16.75676254  F        1        2       0.02617857       0.38702249       0.15208995
Si       7.22758804       0.02025661      17.45331195  T        0        1       0.00886450       0.01247044       0.08474052
Si       3.77454826       2.00259642      21.10942475  T        0        1      -0.05833514      -0.02681492       0.11665384
Si       6.24239779       2.29360597      19.27684968  T        0        1       0.03303772      -0.00717594       0.01694604
O        6.28983052       1.18499372      18.06785197  T        1        1      -0.06180536       0.00172905      -0.03975528
O        5.24499753       1.80750551      20.44741726  T        1        1      -0.05559690       0.00405449       0.01846413
O        8.12136412       0.66844866      21.86549271  T        1        1      -0.02475842      -0.10512465      -0.00519807
O        5.71748860       3.68364128      18.61192169  T        1        1       0.04299695      -0.03720671      -0.00914915
O        7.72293902       2.52512332      19.89562858  T        1        1       0.08348492       0.07390123      -0.04605278
O        3.74028937       2.83908688      22.51145395  T        1        1       0.00060233      -0.05896018       0.09927948
36
Lattice="9.8418 0.0 0.0 -2.460449999999999 4.261624409482844 0.0 0.0 -0.0 34.16586254" Properties=species:S:1:pos:R:3:move_mask:L:1:spacegroup_kinds:I:1:tags:I:1:forces:R:3 spacegroup="P 32 2 1" unit_cell=conventional energy=-266.01521122217787 pbc="T T F"
Si       2.31725181       0.00000000      12.00000000  F        0        2      -0.13406708      -0.36772878      -1.70957195
Si      -1.15862590       2.00679893      15.60606667  F        0        2      -0.12358511       0.05298141       1.25056593
Si       1.30182410       2.25482548      13.80303333  F        0        2       0.03077418      -0.16096277       1.02223309
O        1.38326499       1.13103512      12.65233746  F        1        2      -0.50779518       0.21900346      -0.21629934
O        0.28787265       1.76346018      14.95372921  F        1        2       0.44094123      -0.24804156      -0.38528449
O        3.24976236       0.63242506      16.25840413  F        1        2      -0.16029443      -0.42514705      -0.11730697
O        0.78931236       3.62919935      13.15069587  F        1        2       0.42944543       0.28377360       0.53777647
O        2.74832265       2.49816423      14.45537079  F        1        2       0.01149106       0.39277774      -0.74119798
O       -1.07718501       3.13058929      16.75676254  F        1        2       0.03683651       0.39549432       0.16341454
Si       2.30871366       0.01818526      17.45523471  T        0        1       0.00171225       0.03176800       0.08912441
Si      -1.14965695       2.00004553      21.11789915  T        0        1      -0.06705386      -0.03611946       0.11405104
Si       1.32333151       2.29370326      19.28388165  T        0        1       0.00181140      -0.03759392      -0.01796543
O        1.37148243       1.18049637      18.07677962  T        1        1      -0.03971341       0.01785662      -0.01670686
O        0.32002535       1.81221314      20.45202287  T        1        1      -0.03492118      -0.00126888       0.03212515
O        3.19523224       0.65674020      21.85986420  T        1        1      -0.00590112      -0.05619253      -0.02605103
O        0.80102539       3.68024315      18.61109015  T        1        1       0.03162929      -0.02003564      -0.02649471
O        2.80173796       2.53300334      19.90467669  T        1        1       0.08362632       0.04330401      -0.00348930
O       -1.18783363       2.82005671      22.53104632  T        1        1       0.00506351      -0.08386859       0.05107734
Si       7.23815181       0.00000000      12.00000000  F        0        2      -0.13406707      -0.36772877      -1.70957192
Si       3.76227409       2.00679893      15.60606667  F        0        2      -0.12358461       0.05298143       1.25056592
Si       6.22272410       2.25482548      13.80303333  F        0        2       0.03077417      -0.16096278       1.02223316
O        6.30416499       1.13103512      12.65233746  F        1        2      -0.50779517       0.21900344      -0.21629937
O        5.20877265       1.76346018      14.95372921  F        1        2       0.44094100      -0.24804153      -0.38528440
O        8.17066236       0.63242506      16.25840413  F        1        2      -0.16029437      -0.42514697      -0.11730701
O        5.71021236       3.62919935      13.15069587  F        1        2       0.42944542       0.28377362       0.53777644
O        7.66922265       2.49816423      14.45537079  F        1        2       0.01149119       0.39277769      -0.74119787
O        3.84371499       3.13058929      16.75676254  F        1        2       0.03683647       0.39549430       0.16341453
Si       7.22961366       0.01818526      17.45523471  T        0        1       0.00171225       0.03176800       0.08912442
Si       3.77124305       2.00004553      21.11789915  T        0        1      -0.06705388      -0.03611945       0.11405104
Si       6.24423151       2.29370326      19.28388165  T        0        1       0.00181140      -0.03759392      -0.01796543
O        6.29238243       1.18049637      18.07677962  T        1        1      -0.03971341       0.01785662      -0.01670686
O        5.24092535       1.81221314      20.45202287  T        1        1      -0.03492117      -0.00126888       0.03212514
O        8.11613224       0.65674020      21.85986420  T        1        1      -0.00590112      -0.05619253      -0.02605103
O        5.72192539       3.68024315      18.61109015  T        1        1       0.03162928      -0.02003563      -0.02649471
O        7.72263796       2.53300334      19.90467669  T        1        1       0.08362630       0.04330401      -0.00348932
O        3.73306637       2.82005671      22.53104632  T        1        1       0.00506351      -0.08386859       0.05107734
36
Lattice="9.8418 0.0 0.0 -2.460449999999999 4.261624409482844 0.0 0.0 -0.0 34.16586254" Properties=species:S:1:pos:R:3:move_mask:L:1:spacegroup_kinds:I:1:tags:I:1:forces:R:3 spacegroup="P 32 2 1" unit_cell=conventional energy=-266.02635137549396 pbc="T T F"
Si       2.31725181       0.00000000      12.00000000  F        0        2      -0.13361848      -0.36618215      -1.70096586
Si      -1.15862590       2.00679893      15.60606667  F        0        2      -0.12410901       0.05862887       1.27473152
Si       1.30182410       2.25482548      13.80303333  F        0        2       0.03170114      -0.16177041       1.03650204
O        1.38326499       1.13103512      12.65233746  F        1        2      -0.50499253       0.21495723      -0.22220092
O        0.28787265       1.76346018      14.95372921  F        1        2       0.44794126      -0.24778069      -0.39450192
O        3.24976236       0.63242506      16.25840413  F        1        2      -0.21140617      -0.44784691      -0.04499505
O        0.78931236       3.62919935      13.15069587  F        1        2       0.42553070       0.28646318       0.53007189
O        2.74832265       2.49816423      14.45537079  F        1        2       0.00689409       0.39331397      -0.75101994
O       -1.07718501       3.13058929      16.75676254  F        1        2       0.08176409       0.45498199       0.21418446
Si       2.31082050       0.01764002      17.46143518  T        0        1      -0.01724267      -0.01761292      -0.08751554
Si      -1.15617963       1.99576189      21.13184471  T        0        1       0.02878757      -0.01820153      -0.08274714
Si       1.32525130       2.29199571      19.29004773  T        0        1       0.00123338      -0.00926828       0.10490948
O        1.37212655       1.17685845      18.08490087  T        1        1      -0.01365815       0.02011918       0.01243499
O        0.31427868       1.81685757      20.45816849  T        1        1       0.01507519       0.01370485       0.01450046
O        3.18971961       0.64233978      21.85298778  T        1        1      -0.02017774      -0.06160559      -0.00516986
O        0.80697847       3.67588482      18.60898708  T        1        1       0.03976898      -0.01440671       0.00679516
O        2.80545174       2.54295843      19.91355288  T        1        1      -0.05550249      -0.03044422       0.01143574
O       -1.19481003       2.79700949      22.55308124  T        1        1       0.00201063      -0.06704991       0.08355040
Si       7.23815181       0.00000000      12.00000000  F        0        2      -0.13361848      -0.36618214      -1.70096583
Si       3.76227409       2.00679893      15.60606667  F        0        2      -0.12410852       0.05862890       1.27473151
Si       6.22272410       2.25482548      13.80303333  F        0        2       0.03170113      -0.16177043       1.03650212
O        6.30416499       1.13103512      12.65233746  F        1        2      -0.50499252       0.21495721      -0.22220095
O        5.20877265       1.76346018      14.95372921  F        1        2       0.44794103      -0.24778066      -0.39450183
O        8.17066236       0.63242506      16.25840413  F        1        2      -0.21140611      -0.44784683      -0.04499510
O        5.71021236       3.62919935      13.15069587  F        1        2       0.42553069       0.28646320       0.53007186
O        7.66922265       2.49816423      14.45537079  F        1        2       0.00689423       0.39331393      -0.75101983
O        3.84371499       3.13058929      16.75676254  F        1        2       0.08176405       0.45498197       0.21418444
Si       7.23172050       0.01764002      17.46143518  T        0        1      -0.01724267      -0.01761292      -0.08751553
Si       3.76472037       1.99576189      21.13184471  T        0        1       0.02878757      -0.01820154      -0.08274715
Si       6.24615130       2.29199571      19.29004773  T        0        1       0.00123337      -0.00926828       0.10490946
O        6.29302655       1.17685845      18.08490087  T        1        1      -0.01365815       0.02011918       0.01243499
O        5.23517868       1.81685757      20.45816849  T        1        1       0.01507518       0.01370485       0.01450048
O        8.11061961       0.64233978      21.85298778  T        1        1      -0.02017774      -0.06160559      -0.00516986
O        5.72787847       3.67588482      18.60898708  T        1        1       0.03976898      -0.01440671       0.00679516
O        7.72635174       2.54295844      19.91355288  T        1        1      -0.05550247      -0.03044421       0.01143575
O        3.72608997       2.79700948      22.55308124  T        1        1       0.00201063      -0.06704991       0.08355040
36
Lattice="9.8418 0.0 0.0 -2.460449999999999 4.261624409482844 0.0 0.0 -0.0 34.16586254" Properties=species:S:1:pos:R:3:move_mask:L:1:spacegroup_kinds:I:1:tags:I:1:forces:R:3 spacegroup="P 32 2 1" unit_cell=conventional energy=-266.0336366107941 pbc="T T F"
Si       2.31725181       0.00000000      12.00000000  F        0        2      -0.13340567      -0.36609166      -1.69882007
Si      -1.15862590       2.00679893      15.60606667  F        0        2      -0.12534461       0.05886720       1.27922151
Si       1.30182410       2.25482548      13.80303333  F        0        2       0.03266363      -0.16160612       1.03940968
O        1.38326499       1.13103512      12.65233746  F        1        2      -0.50457124       0.21400310      -0.22361191
O        0.28787265       1.76346018      14.95372921  F        1        2       0.44860703      -0.24805886      -0.39457028
O        3.24976236       0.63242506      16.25840413  F        1        2      -0.23257914      -0.44890663      -0.02538646
O        0.78931236       3.62919935      13.15069587  F        1        2       0.42468369       0.28716193       0.52834408
O        2.74832265       2.49816423      14.45537079  F        1        2       0.00632732       0.39318583      -0.75156091
O       -1.07718501       3.13058929      16.75676254  F        1        2       0.08431936       0.46022045       0.21966184
Si       2.31191022       0.01605442      17.46247094  T        0        1       0.02146110      -0.00510730       0.04631649
Si      -1.16100575       1.99040120      21.14091117  T        0        1      -0.00593822      -0.04076056       0.03442473
Si       1.32724491       2.28973997      19.30241205  T        0        1      -0.04808979       0.04259779      -0.08080607
O        1.37196448       1.17440672      18.09376062  T        1        1       0.07052105      -0.04446669       0.02918109
O        0.30941925       1.82231369      20.46517357  T        1        1       0.01571601      -0.01906011       0.07535354
O        3.18301260       0.62429402      21.84580251  T        1        1       0.02738034       0.06253755      -0.05608649
O        0.81528304       3.67067349      18.60728419  T        1        1      -0.05266075       0.03710395      -0.05483353
O        2.80588995       2.55112091      19.92310897  T        1        1      -0.03080413      -0.07771561       0.10351406
O       -1.20167131       2.76999094      22.58006133  T        1        1       0.00171384      -0.14390428      -0.06975138
Si       7.23815181       0.00000000      12.00000000  F        0        2      -0.13340567      -0.36609166      -1.69882004
Si       3.76227409       2.00679893      15.60606667  F        0        2      -0.12534412       0.05886722       1.27922150
Si       6.22272410       2.25482548      13.80303333  F        0        2       0.03266362      -0.16160613       1.03940975
O        6.30416499       1.13103512      12.65233746  F        1        2      -0.50457123       0.21400308      -0.22361194
O        5.20877265       1.76346018      14.95372921  F        1        2       0.44860680      -0.24805883      -0.39457019
O        8.17066236       0.63242506      16.25840413  F        1        2      -0.23257909      -0.44890655      -0.02538650
O        5.71021236       3.62919935      13.15069587  F        1        2       0.42468367       0.28716195       0.52834405
O        7.66922265       2.49816423      14.45537079  F        1        2       0.00632746       0.39318579      -0.75156080
O        3.84371499       3.13058929      16.75676254  F        1        2       0.08431933       0.46022044       0.21966183
Si       7.23281022       0.01605443      17.46247094  T        0        1       0.02146110      -0.00510731       0.04631646
Si       3.75989425       1.99040120      21.14091117  T        0        1      -0.00593825      -0.04076056       0.03442475
Si       6.24814491       2.28973997      19.30241205  T        0        1      -0.04808979       0.04259778      -0.08080602
O        6.29286448       1.17440672      18.09376062  T        1        1       0.07052105      -0.04446669       0.02918109
O        5.23031925       1.82231369      20.46517357  T        1        1       0.01571605      -0.01906011       0.07535351
O        8.10391260       0.62429402      21.84580251  T        1        1       0.02738033       0.06253755      -0.05608649
O        5.73618304       3.67067349      18.60728419  T        1        1      -0.05266075       0.03710395      -0.05483353
O        7.72678995       2.55112091      19.92310897  T        1        1      -0.03080415      -0.07771561       0.10351405
O        3.71922869       2.76999094      22.58006133  T        1        1       0.00171384      -0.14390429      -0.06975139
36
Lattice="9.8418 0.0 0.0 -2.460449999999999 4.261624409482844 0.0 0.0 -0.0 34.16586254" Properties=species:S:1:pos:R:3:move_mask:L:1:spacegroup_kinds:I:1:tags:I:1:forces:R:3 spacegroup="P 32 2 1" unit_cell=conventional energy=-266.0423857224706 pbc="T T F"
Si       2.31725181       0.00000000      12.00000000  F        0        2      -0.13323706      -0.36521881      -1.69477125
Si      -1.15862590       2.00679893      15.60606667  F        0        2      -0.12948267       0.05655053       1.28761461
Si       1.30182410       2.25482548      13.80303333  F        0        2       0.03368254      -0.16165832       1.04476526
O        1.38326499       1.13103512      12.65233746  F        1        2      -0.50305246       0.21212400      -0.22623065
O        0.28787265       1.76346018      14.95372921  F        1        2       0.45232300      -0.24803394      -0.39685498
O        3.24976236       0.63242506      16.25840413  F        1        2      -0.26555745      -0.45986045       0.01626256
O        0.78931236       3.62919935      13.15069587  F        1        2       0.42260054       0.28823538       0.52482354
O        2.74832265       2.49816423      14.45537079  F        1        2       0.00469649       0.39404559      -0.75501980
O       -1.07718501       3.13058929      16.75676254  F        1        2       0.10631486       0.49060704       0.25179626
Si       2.31437308       0.01414005      17.46646817  T        0        1      -0.04029273       0.02362437      -0.12482718
Si      -1.16621865       1.98242756      21.15219129  T        0        1       0.06634414      -0.00709550      -0.07548926
Si       1.32616832       2.29020307      19.30963109  T        0        1      -0.03406297       0.00004038       0.02778946
O        1.37630887       1.16910959      18.10449862  T        1        1       0.04561319       0.01534659       0.07691740
O        0.30555680       1.82656001      20.47700477  T        1        1       0.12282800       0.01365169      -0.05881991
O        3.17804521       0.61021747      21.83502212  T        1        1      -0.01819309      -0.06772663      -0.00160071
O        0.82023484       3.66782543      18.60207453  T        1        1       0.03760818      -0.06215437       0.08144367
O        2.80436026       2.55432926      19.93929467  T        1        1      -0.16780069      -0.06031070       0.00424450
O       -1.20843345       2.73373519      22.60262472  T        1        1      -0.00033207      -0.06216690       0.01795639
Si       7.23815181       0.00000000      12.00000000  F        0        2      -0.13323705      -0.36521880      -1.69477123
Si       3.76227409       2.00679893      15.60606667  F        0        2      -0.12948217       0.05655056       1.28761460
Si       6.22272410       2.25482548      13.80303333  F        0        2       0.03368253      -0.16165834       1.04476533
O        6.30416499       1.13103512      12.65233746  F        1        2      -0.50305245       0.21212398      -0.22623068
O        5.20877265       1.76346018      14.95372921  F        1        2       0.45232276      -0.24803391      -0.39685489
O        8.17066236       0.63242506      16.25840413  F        1        2      -0.26555738      -0.45986036       0.01626250
O        5.71021236       3.62919935      13.15069587  F        1        2       0.42260053       0.28823541       0.52482351
O        7.66922265       2.49816423      14.45537079  F        1        2       0.00469663       0.39404555      -0.75501970
O        3.84371499       3.13058929      16.75676254  F        1        2       0.10631481       0.49060701       0.25179623
Si       7.23527308       0.01414005      17.46646817  T        0        1      -0.04029273       0.02362439      -0.12482713
Si       3.75468135       1.98242756      21.15219130  T        0        1       0.06634424      -0.00709550      -0.07548929
Si       6.24706832       2.29020307      19.30963109  T        0        1      -0.03406296       0.00004040       0.02778937
O        6.29720887       1.16910959      18.10449862  T        1        1       0.04561320       0.01534659       0.07691739
O        5.22645681       1.82656001      20.47700477  T        1        1       0.12282787       0.01365168      -0.05881981
O        8.09894521       0.61021747      21.83502212  T        1        1      -0.01819309      -0.06772661      -0.00160071
O        5.74113484       3.66782543      18.60207453  T        1        1       0.03760818      -0.06215438       0.08144367
O        7.72526025       2.55432926      19.93929466  T        1        1      -0.16780063      -0.06031070       0.00424454
O        3.71246655       2.73373519      22.60262472  T        1        1      -0.00033207      -0.06216689       0.01795640
36
Lattice="9.8418 0.0 0.0 -2.460449999999999 4.261624409482844 0.0 0.0 -0.0 34.16586254" Properties=species:S:1:pos:R:3:move_mask:L:1:spacegroup_kinds:I:1:tags:I:1:forces:R:3 spacegroup="P 32 2 1" unit_cell=conventional energy=-266.0473371619106 pbc="T T F"
Si       2.31725181       0.00000000      12.00000000  F        0        2      -0.13402846      -0.36770523      -1.70742945
Si      -1.15862590       2.00679893      15.60606667  F        0        2      -0.12789043       0.06607654       1.24886112
Si       1.30182410       2.25482548      13.80303333  F        0        2       0.03428319      -0.15996575       1.02344114
O        1.38326499       1.13103512      12.65233746  F        1        2      -0.50752526       0.21805201      -0.21796685
O        0.28787265       1.76346018      14.95372921  F        1        2       0.44375062      -0.25195413      -0.37800776
O        3.24976236       0.63242506      16.25840413  F        1        2      -0.24883788      -0.43980014      -0.01469565
O        0.78931236       3.62919935      13.15069587  F        1        2       0.42861025       0.28418352       0.53650286
O        2.74832265       2.49816423      14.45537079  F        1        2       0.01038438       0.39152553      -0.73957913
O       -1.07718501       3.13058929      16.75676254  F        1        2       0.08010812       0.47110312       0.23257775
Si       2.31394742       0.01397220      17.46192559  T        0        1       0.10915635      -0.03766648       0.26810678
Si      -1.16654515       1.97489150      21.15730946  T        0        1       0.02660303      -0.04834248      -0.08356202
Si       1.32300531       2.29061667      19.31783863  T        0        1       0.03718165      -0.05133640      -0.10967182
O        1.38312045       1.16540325      18.11901300  T        1        1       0.05480695      -0.09115704      -0.05481675
O        0.31008944       1.83121316      20.48369232  T        1        1      -0.22489101      -0.06010485       0.14255474
O        3.17245782       0.59333593      21.82535131  T        1        1       0.03151235      -0.02004372      -0.04719711
O        0.82706666       3.66126977      18.60272949  T        1        1      -0.20123243       0.18689051      -0.21456042
O        2.79212774       2.55326783      19.95393375  T        1        1       0.17644073      -0.04490267       0.15240457
O       -1.21445603       2.69753104      22.62381233  T        1        1       0.01156769      -0.04485239      -0.03696204
Si       7.23815181       0.00000000      12.00000000  F        0        2      -0.13402846      -0.36770522      -1.70742943
Si       3.76227409       2.00679893      15.60606667  F        0        2      -0.12788994       0.06607656       1.24886112
Si       6.22272410       2.25482548      13.80303333  F        0        2       0.03428319      -0.15996576       1.02344122
O        6.30416499       1.13103512      12.65233746  F        1        2      -0.50752525       0.21805199      -0.21796687
O        5.20877265       1.76346018      14.95372921  F        1        2       0.44375039      -0.25195410      -0.37800767
O        8.17066236       0.63242506      16.25840413  F        1        2      -0.24883783      -0.43980007      -0.01469567
O        5.71021236       3.62919935      13.15069587  F        1        2       0.42861024       0.28418355       0.53650283
O        7.66922265       2.49816423      14.45537079  F        1        2       0.01038452       0.39152549      -0.73957902
O        3.84371499       3.13058929      16.75676254  F        1        2       0.08010811       0.47110313       0.23257776
Si       7.23484742       0.01397221      17.46192559  T        0        1       0.10915636      -0.03766652       0.26810669
Si       3.75435486       1.97489150      21.15730946  T        0        1       0.02660272      -0.04834244      -0.08356194
Si       6.24390531       2.29061667      19.31783863  T        0        1       0.03718160      -0.05133646      -0.10967157
O        6.30402045       1.16540325      18.11901300  T        1        1       0.05480692      -0.09115700      -0.05481672
O        5.23098943       1.83121316      20.48369233  T        1        1      -0.22489059      -0.06010479       0.14255442
O        8.09335782       0.59333593      21.82535131  T        1        1       0.03151234      -0.02004375      -0.04719710
O        5.74796666       3.66126977      18.60272949  T        1        1      -0.20123242       0.18689051      -0.21456040
O        7.71302774       2.55326783      19.95393375  T        1        1       0.17644056      -0.04490266       0.15240445
O        3.70644397       2.69753104      22.62381234  T        1        1       0.01156769      -0.04485241      -0.03696206
36
Lattice="9.8418 0.0 0.0 -2.460449999999999 4.261624409482844 0.0 0.0 -0.0 34.16586254" Properties=species:S:1:pos:R:3:move_mask:L:1:spacegroup_kinds:I:1:tags:I:1:forces:R:3 spacegroup="P 32 2 1" unit_cell=conventional energy=-266.05220732966154 pbc="T T F"
Si       2.31725181       0.00000000      12.00000000  F        0        2      -0.13379098      -0.36624953      -1.70150740
Si      -1.15862590       2.00679893      15.60606667  F        0        2      -0.13046660       0.06333043       1.26391077
Si       1.30182410       2.25482548      13.80303333  F        0        2       0.03471973      -0.16041512       1.03125606
O        1.38326499       1.13103512      12.65233746  F        1        2      -0.50513251       0.21524411      -0.22157705
O        0.28787265       1.76346018      14.95372921  F        1        2       0.44826680      -0.25102950      -0.38448987
O        3.24976236       0.63242506      16.25840413  F        1        2      -0.26826246      -0.45096887       0.01439100
O        0.78931236       3.62919935      13.15069587  F        1        2       0.42548979       0.28587949       0.53129935
O        2.74832265       2.49816423      14.45537079  F        1        2       0.00803296       0.39275025      -0.74589784
O       -1.07718501       3.13058929      16.75676254  F        1        2       0.10203144       0.49870820       0.25901559
Si       2.31549249       0.01343905      17.46572054  T        0        1      -0.00153803      -0.01125507      -0.03769883
Si      -1.16616859       1.97420723      21.15612667  T        0        1      -0.02570158      -0.06407872       0.05835203
Si       1.32353161       2.28989002      19.31628627  T        0        1      -0.00300376       0.00131387      -0.00333102
O        1.38389622       1.16411296      18.11823709  T        1        1       0.00258130       0.00299180       0.01400993
O        0.30690619       1.83036240      20.48571013  T        1        1       0.02848321      -0.01794267      -0.05083947
O        3.17290387       0.59305222      21.82468325  T        1        1       0.02334499      -0.03359344      -0.04205961
O        0.82421829       3.66391513      18.59969247  T        1        1       0.00899094      -0.04776415       0.04509482
O        2.79462519       2.55263225      19.95609098  T        1        1      -0.02313815      -0.01120203       0.00369601
O       -1.21429230       2.69689617      22.62328915  T        1        1       0.00909268      -0.04571909      -0.03362458
Si       7.23815181       0.00000000      12.00000000  F        0        2      -0.13379098      -0.36624953      -1.70150737
Si       3.76227409       2.00679893      15.60606667  F        0        2      -0.13046611       0.06333045       1.26391076
Si       6.22272410       2.25482548      13.80303333  F        0        2       0.03471973      -0.16041513       1.03125613
O        6.30416499       1.13103512      12.65233746  F        1        2      -0.50513250       0.21524409      -0.22157708
O        5.20877265       1.76346018      14.95372921  F        1        2       0.44826657      -0.25102947      -0.38448978
O        8.17066236       0.63242506      16.25840413  F        1        2      -0.26826239      -0.45096878       0.01439095
O        5.71021236       3.62919935      13.15069587  F        1        2       0.42548978       0.28587952       0.53129932
O        7.66922265       2.49816423      14.45537079  F        1        2       0.00803309       0.39275021      -0.74589773
O        3.84371499       3.13058929      16.75676254  F        1        2       0.10203141       0.49870818       0.25901557
Si       7.23639249       0.01343905      17.46572054  T        0        1      -0.00153803      -0.01125507      -0.03769881
Si       3.75473141       1.97420723      21.15612667  T        0        1      -0.02570154      -0.06407874       0.05835202
Si       6.24443161       2.28989002      19.31628627  T        0        1      -0.00300374       0.00131388      -0.00333105
O        6.30479622       1.16411296      18.11823709  T        1        1       0.00258131       0.00299180       0.01400993
O        5.22780619       1.83036240      20.48571013  T        1        1       0.02848314      -0.01794268      -0.05083942
O        8.09380387       0.59305222      21.82468326  T        1        1       0.02334499      -0.03359344      -0.04205961
O        5.74511829       3.66391513      18.59969247  T        1        1       0.00899093      -0.04776414       0.04509482
O        7.71552519       2.55263225      19.95609098  T        1        1      -0.02313813      -0.01120203       0.00369602
O        3.70660770       2.69689617      22.62328915  T        1        1       0.00909268      -0.04571909      -0.03362458
36
Lattice="9.8418 0.0 0.0 -2.460449999999999 4.261624409482844 0.0 0.0 -0.0 34.16586254" Properties=species:S:1:pos:R:3:move_mask:L:1:spacegroup_kinds:I:1:tags:I:1:forces:R:3 spacegroup="P 32 2 1" unit_cell=conventional energy=-266.0523721511881 pbc="T T F"
Si       2.31725181       0.00000000      12.00000000  F        0        2      -0.13379764      -0.36631143      -1.70173117
Si      -1.15862590       2.00679893      15.60606667  F        0        2      -0.13037645       0.06339919       1.26353091
Si       1.30182410       2.25482548      13.80303333  F        0        2       0.03467754      -0.16041857       1.03106499
O        1.38326499       1.13103512      12.65233746  F        1        2      -0.50523171       0.21535303      -0.22145727
O        0.28787265       1.76346018      14.95372921  F        1        2       0.44814698      -0.25103500      -0.38434820
O        3.24976236       0.63242506      16.25840413  F        1        2      -0.26734645      -0.45080832       0.01337923
O        0.78931236       3.62919935      13.15069587  F        1        2       0.42562110       0.28581577       0.53148222
O        2.74832265       2.49816423      14.45537079  F        1        2       0.00808409       0.39268851      -0.74572111
O       -1.07718501       3.13058929      16.75676254  F        1        2       0.10120166       0.49735310       0.25774366
Si       2.31548705       0.01339922      17.46558714  T        0        1       0.00112845      -0.01069479      -0.02609830
Si      -1.16625954       1.97398048      21.15633316  T        0        1      -0.01743140      -0.05893303       0.03983833
Si       1.32352098       2.28989467      19.31627448  T        0        1      -0.00042130      -0.00200272      -0.00275603
O        1.38390535       1.16412355      18.11828667  T        1        1       0.00524916      -0.00169034       0.00957100
O        0.30700698       1.83029890      20.48553023  T        1        1       0.01616119      -0.01930956      -0.04199801
O        3.17298648       0.59293335      21.82453442  T        1        1       0.02070126      -0.03970755      -0.03850178
O        0.82425011       3.66374611      18.59985205  T        1        1       0.00174534      -0.03773233       0.03446991
O        2.79454331       2.55259261      19.95610406  T        1        1      -0.01711584      -0.01300088       0.00874293
O       -1.21426012       2.69673439      22.62317017  T        1        1       0.00900381      -0.04296510      -0.02721140
Si       7.23815181       0.00000000      12.00000000  F        0        2      -0.13379764      -0.36631142      -1.70173114
Si       3.76227409       2.00679893      15.60606667  F        0        2      -0.13037596       0.06339922       1.26353090
Si       6.22272410       2.25482548      13.80303333  F        0        2       0.03467754      -0.16041858       1.03106507
O        6.30416499       1.13103512      12.65233746  F        1        2      -0.50523170       0.21535301      -0.22145730
O        5.20877265       1.76346018      14.95372921  F        1        2       0.44814675      -0.25103496      -0.38434811
O        8.17066236       0.63242506      16.25840413  F        1        2      -0.26734639      -0.45080824       0.01337919
O        5.71021236       3.62919935      13.15069587  F        1        2       0.42562109       0.28581579       0.53148218
O        7.66922265       2.49816423      14.45537079  F        1        2       0.00808422       0.39268846      -0.74572101
O        3.84371499       3.13058929      16.75676254  F        1        2       0.10120162       0.49735308       0.25774364
Si       7.23638705       0.01339922      17.46558714  T        0        1       0.00112845      -0.01069479      -0.02609828
Si       3.75464046       1.97398048      21.15633316  T        0        1      -0.01743137      -0.05893304       0.03983833
Si       6.24442098       2.28989467      19.31627448  T        0        1      -0.00042129      -0.00200271      -0.00275605
O        6.30480535       1.16412355      18.11828667  T        1        1       0.00524916      -0.00169035       0.00957099
O        5.22790698       1.83029891      20.48553023  T        1        1       0.01616114      -0.01930957      -0.04199798
O        8.09388648       0.59293335      21.82453442  T        1        1       0.02070125      -0.03970755      -0.03850178
O        5.74515011       3.66374611      18.59985205  T        1        1       0.00174534      -0.03773233       0.03446991
O        7.71544331       2.55259261      19.95610406  T        1        1      -0.01711582      -0.01300088       0.00874294
O        3.70663988       2.69673439      22.62317017  T        1        1       0.00900381      -0.04296510      -0.02721140
36
Lattice="9.8418 0.0 0.0 -2.460449999999999 4.261624409482844 0.0 0.0 -0.0 34.16586254" Properties=species:S:1:pos:R:3:move_mask:L:1:spacegroup_kinds:I:1:tags:I:1:forces:R:3 spacegroup="P 32 2 1" unit_cell=conventional energy=-266.05260480552454 pbc="T T F"
Si       2.31725181       0.00000000      12.00000000  F        0        2      -0.13380871      -0.36641607      -1.70210886
Si      -1.15862590       2.00679893      15.60606667  F        0        2      -0.13022805       0.06350376       1.26290151
Si       1.30182410       2.25482548      13.80303333  F        0        2       0.03460419      -0.16042575       1.03074561
O        1.38326499       1.13103512      12.65233746  F        1        2      -0.50539930       0.21553703      -0.22125563
O        0.28787265       1.76346018      14.95372921  F        1        2       0.44794893      -0.25104022      -0.38411576
O        3.24976236       0.63242506      16.25840413  F        1        2      -0.26575207      -0.45059913       0.01169872
O        0.78931236       3.62919935      13.15069587  F        1        2       0.42584338       0.28570788       0.53179046
O        2.74832265       2.49816423      14.45537079  F        1        2       0.00816948       0.39258135      -0.74542361
O       -1.07718501       3.13058929      16.75676254  F        1        2       0.09978283       0.49497790       0.25554170
Si       2.31548662       0.01332103      17.46536373  T        0        1       0.00552988      -0.00968566      -0.00674139
Si      -1.16641042       1.97354304      21.15667675  T        0        1      -0.00352473      -0.05002086       0.00855773
Si       1.32350974       2.28989092      19.31625296  T        0        1       0.00385613      -0.00778250      -0.00168750
O        1.38393436       1.16412638      18.11836919  T        1        1       0.00962545      -0.00929389       0.00220877
O        0.30716169       1.83016530      20.48520201  T        1        1      -0.00422703      -0.02169868      -0.02717327
O        3.17314280       0.59266913      21.82424801  T        1        1       0.01615300      -0.05014778      -0.03231756
O        0.82428565       3.66344458      18.60013216  T        1        1      -0.01017137      -0.02086020       0.01661332
O        2.79440185       2.55250545      19.95615045  T        1        1      -0.00723882      -0.01595910       0.01696563
O       -1.21419551       2.69641865      22.62295533  T        1        1       0.00883659      -0.03837811      -0.01619995
Si       7.23815181       0.00000000      12.00000000  F        0        2      -0.13380871      -0.36641607      -1.70210883
Si       3.76227409       2.00679893      15.60606667  F        0        2      -0.13022756       0.06350379       1.26290150
Si       6.22272410       2.25482548      13.80303333  F        0        2       0.03460419      -0.16042577       1.03074568
O        6.30416499       1.13103512      12.65233746  F        1        2      -0.50539929       0.21553701      -0.22125566
O        5.20877265       1.76346018      14.95372921  F        1        2       0.44794870      -0.25104019      -0.38411567
O        8.17066236       0.63242506      16.25840413  F        1        2      -0.26575201      -0.45059905       0.01169868
O        5.71021236       3.62919935      13.15069587  F        1        2       0.42584336       0.28570791       0.53179043
O        7.66922265       2.49816423      14.45537079  F        1        2       0.00816962       0.39258131      -0.74542350
O        3.84371499       3.13058929      16.75676254  F        1        2       0.09978279       0.49497788       0.25554169
Si       7.23638662       0.01332103      17.46536373  T        0        1       0.00552988      -0.00968566      -0.00674139
Si       3.75448958       1.97354304      21.15667675  T        0        1      -0.00352472      -0.05002087       0.00855772
Si       6.24440974       2.28989092      19.31625296  T        0        1       0.00385614      -0.00778250      -0.00168751
O        6.30483436       1.16412638      18.11836919  T        1        1       0.00962545      -0.00929389       0.00220877
O        5.22806169       1.83016530      20.48520201  T        1        1      -0.00422705      -0.02169868      -0.02717326
O        8.09404280       0.59266913      21.82424801  T        1        1       0.01615300      -0.05014778      -0.03231756
O        5.74518565       3.66344458      18.60013216  T        1        1      -0.01017137      -0.02086020       0.01661332
O        7.71530185       2.55250545      19.95615045  T        1        1      -0.00723882      -0.01595910       0.01696563
O        3.70670449       2.69641865      22.62295533  T        1        1       0.00883660      -0.03837812      -0.01619995
36
Lattice="9.8418 0.0 0.0 -2.460449999999999 4.261624409482844 0.0 0.0 -0.0 34.16586254" Properties=species:S:1:pos:R:3:move_mask:L:1:spacegroup_kinds:I:1:tags:I:1:forces:R:3 spacegroup="P 32 2 1" unit_cell=conventional energy=-266.0528269910327 pbc="T T F"
Si       2.31725181       0.00000000      12.00000000  F        0        2      -0.13381996      -0.36652733      -1.70250862
Si      -1.15862590       2.00679893      15.60606667  F        0        2      -0.13008238       0.06358292       1.26227496
Si       1.30182410       2.25482548      13.80303333  F        0        2       0.03452047      -0.16043734       1.03041738
O        1.38326499       1.13103512      12.65233746  F        1        2      -0.50557718       0.21573241      -0.22104372
O        0.28787265       1.76346018      14.95372921  F        1        2       0.44775151      -0.25103436      -0.38389015
O        3.24976236       0.63242506      16.25840413  F        1        2      -0.26392737      -0.45055229       0.00999302
O        0.78931236       3.62919935      13.15069587  F        1        2       0.42608068       0.28559263       0.53211546
O        2.74832265       2.49816423      14.45537079  F        1        2       0.00825672       0.39245974      -0.74511219
O       -1.07718501       3.13058929      16.75676254  F        1        2       0.09822906       0.49221441       0.25304831
Si       2.31551119       0.01320694      17.46513224  T        0        1       0.00993364      -0.00844984       0.01316156
Si      -1.16656212       1.97292358      21.15702460  T        0        1       0.01105530      -0.03999855      -0.02457794
Si       1.32351704       2.28985243      19.31622597  T        0        1       0.00811464      -0.01434168      -0.00030948
O        1.38400391       1.16408699      18.11845342  T        1        1       0.01391029      -0.01652692      -0.00524167
O        0.30728185       1.82994712      20.48478398  T        1        1      -0.02471857      -0.02444836      -0.01173138
O        3.17335639       0.59220499      21.82384438  T        1        1       0.01113354      -0.06143498      -0.02529843
O        0.82427174       3.66307906      18.60045924  T        1        1      -0.02191249      -0.00320610      -0.00207581
O        2.79424186       2.55235498      19.95626877  T        1        1       0.00244462      -0.01887729       0.02486181
O       -1.21409748       2.69596128      22.62268886  T        1        1       0.00860729      -0.03374709      -0.00408319
Si       7.23815181       0.00000000      12.00000000  F        0        2      -0.13381996      -0.36652732      -1.70250860
Si       3.76227409       2.00679893      15.60606667  F        0        2      -0.13008189       0.06358295       1.26227496
Si       6.22272410       2.25482548      13.80303333  F        0        2       0.03452046      -0.16043735       1.03041745
O        6.30416499       1.13103512      12.65233746  F        1        2      -0.50557717       0.21573238      -0.22104375
O        5.20877265       1.76346018      14.95372921  F        1        2       0.44775128      -0.25103433      -0.38389006
O        8.17066236       0.63242506      16.25840413  F        1        2      -0.26392731      -0.45055221       0.00999298
O        5.71021236       3.62919935      13.15069587  F        1        2       0.42608066       0.28559265       0.53211543
O        7.66922265       2.49816423      14.45537079  F        1        2       0.00825686       0.39245970      -0.74511208
O        3.84371499       3.13058929      16.75676254  F        1        2       0.09822902       0.49221439       0.25304830
Si       7.23641119       0.01320694      17.46513224  T        0        1       0.00993364      -0.00844984       0.01316156
Si       3.75433788       1.97292358      21.15702460  T        0        1       0.01105529      -0.03999855      -0.02457794
Si       6.24441704       2.28985243      19.31622597  T        0        1       0.00811464      -0.01434168      -0.00030947
O        6.30490391       1.16408699      18.11845342  T        1        1       0.01391029      -0.01652692      -0.00524167
O        5.22818185       1.82994712      20.48478398  T        1        1      -0.02471855      -0.02444836      -0.01173140
O        8.09425639       0.59220499      21.82384438  T        1        1       0.01113353      -0.06143498      -0.02529843
O        5.74517174       3.66307906      18.60045924  T        1        1      -0.02191249      -0.00320610      -0.00207581
O        7.71514186       2.55235498      19.95626877  T        1        1       0.00244461      -0.01887729       0.02486180
O        3.70680252       2.69596127      22.62268886  T        1        1       0.00860729      -0.03374709      -0.00408319
36
Lattice="9.8418 0.0 0.0 -2.460449999999999 4.261624409482844 0.0 0.0 -0.0 34.16586254" Properties=species:S:1:pos:R:3:move_mask:L:1:spacegroup_kinds:I:1:tags:I:1:forces:R:3 spacegroup="P 32 2 1" unit_cell=conventional energy=-266.0530744392089 pbc="T T F"
Si       2.31725181       0.00000000      12.00000000  F        0        2      -0.13382660      -0.36660327      -1.70277806
Si      -1.15862590       2.00679893      15.60606667  F        0        2      -0.13000961       0.06357179       1.26194310
Si       1.30182410       2.25482548      13.80303333  F        0        2       0.03445155      -0.16045344       1.03021722
O        1.38326499       1.13103512      12.65233746  F        1        2      -0.50569819       0.21586555      -0.22090386
O        0.28787265       1.76346018      14.95372921  F        1        2       0.44764418      -0.25100688      -0.38378206
O        3.24976236       0.63242506      16.25840413  F        1        2      -0.26241151      -0.45088579       0.00899303
O        0.78931236       3.62919935      13.15069587  F        1        2       0.42624504       0.28551244       0.53233180
O        2.74832265       2.49816423      14.45537079  F        1        2       0.00830848       0.39236077      -0.74491073
O       -1.07718501       3.13058929      16.75676254  F        1        2       0.09707285       0.48983292       0.25102072
Si       2.31558082       0.01306384      17.46498686  T        0        1       0.01239712      -0.00727913       0.02540307
Si      -1.16664576       1.97217473      21.15722009  T        0        1       0.02051495      -0.03216804      -0.04669534
Si       1.32356242       2.28974917      19.31620020  T        0        1       0.01034068      -0.01949459       0.00103235
O        1.38413305       1.16397247      18.11850416  T        1        1       0.01609478      -0.01978404      -0.00961664
O        0.30727174       1.82963380      20.48435162  T        1        1      -0.03635100      -0.02675702      -0.00179353
O        3.17360189       0.59149338      21.82336009  T        1        1       0.00742508      -0.06926176      -0.01968395
O        0.82415439       3.66273475      18.60074368  T        1        1      -0.02800018       0.00816810      -0.01419833
O        2.79410956       2.55212925      19.95649420  T        1        1       0.00746288      -0.02040431       0.02855374
O       -1.21396807       2.69538820      22.62242950  T        1        1       0.00833929      -0.03121336       0.00486741
Si       7.23815181       0.00000000      12.00000000  F        0        2      -0.13382660      -0.36660326      -1.70277803
Si       3.76227409       2.00679893      15.60606667  F        0        2      -0.13000911       0.06357182       1.26194310
Si       6.22272410       2.25482548      13.80303333  F        0        2       0.03445155      -0.16045345       1.03021729
O        6.30416499       1.13103512      12.65233746  F        1        2      -0.50569818       0.21586553      -0.22090389
O        5.20877265       1.76346018      14.95372921  F        1        2       0.44764394      -0.25100684      -0.38378198
O        8.17066236       0.63242506      16.25840413  F        1        2      -0.26241145      -0.45088571       0.00899298
O        5.71021236       3.62919935      13.15069587  F        1        2       0.42624502       0.28551246       0.53233177
O        7.66922265       2.49816423      14.45537079  F        1        2       0.00830862       0.39236073      -0.74491062
O        3.84371499       3.13058929      16.75676254  F        1        2       0.09707282       0.48983290       0.25102071
Si       7.23648082       0.01306384      17.46498686  T        0        1       0.01239712      -0.00727914       0.02540306
Si       3.75425424       1.97217473      21.15722009  T        0        1       0.02051492      -0.03216803      -0.04669533
Si       6.24446242       2.28974917      19.31620020  T        0        1       0.01034067      -0.01949460       0.00103237
O        6.30503305       1.16397247      18.11850416  T        1        1       0.01609478      -0.01978404      -0.00961663
O        5.22817174       1.82963380      20.48435162  T        1        1      -0.03635095      -0.02675701      -0.00179357
O        8.09450188       0.59149338      21.82336009  T        1        1       0.00742508      -0.06926176      -0.01968395
O        5.74505439       3.66273475      18.60074368  T        1        1      -0.02800017       0.00816810      -0.01419832
O        7.71500956       2.55212925      19.95649420  T        1        1       0.00746287      -0.02040430       0.02855373
O        3.70693193       2.69538820      22.62242950  T        1        1       0.00833929      -0.03121336       0.00486741
36
Lattice="9.8418 0.0 0.0 -2.460449999999999 4.261624409482844 0.0 0.0 -0.0 34.16586254" Properties=species:S:1:pos:R:3:move_mask:L:1:spacegroup_kinds:I:1:tags:I:1:forces:R:3 spacegroup="P 32 2 1" unit_cell=conventional energy=-266.0534272652292 pbc="T T F"
Si       2.31725181       0.00000000      12.00000000  F        0        2      -0.13382623      -0.36662135      -1.70283617
Si      -1.15862590       2.00679893      15.60606667  F        0        2      -0.13004657       0.06344276       1.26205274
Si       1.30182410       2.25482548      13.80303333  F        0        2       0.03441271      -0.16047297       1.03021400
O        1.38326499       1.13103512      12.65233746  F        1        2      -0.50572642       0.21589729      -0.22087903
O        0.28787265       1.76346018      14.95372921  F        1        2       0.44767141      -0.25095473      -0.38384485
O        3.24976236       0.63242506      16.25840413  F        1        2      -0.26152010      -0.45168393       0.00907898
O        0.78931236       3.62919935      13.15069587  F        1        2       0.42628920       0.28548988       0.53237345
O        2.74832265       2.49816423      14.45537079  F        1        2       0.00830619       0.39230563      -0.74488323
O       -1.07718501       3.13058929      16.75676254  F        1        2       0.09660822       0.48829958       0.24989659
Si       2.31570276       0.01290025      17.46497746  T        0        1       0.01193147      -0.00635906       0.02572279
Si      -1.16662297       1.97134698      21.15717282  T        0        1       0.02156462      -0.02865162      -0.05042364
Si       1.32365269       2.28956305      19.31618195  T        0        1       0.00942470      -0.02171393       0.00192853
O        1.38432621       1.16377483      18.11850385  T        1        1       0.01520361      -0.01744328      -0.00940921
O        0.30708887       1.82922391      20.48395393  T        1        1      -0.03460624      -0.02817503      -0.00051652
O        3.17385833       0.59052183      21.82283014  T        1        1       0.00617220      -0.07088207      -0.01693593
O        0.82391492       3.66246391      18.60093181  T        1        1      -0.02564928       0.00940562      -0.01576323
O        2.79402617       2.55182856      19.95683358  T        1        1       0.00573451      -0.01985445       0.02619994
O       -1.21381174       2.69472321      22.62221935  T        1        1       0.00805579      -0.03202838       0.00802471
Si       7.23815181       0.00000000      12.00000000  F        0        2      -0.13382622      -0.36662134      -1.70283615
Si       3.76227409       2.00679893      15.60606667  F        0        2      -0.13004608       0.06344278       1.26205274
Si       6.22272410       2.25482548      13.80303333  F        0        2       0.03441271      -0.16047299       1.03021407
O        6.30416499       1.13103512      12.65233746  F        1        2      -0.50572641       0.21589727      -0.22087906
O        5.20877265       1.76346018      14.95372921  F        1        2       0.44767118      -0.25095470      -0.38384476
O        8.17066236       0.63242506      16.25840413  F        1        2      -0.26152004      -0.45168385       0.00907894
O        5.71021236       3.62919935      13.15069587  F        1        2       0.42628919       0.28548990       0.53237342
O        7.66922265       2.49816423      14.45537079  F        1        2       0.00830632       0.39230559      -0.74488313
O        3.84371499       3.13058929      16.75676254  F        1        2       0.09660818       0.48829956       0.24989658
Si       7.23660276       0.01290025      17.46497746  T        0        1       0.01193147      -0.00635907       0.02572278
Si       3.75427703       1.97134698      21.15717282  T        0        1       0.02156459      -0.02865161      -0.05042364
Si       6.24455269       2.28956305      19.31618195  T        0        1       0.00942469      -0.02171394       0.00192856
O        6.30522621       1.16377483      18.11850385  T        1        1       0.01520360      -0.01744327      -0.00940920
O        5.22798887       1.82922391      20.48395393  T        1        1      -0.03460619      -0.02817502      -0.00051656
O        8.09475832       0.59052183      21.82283014  T        1        1       0.00617220      -0.07088207      -0.01693593
O        5.74481492       3.66246391      18.60093181  T        1        1      -0.02564928       0.00940562      -0.01576323
O        7.71492617       2.55182856      19.95683358  T        1        1       0.00573449      -0.01985445       0.02619993
O        3.70708826       2.69472321      22.62221935  T        1        1       0.00805579      -0.03202838       0.00802471
36
Lattice="9.8418 0.0 0.0 -2.460449999999999 4.261624409482844 0.0 0.0 -0.0 34.16586254" Properties=species:S:1:pos:R:3:move_mask:L:1:spacegroup_kinds:I:1:tags:I:1:forces:R:3 spacegroup="P 32 2 1" unit_cell=conventional energy=-266.05388424307284 pbc="T T F"
Si       2.31725181       0.00000000      12.00000000  F        0        2      -0.13381943      -0.36658449      -1.70269528
Si      -1.15862590       2.00679893      15.60606667  F        0        2      -0.13018738       0.06320986       1.26256079
Si       1.30182410       2.25482548      13.80303333  F        0        2       0.03440496      -0.16049401       1.03038873
O        1.38326499       1.13103512      12.65233746  F        1        2      -0.50566690       0.21583332      -0.22096112
O        0.28787265       1.76346018      14.95372921  F        1        2       0.44782094      -0.25088234      -0.38405922
O        3.24976236       0.63242506      16.25840413  F        1        2      -0.26125028      -0.45289104       0.01019294
O        0.78931236       3.62919935      13.15069587  F        1        2       0.42621932       0.28552153       0.53225178
O        2.74832265       2.49816423      14.45537079  F        1        2       0.00825579       0.39229296      -0.74501474
O       -1.07718501       3.13058929      16.75676254  F        1        2       0.09681011       0.48763677       0.24967523
Si       2.31587184       0.01272139      17.46509692  T        0        1       0.00872743      -0.00570384       0.01485966
Si      -1.16649521       1.97045952      21.15687950  T        0        1       0.01419973      -0.02981124      -0.03577701
Si       1.32378081       2.28928755      19.31617511  T        0        1       0.00546192      -0.02055175       0.00201327
O        1.38457567       1.16351020      18.11845678  T        1        1       0.01152875      -0.01027167      -0.00517211
O        0.30675219       1.82871489      20.48359344  T        1        1      -0.02050083      -0.02876100      -0.00726630
O        3.17411982       0.58929492      21.82226895  T        1        1       0.00757076      -0.06583288      -0.01733993
O        0.82357184       3.66226694      18.60102273  T        1        1      -0.01544400       0.00088927      -0.00722432
O        2.79397964       2.55145919      19.95726932  T        1        1      -0.00190511      -0.01737149       0.01843295
O       -1.21363098       2.69396544      22.62207012  T        1        1       0.00777403      -0.03622800       0.00513460
Si       7.23815181       0.00000000      12.00000000  F        0        2      -0.13381943      -0.36658448      -1.70269525
Si       3.76227409       2.00679893      15.60606667  F        0        2      -0.13018689       0.06320988       1.26256079
Si       6.22272410       2.25482548      13.80303333  F        0        2       0.03440496      -0.16049403       1.03038880
O        6.30416499       1.13103512      12.65233746  F        1        2      -0.50566689       0.21583330      -0.22096114
O        5.20877265       1.76346018      14.95372921  F        1        2       0.44782070      -0.25088231      -0.38405913
O        8.17066236       0.63242506      16.25840413  F        1        2      -0.26125022      -0.45289096       0.01019290
O        5.71021236       3.62919935      13.15069587  F        1        2       0.42621931       0.28552155       0.53225174
O        7.66922265       2.49816423      14.45537079  F        1        2       0.00825592       0.39229292      -0.74501464
O        3.84371499       3.13058929      16.75676254  F        1        2       0.09681008       0.48763676       0.24967522
Si       7.23677184       0.01272139      17.46509692  T        0        1       0.00872743      -0.00570384       0.01485965
Si       3.75440479       1.97045952      21.15687950  T        0        1       0.01419971      -0.02981124      -0.03577701
Si       6.24468081       2.28928755      19.31617511  T        0        1       0.00546191      -0.02055176       0.00201329
O        6.30547567       1.16351020      18.11845678  T        1        1       0.01152875      -0.01027167      -0.00517211
O        5.22765219       1.82871489      20.48359344  T        1        1      -0.02050079      -0.02876100      -0.00726632
O        8.09501982       0.58929492      21.82226895  T        1        1       0.00757076      -0.06583288      -0.01733993
O        5.74447184       3.66226694      18.60102272  T        1        1      -0.01544400       0.00088927      -0.00722432
O        7.71487964       2.55145919      19.95726932  T        1        1      -0.00190512      -0.01737149       0.01843294
O        3.70726902       2.69396544      22.62207012  T        1        1       0.00777403      -0.03622800       0.00513460
36
Lattice="9.8418 0.0 0.0 -2.460449999999999 4.261624409482844 0.0 0.0 -0.0 34.16586254" Properties=species:S:1:pos:R:3:move_mask:L:1:spacegroup_kinds:I:1:tags:I:1:forces:R:3 spacegroup="P 32 2 1" unit_cell=conventional energy=-266.0543684278374 pbc="T T F"
Si       2.31725181       0.00000000      12.00000000  F        0        2      -0.13380949      -0.36651871      -1.70245214
Si      -1.15862590       2.00679893      15.60606667  F        0        2      -0.13038704       0.06292415       1.26325344
Si       1.30182410       2.25482548      13.80303333  F        0        2       0.03441593      -0.16051420       1.03064410
O        1.38326499       1.13103512      12.65233746  F        1        2      -0.50556178       0.21571997      -0.22109605
O        0.28787265       1.76346018      14.95372921  F        1        2       0.44802971      -0.25080041      -0.38434160
O        3.24976236       0.63242506      16.25840413  F        1        2      -0.26130503      -0.45433197       0.01188443
O        0.78931236       3.62919935      13.15069587  F        1        2       0.42609000       0.28558058       0.53204812
O        2.74832265       2.49816423      14.45537079  F        1        2       0.00818507       0.39230073      -0.74521934
O       -1.07718501       3.13058929      16.75676254  F        1        2       0.09736767       0.48745926       0.24995875
Si       2.31607235       0.01252882      17.46528675  T        0        1       0.00407051      -0.00520322      -0.00191229
Si      -1.16630157       1.96949566      21.15641732  T        0        1       0.00148869      -0.03432708      -0.00966128
Si       1.32392638       2.28892576      19.31618011  T        0        1      -0.00031730      -0.01661878       0.00104409
O        1.38486405       1.16321514      18.11838576  T        1        1       0.00649447      -0.00116965       0.00069526
O        0.30633560       1.82809743      20.48322874  T        1        1      -0.00010342      -0.02902386      -0.01797021
O        3.17439710       0.58782601      21.82166782  T        1        1       0.01090202      -0.05583866      -0.02005693
O        0.82317752       3.66209459      18.60106453  T        1        1      -0.00106730      -0.01307249       0.00686697
O        2.79392720       2.55103053      19.95776360  T        1        1      -0.01199665      -0.01386875       0.00811811
O       -1.21342523       2.69308276      22.62196426  T        1        1       0.00750371      -0.04269696      -0.00180351
Si       7.23815181       0.00000000      12.00000000  F        0        2      -0.13380948      -0.36651870      -1.70245211
Si       3.76227409       2.00679893      15.60606667  F        0        2      -0.13038655       0.06292418       1.26325343
Si       6.22272410       2.25482548      13.80303333  F        0        2       0.03441593      -0.16051421       1.03064417
O        6.30416499       1.13103512      12.65233746  F        1        2      -0.50556177       0.21571995      -0.22109608
O        5.20877265       1.76346018      14.95372921  F        1        2       0.44802948      -0.25080038      -0.38434151
O        8.17066236       0.63242506      16.25840413  F        1        2      -0.26130497      -0.45433189       0.01188439
O        5.71021236       3.62919935      13.15069587  F        1        2       0.42608998       0.28558060       0.53204809
O        7.66922265       2.49816423      14.45537079  F        1        2       0.00818521       0.39230069      -0.74521923
O        3.84371499       3.13058929      16.75676254  F        1        2       0.09736764       0.48745924       0.24995874
Si       7.23697235       0.01252882      17.46528675  T        0        1       0.00407051      -0.00520322      -0.00191229
Si       3.75459843       1.96949566      21.15641732  T        0        1       0.00148869      -0.03432708      -0.00966128
Si       6.24482638       2.28892576      19.31618011  T        0        1      -0.00031730      -0.01661878       0.00104409
O        6.30576405       1.16321514      18.11838576  T        1        1       0.00649447      -0.00116965       0.00069526
O        5.22723560       1.82809743      20.48322874  T        1        1      -0.00010342      -0.02902385      -0.01797021
O        8.09529710       0.58782601      21.82166782  T        1        1       0.01090202      -0.05583866      -0.02005693
O        5.74407751       3.66209459      18.60106453  T        1        1      -0.00106731      -0.01307249       0.00686697
O        7.71482720       2.55103053      19.95776360  T        1        1      -0.01199665      -0.01386875       0.00811811
O        3.70747477       2.69308276      22.62196426  T        1        1       0.00750371      -0.04269696      -0.00180352
36
Lattice="9.8418 0.0 0.0 -2.460449999999999 4.261624409482844 0.0 0.0 -0.0 34.16586254" Properties=species:S:1:pos:R:3:move_mask:L:1:spacegroup_kinds:I:1:tags:I:1:forces:R:3 spacegroup="P 32 2 1" unit_cell=conventional energy=-266.0548977318231 pbc="T T F"
Si       2.31725181       0.00000000      12.00000000  F        0        2      -0.13380111      -0.36646461      -1.70225610
Si      -1.15862590       2.00679893      15.60606667  F        0        2      -0.13058457       0.06264241       1.26383865
Si       1.30182410       2.25482548      13.80303333  F        0        2       0.03442142      -0.16053352       1.03084061
O        1.38326499       1.13103512      12.65233746  F        1        2      -0.50547671       0.21562934      -0.22120184
O        0.28787265       1.76346018      14.95372921  F        1        2       0.44821058      -0.25071650      -0.38458225
O        3.24976236       0.63242506      16.25840413  F        1        2      -0.26111479      -0.45587572       0.01351567
O        0.78931236       3.62919935      13.15069587  F        1        2       0.42598752       0.28562475       0.53188676
O        2.74832265       2.49816423      14.45537079  F        1        2       0.00813354       0.39228876      -0.74536918
O       -1.07718501       3.13058929      16.75676254  F        1        2       0.09777561       0.48699112       0.25001559
Si       2.31630023       0.01230065      17.46546089  T        0        1      -0.00011972      -0.00467603      -0.01676703
Si      -1.16609912       1.96829384      21.15589007  T        0        1      -0.01178292      -0.03976409       0.01706237
Si       1.32406820       2.28844771      19.31619258  T        0        1      -0.00616954      -0.01110587      -0.00109426
O        1.38519639       1.16291458      18.11832047  T        1        1       0.00205270       0.00587534       0.00465453
O        0.30592243       1.82727681      20.48273808  T        1        1       0.01770232      -0.02985919      -0.02641589
O        3.17475024       0.58596903      21.82092804  T        1        1       0.01490920      -0.04365594      -0.02346667
O        0.82277943       3.66182967      18.60115545  T        1        1       0.01224377      -0.02584743       0.01947148
O        2.79378876       2.55050612      19.95831149  T        1        1      -0.01960069      -0.01067268      -0.00079028
O       -1.21316742       2.69190093      22.62184645  T        1        1       0.00721317      -0.04988017      -0.00934225
Si       7.23815181       0.00000000      12.00000000  F        0        2      -0.13380110      -0.36646461      -1.70225607
Si       3.76227409       2.00679893      15.60606667  F        0        2      -0.13058408       0.06264243       1.26383864
Si       6.22272410       2.25482548      13.80303333  F        0        2       0.03442142      -0.16053354       1.03084069
O        6.30416499       1.13103512      12.65233746  F        1        2      -0.50547670       0.21562931      -0.22120187
O        5.20877265       1.76346018      14.95372921  F        1        2       0.44821035      -0.25071646      -0.38458216
O        8.17066236       0.63242506      16.25840413  F        1        2      -0.26111473      -0.45587564       0.01351563
O        5.71021236       3.62919935      13.15069587  F        1        2       0.42598751       0.28562477       0.53188672
O        7.66922265       2.49816423      14.45537079  F        1        2       0.00813368       0.39228872      -0.74536908
O        3.84371499       3.13058929      16.75676254  F        1        2       0.09777558       0.48699110       0.25001558
Si       7.23720023       0.01230065      17.46546089  T        0        1      -0.00011971      -0.00467602      -0.01676702
Si       3.75480088       1.96829384      21.15589007  T        0        1      -0.01178290      -0.03976410       0.01706237
Si       6.24496820       2.28844771      19.31619258  T        0        1      -0.00616953      -0.01110587      -0.00109428
O        6.30609639       1.16291458      18.11832047  T        1        1       0.00205270       0.00587534       0.00465452
O        5.22682244       1.82727681      20.48273808  T        1        1       0.01770229      -0.02985920      -0.02641587
O        8.09565024       0.58596903      21.82092804  T        1        1       0.01490920      -0.04365593      -0.02346667
O        5.74367943       3.66182967      18.60115545  T        1        1       0.01224377      -0.02584743       0.01947148
O        7.71468876       2.55050612      19.95831149  T        1        1      -0.01960068      -0.01067268      -0.00079027
O        3.70773258       2.69190093      22.62184645  T        1        1       0.00721317      -0.04988017      -0.00934225
36
Lattice="9.8418 0.0 0.0 -2.460449999999999 4.261624409482844 0.0 0.0 -0.0 34.16586254" Properties=species:S:1:pos:R:3:move_mask:L:1:spacegroup_kinds:I:1:tags:I:1:forces:R:3 spacegroup="P 32 2 1" unit_cell=conventional energy=-266.0555601860793 pbc="T T F"
Si       2.31725181       0.00000000      12.00000000  F        0        2      -0.13380068      -0.36647849      -1.70231045
Si      -1.15862590       2.00679893      15.60606667  F        0        2      -0.13067871       0.06246075       1.26392303
Si       1.30182410       2.25482548      13.80303333  F        0        2       0.03438709      -0.16055295       1.03080278
O        1.38326499       1.13103512      12.65233746  F        1        2      -0.50550197       0.21565931      -0.22116982
O        0.28787265       1.76346018      14.95372921  F        1        2       0.44824298      -0.25064581      -0.38463725
O        3.24976236       0.63242506      16.25840413  F        1        2      -0.25996279      -0.45720709       0.01410110
O        0.78931236       3.62919935      13.15069587  F        1        2       0.42602976       0.28559832       0.53193455
O        2.74832265       2.49816423      14.45537079  F        1        2       0.00814988       0.39220933      -0.74530169
O       -1.07718501       3.13058929      16.75676254  F        1        2       0.09738933       0.48529217       0.24891978
Si       2.31652507       0.01203533      17.46549300  T        0        1      -0.00081526      -0.00413906      -0.01826816
Si      -1.16599720       1.96676955      21.15551047  T        0        1      -0.01719054      -0.04176494       0.02601984
Si       1.32415707       2.28788086      19.31619578  T        0        1      -0.00895899      -0.00690463      -0.00354044
O        1.38554296       1.16266593      18.11829476  T        1        1       0.00099579       0.00551038       0.00217170
O        0.30566127       1.82621332      20.48203046  T        1        1       0.01968048      -0.03207010      -0.02408135
O        3.17522516       0.58376280      21.81999822  T        1        1       0.01706971      -0.03525151      -0.02462269
O        0.82248748       3.66135055      18.60140870  T        1        1       0.01616255      -0.02724831       0.01999582
O        2.79348733       2.54989695      19.95884789  T        1        1      -0.01807042      -0.00990847      -0.00247796
O       -1.21285146       2.69031170      22.62165141  T        1        1       0.00687159      -0.05455894      -0.01145887
Si       7.23815181       0.00000000      12.00000000  F        0        2      -0.13380068      -0.36647849      -1.70231043
Si       3.76227409       2.00679893      15.60606667  F        0        2      -0.13067822       0.06246078       1.26392302
Si       6.22272410       2.25482548      13.80303333  F        0        2       0.03438709      -0.16055296       1.03080285
O        6.30416499       1.13103512      12.65233746  F        1        2      -0.50550196       0.21565929      -0.22116985
O        5.20877265       1.76346018      14.95372921  F        1        2       0.44824274      -0.25064578      -0.38463717
O        8.17066236       0.63242506      16.25840413  F        1        2      -0.25996273      -0.45720701       0.01410106
O        5.71021236       3.62919935      13.15069587  F        1        2       0.42602975       0.28559834       0.53193451
O        7.66922265       2.49816423      14.45537079  F        1        2       0.00815002       0.39220929      -0.74530158
O        3.84371499       3.13058929      16.75676254  F        1        2       0.09738930       0.48529215       0.24891977
Si       7.23742507       0.01203533      17.46549300  T        0        1      -0.00081526      -0.00413905      -0.01826815
Si       3.75490280       1.96676955      21.15551048  T        0        1      -0.01719052      -0.04176495       0.02601984
Si       6.24505707       2.28788086      19.31619578  T        0        1      -0.00895898      -0.00690462      -0.00354046
O        6.30644296       1.16266593      18.11829476  T        1        1       0.00099579       0.00551038       0.00217169
O        5.22656127       1.82621332      20.48203046  T        1        1       0.01968044      -0.03207010      -0.02408132
O        8.09612516       0.58376280      21.81999822  T        1        1       0.01706971      -0.03525151      -0.02462269
O        5.74338748       3.66135055      18.60140870  T        1        1       0.01616255      -0.02724831       0.01999582
O        7.71438733       2.54989695      19.95884789  T        1        1      -0.01807041      -0.00990847      -0.00247795
O        3.70804854       2.69031170      22.62165141  T        1        1       0.00687159      -0.05455894      -0.01145887
36
Lattice="9.8418 0.0 0.0 -2.460449999999999 4.261624409482844 0.0 0.0 -0.0 34.16586254" Properties=species:S:1:pos:R:3:move_mask:L:1:spacegroup_kinds:I:1:tags:I:1:forces:R:3 spacegroup="P 32 2 1" unit_cell=conventional energy=-266.0564106487001 pbc="T T F"
Si       2.31725181       0.00000000      12.00000000  F        0        2      -0.13380919      -0.36657749      -1.70266900
Si      -1.15862590       2.00679893      15.60606667  F        0        2      -0.13062953       0.06238744       1.26344433
Si       1.30182410       2.25482548      13.80303333  F        0        2       0.03429428      -0.16057954       1.03051754
O        1.38326499       1.13103512      12.65233746  F        1        2      -0.50566371       0.21583583      -0.22097731
O        0.28787265       1.76346018      14.95372921  F        1        2       0.44810462      -0.25058394      -0.38450124
O        3.24976236       0.63242506      16.25840413  F        1        2      -0.25753518      -0.45826574       0.01329305
O        0.78931236       3.62919935      13.15069587  F        1        2       0.42625112       0.28548843       0.53223144
O        2.74832265       2.49816423      14.45537079  F        1        2       0.00823801       0.39204895      -0.74498971
O       -1.07718501       3.13058929      16.75676254  F        1        2       0.09607467       0.48199652       0.24637246
Si       2.31674003       0.01173083      17.46534276  T        0        1       0.00322150      -0.00392101      -0.00277156
Si      -1.16606743       1.96484086      21.15539321  T        0        1      -0.01008106      -0.03747771       0.00746668
Si       1.32415594       2.28724962      19.31616367  T        0        1      -0.00692406      -0.00663249      -0.00443547
O        1.38589676       1.16247415      18.11829089  T        1        1       0.00394965      -0.00322939      -0.00756559
O        0.30559831       1.82483846      20.48108832  T        1        1       0.00129150      -0.03538415      -0.00865524
O        3.17586652       0.58122243      21.81883024  T        1        1       0.01545179      -0.03507451      -0.02146330
O        0.82235891       3.66060356      18.60185929  T        1        1       0.00730093      -0.01293564       0.00425165
O        2.79300813       2.54919378      19.95935539  T        1        1      -0.00596271      -0.01250685       0.00475339
O       -1.21246947       2.68819105      22.62134368  T        1        1       0.00642715      -0.05458874      -0.00430223
Si       7.23815181       0.00000000      12.00000000  F        0        2      -0.13380919      -0.36657748      -1.70266898
Si       3.76227409       2.00679893      15.60606667  F        0        2      -0.13062903       0.06238747       1.26344432
Si       6.22272410       2.25482548      13.80303333  F        0        2       0.03429428      -0.16057955       1.03051761
O        6.30416499       1.13103512      12.65233746  F        1        2      -0.50566370       0.21583581      -0.22097734
O        5.20877265       1.76346018      14.95372921  F        1        2       0.44810438      -0.25058391      -0.38450115
O        8.17066236       0.63242506      16.25840413  F        1        2      -0.25753512      -0.45826566       0.01329301
O        5.71021236       3.62919935      13.15069587  F        1        2       0.42625110       0.28548845       0.53223141
O        7.66922265       2.49816423      14.45537079  F        1        2       0.00823815       0.39204891      -0.74498960
O        3.84371499       3.13058929      16.75676254  F        1        2       0.09607464       0.48199650       0.24637245
Si       7.23764003       0.01173083      17.46534276  T        0        1       0.00322150      -0.00392101      -0.00277155
Si       3.75483257       1.96484086      21.15539321  T        0        1      -0.01008105      -0.03747772       0.00746668
Si       6.24505594       2.28724962      19.31616367  T        0        1      -0.00692406      -0.00663249      -0.00443548
O        6.30679676       1.16247415      18.11829089  T        1        1       0.00394965      -0.00322939      -0.00756559
O        5.22649831       1.82483846      20.48108832  T        1        1       0.00129148      -0.03538415      -0.00865522
O        8.09676652       0.58122243      21.81883024  T        1        1       0.01545179      -0.03507451      -0.02146330
O        5.74325891       3.66060356      18.60185929  T        1        1       0.00730093      -0.01293564       0.00425165
O        7.71390813       2.54919378      19.95935539  T        1        1      -0.00596270      -0.01250685       0.00475339
O        3.70843053       2.68819105      22.62134368  T        1        1       0.00642715      -0.05458874      -0.00430223
36
Lattice="9.8418 0.0 0.0 -2.460449999999999 4.261624409482844 0.0 0.0 -0.0 34.16586254" Properties=species:S:1:pos:R:3:move_mask:L:1:spacegroup_kinds:I:1:tags:I:1:forces:R:3 spacegroup="P 32 2 1" unit_cell=conventional energy=-266.05737219590605 pbc="T T F"
Si       2.31725181       0.00000000      12.00000000  F        0        2      -0.13381609      -0.36669226      -1.70306066
Si      -1.15862590       2.00679893      15.60606667  F        0        2      -0.13054376       0.06223243       1.26302259
Si       1.30182410       2.25482548      13.80303333  F        0        2       0.03416545      -0.16062871       1.03029761
O        1.38326499       1.13103512      12.65233746  F        1        2      -0.50584738       0.21602832      -0.22078347
O        0.28787265       1.76346018      14.95372921  F        1        2       0.44797554      -0.25048723      -0.38444459
O        3.24976236       0.63242506      16.25840413  F        1        2      -0.25441620      -0.45950543       0.01210910
O        0.78931236       3.62919935      13.15069587  F        1        2       0.42650214       0.28537411       0.53254546
O        2.74832265       2.49816423      14.45537079  F        1        2       0.00831438       0.39186823      -0.74468138
O       -1.07718501       3.13058929      16.75676254  F        1        2       0.09475368       0.47799965       0.24343236
Si       2.31699542       0.01137740      17.46515751  T        0        1       0.00885113      -0.00454120       0.01615142
Si      -1.16626822       1.96243800      21.15537378  T        0        1       0.00385515      -0.02889987      -0.02514432
Si       1.32406482       2.28653641      19.31607411  T        0        1      -0.00205799      -0.01058170      -0.00151865
O        1.38629952       1.16224169      18.11818871  T        1        1       0.00706495      -0.01242204      -0.01769338
O        0.30555256       1.82301292      20.48004002  T        1        1      -0.02234667      -0.03744069       0.00862901
O        3.17670441       0.57824324      21.81739112  T        1        1       0.01045674      -0.04176073      -0.01504531
O        0.82232611       3.65969346      18.60236211  T        1        1      -0.00612220       0.00720385      -0.01672525
O        2.79245465       2.54833277      19.95992127  T        1        1       0.00738064      -0.01650517       0.01374722
O       -1.21200652       2.68537511      22.62098209  T        1        1       0.00583030      -0.05124161       0.00916216
Si       7.23815181       0.00000000      12.00000000  F        0        2      -0.13381608      -0.36669226      -1.70306063
Si       3.76227409       2.00679893      15.60606667  F        0        2      -0.13054326       0.06223246       1.26302259
Si       6.22272410       2.25482548      13.80303333  F        0        2       0.03416545      -0.16062872       1.03029768
O        6.30416499       1.13103512      12.65233746  F        1        2      -0.50584737       0.21602830      -0.22078350
O        5.20877265       1.76346018      14.95372921  F        1        2       0.44797531      -0.25048720      -0.38444450
O        8.17066236       0.63242506      16.25840413  F        1        2      -0.25441614      -0.45950534       0.01210906
O        5.71021236       3.62919935      13.15069587  F        1        2       0.42650212       0.28537413       0.53254543
O        7.66922265       2.49816423      14.45537079  F        1        2       0.00831452       0.39186819      -0.74468127
O        3.84371499       3.13058929      16.75676254  F        1        2       0.09475365       0.47799964       0.24343234
Si       7.23789542       0.01137741      17.46515751  T        0        1       0.00885113      -0.00454121       0.01615141
Si       3.75463178       1.96243800      21.15537378  T        0        1       0.00385514      -0.02889987      -0.02514432
Si       6.24496482       2.28653641      19.31607411  T        0        1      -0.00205800      -0.01058170      -0.00151864
O        6.30719952       1.16224168      18.11818871  T        1        1       0.00706495      -0.01242203      -0.01769338
O        5.22645256       1.82301292      20.48004002  T        1        1      -0.02234665      -0.03744069       0.00862900
O        8.09760441       0.57824324      21.81739112  T        1        1       0.01045674      -0.04176074      -0.01504531
O        5.74322611       3.65969346      18.60236211  T        1        1      -0.00612220       0.00720385      -0.01672525
O        7.71335465       2.54833277      19.95992127  T        1        1       0.00738063      -0.01650517       0.01374722
O        3.70889348       2.68537511      22.62098209  T        1        1       0.00583030      -0.05124161       0.00916216
36
Lattice="9.8418 0.0 0.0 -2.460449999999999 4.261624409482844 0.0 0.0 -0.0 34.16586254" Properties=species:S:1:pos:R:3:move_mask:L:1:spacegroup_kinds:I:1:tags:I:1:forces:R:3 spacegroup="P 32 2 1" unit_cell=conventional energy=-266.0585485785152 pbc="T T F"
Si       2.31725181       0.00000000      12.00000000  F        0        2      -0.13380281      -0.36668615      -1.70297158
Si      -1.15862590       2.00679893      15.60606667  F        0        2      -0.13066563       0.06164686       1.26373295
Si       1.30182410       2.25482548      13.80303333  F        0        2       0.03406908      -0.16071159       1.03064580
O        1.38326499       1.13103512      12.65233746  F        1        2      -0.50583039       0.21598935      -0.22087339
O        0.28787265       1.76346018      14.95372921  F        1        2       0.44816281      -0.25029245      -0.38489504
O        3.24976236       0.63242506      16.25840413  F        1        2      -0.25193323      -0.46159264       0.01243335
O        0.78931236       3.62919935      13.15069587  F        1        2       0.42649085       0.28540081       0.53244831
O        2.74832265       2.49816423      14.45537079  F        1        2       0.00824758       0.39178668      -0.74479905
O       -1.07718501       3.13058929      16.75676254  F        1        2       0.09497427       0.47514241       0.24209466
Si       2.31738437       0.01095671      17.46521969  T        0        1       0.00862450      -0.00553031       0.01175787
Si      -1.16640907       1.95960792      21.15497091  T        0        1       0.00736596      -0.02452518      -0.03222623
Si       1.32394282       2.28566584      19.31596190  T        0        1      -0.00078343      -0.01405341       0.00400385
O        1.38680776       1.16182105      18.11781721  T        1        1       0.00366818      -0.00839001      -0.01605058
O        0.30516620       1.82062660      20.47912929  T        1        1      -0.01993902      -0.03485500       0.00632669
O        3.17769706       0.57464392      21.81573066  T        1        1       0.00631481      -0.04487684      -0.01099814
O        0.82220010       3.65889841      18.60260695  T        1        1      -0.00520435       0.00924027      -0.01770775
O        2.79201689       2.54722487      19.96069364  T        1        1       0.00511606      -0.01708735       0.01062887
O       -1.21145725       2.68179347      22.62076232  T        1        1       0.00512454      -0.05060550       0.01644934
Si       7.23815181       0.00000000      12.00000000  F        0        2      -0.13380281      -0.36668614      -1.70297156
Si       3.76227409       2.00679893      15.60606667  F        0        2      -0.13066513       0.06164688       1.26373295
Si       6.22272410       2.25482548      13.80303333  F        0        2       0.03406908      -0.16071160       1.03064587
O        6.30416499       1.13103512      12.65233746  F        1        2      -0.50583038       0.21598933      -0.22087342
O        5.20877265       1.76346018      14.95372921  F        1        2       0.44816258      -0.25029242      -0.38489495
O        8.17066236       0.63242506      16.25840413  F        1        2      -0.25193317      -0.46159256       0.01243330
O        5.71021236       3.62919935      13.15069587  F        1        2       0.42649084       0.28540083       0.53244828
O        7.66922265       2.49816423      14.45537079  F        1        2       0.00824771       0.39178664      -0.74479894
O        3.84371499       3.13058929      16.75676254  F        1        2       0.09497424       0.47514239       0.24209465
Si       7.23828437       0.01095671      17.46521969  T        0        1       0.00862450      -0.00553032       0.01175786
Si       3.75449093       1.95960792      21.15497091  T        0        1       0.00736594      -0.02452517      -0.03222623
Si       6.24484282       2.28566584      19.31596190  T        0        1      -0.00078344      -0.01405342       0.00400387
O        6.30770776       1.16182105      18.11781721  T        1        1       0.00366818      -0.00839000      -0.01605058
O        5.22606620       1.82062660      20.47912929  T        1        1      -0.01993898      -0.03485500       0.00632666
O        8.09859705       0.57464392      21.81573066  T        1        1       0.00631481      -0.04487684      -0.01099814
O        5.74310010       3.65889841      18.60260695  T        1        1      -0.00520435       0.00924027      -0.01770775
O        7.71291689       2.54722487      19.96069364  T        1        1       0.00511605      -0.01708734       0.01062886
O        3.70944275       2.68179347      22.62076232  T        1        1       0.00512454      -0.05060550       0.01644934
36
Lattice="9.8418 0.0 0.0 -2.460449999999999 4.261624409482844 0.0 0.0 -0.0 34.16586254" Properties=species:S:1:pos:R:3:move_mask:L:1:spacegroup_kinds:I:1:tags:I:1:forces:R:3 spacegroup="P 32 2 1" unit_cell=conventional energy=-266.05997055105604 pbc="T T F"
Si       2.31725181       0.00000000      12.00000000  F        0        2      -0.13376884      -0.36655680      -1.70240138
Si      -1.15862590       2.00679893      15.60606667  F        0        2      -0.13104154       0.06052010       1.26546458
Si       1.30182410       2.25482548      13.80303333  F        0        2       0.03402287      -0.16081629       1.03148187
O        1.38326499       1.13103512      12.65233746  F        1        2      -0.50560933       0.21571744      -0.22123336
O        0.28787265       1.76346018      14.95372921  F        1        2       0.44861717      -0.24999802      -0.38578831
O        3.24976236       0.63242506      16.25840413  F        1        2      -0.24983293      -0.46417340       0.01362691
O        0.78931236       3.62919935      13.15069587  F        1        2       0.42620891       0.28556819       0.53195175
O        2.74832265       2.49816423      14.45537079  F        1        2       0.00807505       0.39180579      -0.74527077
O       -1.07718501       3.13058929      16.75676254  F        1        2       0.09635964       0.47300058       0.24200233
Si       2.31793046       0.01043605      17.46549824  T        0        1       0.00041534      -0.00444593      -0.01584089
Si      -1.16641354       1.95633896      21.15397606  T        0        1      -0.00546511      -0.02867106       0.00058285
Si       1.32380695       2.28454031      19.31592398  T        0        1      -0.00520319      -0.01227183       0.00535787
O        1.38738126       1.16124775      18.11715166  T        1        1      -0.00515157       0.00741653      -0.00292307
O        0.30441419       1.81760901      20.47833934  T        1        1       0.01113266      -0.02795655      -0.01606302
O        3.17880149       0.57023423      21.81387519  T        1        1       0.00589496      -0.03766048      -0.01281621
O        0.82197878       3.65827729      18.60252436  T        1        1       0.01299941      -0.01243663       0.00624027
O        2.79167543       2.54580721      19.96165831  T        1        1      -0.01212825      -0.01309987      -0.00478232
O       -1.21081609       2.67729584      22.62084667  T        1        1       0.00447455      -0.05594180       0.01041082
Si       7.23815181       0.00000000      12.00000000  F        0        2      -0.13376884      -0.36655679      -1.70240135
Si       3.76227409       2.00679893      15.60606667  F        0        2      -0.13104105       0.06052012       1.26546457
Si       6.22272410       2.25482548      13.80303333  F        0        2       0.03402287      -0.16081630       1.03148195
O        6.30416499       1.13103512      12.65233746  F        1        2      -0.50560932       0.21571742      -0.22123339
O        5.20877265       1.76346018      14.95372921  F        1        2       0.44861694      -0.24999798      -0.38578822
O        8.17066236       0.63242506      16.25840413  F        1        2      -0.24983287      -0.46417332       0.01362686
O        5.71021236       3.62919935      13.15069587  F        1        2       0.42620890       0.28556821       0.53195171
O        7.66922265       2.49816423      14.45537079  F        1        2       0.00807519       0.39180575      -0.74527066
O        3.84371499       3.13058929      16.75676254  F        1        2       0.09635960       0.47300056       0.24200232
Si       7.23883046       0.01043605      17.46549824  T        0        1       0.00041534      -0.00444593      -0.01584088
Si       3.75448646       1.95633895      21.15397606  T        0        1      -0.00546511      -0.02867106       0.00058284
Si       6.24470695       2.28454031      19.31592398  T        0        1      -0.00520319      -0.01227184       0.00535787
O        6.30828126       1.16124775      18.11715166  T        1        1      -0.00515157       0.00741653      -0.00292308
O        5.22531419       1.81760901      20.47833934  T        1        1       0.01113265      -0.02795655      -0.01606302
O        8.09970149       0.57023423      21.81387519  T        1        1       0.00589496      -0.03766048      -0.01281621
O        5.74287878       3.65827729      18.60252436  T        1        1       0.01299941      -0.01243662       0.00624027
O        7.71257543       2.54580721      19.96165831  T        1        1      -0.01212825      -0.01309987      -0.00478232
O        3.71008391       2.67729584      22.62084667  T        1        1       0.00447455      -0.05594180       0.01041082
36
Lattice="9.8418 0.0 0.0 -2.460449999999999 4.261624409482844 0.0 0.0 -0.0 34.16586254" Properties=species:S:1:pos:R:3:move_mask:L:1:spacegroup_kinds:I:1:tags:I:1:forces:R:3 spacegroup="P 32 2 1" unit_cell=conventional energy=-266.06162785847994 pbc="T T F"
Si       2.31725181       0.00000000      12.00000000  F        0        2      -0.13374896      -0.36655795      -1.70231953
Si      -1.15862590       2.00679893      15.60606667  F        0        2      -0.13125657       0.05935938       1.26600034
Si       1.30182410       2.25482548      13.80303333  F        0        2       0.03392120      -0.16090667       1.03173693
O        1.38326499       1.13103512      12.65233746  F        1        2      -0.50559902       0.21567672      -0.22130545
O        0.28787265       1.76346018      14.95372921  F        1        2       0.44868029      -0.24972135      -0.38622828
O        3.24976236       0.63242506      16.25840413  F        1        2      -0.24515679      -0.46542878       0.01113189
O        0.78931236       3.62919935      13.15069587  F        1        2       0.42619476       0.28560269       0.53188315
O        2.74832265       2.49816423      14.45537079  F        1        2       0.00810240       0.39170311      -0.74518844
O       -1.07718501       3.13058929      16.75676254  F        1        2       0.09546541       0.46744507       0.23889513
Si       2.31848426       0.00981388      17.46540751  T        0        1      -0.00391877       0.00034404      -0.01559039
Si      -1.16654505       1.95241505      21.15299831  T        0        1      -0.01039138      -0.03125421       0.01849195
Si       1.32355059       2.28313348      19.31601077  T        0        1      -0.00599088      -0.00774996      -0.00376897
O        1.38783294       1.16084892      18.11642052  T        1        1      -0.00529572       0.00737594      -0.00115146
O        0.30392369       1.81395219      20.47717875  T        1        1       0.01613890      -0.02314384      -0.01961497
O        3.18003905       0.56496467      21.81172836  T        1        1       0.00505942      -0.03088517      -0.01492218
O        0.82206047       3.65736924      18.60258714  T        1        1       0.01593307      -0.01981652       0.01385580
O        2.79105320       2.54409003      19.96250836  T        1        1      -0.01221184      -0.01222597      -0.00654580
O       -1.21007317       2.67151362      22.62117276  T        1        1       0.00407427      -0.05981655       0.00464020
Si       7.23815181       0.00000000      12.00000000  F        0        2      -0.13374895      -0.36655794      -1.70231951
Si       3.76227409       2.00679893      15.60606667  F        0        2      -0.13125608       0.05935941       1.26600033
Si       6.22272410       2.25482548      13.80303333  F        0        2       0.03392120      -0.16090668       1.03173700
O        6.30416499       1.13103512      12.65233746  F        1        2      -0.50559901       0.21567669      -0.22130548
O        5.20877265       1.76346018      14.95372921  F        1        2       0.44868006      -0.24972132      -0.38622819
O        8.17066236       0.63242506      16.25840413  F        1        2      -0.24515673      -0.46542870       0.01113185
O        5.71021236       3.62919935      13.15069587  F        1        2       0.42619475       0.28560271       0.53188312
O        7.66922265       2.49816423      14.45537079  F        1        2       0.00810254       0.39170306      -0.74518833
O        3.84371499       3.13058929      16.75676254  F        1        2       0.09546537       0.46744505       0.23889511
Si       7.23938426       0.00981388      17.46540751  T        0        1      -0.00391877       0.00034404      -0.01559038
Si       3.75435495       1.95241505      21.15299831  T        0        1      -0.01039136      -0.03125422       0.01849195
Si       6.24445059       2.28313348      19.31601077  T        0        1      -0.00599087      -0.00774995      -0.00376899
O        6.30873294       1.16084891      18.11642052  T        1        1      -0.00529571       0.00737594      -0.00115147
O        5.22482369       1.81395219      20.47717875  T        1        1       0.01613886      -0.02314385      -0.01961495
O        8.10093905       0.56496467      21.81172836  T        1        1       0.00505942      -0.03088517      -0.01492218
O        5.74296047       3.65736924      18.60258714  T        1        1       0.01593307      -0.01981652       0.01385579
O        7.71195320       2.54409003      19.96250836  T        1        1      -0.01221183      -0.01222597      -0.00654579
O        3.71082683       2.67151362      22.62117276  T        1        1       0.00407427      -0.05981655       0.00464020
36
Lattice="9.8418 0.0 0.0 -2.460449999999999 4.261624409482844 0.0 0.0 -0.0 34.16586254" Properties=species:S:1:pos:R:3:move_mask:L:1:spacegroup_kinds:I:1:tags:I:1:forces:R:3 spacegroup="P 32 2 1" unit_cell=conventional energy=-266.06358005607245 pbc="T T F"
Si       2.31725181       0.00000000      12.00000000  F        0        2      -0.13375386      -0.36674585      -1.70293792
Si      -1.15862590       2.00679893      15.60606667  F        0        2      -0.13107783       0.05863880       1.26494510
Si       1.30182410       2.25482548      13.80303333  F        0        2       0.03372256      -0.16098871       1.03128454
O        1.38326499       1.13103512      12.65233746  F        1        2      -0.50589428       0.21596852      -0.22098785
O        0.28787265       1.76346018      14.95372921  F        1        2       0.44827970      -0.24951504      -0.38609668
O        3.24976236       0.63242506      16.25840413  F        1        2      -0.23800503      -0.46561460       0.00555194
O        0.78931236       3.62919935      13.15069587  F        1        2       0.42657679       0.28544697       0.53240941
O        2.74832265       2.49816423      14.45537079  F        1        2       0.00833549       0.39142548      -0.74447350
O       -1.07718501       3.13058929      16.75676254  F        1        2       0.09234662       0.45879030       0.23283568
Si       2.31892909       0.00920273      17.46488908  T        0        1       0.00447572       0.00176138       0.02352359
Si      -1.16696145       1.94764318      21.15253061  T        0        1       0.00649724      -0.02467620      -0.01476413
Si       1.32313044       2.28151747      19.31599388  T        0        1       0.00202612      -0.00733588      -0.01097482
O        1.38813812       1.16065355      18.11565963  T        1        1       0.00434819      -0.01312399      -0.01623000
O        0.30387743       1.80966935      20.47548269  T        1        1      -0.02223779      -0.02158153       0.00584886
O        3.18141235       0.55886067      21.80917736  T        1        1      -0.00075518      -0.03613176      -0.01177427
O        0.82257929       3.65591955      18.60303010  T        1        1      -0.01061190       0.00702308      -0.01438532
O        2.79009735       2.54204161      19.96317658  T        1        1       0.01196842      -0.01864148       0.01271761
O       -1.20922030       2.66410413      22.62162540  T        1        1       0.00375880      -0.05469953       0.01350769
Si       7.23815181       0.00000000      12.00000000  F        0        2      -0.13375386      -0.36674584      -1.70293789
Si       3.76227409       2.00679893      15.60606667  F        0        2      -0.13107734       0.05863882       1.26494509
Si       6.22272410       2.25482548      13.80303333  F        0        2       0.03372256      -0.16098872       1.03128461
O        6.30416499       1.13103512      12.65233746  F        1        2      -0.50589427       0.21596849      -0.22098788
O        5.20877265       1.76346018      14.95372921  F        1        2       0.44827947      -0.24951501      -0.38609659
O        8.17066236       0.63242506      16.25840413  F        1        2      -0.23800497      -0.46561452       0.00555189
O        5.71021236       3.62919935      13.15069587  F        1        2       0.42657678       0.28544700       0.53240938
O        7.66922265       2.49816423      14.45537079  F        1        2       0.00833563       0.39142544      -0.74447340
O        3.84371499       3.13058929      16.75676254  F        1        2       0.09234659       0.45879028       0.23283566
Si       7.23982909       0.00920273      17.46488907  T        0        1       0.00447572       0.00176138       0.02352358
Si       3.75393855       1.94764318      21.15253061  T        0        1       0.00649723      -0.02467620      -0.01476413
Si       6.24403043       2.28151747      19.31599388  T        0        1       0.00202611      -0.00733588      -0.01097481
O        6.30903811       1.16065355      18.11565963  T        1        1       0.00434819      -0.01312399      -0.01622999
O        5.22477743       1.80966935      20.47548269  T        1        1      -0.02223777      -0.02158153       0.00584884
O        8.10231235       0.55886067      21.80917736  T        1        1      -0.00075518      -0.03613176      -0.01177427
O        5.74347929       3.65591955      18.60303009  T        1        1      -0.01061190       0.00702308      -0.01438531
O        7.71099735       2.54204161      19.96317658  T        1        1       0.01196842      -0.01864148       0.01271761
O        3.71167970       2.66410413      22.62162540  T        1        1       0.00375880      -0.05469953       0.01350769
36
Lattice="9.8418 0.0 0.0 -2.460449999999999 4.261624409482844 0.0 0.0 -0.0 34.16586254" Properties=species:S:1:pos:R:3:move_mask:L:1:spacegroup_kinds:I:1:tags:I:1:forces:R:3 spacegroup="P 32 2 1" unit_cell=conventional energy=-266.0658682860552 pbc="T T F"
Si       2.31725181       0.00000000      12.00000000  F        0        2      -0.13370995      -0.36661233      -1.70227494
Si      -1.15862590       2.00679893      15.60606667  F        0        2      -0.13123379       0.05756252       1.26684103
Si       1.30182410       2.25482548      13.80303333  F        0        2       0.03363411      -0.16114460       1.03238915
O        1.38326499       1.13103512      12.65233746  F        1        2      -0.50566208       0.21564380      -0.22143655
O        0.28787265       1.76346018      14.95372921  F        1        2       0.44877438      -0.24914126      -0.38727045
O        3.24976236       0.63242506      16.25840413  F        1        2      -0.23483665      -0.46883482       0.00714821
O        0.78931236       3.62919935      13.15069587  F        1        2       0.42626857       0.28566739       0.53183372
O        2.74832265       2.49816423      14.45537079  F        1        2       0.00811777       0.39140331      -0.74503397
O       -1.07718501       3.13058929      16.75676254  F        1        2       0.09421470       0.45585025       0.23274822
Si       2.31952251       0.00865123      17.46515583  T        0        1       0.00478935      -0.00656178       0.00034450
Si      -1.16716058       1.94205563      21.15157129  T        0        1       0.00126839      -0.02841116      -0.00420379
Si       1.32277848       2.27965928      19.31561106  T        0        1       0.00151694      -0.00627154       0.00153575
O        1.38858783       1.16002085      18.11435867  T        1        1      -0.00341556      -0.00196123      -0.00585510
O        0.30308969       1.80467328      20.47398421  T        1        1      -0.00368399      -0.01170032      -0.01077740
O        3.18275841       0.55156100      21.80623757  T        1        1      -0.00362180      -0.03402824      -0.01392881
O        0.82274347       3.65470623      18.60299269  T        1        1      -0.00552887      -0.00117891      -0.00194252
O        2.78954204       2.53937464      19.96426789  T        1        1      -0.00003264      -0.01833342       0.00533969
O       -1.20824338       2.65488176      22.62252779  T        1        1       0.00314090      -0.05194771       0.01454320
Si       7.23815181       0.00000000      12.00000000  F        0        2      -0.13370995      -0.36661233      -1.70227492
Si       3.76227409       2.00679893      15.60606667  F        0        2      -0.13123329       0.05756254       1.26684103
Si       6.22272410       2.25482548      13.80303333  F        0        2       0.03363411      -0.16114461       1.03238922
O        6.30416499       1.13103512      12.65233746  F        1        2      -0.50566207       0.21564378      -0.22143658
O        5.20877265       1.76346018      14.95372921  F        1        2       0.44877415      -0.24914123      -0.38727036
O        8.17066236       0.63242506      16.25840413  F        1        2      -0.23483659      -0.46883474       0.00714816
O        5.71021236       3.62919935      13.15069587  F        1        2       0.42626856       0.28566741       0.53183369
O        7.66922265       2.49816423      14.45537079  F        1        2       0.00811791       0.39140327      -0.74503387
O        3.84371499       3.13058929      16.75676254  F        1        2       0.09421467       0.45585024       0.23274820
Si       7.24042251       0.00865123      17.46515583  T        0        1       0.00478935      -0.00656178       0.00034450
Si       3.75373942       1.94205563      21.15157129  T        0        1       0.00126837      -0.02841115      -0.00420379
Si       6.24367848       2.27965928      19.31561106  T        0        1       0.00151693      -0.00627154       0.00153577
O        6.30948783       1.16002085      18.11435867  T        1        1      -0.00341556      -0.00196123      -0.00585510
O        5.22398969       1.80467328      20.47398421  T        1        1      -0.00368397      -0.01170031      -0.01077741
O        8.10365841       0.55156100      21.80623757  T        1        1      -0.00362180      -0.03402824      -0.01392881
O        5.74364347       3.65470623      18.60299269  T        1        1      -0.00552887      -0.00117891      -0.00194252
O        7.71044204       2.53937464      19.96426788  T        1        1      -0.00003265      -0.01833342       0.00533969
O        3.71265662       2.65488176      22.62252779  T        1        1       0.00314090      -0.05194771       0.01454320
36
Lattice="9.8418 0.0 0.0 -2.460449999999999 4.261624409482844 0.0 0.0 -0.0 34.16586254" Properties=species:S:1:pos:R:3:move_mask:L:1:spacegroup_kinds:I:1:tags:I:1:forces:R:3 spacegroup="P 32 2 1" unit_cell=conventional energy=-266.06845608859214 pbc="T T F"
Si       2.31725181       0.00000000      12.00000000  F        0        2      -0.13363897      -0.36644366      -1.70135465
Si      -1.15862590       2.00679893      15.60606667  F        0        2      -0.13156852       0.05569212       1.26938333
Si       1.30182410       2.25482548      13.80303333  F        0        2       0.03352215      -0.16134039       1.03386435
O        1.38326499       1.13103512      12.65233746  F        1        2      -0.50535225       0.21519961      -0.22204666
O        0.28787265       1.76346018      14.95372921  F        1        2       0.44936399      -0.24858187      -0.38880566
O        3.24976236       0.63242506      16.25840413  F        1        2      -0.23077296      -0.47252687       0.00824421
O        0.78931236       3.62919935      13.15069587  F        1        2       0.42584606       0.28597418       0.53103831
O        2.74832265       2.49816423      14.45537079  F        1        2       0.00786604       0.39138403      -0.74571110
O       -1.07718501       3.13058929      16.75676254  F        1        2       0.09526653       0.45041151       0.23112723
Si       2.32032383       0.00781475      17.46543743  T        0        1      -0.00590353      -0.00278373      -0.02856049
Si      -1.16730447       1.93523572      21.15042968  T        0        1      -0.00721120      -0.03306501       0.01746195
Si       1.32249263       2.27752936      19.31529518  T        0        1      -0.00157030      -0.00226371       0.00321752
O        1.38888885       1.15930320      18.11280381  T        1        1      -0.00726870       0.00823699       0.00504276
O        0.30214219       1.79917102      20.47201795  T        1        1       0.01496315      -0.00344584      -0.02342915
O        3.18394637       0.54278562      21.80269370  T        1        1      -0.00414008      -0.02890196      -0.01815245
O        0.82266723       3.65344224      18.60287086  T        1        1       0.01171406      -0.02166339       0.02424604
O        2.78898557       2.53591200      19.96559078  T        1        1      -0.01384507      -0.01443364      -0.00344820
O       -1.20713039       2.64340564      22.62406194  T        1        1       0.00272940      -0.05144840       0.00788257
Si       7.23815181       0.00000000      12.00000000  F        0        2      -0.13363896      -0.36644365      -1.70135463
Si       3.76227409       2.00679893      15.60606667  F        0        2      -0.13156803       0.05569215       1.26938333
Si       6.22272410       2.25482548      13.80303333  F        0        2       0.03352214      -0.16134041       1.03386442
O        6.30416499       1.13103512      12.65233746  F        1        2      -0.50535224       0.21519959      -0.22204669
O        5.20877265       1.76346018      14.95372921  F        1        2       0.44936376      -0.24858184      -0.38880557
O        8.17066236       0.63242506      16.25840413  F        1        2      -0.23077290      -0.47252679       0.00824416
O        5.71021236       3.62919935      13.15069587  F        1        2       0.42584605       0.28597420       0.53103828
O        7.66922265       2.49816423      14.45537079  F        1        2       0.00786617       0.39138399      -0.74571099
O        3.84371499       3.13058929      16.75676254  F        1        2       0.09526649       0.45041149       0.23112721
Si       7.24122383       0.00781475      17.46543743  T        0        1      -0.00590353      -0.00278372      -0.02856048
Si       3.75359553       1.93523572      21.15042968  T        0        1      -0.00721116      -0.03306502       0.01746194
Si       6.24339263       2.27752936      19.31529518  T        0        1      -0.00157029      -0.00226370       0.00321749
O        6.30978885       1.15930320      18.11280381  T        1        1      -0.00726870       0.00823698       0.00504276
O        5.22304219       1.79917102      20.47201795  T        1        1       0.01496309      -0.00344585      -0.02342911
O        8.10484637       0.54278562      21.80269370  T        1        1      -0.00414008      -0.02890196      -0.01815245
O        5.74356723       3.65344224      18.60287086  T        1        1       0.01171406      -0.02166339       0.02424604
O        7.70988557       2.53591200      19.96559078  T        1        1      -0.01384505      -0.01443364      -0.00344819
O        3.71376961       2.64340564      22.62406194  T        1        1       0.00272940      -0.05144840       0.00788257
36
Lattice="9.8418 0.0 0.0 -2.460449999999999 4.261624409482844 0.0 0.0 -0.0 34.16586254" Properties=species:S:1:pos:R:3:move_mask:L:1:spacegroup_kinds:I:1:tags:I:1:forces:R:3 spacegroup="P 32 2 1" unit_cell=conventional energy=-266.0712904940805 pbc="T T F"
Si       2.31725181       0.00000000      12.00000000  F        0        2      -0.13366481      -0.36684261      -1.70278197
Si      -1.15862590       2.00679893      15.60606667  F        0        2      -0.13102656       0.05444826       1.26606676
Si       1.30182410       2.25482548      13.80303333  F        0        2       0.03314792      -0.16141891       1.03234487
O        1.38326499       1.13103512      12.65233746  F        1        2      -0.50598688       0.21587763      -0.22123294
O        0.28787265       1.76346018      14.95372921  F        1        2       0.44826883      -0.24826704      -0.38799158
O        3.24976236       0.63242506      16.25840413  F        1        2      -0.21889628      -0.47265794      -0.00123931
O        0.78931236       3.62919935      13.15069587  F        1        2       0.42668347       0.28559381       0.53229850
O        2.74832265       2.49816423      14.45537079  F        1        2       0.00852878       0.39085719      -0.74389636
O       -1.07718501       3.13058929      16.75676254  F        1        2       0.08744114       0.43308560       0.21869990
Si       2.32084085       0.00684358      17.46434177  T        0        1       0.01051335       0.00404127       0.05068843
Si      -1.16779621       1.92681763      21.15012964  T        0        1       0.01733475      -0.01606178      -0.04114511
Si       1.32213091       2.27528915      19.31513431  T        0        1       0.00791294      -0.01089097      -0.00776282
O        1.38883947       1.15898243      18.11149135  T        1        1       0.01453095      -0.02669724      -0.02107940
O        0.30191584       1.79349972      20.46892074  T        1        1      -0.04789889      -0.00998074       0.02698192
O        3.18493527       0.53261182      21.79827255  T        1        1      -0.01020061      -0.04158749      -0.01273854
O        0.82315589       3.65113283      18.60391830  T        1        1      -0.03392668       0.03335990      -0.03389827
O        2.78776110       2.53175146      19.96674806  T        1        1       0.02480155      -0.02080297       0.02938366
O       -1.20588519       2.62944234      22.62597706  T        1        1       0.00243684      -0.04205601       0.01730219
Si       7.23815181       0.00000000      12.00000000  F        0        2      -0.13366480      -0.36684260      -1.70278194
Si       3.76227409       2.00679893      15.60606667  F        0        2      -0.13102607       0.05444828       1.26606675
Si       6.22272410       2.25482548      13.80303333  F        0        2       0.03314791      -0.16141892       1.03234494
O        6.30416499       1.13103512      12.65233746  F        1        2      -0.50598687       0.21587761      -0.22123297
O        5.20877265       1.76346018      14.95372921  F        1        2       0.44826859      -0.24826701      -0.38799149
O        8.17066236       0.63242506      16.25840413  F        1        2      -0.21889623      -0.47265786      -0.00123935
O        5.71021236       3.62919935      13.15069587  F        1        2       0.42668346       0.28559384       0.53229847
O        7.66922265       2.49816423      14.45537079  F        1        2       0.00852892       0.39085715      -0.74389625
O        3.84371499       3.13058929      16.75676254  F        1        2       0.08744111       0.43308558       0.21869989
Si       7.24174085       0.00684358      17.46434177  T        0        1       0.01051335       0.00404126       0.05068841
Si       3.75310379       1.92681763      21.15012964  T        0        1       0.01733470      -0.01606177      -0.04114510
Si       6.24303091       2.27528915      19.31513431  T        0        1       0.00791291      -0.01089098      -0.00776279
O        6.30973947       1.15898243      18.11149136  T        1        1       0.01453094      -0.02669723      -0.02107939
O        5.22281584       1.79349972      20.46892074  T        1        1      -0.04789880      -0.00998073       0.02698186
O        8.10583527       0.53261182      21.79827255  T        1        1      -0.01020061      -0.04158749      -0.01273854
O        5.74405589       3.65113283      18.60391830  T        1        1      -0.03392668       0.03335990      -0.03389826
O        7.70866110       2.53175146      19.96674806  T        1        1       0.02480153      -0.02080297       0.02938365
O        3.71501481       2.62944234      22.62597706  T        1        1       0.00243684      -0.04205601       0.01730219
36
Lattice="9.8418 0.0 0.0 -2.460449999999999 4.261624409482844 0.0 0.0 -0.0 34.16586254" Properties=species:S:1:pos:R:3:move_mask:L:1:spacegroup_kinds:I:1:tags:I:1:forces:R:3 spacegroup="P 32 2 1" unit_cell=conventional energy=-266.0740716966304 pbc="T T F"
Si       2.31725181       0.00000000      12.00000000  F        0        2      -0.13352134      -0.36616439      -1.69988960
Si      -1.15862590       2.00679893      15.60606667  F        0        2      -0.13191462       0.05214892       1.27297681
Si       1.30182410       2.25482548      13.80303333  F        0        2       0.03327028      -0.16167984       1.03593809
O        1.38326499       1.13103512      12.65233746  F        1        2      -0.50484502       0.21448044      -0.22298436
O        0.28787265       1.76346018      14.95372921  F        1        2       0.45019642      -0.24749865      -0.39135875
O        3.24976236       0.63242506      16.25840413  F        1        2      -0.22035292      -0.48086155       0.01004430
O        0.78931236       3.62919935      13.15069587  F        1        2       0.42516540       0.28646716       0.52983979
O        2.74832265       2.49816423      14.45537079  F        1        2       0.00763152       0.39118804      -0.74642842
O       -1.07718501       3.13058929      16.75676254  F        1        2       0.09528751       0.43523144       0.22508134
Si       2.32188824       0.00607451      17.46579772  T        0        1      -0.01249741      -0.01016344      -0.08104483
Si      -1.16741552       1.91757774      21.14775660  T        0        1      -0.04616606      -0.04466284       0.09079346
Si       1.32216722       2.27249697      19.31458217  T        0        1      -0.02035433       0.00688868       0.00788150
O        1.38952196       1.15731639      18.10911510  T        1        1      -0.02388050       0.04730576       0.03896649
O        0.29927639       1.78731710      20.46717797  T        1        1       0.08427406       0.00463060      -0.06111939
O        3.18541185       0.52032779      21.79320304  T        1        1       0.00206138      -0.00978955      -0.03018264
O        0.82193634       3.65050032      18.60325981  T        1        1       0.05012451      -0.06544891       0.07095811
O        2.78778407       2.52653674      19.96938720  T        1        1      -0.05503959       0.00211053      -0.03233881
O       -1.20451535       2.61333947      22.62876661  T        1        1       0.00056048      -0.05418242      -0.01713319
Si       7.23815181       0.00000000      12.00000000  F        0        2      -0.13352134      -0.36616438      -1.69988958
Si       3.76227409       2.00679893      15.60606667  F        0        2      -0.13191412       0.05214894       1.27297680
Si       6.22272410       2.25482548      13.80303333  F        0        2       0.03327028      -0.16167985       1.03593816
O        6.30416499       1.13103512      12.65233746  F        1        2      -0.50484501       0.21448042      -0.22298439
O        5.20877265       1.76346018      14.95372921  F        1        2       0.45019619      -0.24749862      -0.39135866
O        8.17066236       0.63242506      16.25840413  F        1        2      -0.22035286      -0.48086147       0.01004425
O        5.71021236       3.62919935      13.15069587  F        1        2       0.42516539       0.28646719       0.52983976
O        7.66922265       2.49816423      14.45537079  F        1        2       0.00763166       0.39118800      -0.74642831
O        3.84371499       3.13058929      16.75676254  F        1        2       0.09528747       0.43523142       0.22508132
Si       7.24278824       0.00607451      17.46579772  T        0        1      -0.01249740      -0.01016343      -0.08104479
Si       3.75348448       1.91757774      21.14775660  T        0        1      -0.04616596      -0.04466286       0.09079344
Si       6.24306722       2.27249697      19.31458217  T        0        1      -0.02035429       0.00688869       0.00788144
O        6.31042196       1.15731639      18.10911510  T        1        1      -0.02388048       0.04730574       0.03896647
O        5.22017639       1.78731710      20.46717797  T        1        1       0.08427392       0.00463058      -0.06111930
O        8.10631185       0.52032779      21.79320304  T        1        1       0.00206138      -0.00978955      -0.03018263
O        5.74283634       3.65050032      18.60325981  T        1        1       0.05012449      -0.06544889       0.07095809
O        7.70868407       2.52653674      19.96938720  T        1        1      -0.05503956       0.00211052      -0.03233878
O        3.71638465       2.61333947      22.62876661  T        1        1       0.00056048      -0.05418241      -0.01713319
36
Lattice="9.8418 0.0 0.0 -2.460449999999999 4.261624409482844 0.0 0.0 -0.0 34.16586254" Properties=species:S:1:pos:R:3:move_mask:L:1:spacegroup_kinds:I:1:tags:I:1:forces:R:3 spacegroup="P 32 2 1" unit_cell=conventional energy=-266.07550279379404 pbc="T T F"
Si       2.31725181       0.00000000      12.00000000  F        0        2      -0.13364808      -0.36741665      -1.70443864
Si      -1.15862590       2.00679893      15.60606667  F        0        2      -0.12983133       0.05247118       1.26282403
Si       1.30182410       2.25482548      13.80303333  F        0        2       0.03236187      -0.16175670       1.03139185
O        1.38326499       1.13103512      12.65233746  F        1        2      -0.50685386       0.21666532      -0.22043827
O        0.28787265       1.76346018      14.95372921  F        1        2       0.44711334      -0.24739832      -0.38808205
O        3.24976236       0.63242506      16.25840413  F        1        2      -0.19892932      -0.47743992      -0.01156792
O        0.78931236       3.62919935      13.15069587  F        1        2       0.42781948       0.28521473       0.53373156
O        2.74832265       2.49816423      14.45537079  F        1        2       0.00920055       0.38980730      -0.74174387
O       -1.07718501       3.13058929      16.75676254  F        1        2       0.07779306       0.40502492       0.20010342
Si       2.32227954       0.00476783      17.46298571  T        0        1       0.02641213       0.01727099       0.16314926
Si      -1.16946713       1.90596074      21.15016304  T        0        1       0.08514581       0.02699017      -0.20531898
Si       1.32113082       2.27006089      19.31444406  T        0        1       0.02978658      -0.01567992      -0.00509559
O        1.38894750       1.15813951      18.10878671  T        1        1       0.05236361      -0.09364143      -0.07870702
O        0.30107215       1.78136309      20.46220945  T        1        1      -0.18605930      -0.03000025       0.13235627
O        3.18599827       0.50749711      21.78653005  T        1        1      -0.02509981      -0.08129796       0.00632263
O        0.82335563       3.64641664      18.60633963  T        1        1      -0.09803583       0.12187427      -0.12573090
O        2.78490616       2.52142023      19.97032846  T        1        1       0.09108261      -0.03104310       0.08661305
O       -1.20311256       2.59434061      22.63066010  T        1        1      -0.00062170      -0.00964467       0.06463112
Si       7.23815181       0.00000000      12.00000000  F        0        2      -0.13364808      -0.36741665      -1.70443861
Si       3.76227409       2.00679893      15.60606667  F        0        2      -0.12983083       0.05247121       1.26282403
Si       6.22272410       2.25482548      13.80303333  F        0        2       0.03236187      -0.16175672       1.03139192
O        6.30416499       1.13103512      12.65233746  F        1        2      -0.50685385       0.21666530      -0.22043830
O        5.20877265       1.76346018      14.95372921  F        1        2       0.44711311      -0.24739829      -0.38808196
O        8.17066236       0.63242506      16.25840413  F        1        2      -0.19892926      -0.47743984      -0.01156796
O        5.71021236       3.62919935      13.15069587  F        1        2       0.42781947       0.28521475       0.53373153
O        7.66922265       2.49816423      14.45537079  F        1        2       0.00920068       0.38980726      -0.74174376
O        3.84371499       3.13058929      16.75676254  F        1        2       0.07779304       0.40502491       0.20010342
Si       7.24317954       0.00476783      17.46298571  T        0        1       0.02641213       0.01727096       0.16314918
Si       3.75143287       1.90596074      21.15016304  T        0        1       0.08514564       0.02699020      -0.20531896
Si       6.24203082       2.27006089      19.31444406  T        0        1       0.02978650      -0.01567995      -0.00509550
O        6.30984750       1.15813951      18.10878671  T        1        1       0.05236358      -0.09364138      -0.07870698
O        5.22197215       1.78136309      20.46220945  T        1        1      -0.18605906      -0.03000021       0.13235610
O        8.10689827       0.50749711      21.78653005  T        1        1      -0.02509981      -0.08129796       0.00632262
O        5.74425563       3.64641664      18.60633963  T        1        1      -0.09803580       0.12187423      -0.12573085
O        7.70580616       2.52142023      19.97032846  T        1        1       0.09108255      -0.03104309       0.08661301
O        3.71778744       2.59434061      22.63066010  T        1        1      -0.00062171      -0.00964467       0.06463112
36
Lattice="9.8418 0.0 0.0 -2.460449999999999 4.261624409482844 0.0 0.0 -0.0 34.16586254" Properties=species:S:1:pos:R:3:move_mask:L:1:spacegroup_kinds:I:1:tags:I:1:forces:R:3 spacegroup="P 32 2 1" unit_cell=conventional energy=-266.07803891334174 pbc="T T F"
Si       2.31725181       0.00000000      12.00000000  F        0        2      -0.13354950      -0.36665471      -1.70157011
Si      -1.15862590       2.00679893      15.60606667  F        0        2      -0.13095693       0.05135428       1.26918351
Si       1.30182410       2.25482548      13.80303333  F        0        2       0.03273812      -0.16181632       1.03439092
O        1.38326499       1.13103512      12.65233746  F        1        2      -0.50561639       0.21528761      -0.22206245
O        0.28787265       1.76346018      14.95372921  F        1        2       0.44899092      -0.24713930      -0.39056761
O        3.24976236       0.63242506      16.25840413  F        1        2      -0.20814694      -0.48288856       0.00253615
O        0.78931236       3.62919935      13.15069587  F        1        2       0.42620635       0.28602125       0.53130606
O        2.74832265       2.49816423      14.45537079  F        1        2       0.00832910       0.39047271      -0.74438885
O       -1.07718501       3.13058929      16.75676254  F        1        2       0.08826971       0.41805159       0.21315964
Si       2.32255802       0.00494993      17.46470589  T        0        1       0.00372924       0.00017221       0.01539903
Si      -1.16856939       1.90624532      21.14799824  T        0        1       0.00062767      -0.01707579      -0.01972122
Si       1.32144488       2.26989556      19.31439033  T        0        1      -0.00307640      -0.00462781       0.00708957
O        1.38949960       1.15715220      18.10795685  T        1        1       0.00626763      -0.00732535      -0.00612048
O        0.29911042       1.78104678      20.46360496  T        1        1      -0.01809385      -0.01001274       0.01377323
O        3.18573363       0.50663994      21.78659672  T        1        1      -0.00621466      -0.03241869      -0.01779491
O        0.82232199       3.64770163      18.60501398  T        1        1      -0.00922159       0.01153028      -0.00977172
O        2.78586649       2.52109293      19.97124168  T        1        1       0.00134890      -0.00711010       0.01376068
O       -1.20311911       2.59423892      22.63134154  T        1        1      -0.00163159      -0.03582060       0.01139847
Si       7.23815181       0.00000000      12.00000000  F        0        2      -0.13354950      -0.36665470      -1.70157008
Si       3.76227409       2.00679893      15.60606667  F        0        2      -0.13095643       0.05135431       1.26918350
Si       6.22272410       2.25482548      13.80303333  F        0        2       0.03273811      -0.16181633       1.03439100
O        6.30416499       1.13103512      12.65233746  F        1        2      -0.50561638       0.21528759      -0.22206248
O        5.20877265       1.76346018      14.95372921  F        1        2       0.44899068      -0.24713927      -0.39056752
O        8.17066236       0.63242506      16.25840413  F        1        2      -0.20814688      -0.48288848       0.00253611
O        5.71021236       3.62919935      13.15069587  F        1        2       0.42620633       0.28602127       0.53130603
O        7.66922265       2.49816423      14.45537079  F        1        2       0.00832924       0.39047267      -0.74438875
O        3.84371499       3.13058929      16.75676254  F        1        2       0.08826968       0.41805157       0.21315963
Si       7.24345802       0.00494993      17.46470589  T        0        1       0.00372924       0.00017221       0.01539902
Si       3.75233061       1.90624532      21.14799824  T        0        1       0.00062765      -0.01707578      -0.01972122
Si       6.24234488       2.26989556      19.31439033  T        0        1      -0.00307641      -0.00462781       0.00708959
O        6.31039960       1.15715220      18.10795686  T        1        1       0.00626762      -0.00732535      -0.00612047
O        5.22001042       1.78104678      20.46360496  T        1        1      -0.01809382      -0.01001274       0.01377321
O        8.10663363       0.50663994      21.78659672  T        1        1      -0.00621466      -0.03241869      -0.01779491
O        5.74322199       3.64770163      18.60501398  T        1        1      -0.00922158       0.01153027      -0.00977172
O        7.70676649       2.52109293      19.97124167  T        1        1       0.00134889      -0.00711009       0.01376067
O        3.71778089       2.59423892      22.63134154  T        1        1      -0.00163159      -0.03582060       0.01139847
