9
Lattice="24.0 0.0 0.0 0.0 24.0 0.0 0.0 0.0 24.0" Properties=species:S:1:pos:R:3:move_mask:L:1:forces:R:3 charge_spin="0 1" energy=-12183.537814117968 pbc="F F F"
Si       0.00000000       0.00000000       0.00000000  F       0.00117988       0.00277254      -0.49957183
H        1.39535738       0.00000000      -0.49333333  F      -0.10845639      -0.00083360       0.16538903
H       -0.69767869       1.20841494      -0.49333333  F       0.05344348      -0.09377426       0.16117848
H       -0.69767869      -1.20841494      -0.49333333  F       0.05458992       0.09393512       0.17055789
N       -0.00070298      -0.11518281       5.00688953  T       0.00030109      -0.00318021      -0.00567186
H        0.81505237       0.38304893       5.34060902  T       0.00161272       0.00083333       0.00176901
H       -0.81626085       0.38320405       5.34087881  T      -0.00131886       0.00084174       0.00114557
F        0.00039946       0.00387669       1.60994397  T      -0.00082009       0.00029962       0.00209693
H       -0.00074955      -0.05764707       3.99494159  T      -0.00053171      -0.00089422       0.00310676
