9
Lattice="24.0 0.0 0.0 0.0 24.0 0.0 0.0 0.0 24.0" Properties=species:S:1:pos:R:3:move_mask:L:1:forces:R:3 charge_spin="0 1" energy=-12182.785415798426 pbc="F F F"
Si       0.00000000       0.00000000       0.00000000  F      -0.01060027      -0.00000097       0.40211225
H        1.39535738       0.00000000      -0.49333333  F       0.10742022       0.00000009      -0.10111959
H       -0.69767869       1.20841494      -0.49333333  F      -0.04526605      -0.04808308      -0.13922714
H       -0.69767869      -1.20841494      -0.49333333  F      -0.04526613       0.04808358      -0.13922751
N        0.14214076      -0.00000036       1.70467552  T       0.00388694       0.00000017      -0.00040916
H        1.03454150       0.00000026       2.16996163  T       0.00062236       0.00000018      -0.00099336
H       -0.63304664      -0.00000013       2.34232181  T      -0.00487530      -0.00000001       0.00080859
F        3.19327808       0.00000037       2.15817202  T       0.00038788       0.00000003      -0.00884972
H        3.20924959      -0.00000021       1.23133050  T      -0.00630968      -0.00000000      -0.01309436
9
Lattice="24.0 0.0 0.0 0.0 24.0 0.0 0.0 0.0 24.0" Properties=species:S:1:pos:R:3:move_mask:L:1:forces:R:3 charge_spin="0 1" energy=-12182.639782875776 pbc="F F F"
Si       0.00000000       0.00000000       0.00000000  F      -0.02135180      -0.18638299       0.65874505
H        1.39535738       0.00000000      -0.49333333  F      -0.03754653       0.10188538       0.04375095
H       -0.69767869       1.20841494      -0.49333333  F       0.06189517       0.03501748      -0.08211312
H       -0.69767869      -1.20841494      -0.49333333  F      -0.02093814       0.07212159      -0.03944246
N       -0.07005429      -0.17867700       1.73119218  T      -0.01753725      -0.22857669       0.01265812
H        0.42794966       0.35229557       2.44102340  T      -0.33543161      -0.19615622      -0.50971371
H       -0.76684381      -0.81562516       2.10928756  T       0.38268226       0.40382937      -0.03922528
F        3.16037735      -1.43434548       3.09894468  T      -0.02740189       0.00437461       0.08836634
H        2.32996701      -1.46146995       3.50678024  T       0.01562981      -0.00611242      -0.13302583
9
Lattice="24.0 0.0 0.0 0.0 24.0 0.0 0.0 0.0 24.0" Properties=species:S:1:pos:R:3:move_mask:L:1:forces:R:3 charge_spin="0 1" energy=-12182.111641287804 pbc="F F F"
Si       0.00000000       0.00000000       0.00000000  F       0.89919531      -1.66069293       0.09851131
H        1.39535738       0.00000000      -0.49333333  F      -0.07242209       0.15511578      -0.42188713
H       -0.69767869       1.20841494      -0.49333333  F      -0.06783687       0.08105639       0.33665824
H       -0.69767869      -1.20841494      -0.49333333  F      -0.05750800       0.06960503      -0.01792450
N        0.30355579      -0.05758073       1.76230902  T      -0.55074281      -1.07837713      -1.51737332
H        0.03700226       0.90150422       1.76676056  T      -0.37831438       1.14639974       2.23075366
H       -0.24002802      -0.70426345       2.37191133  T       0.33792746       1.32207203      -0.74733424
F        4.19602766       0.49910571       1.76443237  T      -0.35330284      -0.04983601      -0.15990615
H        3.34201419       0.35013206       1.42357892  T       0.24300432       0.01465699       0.19850211
9
Lattice="24.0 0.0 0.0 0.0 24.0 0.0 0.0 0.0 24.0" Properties=species:S:1:pos:R:3:move_mask:L:1:forces:R:3 charge_spin="0 1" energy=-12182.417557656765 pbc="F F F"
Si       0.00000000       0.00000000       0.00000000  F      -1.68556476      -0.14400472       0.93939435
H        1.39535738       0.00000000      -0.49333333  F       0.17048082       0.10529314       0.39945436
H       -0.69767869       1.20841494      -0.49333333  F       0.19867343       0.07969759      -0.07708856
H       -0.69767869      -1.20841494      -0.49333333  F       0.28318352       0.00053631      -0.32142335
N       -0.44879057      -0.17415879       1.69653043  T       0.63685060      -1.43220329       0.18263116
H       -0.39724345      -1.14610458       2.04139451  T      -0.02985211       0.68777311      -0.61291713
H       -0.55534664       0.36378684       2.54416669  T       0.28933951       0.77660811      -0.65848994
F        2.80424972      -0.15297478       1.98298112  T       0.17725995       0.01988515       0.06114183
H        2.14045241       0.36333368       1.59461385  T      -0.04037102      -0.09358556       0.08729722
9
Lattice="24.0 0.0 0.0 0.0 24.0 0.0 0.0 0.0 24.0" Properties=species:S:1:pos:R:3:move_mask:L:1:forces:R:3 charge_spin="0 1" energy=-12183.122785642743 pbc="F F F"
Si       0.00000000       0.00000000       0.00000000  F       0.52268010      -0.13122401      -0.12621704
H        1.39535738       0.00000000      -0.49333333  F      -0.11992528       0.04193816      -0.17290303
H       -0.69767869       1.20841494      -0.49333333  F      -0.01834729      -0.06423692       0.34303093
H       -0.69767869      -1.20841494      -0.49333333  F       0.10529712       0.10659837       0.23230711
N       -2.05753163      -1.24195942       1.99831525  T       0.69509792       1.50756240       2.13062978
H       -1.31068785      -1.95238988       1.86182894  T      -1.01316035       0.65816420       0.47932109
H       -2.93233476      -1.66869947       2.38905009  T       1.46551299       0.50644779      -0.34990156
F        0.25308875       0.00147891       1.61022533  T      -0.13764125       0.16972113      -0.42097232
H       -1.64352135      -0.46431801       2.70570019  T      -1.49951410      -2.79497123      -2.11529541
9
Lattice="24.0 0.0 0.0 0.0 24.0 0.0 0.0 0.0 24.0" Properties=species:S:1:pos:R:3:move_mask:L:1:forces:R:3 charge_spin="0 1" energy=-12176.060405224562 pbc="F F F"
Si       0.00000000       0.00000000       0.00000000  F       2.25243998       0.56924903       1.59538078
H        1.39535738       0.00000000      -0.49333333  F      -0.22388515       0.49269462      -0.10462415
H       -0.69767869       1.20841494      -0.49333333  F      -0.66238761       2.89010501      -2.60399222
H       -0.69767869      -1.20841494      -0.49333333  F      -0.94797730       0.04557225      -1.82968569
N       -0.01635236      -1.07180751       1.26427553  T      -0.90649861      -3.71833229       3.40189290
H        0.34379654      -1.96888986       1.65823037  T      -0.38347599       1.38899720      -1.06768966
H       -0.29795020       2.00914757      -1.72978450  T      -0.56169540      -1.06359541       1.62353659
F       -0.60860291       1.06681420       1.44867516  T       0.38550586       0.51060545      -2.35735440
H       -1.05058487      -0.95321221       1.34744050  T       1.04797435      -1.11529589       1.34253645
9
Lattice="24.0 0.0 0.0 0.0 24.0 0.0 0.0 0.0 24.0" Properties=species:S:1:pos:R:3:move_mask:L:1:forces:R:3 charge_spin="0 1" energy=-12182.717002004385 pbc="F F F"
Si       0.00000000       0.00000000       0.00000000  F       1.17150033       0.91580480       0.09457612
H        1.39535738       0.00000000      -0.49333333  F      -0.18736410      -0.31872618      -1.23002458
H       -0.69767869       1.20841494      -0.49333333  F      -0.00089754      -0.17187336       0.15868720
H       -0.69767869      -1.20841494      -0.49333333  F       0.68020070      -0.25141630      -0.45162153
N       -1.75987288      -0.65197579       1.35699687  T       0.48704779       0.67717052      -0.65501583
H       -1.28292745      -1.52605589       1.36344782  T       0.07274686      -0.47644883       0.98528314
H       -2.58651683      -0.76781966       0.79455638  T      -0.34856263       0.45574695       0.40843472
F        0.77393594       0.34425027       1.44255850  T      -1.43820333      -0.39523041       0.43786252
H       -1.75354543      -0.06262810       2.17231700  T      -0.43646756      -0.43502709       0.25181830
9
Lattice="24.0 0.0 0.0 0.0 24.0 0.0 0.0 0.0 24.0" Properties=species:S:1:pos:R:3:move_mask:L:1:forces:R:3 charge_spin="0 1" energy=-12183.307874560356 pbc="F F F"
Si       0.00000000       0.00000000       0.00000000  F      -0.42609036       0.39282745      -1.08950806
H        1.39535738       0.00000000      -0.49333333  F      -0.03338865      -0.05364340       0.32827401
H       -0.69767869       1.20841494      -0.49333333  F       0.09953791      -0.10451810      -0.11663838
H       -0.69767869      -1.20841494      -0.49333333  F       0.11598906       0.02617939       0.24806139
N       -2.05870617      -0.58612371       3.15851661  T       0.25234082       0.08101779       0.83218932
H       -2.24856667      -0.92299877       4.09972712  T      -0.78756720       0.24087533      -0.03083957
H       -2.22845544       0.42494840       3.13575874  T      -0.15323167      -0.48531514       0.15869707
F       -0.12709377       0.14416563       1.58351805  T       0.64845812      -0.05281624       0.23361391
H       -1.05195127      -0.63737085       3.19623587  T       0.28395188      -0.04460682      -0.56384981
9
Lattice="24.0 0.0 0.0 0.0 24.0 0.0 0.0 0.0 24.0" Properties=species:S:1:pos:R:3:move_mask:L:1:forces:R:3 charge_spin="0 1" energy=-12183.458330854774 pbc="F F F"
Si       0.00000000       0.00000000       0.00000000  F      -0.70167327       0.00111033      -0.13823825
H        1.39535738       0.00000000      -0.49333333  F      -0.03708071       0.00175342       0.43981645
H       -0.69767869       1.20841494      -0.49333333  F       0.14141019      -0.07173202       0.05830091
H       -0.69767869      -1.20841494      -0.49333333  F       0.14191799       0.07528778       0.07245045
N       -0.78724591      -0.54976051       4.40290153  T       0.06461430       0.09248883       0.21029818
H       -0.94896127      -0.25784242       5.36558668  T       0.22407466      -0.12688193      -0.22255048
H       -1.15644473       0.17775943       3.80824057  T      -0.10041200       0.02541310      -0.13940415
F       -0.19702030       0.00501512       1.61409049  T       0.47816074       0.01793547      -0.47775543
H        0.21249850      -0.57216571       4.21477303  T      -0.21101187      -0.01537508       0.19708252
9
Lattice="24.0 0.0 0.0 0.0 24.0 0.0 0.0 0.0 24.0" Properties=species:S:1:pos:R:3:move_mask:L:1:forces:R:3 charge_spin="0 1" energy=-12183.502944849432 pbc="F F F"
Si       0.00000000       0.00000000       0.00000000  F      -0.09204496      -0.00450343      -0.45723182
H        1.39535738       0.00000000      -0.49333333  F      -0.09708419       0.00090892       0.22320503
H       -0.69767869       1.20841494      -0.49333333  F       0.06511354      -0.08781056       0.16523376
H       -0.69767869      -1.20841494      -0.49333333  F       0.06534787       0.09010012       0.17160127
N       -0.02443261      -0.29542206       4.72568831  T      -0.04917675      -0.15640104      -0.24074987
H        0.36008293       0.25191721       5.48680528  T       0.11533356       0.00824749      -0.21930760
H       -0.84463058       0.17608999       4.37753369  T      -0.31121641       0.12353367       0.13898401
F       -0.02750035       0.00274111       1.61301970  T       0.06271550       0.00241958      -0.08369812
H        0.59613512      -0.30123691       3.92316994  T       0.24101198       0.02350509       0.30196336
9
Lattice="24.0 0.0 0.0 0.0 24.0 0.0 0.0 0.0 24.0" Properties=species:S:1:pos:R:3:move_mask:L:1:forces:R:3 charge_spin="0 1" energy=-12183.537814117968 pbc="F F F"
Si       0.00000000       0.00000000       0.00000000  F       0.00117988       0.00277254      -0.49957183
H        1.39535738       0.00000000      -0.49333333  F      -0.10845639      -0.00083360       0.16538903
H       -0.69767869       1.20841494      -0.49333333  F       0.05344348      -0.09377426       0.16117848
H       -0.69767869      -1.20841494      -0.49333333  F       0.05458992       0.09393512       0.17055789
N       -0.00070298      -0.11518281       5.00688953  T       0.00030109      -0.00318021      -0.00567186
H        0.81505237       0.38304893       5.34060902  T       0.00161272       0.00083333       0.00176901
H       -0.81626085       0.38320405       5.34087881  T      -0.00131886       0.00084174       0.00114557
F        0.00039946       0.00387669       1.60994397  T      -0.00082009       0.00029962       0.00209693
H       -0.00074955      -0.05764707       3.99494159  T      -0.00053171      -0.00089422       0.00310676
