9
Lattice="24.0 0.0 0.0 0.0 24.0 0.0 0.0 0.0 24.0" Properties=species:S:1:pos:R:3:move_mask:L:1:forces:R:3 charge_spin="0 1" energy=-12182.785415798426 pbc="F F F"
Si       0.00000000       0.00000000       0.00000000  F      -0.01060027      -0.00000097       0.40211225
H        1.39535738       0.00000000      -0.49333333  F       0.10742022       0.00000009      -0.10111959
H       -0.69767869       1.20841494      -0.49333333  F      -0.04526605      -0.04808308      -0.13922714
H       -0.69767869      -1.20841494      -0.49333333  F      -0.04526613       0.04808358      -0.13922751
N        0.14214076      -0.00000036       1.70467552  T       0.00388694       0.00000017      -0.00040916
H        1.03454150       0.00000026       2.16996163  T       0.00062236       0.00000018      -0.00099336
H       -0.63304664      -0.00000013       2.34232181  T      -0.00487530      -0.00000001       0.00080859
F        3.19327808       0.00000037       2.15817202  T       0.00038788       0.00000003      -0.00884972
H        3.20924959      -0.00000021       1.23133050  T      -0.00630968      -0.00000000      -0.01309436
