41
Lattice="11.518769465528859 0.0 0.0 0.0 7.679179643685906 0.0 0.0 0.0 30.7875" Properties=species:S:1:pos:R:3:move_mask:L:1:tags:I:1:forces:R:3 surface=Si100 species=CH3F site=atop_Si orientation=parallel height_A=6.5 substrate_atoms=36 calculation_kind="Rigid evaluated approach scan; not NEB" energy=-204.25090419172574 pbc="T T F"
Si       0.00000000       0.00000000      12.00000000  F        6      -0.00000004       0.00000000       0.24903484
Si       3.83958982       0.00000000      12.00000000  F        6      -0.00000000       0.00000000       0.24903482
Si       7.67917964       0.00000000      12.00000000  F        6       0.00000000       0.00000000       0.24903482
Si       0.00000000       3.83958982      12.00000000  F        6      -0.00000004      -0.00000000       0.24903484
Si       3.83958982       3.83958982      12.00000000  F        6      -0.00000000      -0.00000000       0.24903482
Si       7.67917964       3.83958982      12.00000000  F        6       0.00000000      -0.00000000       0.24903482
Si       1.91979491       0.00000000      13.35750000  F        5       0.00000000      -0.00000002      -0.52822352
Si       5.75938473       0.00000000      13.35750000  F        5       0.00000000      -0.00000002      -0.52822353
Si       9.59897455       0.00000000      13.35750000  F        5       0.00000003      -0.00000002      -0.52822354
Si       1.91979491       3.83958982      13.35750000  F        5       0.00000000       0.00000000      -0.52822354
Si       5.75938473       3.83958982      13.35750000  F        5       0.00000000       0.00000000      -0.52822354
Si       9.59897455       3.83958982      13.35750000  F        5       0.00000003       0.00000000      -0.52822356
Si       1.91979491       1.91979491      14.71500000  F        4      -0.00000000       0.00000000       0.14537709
Si       5.75938473       1.91979491      14.71500000  F        4       0.00000000       0.00000000       0.14537709
Si       9.59897455       1.91979491      14.71500000  F        4       0.00000004       0.00000000       0.14537711
Si       1.91979491       5.75938473      14.71500000  F        4      -0.00000000       0.00000002       0.14537707
Si       5.75938473       5.75938473      14.71500000  F        4       0.00000000       0.00000002       0.14537707
Si       9.59897455       5.75938473      14.71500000  F        4       0.00000004       0.00000002       0.14537709
Si       0.00000000       1.91979491      16.07250000  F        3      -0.00000004       0.00000000      -0.14537711
Si       3.83958982       1.91979491      16.07250000  F        3      -0.00000000       0.00000000      -0.14537709
Si       7.67917964       1.91979491      16.07250000  F        3       0.00000000       0.00000000      -0.14537709
Si       0.00000000       5.75938473      16.07250000  F        3      -0.00000004       0.00000002      -0.14537709
Si       3.83958982       5.75938473      16.07250000  F        3      -0.00000000       0.00000002      -0.14537707
Si       7.67917964       5.75938473      16.07250000  F        3       0.00000000       0.00000002      -0.14537707
Si       0.00000000       0.00000000      17.43000000  F        2      -0.00000003      -0.00000002       0.52822354
Si       3.83958982       0.00000000      17.43000000  F        2      -0.00000000      -0.00000002       0.52822353
Si       7.67917964       0.00000000      17.43000000  F        2      -0.00000000      -0.00000002       0.52822352
Si       0.00000000       3.83958982      17.43000000  F        2      -0.00000003       0.00000000       0.52822356
Si       3.83958982       3.83958982      17.43000000  F        2      -0.00000000       0.00000000       0.52822354
Si       7.67917964       3.83958982      17.43000000  F        2      -0.00000000       0.00000000       0.52822354
Si       1.91979491       0.00000000      18.78750000  F        1      -0.00000000       0.00000000      -0.24903482
Si       5.75938473       0.00000000      18.78750000  F        1       0.00000000       0.00000000      -0.24903482
Si       9.59897455       0.00000000      18.78750000  F        1       0.00000004       0.00000000      -0.24903484
Si       1.91979491       3.83958982      18.78750000  F        1      -0.00000000      -0.00000000      -0.24903482
Si       5.75938473       3.83958982      18.78750000  F        1       0.00000000      -0.00000000      -0.24903482
Si       9.59897455       3.83958982      18.78750000  F        1       0.00000004      -0.00000000      -0.24903484
F        4.43182983       3.83958982      26.33426642  T        0      -0.00285954      -0.00000000      -0.00000000
C        5.85148196       3.83958982      26.33426642  T        0       0.00319168       0.00000000       0.00000019
H        6.17120395       3.83958982      25.28750000  T        0      -0.00011068       0.00000000       0.00125386
H        6.17120395       4.74611614      26.85764963  T        0      -0.00011073      -0.00108610      -0.00062702
H        6.17120395       2.93306350      26.85764963  T        0      -0.00011073       0.00108610      -0.00062702
41
Lattice="11.518769465528859 0.0 0.0 0.0 7.679179643685906 0.0 0.0 0.0 30.7875" Properties=species:S:1:pos:R:3:move_mask:L:1:tags:I:1:forces:R:3 surface=Si100 species=CH3F site=atop_Si orientation=parallel height_A=5.0 substrate_atoms=36 calculation_kind="Rigid evaluated approach scan; not NEB" energy=-204.25090419172574 pbc="T T F"
Si       0.00000000       0.00000000      12.00000000  F        6      -0.00000004       0.00000000       0.24903484
Si       3.83958982       0.00000000      12.00000000  F        6      -0.00000000       0.00000000       0.24903482
Si       7.67917964       0.00000000      12.00000000  F        6       0.00000000       0.00000000       0.24903482
Si       0.00000000       3.83958982      12.00000000  F        6      -0.00000004      -0.00000000       0.24903484
Si       3.83958982       3.83958982      12.00000000  F        6      -0.00000000      -0.00000000       0.24903482
Si       7.67917964       3.83958982      12.00000000  F        6       0.00000000      -0.00000000       0.24903482
Si       1.91979491       0.00000000      13.35750000  F        5       0.00000000      -0.00000002      -0.52822352
Si       5.75938473       0.00000000      13.35750000  F        5       0.00000000      -0.00000002      -0.52822353
Si       9.59897455       0.00000000      13.35750000  F        5       0.00000003      -0.00000002      -0.52822354
Si       1.91979491       3.83958982      13.35750000  F        5       0.00000000       0.00000000      -0.52822354
Si       5.75938473       3.83958982      13.35750000  F        5       0.00000000       0.00000000      -0.52822354
Si       9.59897455       3.83958982      13.35750000  F        5       0.00000003       0.00000000      -0.52822356
Si       1.91979491       1.91979491      14.71500000  F        4      -0.00000000       0.00000000       0.14537709
Si       5.75938473       1.91979491      14.71500000  F        4       0.00000000       0.00000000       0.14537709
Si       9.59897455       1.91979491      14.71500000  F        4       0.00000004       0.00000000       0.14537711
Si       1.91979491       5.75938473      14.71500000  F        4      -0.00000000       0.00000002       0.14537707
Si       5.75938473       5.75938473      14.71500000  F        4       0.00000000       0.00000002       0.14537707
Si       9.59897455       5.75938473      14.71500000  F        4       0.00000004       0.00000002       0.14537709
Si       0.00000000       1.91979491      16.07250000  F        3      -0.00000004       0.00000000      -0.14537711
Si       3.83958982       1.91979491      16.07250000  F        3      -0.00000000       0.00000000      -0.14537709
Si       7.67917964       1.91979491      16.07250000  F        3       0.00000000       0.00000000      -0.14537709
Si       0.00000000       5.75938473      16.07250000  F        3      -0.00000004       0.00000002      -0.14537709
Si       3.83958982       5.75938473      16.07250000  F        3      -0.00000000       0.00000002      -0.14537707
Si       7.67917964       5.75938473      16.07250000  F        3       0.00000000       0.00000002      -0.14537707
Si       0.00000000       0.00000000      17.43000000  F        2      -0.00000003      -0.00000002       0.52822354
Si       3.83958982       0.00000000      17.43000000  F        2      -0.00000000      -0.00000002       0.52822353
Si       7.67917964       0.00000000      17.43000000  F        2      -0.00000000      -0.00000002       0.52822352
Si       0.00000000       3.83958982      17.43000000  F        2      -0.00000003       0.00000000       0.52822356
Si       3.83958982       3.83958982      17.43000000  F        2      -0.00000000       0.00000000       0.52822354
Si       7.67917964       3.83958982      17.43000000  F        2      -0.00000000       0.00000000       0.52822354
Si       1.91979491       0.00000000      18.78750000  F        1      -0.00000000       0.00000000      -0.24903482
Si       5.75938473       0.00000000      18.78750000  F        1       0.00000000       0.00000000      -0.24903482
Si       9.59897455       0.00000000      18.78750000  F        1       0.00000004       0.00000000      -0.24903484
Si       1.91979491       3.83958982      18.78750000  F        1      -0.00000000      -0.00000000      -0.24903482
Si       5.75938473       3.83958982      18.78750000  F        1       0.00000000      -0.00000000      -0.24903482
Si       9.59897455       3.83958982      18.78750000  F        1       0.00000004      -0.00000000      -0.24903484
F        4.43182983       3.83958982      24.83426642  T        0      -0.00285954      -0.00000000      -0.00000000
C        5.85148196       3.83958982      24.83426642  T        0       0.00319168       0.00000000       0.00000019
H        6.17120395       3.83958982      23.78750000  T        0      -0.00011068       0.00000000       0.00125386
H        6.17120395       4.74611614      25.35764963  T        0      -0.00011073      -0.00108610      -0.00062702
H        6.17120395       2.93306350      25.35764963  T        0      -0.00011073       0.00108610      -0.00062702
41
Lattice="11.518769465528859 0.0 0.0 0.0 7.679179643685906 0.0 0.0 0.0 30.7875" Properties=species:S:1:pos:R:3:move_mask:L:1:tags:I:1:forces:R:3 surface=Si100 species=CH3F site=atop_Si orientation=parallel height_A=4.0 substrate_atoms=36 calculation_kind="Rigid evaluated approach scan; not NEB" energy=-204.26936851518155 pbc="T T F"
Si       0.00000000       0.00000000      12.00000000  F        6      -0.00000004       0.00000000       0.24869341
Si       3.83958982       0.00000000      12.00000000  F        6       0.00041870       0.00000000       0.24875848
Si       7.67917964       0.00000000      12.00000000  F        6      -0.00041870       0.00000000       0.24876731
Si       0.00000000       3.83958982      12.00000000  F        6      -0.00000004      -0.00000000       0.24897317
Si       3.83958982       3.83958982      12.00000000  F        6       0.00037219      -0.00000000       0.24924437
Si       7.67917964       3.83958982      12.00000000  F        6      -0.00037219      -0.00000000       0.24925320
Si       1.91979491       0.00000000      13.35750000  F        5      -0.00079150      -0.00000002      -0.52833358
Si       5.75938473       0.00000000      13.35750000  F        5      -0.00000020      -0.00000002      -0.52796336
Si       9.59897455       0.00000000      13.35750000  F        5       0.00079173      -0.00000002      -0.52831996
Si       1.91979491       3.83958982      13.35750000  F        5       0.00036345       0.00000000      -0.52710151
Si       5.75938473       3.83958982      13.35750000  F        5       0.00000464       0.00000000      -0.52553918
Si       9.59897455       3.83958982      13.35750000  F        5      -0.00036806       0.00000000      -0.52705841
Si       1.91979491       1.91979491      14.71500000  F        4       0.00183769       0.00039330       0.14580363
Si       5.75938473       1.91979491      14.71500000  F        4       0.00011054      -0.00155233       0.14148472
Si       9.59897455       1.91979491      14.71500000  F        4      -0.00173657       0.00045047       0.14578783
Si       1.91979491       5.75938473      14.71500000  F        4       0.00183769      -0.00039328       0.14580361
Si       5.75938473       5.75938473      14.71500000  F        4       0.00011054       0.00155236       0.14148471
Si       9.59897455       5.75938473      14.71500000  F        4      -0.00173657      -0.00045045       0.14578782
Si       0.00000000       1.91979491      16.07250000  F        3      -0.00004423       0.00042523      -0.14548399
Si       3.83958982       1.91979491      16.07250000  F        3      -0.00519090      -0.00367635      -0.15033612
Si       7.67917964       1.91979491      16.07250000  F        3       0.00621554      -0.00494909      -0.15165299
Si       0.00000000       5.75938473      16.07250000  F        3      -0.00004423      -0.00042520      -0.14548397
Si       3.83958982       5.75938473      16.07250000  F        3      -0.00519090       0.00367638      -0.15033610
Si       7.67917964       5.75938473      16.07250000  F        3       0.00621554       0.00494912      -0.15165298
Si       0.00000000       0.00000000      17.43000000  F        2      -0.00002093      -0.00000002       0.53113420
Si       3.83958982       0.00000000      17.43000000  F        2      -0.00005059      -0.00000002       0.52836233
Si       7.67917964       0.00000000      17.43000000  F        2      -0.00029295      -0.00000002       0.52843106
Si       0.00000000       3.83958982      17.43000000  F        2       0.00005567       0.00000000       0.53712553
Si       3.83958982       3.83958982      17.43000000  F        2       0.01001692       0.00000000       0.52719331
Si       7.67917964       3.83958982      17.43000000  F        2      -0.00647605       0.00000000       0.52098903
Si       1.91979491       0.00000000      18.78750000  F        1       0.00081609       0.00000000      -0.25180734
Si       5.75938473       0.00000000      18.78750000  F        1       0.00030693       0.00000000      -0.23843349
Si       9.59897455       0.00000000      18.78750000  F        1      -0.00082604       0.00000000      -0.25182833
Si       1.91979491       3.83958982      18.78750000  F        1      -0.00721601      -0.00000000      -0.25147379
Si       5.75938473       3.83958982      18.78750000  F        1       0.00658870      -0.00000000      -0.14996044
Si       9.59897455       3.83958982      18.78750000  F        1       0.00500422      -0.00000000      -0.25192829
F        4.43182983       3.83958982      23.83426642  T        0      -0.01859934      -0.00000000       0.00379542
C        5.85148196       3.83958982      23.83426642  T        0       0.03634680       0.00000000      -0.01571488
H        6.17120395       3.83958982      22.78750000  T        0      -0.01596344      -0.00000000      -0.07096178
H        6.17120395       4.74611614      24.35764963  T        0      -0.00603705      -0.00216346       0.00224868
H        6.17120395       2.93306350      24.35764963  T        0      -0.00603705       0.00216346       0.00224868
41
Lattice="11.518769465528859 0.0 0.0 0.0 7.679179643685906 0.0 0.0 0.0 30.7875" Properties=species:S:1:pos:R:3:move_mask:L:1:tags:I:1:forces:R:3 surface=Si100 species=CH3F site=atop_Si orientation=parallel height_A=3.25 substrate_atoms=36 calculation_kind="Rigid evaluated approach scan; not NEB" energy=-204.33492583730987 pbc="T T F"
Si       0.00000000       0.00000000      12.00000000  F        6       0.00002302       0.00000000       0.24831434
Si       3.83958982       0.00000000      12.00000000  F        6       0.00089097       0.00000000       0.24860923
Si       7.67917964       0.00000000      12.00000000  F        6      -0.00091402       0.00000000       0.24869106
Si       0.00000000       3.83958982      12.00000000  F        6       0.00002117      -0.00000000       0.24876109
Si       3.83958982       3.83958982      12.00000000  F        6       0.00072693      -0.00000000       0.24944326
Si       7.67917964       3.83958982      12.00000000  F        6      -0.00074813      -0.00000000       0.24949175
Si       1.91979491       0.00000000      13.35750000  F        5      -0.00068859      -0.00000002      -0.52643081
Si       5.75938473       0.00000000      13.35750000  F        5       0.00005954      -0.00000002      -0.52682554
Si       9.59897455       0.00000000      13.35750000  F        5       0.00062852      -0.00000002      -0.52636882
Si       1.91979491       3.83958982      13.35750000  F        5       0.00104820       0.00000000      -0.52600309
Si       5.75938473       3.83958982      13.35750000  F        5       0.00004014       0.00000000      -0.52248177
Si       9.59897455       3.83958982      13.35750000  F        5      -0.00108041       0.00000000      -0.52576952
Si       1.91979491       1.91979491      14.71500000  F        4       0.00797726       0.00139012       0.15096088
Si       5.75938473       1.91979491      14.71500000  F        4      -0.00011375      -0.00221061       0.14239314
Si       9.59897455       1.91979491      14.71500000  F        4      -0.00752763       0.00121831       0.15009323
Si       1.91979491       5.75938473      14.71500000  F        4       0.00797726      -0.00139010       0.15096086
Si       5.75938473       5.75938473      14.71500000  F        4      -0.00011375       0.00221063       0.14239313
Si       9.59897455       5.75938473      14.71500000  F        4      -0.00752763      -0.00121829       0.15009321
Si       0.00000000       1.91979491      16.07250000  F        3       0.00003620       0.00160892      -0.14395376
Si       3.83958982       1.91979491      16.07250000  F        3      -0.00646408      -0.00406667      -0.14392420
Si       7.67917964       1.91979491      16.07250000  F        3       0.00621230      -0.00579741      -0.14450315
Si       0.00000000       5.75938473      16.07250000  F        3       0.00003620      -0.00160889      -0.14395374
Si       3.83958982       5.75938473      16.07250000  F        3      -0.00646408       0.00406670      -0.14392419
Si       7.67917964       5.75938473      16.07250000  F        3       0.00621230       0.00579743      -0.14450314
Si       0.00000000       0.00000000      17.43000000  F        2       0.00042428      -0.00000002       0.53198790
Si       3.83958982       0.00000000      17.43000000  F        2       0.00448004      -0.00000002       0.52823489
Si       7.67917964       0.00000000      17.43000000  F        2      -0.00370744      -0.00000002       0.52764546
Si       0.00000000       3.83958982      17.43000000  F        2      -0.00215918       0.00000000       0.54656779
Si       3.83958982       3.83958982      17.43000000  F        2       0.00121061       0.00000000       0.49102165
Si       7.67917964       3.83958982      17.43000000  F        2       0.00099186       0.00000000       0.48499118
Si       1.91979491       0.00000000      18.78750000  F        1       0.00059816       0.00000000      -0.25538511
Si       5.75938473       0.00000000      18.78750000  F        1       0.00001806       0.00000000      -0.24247696
Si       9.59897455       0.00000000      18.78750000  F        1      -0.00184380       0.00000000      -0.25442981
Si       1.91979491       3.83958982      18.78750000  F        1      -0.00541558      -0.00000000      -0.25032055
Si       5.75938473       3.83958982      18.78750000  F        1      -0.00783704      -0.00000000      -0.04179453
Si       9.59897455       3.83958982      18.78750000  F        1      -0.00088502      -0.00000000      -0.24238032
F        4.43182983       3.83958982      23.08426642  T        0       0.04104632       0.00000000      -0.05328007
C        5.85148196       3.83958982      23.08426642  T        0      -0.02925821       0.00000000      -0.06123883
H        6.17120395       3.83958982      22.03750000  T        0       0.00628364      -0.00000000      -0.06919022
H        6.17120395       4.74611614      23.60764963  T        0      -0.00209730       0.01829197      -0.00075795
H        6.17120395       2.93306350      23.60764963  T        0      -0.00209730      -0.01829197      -0.00075795
41
Lattice="11.518769465528859 0.0 0.0 0.0 7.679179643685906 0.0 0.0 0.0 30.7875" Properties=species:S:1:pos:R:3:move_mask:L:1:tags:I:1:forces:R:3 surface=Si100 species=CH3F site=atop_Si orientation=parallel height_A=2.75 substrate_atoms=36 calculation_kind="Rigid evaluated approach scan; not NEB" energy=-204.38710259538001 pbc="T T F"
Si       0.00000000       0.00000000      12.00000000  F        6       0.00008120       0.00000000       0.24898893
Si       3.83958982       0.00000000      12.00000000  F        6       0.00178121       0.00000000       0.24912011
Si       7.67917964       0.00000000      12.00000000  F        6      -0.00186325       0.00000000       0.24952573
Si       0.00000000       3.83958982      12.00000000  F        6      -0.00012879      -0.00000000       0.24881574
Si       3.83958982       3.83958982      12.00000000  F        6       0.00243891      -0.00000000       0.25049977
Si       7.67917964       3.83958982      12.00000000  F        6      -0.00230985      -0.00000000       0.25136502
Si       1.91979491       0.00000000      13.35750000  F        5      -0.00253477      -0.00000002      -0.52521563
Si       5.75938473       0.00000000      13.35750000  F        5       0.00020010      -0.00000002      -0.52539747
Si       9.59897455       0.00000000      13.35750000  F        5       0.00233094      -0.00000002      -0.52499996
Si       1.91979491       3.83958982      13.35750000  F        5       0.00203151       0.00000000      -0.52116222
Si       5.75938473       3.83958982      13.35750000  F        5       0.00074693       0.00000000      -0.51585084
Si       9.59897455       3.83958982      13.35750000  F        5      -0.00207418       0.00000000      -0.52167486
Si       1.91979491       1.91979491      14.71500000  F        4       0.00782479       0.00078377       0.14967552
Si       5.75938473       1.91979491      14.71500000  F        4      -0.00367727       0.00664520       0.16295811
Si       9.59897455       1.91979491      14.71500000  F        4      -0.00436948      -0.00023410       0.14572918
Si       1.91979491       5.75938473      14.71500000  F        4       0.00782479      -0.00078375       0.14967551
Si       5.75938473       5.75938473      14.71500000  F        4      -0.00367727      -0.00664518       0.16295809
Si       9.59897455       5.75938473      14.71500000  F        4      -0.00436948       0.00023413       0.14572917
Si       0.00000000       1.91979491      16.07250000  F        3       0.00108241       0.01008838      -0.13801333
Si       3.83958982       1.91979491      16.07250000  F        3      -0.00127737      -0.01133937      -0.17128834
Si       7.67917964       1.91979491      16.07250000  F        3      -0.00190642      -0.01991378      -0.16366774
Si       0.00000000       5.75938473      16.07250000  F        3       0.00108241      -0.01008836      -0.13801332
Si       3.83958982       5.75938473      16.07250000  F        3      -0.00127737       0.01133939      -0.17128833
Si       7.67917964       5.75938473      16.07250000  F        3      -0.00190642       0.01991381      -0.16366773
Si       0.00000000       0.00000000      17.43000000  F        2       0.00227184      -0.00000002       0.53116552
Si       3.83958982       0.00000000      17.43000000  F        2       0.00629987      -0.00000002       0.52285524
Si       7.67917964       0.00000000      17.43000000  F        2      -0.00405775      -0.00000002       0.52414781
Si       0.00000000       3.83958982      17.43000000  F        2      -0.01430479       0.00000000       0.54937228
Si       3.83958982       3.83958982      17.43000000  F        2      -0.02756950       0.00000000       0.46904942
Si       7.67917964       3.83958982      17.43000000  F        2      -0.00442468       0.00000000       0.50022033
Si       1.91979491       0.00000000      18.78750000  F        1      -0.00000835       0.00000000      -0.26056229
Si       5.75938473       0.00000000      18.78750000  F        1      -0.00331746       0.00000000      -0.24766074
Si       9.59897455       0.00000000      18.78750000  F        1      -0.00741241       0.00000000      -0.25654474
Si       1.91979491       3.83958982      18.78750000  F        1       0.04421939      -0.00000000      -0.19472804
Si       5.75938473       3.83958982      18.78750000  F        1      -0.01459539      -0.00000000      -0.33369024
Si       9.59897455       3.83958982      18.78750000  F        1       0.02048720      -0.00000000      -0.24785741
F        4.43182983       3.83958982      22.58426642  T        0       0.11394821      -0.00000000      -0.15200246
C        5.85148196       3.83958982      22.58426642  T        0      -0.09345861       0.00000000       0.16526775
H        6.17120395       3.83958982      21.53750000  T        0      -0.01665660       0.00000000       0.08246162
H        6.17120395       4.74611614      23.10764963  T        0       0.00126288       0.02844704       0.00685242
H        6.17120395       2.93306350      23.10764963  T        0       0.00126288      -0.02844704       0.00685242
41
Lattice="11.518769465528859 0.0 0.0 0.0 7.679179643685906 0.0 0.0 0.0 30.7875" Properties=species:S:1:pos:R:3:move_mask:L:1:tags:I:1:forces:R:3 surface=Si100 species=CH3F site=atop_Si orientation=parallel height_A=2.25 substrate_atoms=36 calculation_kind="Rigid evaluated approach scan; not NEB" energy=-204.22736301845532 pbc="T T F"
Si       0.00000000       0.00000000      12.00000000  F        6       0.00003755       0.00000000       0.25119409
Si       3.83958982       0.00000000      12.00000000  F        6       0.00168500       0.00000000       0.25342285
Si       7.67917964       0.00000000      12.00000000  F        6      -0.00171880       0.00000000       0.25296437
Si       0.00000000       3.83958982      12.00000000  F        6      -0.00021390      -0.00000000       0.24900867
Si       3.83958982       3.83958982      12.00000000  F        6       0.00250272      -0.00000000       0.25193493
Si       7.67917964       3.83958982      12.00000000  F        6      -0.00228637      -0.00000000       0.25143249
Si       1.91979491       0.00000000      13.35750000  F        5      -0.00198830      -0.00000002      -0.52545341
Si       5.75938473       0.00000000      13.35750000  F        5      -0.00048967      -0.00000002      -0.52828617
Si       9.59897455       0.00000000      13.35750000  F        5       0.00247664      -0.00000002      -0.52422128
Si       1.91979491       3.83958982      13.35750000  F        5       0.00178150       0.00000000      -0.51777937
Si       5.75938473       3.83958982      13.35750000  F        5      -0.00217294       0.00000000      -0.51423534
Si       9.59897455       3.83958982      13.35750000  F        5       0.00392098       0.00000000      -0.52878679
Si       1.91979491       1.91979491      14.71500000  F        4       0.00211701      -0.00410803       0.14269521
Si       5.75938473       1.91979491      14.71500000  F        4      -0.00341624      -0.00927865       0.15376012
Si       9.59897455       1.91979491      14.71500000  F        4       0.00098183      -0.00591770       0.14647216
Si       1.91979491       5.75938473      14.71500000  F        4       0.00211701       0.00410805       0.14269520
Si       5.75938473       5.75938473      14.71500000  F        4      -0.00341624       0.00927867       0.15376010
Si       9.59897455       5.75938473      14.71500000  F        4       0.00098183       0.00591772       0.14647215
Si       0.00000000       1.91979491      16.07250000  F        3       0.00082864       0.01790323      -0.13072578
Si       3.83958982       1.91979491      16.07250000  F        3      -0.00422826      -0.01672959      -0.19417508
Si       7.67917964       1.91979491      16.07250000  F        3       0.00233806      -0.02447799      -0.17513126
Si       0.00000000       5.75938473      16.07250000  F        3       0.00082864      -0.01790320      -0.13072577
Si       3.83958982       5.75938473      16.07250000  F        3      -0.00422826       0.01672961      -0.19417507
Si       7.67917964       5.75938473      16.07250000  F        3       0.00233806       0.02447801      -0.17513125
Si       0.00000000       0.00000000      17.43000000  F        2       0.00159312      -0.00000002       0.52304705
Si       3.83958982       0.00000000      17.43000000  F        2      -0.01164738      -0.00000002       0.50135511
Si       7.67917964       0.00000000      17.43000000  F        2       0.01425501      -0.00000002       0.49669252
Si       0.00000000       3.83958982      17.43000000  F        2      -0.01441389       0.00000000       0.54397179
Si       3.83958982       3.83958982      17.43000000  F        2      -0.07109747       0.00000000       0.50266720
Si       7.67917964       3.83958982      17.43000000  F        2      -0.01737876       0.00000000       0.56523096
Si       1.91979491       0.00000000      18.78750000  F        1      -0.01041783       0.00000000      -0.25944212
Si       5.75938473       0.00000000      18.78750000  F        1      -0.01197361       0.00000000      -0.21872733
Si       9.59897455       0.00000000      18.78750000  F        1       0.00185625       0.00000000      -0.26141220
Si       1.91979491       3.83958982      18.78750000  F        1       0.09009744      -0.00000000      -0.18407921
Si       5.75938473       3.83958982      18.78750000  F        1       0.04588606      -0.00000000      -0.66390289
Si       9.59897455       3.83958982      18.78750000  F        1      -0.01519191      -0.00000000      -0.26662684
F        4.43182983       3.83958982      22.08426642  T        0       0.09136419       0.00000000      -0.13602417
C        5.85148196       3.83958982      22.08426642  T        0      -0.09931654      -0.00000000       0.49406934
H        6.17120395       3.83958982      21.03750000  T        0       0.03333203      -0.00000000       0.21203339
H        6.17120395       4.74611614      22.60764963  T        0      -0.01386160       0.01743051      -0.05291919
H        6.17120395       2.93306350      22.60764963  T        0      -0.01386160      -0.01743051      -0.05291919
41
Lattice="11.518769465528859 0.0 0.0 0.0 7.679179643685906 0.0 0.0 0.0 30.7875" Properties=species:S:1:pos:R:3:move_mask:L:1:tags:I:1:forces:R:3 surface=Si100 species=CH3F site=atop_Si orientation=parallel height_A=1.9 substrate_atoms=36 calculation_kind="Rigid evaluated approach scan; not NEB" energy=-204.06015522820672 pbc="T T F"
Si       0.00000000       0.00000000      12.00000000  F        6      -0.00009571       0.00000000       0.25135310
Si       3.83958982       0.00000000      12.00000000  F        6       0.00230407       0.00000000       0.25446039
Si       7.67917964       0.00000000      12.00000000  F        6      -0.00220300       0.00000000       0.25361975
Si       0.00000000       3.83958982      12.00000000  F        6      -0.00051014      -0.00000000       0.24809657
Si       3.83958982       3.83958982      12.00000000  F        6       0.00275027      -0.00000000       0.25077036
Si       7.67917964       3.83958982      12.00000000  F        6      -0.00223891      -0.00000000       0.25047138
Si       1.91979491       0.00000000      13.35750000  F        5      -0.00233179      -0.00000002      -0.52619005
Si       5.75938473       0.00000000      13.35750000  F        5      -0.00098141      -0.00000002      -0.52985783
Si       9.59897455       0.00000000      13.35750000  F        5       0.00328900      -0.00000002      -0.52406382
Si       1.91979491       3.83958982      13.35750000  F        5      -0.00227493       0.00000000      -0.52319092
Si       5.75938473       3.83958982      13.35750000  F        5      -0.00176106       0.00000000      -0.50223014
Si       9.59897455       3.83958982      13.35750000  F        5       0.00602757       0.00000000      -0.52899390
Si       1.91979491       1.91979491      14.71500000  F        4       0.00833247      -0.01094030       0.14488974
Si       5.75938473       1.91979491      14.71500000  F        4      -0.00064126      -0.02983094       0.13707306
Si       9.59897455       1.91979491      14.71500000  F        4      -0.00461636      -0.01048186       0.15248122
Si       1.91979491       5.75938473      14.71500000  F        4       0.00833247       0.01094032       0.14488972
Si       5.75938473       5.75938473      14.71500000  F        4      -0.00064126       0.02983096       0.13707305
Si       9.59897455       5.75938473      14.71500000  F        4      -0.00461636       0.01048189       0.15248120
Si       0.00000000       1.91979491      16.07250000  F        3      -0.00173204       0.02268147      -0.12945963
Si       3.83958982       1.91979491      16.07250000  F        3       0.00760351      -0.00403026      -0.17984344
Si       7.67917964       1.91979491      16.07250000  F        3       0.01028686      -0.02287250      -0.18510243
Si       0.00000000       5.75938473      16.07250000  F        3      -0.00173204      -0.02268145      -0.12945962
Si       3.83958982       5.75938473      16.07250000  F        3       0.00760351       0.00403029      -0.17984343
Si       7.67917964       5.75938473      16.07250000  F        3       0.01028686       0.02287252      -0.18510242
Si       0.00000000       0.00000000      17.43000000  F        2      -0.00093553      -0.00000002       0.51722792
Si       3.83958982       0.00000000      17.43000000  F        2      -0.01885352      -0.00000002       0.48596701
Si       7.67917964       0.00000000      17.43000000  F        2       0.02324847      -0.00000002       0.47892350
Si       0.00000000       3.83958982      17.43000000  F        2       0.01615437       0.00000000       0.57006883
Si       3.83958982       3.83958982      17.43000000  F        2      -0.13338006       0.00000000       0.57345594
Si       7.67917964       3.83958982      17.43000000  F        2      -0.04425882       0.00000000       0.65030209
Si       1.91979491       0.00000000      18.78750000  F        1      -0.01328041       0.00000000      -0.26059852
Si       5.75938473       0.00000000      18.78750000  F        1      -0.01687380       0.00000000      -0.20600116
Si       9.59897455       0.00000000      18.78750000  F        1       0.00492860       0.00000000      -0.26524853
Si       1.91979491       3.83958982      18.78750000  F        1       0.01434533      -0.00000000      -0.19313675
Si       5.75938473       3.83958982      18.78750000  F        1       0.14551892      -0.00000000      -0.98664496
Si       9.59897455       3.83958982      18.78750000  F        1      -0.04639245      -0.00000000      -0.23798224
F        4.43182983       3.83958982      21.73426642  T        0       0.17036012       0.00000000      -0.18565596
C        5.85148196       3.83958982      21.73426642  T        0      -0.29178891       0.00000000       0.89212019
H        6.17120395       3.83958982      20.68750000  T        0       0.10377617      -0.00000000      -0.13775311
H        6.17120395       4.74611614      22.25764963  T        0       0.02349559       0.08475257       0.02531691
H        6.17120395       2.93306350      22.25764963  T        0       0.02349559      -0.08475257       0.02531691
41
Lattice="11.518769465528859 0.0 0.0 0.0 7.679179643685906 0.0 0.0 0.0 30.7875" Properties=species:S:1:pos:R:3:move_mask:L:1:tags:I:1:forces:R:3 surface=Si100 species=CH3F site=atop_Si orientation=parallel height_A=1.6 substrate_atoms=36 calculation_kind="Rigid evaluated approach scan; not NEB" energy=-203.71021627074956 pbc="T T F"
Si       0.00000000       0.00000000      12.00000000  F        6      -0.00017373       0.00000000       0.25142057
Si       3.83958982       0.00000000      12.00000000  F        6       0.00265645       0.00000000       0.25356801
Si       7.67917964       0.00000000      12.00000000  F        6      -0.00248160       0.00000000       0.25324178
Si       0.00000000       3.83958982      12.00000000  F        6      -0.00073639      -0.00000000       0.24692043
Si       3.83958982       3.83958982      12.00000000  F        6       0.00288118      -0.00000000       0.24803305
Si       7.67917964       3.83958982      12.00000000  F        6      -0.00214679      -0.00000000       0.24859554
Si       1.91979491       0.00000000      13.35750000  F        5      -0.00220249      -0.00000002      -0.52722600
Si       5.75938473       0.00000000      13.35750000  F        5      -0.00072880      -0.00000002      -0.53126504
Si       9.59897455       0.00000000      13.35750000  F        5       0.00289754      -0.00000002      -0.52487963
Si       1.91979491       3.83958982      13.35750000  F        5      -0.00166326       0.00000000      -0.52211720
Si       5.75938473       3.83958982      13.35750000  F        5      -0.00223365       0.00000000      -0.48152794
Si       9.59897455       3.83958982      13.35750000  F        5       0.00402149       0.00000000      -0.52472368
Si       1.91979491       1.91979491      14.71500000  F        4       0.01413471      -0.01782345       0.14950241
Si       5.75938473       1.91979491      14.71500000  F        4      -0.00045747      -0.03548732       0.14509706
Si       9.59897455       1.91979491      14.71500000  F        4      -0.00873526      -0.01704559       0.15788585
Si       1.91979491       5.75938473      14.71500000  F        4       0.01413471       0.01782347       0.14950240
Si       5.75938473       5.75938473      14.71500000  F        4      -0.00045747       0.03548735       0.14509705
Si       9.59897455       5.75938473      14.71500000  F        4      -0.00873526       0.01704561       0.15788584
Si       0.00000000       1.91979491      16.07250000  F        3      -0.00599665       0.02500959      -0.12849654
Si       3.83958982       1.91979491      16.07250000  F        3       0.01788535       0.02359203      -0.14988124
Si       7.67917964       1.91979491      16.07250000  F        3       0.01547915      -0.01728461      -0.18577826
Si       0.00000000       5.75938473      16.07250000  F        3      -0.00599665      -0.02500957      -0.12849653
Si       3.83958982       5.75938473      16.07250000  F        3       0.01788535      -0.02359201      -0.14988122
Si       7.67917964       5.75938473      16.07250000  F        3       0.01547915       0.01728463      -0.18577825
Si       0.00000000       0.00000000      17.43000000  F        2      -0.00377957      -0.00000002       0.49840018
Si       3.83958982       0.00000000      17.43000000  F        2      -0.02042679      -0.00000002       0.46392318
Si       7.67917964       0.00000000      17.43000000  F        2       0.03748697      -0.00000002       0.44912807
Si       0.00000000       3.83958982      17.43000000  F        2       0.03916199       0.00000000       0.57745396
Si       3.83958982       3.83958982      17.43000000  F        2      -0.29786629       0.00000000       0.64774139
Si       7.67917964       3.83958982      17.43000000  F        2      -0.03602538       0.00000000       0.67449904
Si       1.91979491       0.00000000      18.78750000  F        1      -0.00878402       0.00000000      -0.25603031
Si       5.75938473       0.00000000      18.78750000  F        1      -0.02951022       0.00000000      -0.22307464
Si       9.59897455       0.00000000      18.78750000  F        1       0.00024361       0.00000000      -0.25979952
Si       1.91979491       3.83958982      18.78750000  F        1      -0.05985310      -0.00000000      -0.19144147
Si       5.75938473       3.83958982      18.78750000  F        1       0.35061539      -0.00000000      -2.41937704
Si       9.59897455       3.83958982      18.78750000  F        1       0.00522529      -0.00000000      -0.20685937
F        4.43182983       3.83958982      21.43426642  T        0      -0.07128029      -0.00000000      -0.04867320
C        5.85148196       3.83958982      21.43426642  T        0      -0.53893567       0.00000000       2.16663860
H        6.17120395       3.83958982      20.38750000  T        0       0.36443479      -0.00000000       0.04928742
H        6.17120395       4.74611614      21.95764963  T        0       0.10229185       0.20599012      -0.14425738
H        6.17120395       2.93306350      21.95764963  T        0       0.10229185      -0.20599012      -0.14425738
41
Lattice="11.518769465528859 0.0 0.0 0.0 7.679179643685906 0.0 0.0 0.0 30.7875" Properties=species:S:1:pos:R:3:move_mask:L:1:tags:I:1:forces:R:3 surface=Si100 species=CH3F site=atop_Si orientation=parallel height_A=1.3 substrate_atoms=36 calculation_kind="Rigid evaluated approach scan; not NEB" energy=-202.78967442725886 pbc="T T F"
Si       0.00000000       0.00000000      12.00000000  F        6      -0.00051548       0.00000000       0.25145739
Si       3.83958982       0.00000000      12.00000000  F        6       0.00195862       0.00000000       0.25067893
Si       7.67917964       0.00000000      12.00000000  F        6      -0.00130952       0.00000000       0.25515467
Si       0.00000000       3.83958982      12.00000000  F        6      -0.00095336      -0.00000000       0.24721975
Si       3.83958982       3.83958982      12.00000000  F        6       0.00186622      -0.00000000       0.24472642
Si       7.67917964       3.83958982      12.00000000  F        6      -0.00089717      -0.00000000       0.24866598
Si       1.91979491       0.00000000      13.35750000  F        5      -0.00361013      -0.00000002      -0.52781966
Si       5.75938473       0.00000000      13.35750000  F        5       0.00147428      -0.00000002      -0.54051737
Si       9.59897455       0.00000000      13.35750000  F        5       0.00086459      -0.00000002      -0.52584194
Si       1.91979491       3.83958982      13.35750000  F        5       0.00205357       0.00000000      -0.51733885
Si       5.75938473       3.83958982      13.35750000  F        5      -0.00142632       0.00000000      -0.47713961
Si       9.59897455       3.83958982      13.35750000  F        5      -0.00110616       0.00000000      -0.51953410
Si       1.91979491       1.91979491      14.71500000  F        4       0.01713397      -0.02536824       0.15184404
Si       5.75938473       1.91979491      14.71500000  F        4      -0.01210354      -0.00888672       0.22024144
Si       9.59897455       1.91979491      14.71500000  F        4      -0.00577605      -0.02710359       0.15259060
Si       1.91979491       5.75938473      14.71500000  F        4       0.01713397       0.02536826       0.15184402
Si       5.75938473       5.75938473      14.71500000  F        4      -0.01210354       0.00888674       0.22024142
Si       9.59897455       5.75938473      14.71500000  F        4      -0.00577605       0.02710361       0.15259058
Si       0.00000000       1.91979491      16.07250000  F        3      -0.01078341       0.02445620      -0.12738426
Si       3.83958982       1.91979491      16.07250000  F        3       0.04767012       0.10313894      -0.08524929
Si       7.67917964       1.91979491      16.07250000  F        3      -0.00652321       0.00564123      -0.16278069
Si       0.00000000       5.75938473      16.07250000  F        3      -0.01078341      -0.02445618      -0.12738424
Si       3.83958982       5.75938473      16.07250000  F        3       0.04767012      -0.10313892      -0.08524928
Si       7.67917964       5.75938473      16.07250000  F        3      -0.00652321      -0.00564121      -0.16278068
Si       0.00000000       0.00000000      17.43000000  F        2      -0.00784286      -0.00000002       0.47484463
Si       3.83958982       0.00000000      17.43000000  F        2      -0.01600642      -0.00000002       0.42537712
Si       7.67917964       0.00000000      17.43000000  F        2       0.05931863      -0.00000002       0.40194288
Si       0.00000000       3.83958982      17.43000000  F        2       0.05075223       0.00000000       0.55446474
Si       3.83958982       3.83958982      17.43000000  F        2      -0.52452502       0.00000000       0.53802096
Si       7.67917964       3.83958982      17.43000000  F        2      -0.01677559       0.00000000       0.75531335
Si       1.91979491       0.00000000      18.78750000  F        1      -0.00900019       0.00000000      -0.24584230
Si       5.75938473       0.00000000      18.78750000  F        1      -0.04925152       0.00000000      -0.14351440
Si       9.59897455       0.00000000      18.78750000  F        1      -0.00142241       0.00000000      -0.24821316
Si       1.91979491       3.83958982      18.78750000  F        1      -0.06692405      -0.00000000      -0.20656086
Si       5.75938473       3.83958982      18.78750000  F        1      -0.24576319      -0.00000000      -6.02364569
Si       9.59897455       3.83958982      18.78750000  F        1       0.01657074      -0.00000000      -0.16401009
F        4.43182983       3.83958982      21.13426642  T        0      -0.99267341      -0.00000000       0.60171781
C        5.85148196       3.83958982      21.13426642  T        0      -0.55369733      -0.00000000       2.75704493
H        6.17120395       3.83958982      20.08750000  T        0       2.03562997       0.00000000       2.72050300
H        6.17120395       4.74611614      21.65764963  T        0       0.13198777       0.15033623      -0.44283909
H        6.17120395       2.93306350      21.65764963  T        0       0.13198777      -0.15033623      -0.44283909
