5
Lattice="9.8418 0.0 0.0 -2.460449999999999 4.261624409482844 0.0 0.0 -0.0 34.16586254" Properties=species:S:1:pos:R:3:forces:R:3 energy=-28.132471834372723 pbc="T T F"
Si       0.00000000      -0.00000000       1.58200185       0.10557199      -0.18285605      -0.00325502
F        0.00000000       0.00000000       0.00000000       0.00063583      -0.00110129      -0.01748592
F        1.49152565      -0.00000000       2.10933580      -0.02132698       0.07749385       0.00108142
F       -0.74576282       1.29169910       2.10933580      -0.02843269       0.04924686       0.01857808
F       -0.74576282      -1.29169910       2.10933580      -0.05644815       0.05721663       0.00108142
