30
Lattice="7.6044 0.0 0.0 -3.802199999999998 6.585603580538386 0.0 0.0 -0.0 28.35945" Properties=species:S:1:pos:R:3:move_mask:L:1:spacegroup_kinds:I:1:tags:I:1:forces:R:3 spacegroup="P 63/m" unit_cell=conventional occupancy="_JSON {\"0\": {\"Si\": 1.0}, \"1\": {\"N\": 1.0}, \"2\": {\"N\": 1.0}}" energy=-216.81803249882284 pbc="T T F"
Si       5.18010587       1.14956320      12.00000000  F        0        2       1.90469197       1.16445044       1.03176501
Si      -1.37790587       5.43604038      13.45315000  F        0        2       0.15423231       0.23537863      -2.08045746
Si       4.01879613       3.91132168      12.00000000  F        0        2      -1.98592441       1.06063964       1.01504392
Si      -0.21659613       2.67428190      13.45315000  F        0        2      -0.77712461       0.18137742      -2.23036645
Si       2.20769800       1.52471870      12.00000000  F        0        2       0.24937979      -2.31182545       0.62006371
Si       1.59450200       5.06088488      13.45315000  F        0        2       0.36692507      -0.29448010      -1.77906996
N       -1.02370433       2.17482973      12.00000000  F        1        2      -0.55035127      -0.67185195       0.39619301
N        4.82590433       4.41077385      13.45315000  F        1        2       0.18340756      -0.46093121       0.06070777
N        2.43059437       4.61163476      12.00000000  F        1        2       0.87035768      -0.22019022       0.33999402
N        1.37160563       1.97396882      13.45315000  F        1        2      -0.24020370       0.35825420       0.17637771
N       -1.40689004       6.38474267      12.00000000  F        1        2      -0.34268752       0.93458540       0.45936242
N        5.20909004       0.20086091      13.45315000  F        1        2      -0.44721463       0.15304617       0.03593611
N        3.80216198       2.19517924      12.00000000  F        2        2      -0.04915419      -0.00924822      -1.03928082
N        0.00003802       4.39042434      13.45315000  F        2        2      -0.04389115      -0.01924890       0.57698540
Si       5.18010587       1.14956320      14.90630000  F        0        1       1.32895921      -1.93307600       1.14116777
Si      -1.37790587       5.43604038      16.35945000  F        0        1      -1.60474908      -1.76927457      -0.88130086
Si       4.01879613       3.91132168      14.90630000  F        0        1       0.60824463       2.30262340       1.12604585
Si      -0.21659613       2.67428190      16.35945000  F        0        1      -0.35753184       0.08047072      -0.49869919
Si       2.11000246       1.44590290      14.87348005  T        0        1      -0.00241586       0.00304435      -0.00609036
Si       1.59450200       5.06088488      16.35945000  F        0        1      -0.18266961       2.40904630      -1.13010077
N       -1.02370433       2.17482973      14.90630000  F        1        1      -0.07446325      -0.10393784       0.55218833
N        4.82590433       4.41077385      16.35945000  F        1        1       0.60783396       0.44888997      -0.34331441
N        2.43059437       4.61163476      14.90630000  F        1        1       0.26740018      -0.66015546       0.44716023
N        1.37160563       1.97396882      16.35945000  F        1        1      -0.36074022       0.13073919       0.29120100
N       -1.40689004       6.38474267      14.90630000  F        1        1       0.00772351       0.00688786       0.56199147
N        5.20909004       0.20086091      16.35945000  F        1        1       0.10552402      -0.69835857      -0.28178638
N        3.74401586       2.17565955      15.12881560  T        2        1       0.00440131      -0.01010014      -0.00123977
N        0.00003802       4.39042434      16.35945000  F        2        1       0.36036120      -0.30846531       1.43909824
F        2.10378715       1.89955776      17.46702825  T        0        0      -0.00006351       0.00012134      -0.00043625
H        3.73906960       2.17009372      16.17359575  T        0        0      -0.00025757       0.00158891       0.00086073
