38
Lattice="11.518769465528859 0.0 0.0 0.0 7.679179643685906 0.0 0.0 0.0 30.7875" Properties=species:S:1:pos:R:3:move_mask:L:1:tags:I:1:forces:R:3 surface=Si100 species=H2 site=bridge_Si_Si orientation=upright height_A=6.5 substrate_atoms=36 calculation_kind="Rigid evaluated approach scan; not NEB" energy=-186.84483600269022 pbc="T T F"
Si       0.00000000       0.00000000      12.00000000  F        6      -0.00000004       0.00000000       0.24903484
Si       3.83958982       0.00000000      12.00000000  F        6      -0.00000000       0.00000000       0.24903482
Si       7.67917964       0.00000000      12.00000000  F        6       0.00000000       0.00000000       0.24903482
Si       0.00000000       3.83958982      12.00000000  F        6      -0.00000004      -0.00000000       0.24903484
Si       3.83958982       3.83958982      12.00000000  F        6      -0.00000000      -0.00000000       0.24903482
Si       7.67917964       3.83958982      12.00000000  F        6       0.00000000      -0.00000000       0.24903482
Si       1.91979491       0.00000000      13.35750000  F        5       0.00000000      -0.00000002      -0.52822352
Si       5.75938473       0.00000000      13.35750000  F        5       0.00000000      -0.00000002      -0.52822353
Si       9.59897455       0.00000000      13.35750000  F        5       0.00000003      -0.00000002      -0.52822354
Si       1.91979491       3.83958982      13.35750000  F        5       0.00000000       0.00000000      -0.52822354
Si       5.75938473       3.83958982      13.35750000  F        5       0.00000000       0.00000000      -0.52822354
Si       9.59897455       3.83958982      13.35750000  F        5       0.00000003       0.00000000      -0.52822356
Si       1.91979491       1.91979491      14.71500000  F        4      -0.00000000       0.00000000       0.14537709
Si       5.75938473       1.91979491      14.71500000  F        4       0.00000000       0.00000000       0.14537709
Si       9.59897455       1.91979491      14.71500000  F        4       0.00000004       0.00000000       0.14537711
Si       1.91979491       5.75938473      14.71500000  F        4      -0.00000000       0.00000002       0.14537707
Si       5.75938473       5.75938473      14.71500000  F        4       0.00000000       0.00000002       0.14537707
Si       9.59897455       5.75938473      14.71500000  F        4       0.00000004       0.00000002       0.14537709
Si       0.00000000       1.91979491      16.07250000  F        3      -0.00000004       0.00000000      -0.14537711
Si       3.83958982       1.91979491      16.07250000  F        3      -0.00000000       0.00000000      -0.14537709
Si       7.67917964       1.91979491      16.07250000  F        3       0.00000000       0.00000000      -0.14537709
Si       0.00000000       5.75938473      16.07250000  F        3      -0.00000004       0.00000002      -0.14537709
Si       3.83958982       5.75938473      16.07250000  F        3      -0.00000000       0.00000002      -0.14537707
Si       7.67917964       5.75938473      16.07250000  F        3       0.00000000       0.00000002      -0.14537707
Si       0.00000000       0.00000000      17.43000000  F        2      -0.00000003      -0.00000002       0.52822354
Si       3.83958982       0.00000000      17.43000000  F        2      -0.00000000      -0.00000002       0.52822353
Si       7.67917964       0.00000000      17.43000000  F        2      -0.00000000      -0.00000002       0.52822352
Si       0.00000000       3.83958982      17.43000000  F        2      -0.00000003       0.00000000       0.52822356
Si       3.83958982       3.83958982      17.43000000  F        2      -0.00000000       0.00000000       0.52822354
Si       7.67917964       3.83958982      17.43000000  F        2      -0.00000000       0.00000000       0.52822354
Si       1.91979491       0.00000000      18.78750000  F        1      -0.00000000       0.00000000      -0.24903482
Si       5.75938473       0.00000000      18.78750000  F        1       0.00000000       0.00000000      -0.24903482
Si       9.59897455       0.00000000      18.78750000  F        1       0.00000004       0.00000000      -0.24903484
Si       1.91979491       3.83958982      18.78750000  F        1      -0.00000000      -0.00000000      -0.24903482
Si       5.75938473       3.83958982      18.78750000  F        1       0.00000000      -0.00000000      -0.24903482
Si       9.59897455       3.83958982      18.78750000  F        1       0.00000004      -0.00000000      -0.24903484
H        7.67917964       3.83958982      25.28750000  T        0       0.00000000       0.00000000      -0.00400540
H        7.67917964       3.83958982      26.03830562  T        0       0.00000000       0.00000000       0.00400540
38
Lattice="11.518769465528859 0.0 0.0 0.0 7.679179643685906 0.0 0.0 0.0 30.7875" Properties=species:S:1:pos:R:3:move_mask:L:1:tags:I:1:forces:R:3 surface=Si100 species=H2 site=bridge_Si_Si orientation=upright height_A=5.0 substrate_atoms=36 calculation_kind="Rigid evaluated approach scan; not NEB" energy=-186.84483600269022 pbc="T T F"
Si       0.00000000       0.00000000      12.00000000  F        6      -0.00000004       0.00000000       0.24903484
Si       3.83958982       0.00000000      12.00000000  F        6      -0.00000000       0.00000000       0.24903482
Si       7.67917964       0.00000000      12.00000000  F        6       0.00000000       0.00000000       0.24903482
Si       0.00000000       3.83958982      12.00000000  F        6      -0.00000004      -0.00000000       0.24903484
Si       3.83958982       3.83958982      12.00000000  F        6      -0.00000000      -0.00000000       0.24903482
Si       7.67917964       3.83958982      12.00000000  F        6       0.00000000      -0.00000000       0.24903482
Si       1.91979491       0.00000000      13.35750000  F        5       0.00000000      -0.00000002      -0.52822352
Si       5.75938473       0.00000000      13.35750000  F        5       0.00000000      -0.00000002      -0.52822353
Si       9.59897455       0.00000000      13.35750000  F        5       0.00000003      -0.00000002      -0.52822354
Si       1.91979491       3.83958982      13.35750000  F        5       0.00000000       0.00000000      -0.52822354
Si       5.75938473       3.83958982      13.35750000  F        5       0.00000000       0.00000000      -0.52822354
Si       9.59897455       3.83958982      13.35750000  F        5       0.00000003       0.00000000      -0.52822356
Si       1.91979491       1.91979491      14.71500000  F        4      -0.00000000       0.00000000       0.14537709
Si       5.75938473       1.91979491      14.71500000  F        4       0.00000000       0.00000000       0.14537709
Si       9.59897455       1.91979491      14.71500000  F        4       0.00000004       0.00000000       0.14537711
Si       1.91979491       5.75938473      14.71500000  F        4      -0.00000000       0.00000002       0.14537707
Si       5.75938473       5.75938473      14.71500000  F        4       0.00000000       0.00000002       0.14537707
Si       9.59897455       5.75938473      14.71500000  F        4       0.00000004       0.00000002       0.14537709
Si       0.00000000       1.91979491      16.07250000  F        3      -0.00000004       0.00000000      -0.14537711
Si       3.83958982       1.91979491      16.07250000  F        3      -0.00000000       0.00000000      -0.14537709
Si       7.67917964       1.91979491      16.07250000  F        3       0.00000000       0.00000000      -0.14537709
Si       0.00000000       5.75938473      16.07250000  F        3      -0.00000004       0.00000002      -0.14537709
Si       3.83958982       5.75938473      16.07250000  F        3      -0.00000000       0.00000002      -0.14537707
Si       7.67917964       5.75938473      16.07250000  F        3       0.00000000       0.00000002      -0.14537707
Si       0.00000000       0.00000000      17.43000000  F        2      -0.00000003      -0.00000002       0.52822354
Si       3.83958982       0.00000000      17.43000000  F        2      -0.00000000      -0.00000002       0.52822353
Si       7.67917964       0.00000000      17.43000000  F        2      -0.00000000      -0.00000002       0.52822352
Si       0.00000000       3.83958982      17.43000000  F        2      -0.00000003       0.00000000       0.52822356
Si       3.83958982       3.83958982      17.43000000  F        2      -0.00000000       0.00000000       0.52822354
Si       7.67917964       3.83958982      17.43000000  F        2      -0.00000000       0.00000000       0.52822354
Si       1.91979491       0.00000000      18.78750000  F        1      -0.00000000       0.00000000      -0.24903482
Si       5.75938473       0.00000000      18.78750000  F        1       0.00000000       0.00000000      -0.24903482
Si       9.59897455       0.00000000      18.78750000  F        1       0.00000004       0.00000000      -0.24903484
Si       1.91979491       3.83958982      18.78750000  F        1      -0.00000000      -0.00000000      -0.24903482
Si       5.75938473       3.83958982      18.78750000  F        1       0.00000000      -0.00000000      -0.24903482
Si       9.59897455       3.83958982      18.78750000  F        1       0.00000004      -0.00000000      -0.24903484
H        7.67917964       3.83958982      23.78750000  T        0       0.00000000       0.00000000      -0.00400540
H        7.67917964       3.83958982      24.53830562  T        0       0.00000000       0.00000000       0.00400540
38
Lattice="11.518769465528859 0.0 0.0 0.0 7.679179643685906 0.0 0.0 0.0 30.7875" Properties=species:S:1:pos:R:3:move_mask:L:1:tags:I:1:forces:R:3 surface=Si100 species=H2 site=bridge_Si_Si orientation=upright height_A=4.0 substrate_atoms=36 calculation_kind="Rigid evaluated approach scan; not NEB" energy=-186.81283023203778 pbc="T T F"
Si       0.00000000       0.00000000      12.00000000  F        6      -0.00006177       0.00000000       0.24911296
Si       3.83958982       0.00000000      12.00000000  F        6       0.00006173       0.00000000       0.24911295
Si       7.67917964       0.00000000      12.00000000  F        6       0.00000000       0.00000000       0.24909786
Si       0.00000000       3.83958982      12.00000000  F        6      -0.00009718      -0.00000000       0.24923845
Si       3.83958982       3.83958982      12.00000000  F        6       0.00009714      -0.00000000       0.24923844
Si       7.67917964       3.83958982      12.00000000  F        6       0.00000000      -0.00000000       0.24930047
Si       1.91979491       0.00000000      13.35750000  F        5       0.00000000      -0.00000002      -0.52845783
Si       5.75938473       0.00000000      13.35750000  F        5      -0.00029854      -0.00000002      -0.52864595
Si       9.59897455       0.00000000      13.35750000  F        5       0.00029857      -0.00000002      -0.52864597
Si       1.91979491       3.83958982      13.35750000  F        5       0.00000000       0.00000000      -0.52821948
Si       5.75938473       3.83958982      13.35750000  F        5      -0.00001635       0.00000000      -0.52834058
Si       9.59897455       3.83958982      13.35750000  F        5       0.00001638       0.00000000      -0.52834059
Si       1.91979491       1.91979491      14.71500000  F        4      -0.00000000       0.00008518       0.14491776
Si       5.75938473       1.91979491      14.71500000  F        4      -0.00152200       0.00059416       0.14418606
Si       9.59897455       1.91979491      14.71500000  F        4       0.00152204       0.00059416       0.14418608
Si       1.91979491       5.75938473      14.71500000  F        4      -0.00000000      -0.00008516       0.14491775
Si       5.75938473       5.75938473      14.71500000  F        4      -0.00152200      -0.00059414       0.14418605
Si       9.59897455       5.75938473      14.71500000  F        4       0.00152204      -0.00059414       0.14418607
Si       0.00000000       1.91979491      16.07250000  F        3      -0.00020541       0.00362960      -0.14607845
Si       3.83958982       1.91979491      16.07250000  F        3       0.00020537       0.00362960      -0.14607843
Si       7.67917964       1.91979491      16.07250000  F        3       0.00000000      -0.00846811      -0.15270378
Si       0.00000000       5.75938473      16.07250000  F        3      -0.00020541      -0.00362958      -0.14607844
Si       3.83958982       5.75938473      16.07250000  F        3       0.00020537      -0.00362958      -0.14607842
Si       7.67917964       5.75938473      16.07250000  F        3       0.00000000       0.00846813      -0.15270377
Si       0.00000000       0.00000000      17.43000000  F        2       0.00143122      -0.00000002       0.52915172
Si       3.83958982       0.00000000      17.43000000  F        2      -0.00143126      -0.00000002       0.52915170
Si       7.67917964       0.00000000      17.43000000  F        2      -0.00000000      -0.00000002       0.53301327
Si       0.00000000       3.83958982      17.43000000  F        2      -0.02047084       0.00000000       0.53211203
Si       3.83958982       3.83958982      17.43000000  F        2       0.02047081       0.00000000       0.53211201
Si       7.67917964       3.83958982      17.43000000  F        2      -0.00000000       0.00000000       0.51975830
Si       1.91979491       0.00000000      18.78750000  F        1      -0.00000000       0.00000000      -0.24961987
Si       5.75938473       0.00000000      18.78750000  F        1       0.00290343       0.00000000      -0.24241307
Si       9.59897455       0.00000000      18.78750000  F        1      -0.00290339       0.00000000      -0.24241309
Si       1.91979491       3.83958982      18.78750000  F        1      -0.00000000      -0.00000000      -0.24885015
Si       5.75938473       3.83958982      18.78750000  F        1      -0.05496505      -0.00000000      -0.28813032
Si       9.59897455       3.83958982      18.78750000  F        1       0.05496509      -0.00000000      -0.28813034
H        7.67917964       3.83958982      22.78750000  T        0      -0.00000000      -0.00000000       0.16353829
H        7.67917964       3.83958982      23.53830562  T        0      -0.00000000       0.00000000      -0.08058968
38
Lattice="11.518769465528859 0.0 0.0 0.0 7.679179643685906 0.0 0.0 0.0 30.7875" Properties=species:S:1:pos:R:3:move_mask:L:1:tags:I:1:forces:R:3 surface=Si100 species=H2 site=bridge_Si_Si orientation=upright height_A=3.25 substrate_atoms=36 calculation_kind="Rigid evaluated approach scan; not NEB" energy=-186.73652041346952 pbc="T T F"
Si       0.00000000       0.00000000      12.00000000  F        6      -0.00038476       0.00000000       0.24902345
Si       3.83958982       0.00000000      12.00000000  F        6       0.00038472       0.00000000       0.24902343
Si       7.67917964       0.00000000      12.00000000  F        6       0.00000000       0.00000000       0.24917155
Si       0.00000000       3.83958982      12.00000000  F        6      -0.00041131      -0.00000000       0.24963916
Si       3.83958982       3.83958982      12.00000000  F        6       0.00041127      -0.00000000       0.24963915
Si       7.67917964       3.83958982      12.00000000  F        6       0.00000000      -0.00000000       0.25008718
Si       1.91979491       0.00000000      13.35750000  F        5       0.00000000      -0.00000002      -0.52811317
Si       5.75938473       0.00000000      13.35750000  F        5      -0.00116900      -0.00000002      -0.52916235
Si       9.59897455       0.00000000      13.35750000  F        5       0.00116904      -0.00000002      -0.52916237
Si       1.91979491       3.83958982      13.35750000  F        5       0.00000000       0.00000000      -0.52833628
Si       5.75938473       3.83958982      13.35750000  F        5       0.00021647       0.00000000      -0.52904568
Si       9.59897455       3.83958982      13.35750000  F        5      -0.00021644       0.00000000      -0.52904570
Si       1.91979491       1.91979491      14.71500000  F        4      -0.00000000       0.00056488       0.14458495
Si       5.75938473       1.91979491      14.71500000  F        4      -0.00058257      -0.00429161       0.13321182
Si       9.59897455       1.91979491      14.71500000  F        4       0.00058261      -0.00429161       0.13321184
Si       1.91979491       5.75938473      14.71500000  F        4      -0.00000000      -0.00056486       0.14458494
Si       5.75938473       5.75938473      14.71500000  F        4      -0.00058257       0.00429164       0.13321180
Si       9.59897455       5.75938473      14.71500000  F        4       0.00058261       0.00429163       0.13321182
Si       0.00000000       1.91979491      16.07250000  F        3       0.00452691      -0.00285406      -0.14804261
Si       3.83958982       1.91979491      16.07250000  F        3      -0.00452695      -0.00285406      -0.14804259
Si       7.67917964       1.91979491      16.07250000  F        3       0.00000000      -0.01698078      -0.15538323
Si       0.00000000       5.75938473      16.07250000  F        3       0.00452691       0.00285408      -0.14804260
Si       3.83958982       5.75938473      16.07250000  F        3      -0.00452695       0.00285408      -0.14804258
Si       7.67917964       5.75938473      16.07250000  F        3       0.00000000       0.01698080      -0.15538321
Si       0.00000000       0.00000000      17.43000000  F        2       0.00071532      -0.00000002       0.53731938
Si       3.83958982       0.00000000      17.43000000  F        2      -0.00071535      -0.00000002       0.53731936
Si       7.67917964       0.00000000      17.43000000  F        2      -0.00000000      -0.00000002       0.54076198
Si       0.00000000       3.83958982      17.43000000  F        2      -0.03976091       0.00000000       0.52869427
Si       3.83958982       3.83958982      17.43000000  F        2       0.03976088       0.00000000       0.52869425
Si       7.67917964       3.83958982      17.43000000  F        2      -0.00000000       0.00000000       0.42362650
Si       1.91979491       0.00000000      18.78750000  F        1      -0.00000000       0.00000000      -0.25149705
Si       5.75938473       0.00000000      18.78750000  F        1       0.00271857       0.00000000      -0.23739955
Si       9.59897455       0.00000000      18.78750000  F        1      -0.00271853       0.00000000      -0.23739956
Si       1.91979491       3.83958982      18.78750000  F        1      -0.00000000      -0.00000000      -0.23411723
Si       5.75938473       3.83958982      18.78750000  F        1      -0.09752028      -0.00000000      -0.29149416
Si       9.59897455       3.83958982      18.78750000  F        1       0.09752032      -0.00000000      -0.29149418
H        7.67917964       3.83958982      22.03750000  T        0       0.00000000      -0.00000000       0.27608146
H        7.67917964       3.83958982      22.78830562  T        0      -0.00000000      -0.00000000      -0.07189418
38
Lattice="11.518769465528859 0.0 0.0 0.0 7.679179643685906 0.0 0.0 0.0 30.7875" Properties=species:S:1:pos:R:3:move_mask:L:1:tags:I:1:forces:R:3 surface=Si100 species=H2 site=bridge_Si_Si orientation=upright height_A=2.75 substrate_atoms=36 calculation_kind="Rigid evaluated approach scan; not NEB" energy=-186.66411715649306 pbc="T T F"
Si       0.00000000       0.00000000      12.00000000  F        6      -0.00050739       0.00000000       0.24905205
Si       3.83958982       0.00000000      12.00000000  F        6       0.00050735       0.00000000       0.24905204
Si       7.67917964       0.00000000      12.00000000  F        6       0.00000000       0.00000000       0.24992135
Si       0.00000000       3.83958982      12.00000000  F        6      -0.00039306      -0.00000000       0.24964854
Si       3.83958982       3.83958982      12.00000000  F        6       0.00039302      -0.00000000       0.24964852
Si       7.67917964       3.83958982      12.00000000  F        6       0.00000000      -0.00000000       0.25052402
Si       1.91979491       0.00000000      13.35750000  F        5       0.00000000      -0.00000002      -0.52606189
Si       5.75938473       0.00000000      13.35750000  F        5      -0.00146325      -0.00000002      -0.52949506
Si       9.59897455       0.00000000      13.35750000  F        5       0.00146329      -0.00000002      -0.52949508
Si       1.91979491       3.83958982      13.35750000  F        5       0.00000000       0.00000000      -0.52887838
Si       5.75938473       3.83958982      13.35750000  F        5      -0.00249316       0.00000000      -0.53465327
Si       9.59897455       3.83958982      13.35750000  F        5       0.00249320       0.00000000      -0.53465328
Si       1.91979491       1.91979491      14.71500000  F        4      -0.00000000       0.00033558       0.14436846
Si       5.75938473       1.91979491      14.71500000  F        4       0.00117006      -0.01252999       0.12638573
Si       9.59897455       1.91979491      14.71500000  F        4      -0.00117002      -0.01252999       0.12638575
Si       1.91979491       5.75938473      14.71500000  F        4      -0.00000000      -0.00033556       0.14436845
Si       5.75938473       5.75938473      14.71500000  F        4       0.00117006       0.01253002       0.12638572
Si       9.59897455       5.75938473      14.71500000  F        4      -0.00117002       0.01253002       0.12638574
Si       0.00000000       1.91979491      16.07250000  F        3       0.00572787      -0.00777978      -0.14988661
Si       3.83958982       1.91979491      16.07250000  F        3      -0.00572790      -0.00777978      -0.14988659
Si       7.67917964       1.91979491      16.07250000  F        3       0.00000000      -0.02970244      -0.15428442
Si       0.00000000       5.75938473      16.07250000  F        3       0.00572787       0.00777981      -0.14988659
Si       3.83958982       5.75938473      16.07250000  F        3      -0.00572790       0.00777981      -0.14988657
Si       7.67917964       5.75938473      16.07250000  F        3       0.00000000       0.02970246      -0.15428440
Si       0.00000000       0.00000000      17.43000000  F        2       0.00098040      -0.00000002       0.53994326
Si       3.83958982       0.00000000      17.43000000  F        2      -0.00098043      -0.00000002       0.53994324
Si       7.67917964       0.00000000      17.43000000  F        2      -0.00000000      -0.00000002       0.53094151
Si       0.00000000       3.83958982      17.43000000  F        2      -0.00804247       0.00000000       0.48598820
Si       3.83958982       3.83958982      17.43000000  F        2       0.00804243       0.00000000       0.48598818
Si       7.67917964       3.83958982      17.43000000  F        2      -0.00000000       0.00000000       0.38771798
Si       1.91979491       0.00000000      18.78750000  F        1      -0.00000000       0.00000000      -0.25078932
Si       5.75938473       0.00000000      18.78750000  F        1       0.00058251       0.00000000      -0.22967016
Si       9.59897455       0.00000000      18.78750000  F        1      -0.00058248       0.00000000      -0.22967018
Si       1.91979491       3.83958982      18.78750000  F        1      -0.00000000      -0.00000000      -0.20595850
Si       5.75938473       3.83958982      18.78750000  F        1      -0.04283694      -0.00000000      -0.17780929
Si       9.59897455       3.83958982      18.78750000  F        1       0.04283698      -0.00000000      -0.17780930
H        7.67917964       3.83958982      21.53750000  T        0       0.00000000      -0.00000000       0.35071878
H        7.67917964       3.83958982      22.28830562  T        0      -0.00000000      -0.00000000      -0.25030866
38
Lattice="11.518769465528859 0.0 0.0 0.0 7.679179643685906 0.0 0.0 0.0 30.7875" Properties=species:S:1:pos:R:3:move_mask:L:1:tags:I:1:forces:R:3 surface=Si100 species=H2 site=bridge_Si_Si orientation=upright height_A=2.25 substrate_atoms=36 calculation_kind="Rigid evaluated approach scan; not NEB" energy=-186.5867716548934 pbc="T T F"
Si       0.00000000       0.00000000      12.00000000  F        6      -0.00066339       0.00000000       0.24806491
Si       3.83958982       0.00000000      12.00000000  F        6       0.00066335       0.00000000       0.24806490
Si       7.67917964       0.00000000      12.00000000  F        6       0.00000000       0.00000000       0.24993918
Si       0.00000000       3.83958982      12.00000000  F        6      -0.00054822      -0.00000000       0.24969885
Si       3.83958982       3.83958982      12.00000000  F        6       0.00054818      -0.00000000       0.24969883
Si       7.67917964       3.83958982      12.00000000  F        6       0.00000000      -0.00000000       0.25156794
Si       1.91979491       0.00000000      13.35750000  F        5       0.00000000      -0.00000002      -0.52341416
Si       5.75938473       0.00000000      13.35750000  F        5      -0.00194173      -0.00000002      -0.52943007
Si       9.59897455       0.00000000      13.35750000  F        5       0.00194176      -0.00000002      -0.52943009
Si       1.91979491       3.83958982      13.35750000  F        5       0.00000000       0.00000000      -0.53186159
Si       5.75938473       3.83958982      13.35750000  F        5      -0.00726113       0.00000000      -0.54433948
Si       9.59897455       3.83958982      13.35750000  F        5       0.00726117       0.00000000      -0.54433950
Si       1.91979491       1.91979491      14.71500000  F        4      -0.00000000       0.00170605       0.14475108
Si       5.75938473       1.91979491      14.71500000  F        4       0.00159330      -0.01339639       0.13660266
Si       9.59897455       1.91979491      14.71500000  F        4      -0.00159326      -0.01339639       0.13660268
Si       1.91979491       5.75938473      14.71500000  F        4      -0.00000000      -0.00170603       0.14475107
Si       5.75938473       5.75938473      14.71500000  F        4       0.00159330       0.01339641       0.13660264
Si       9.59897455       5.75938473      14.71500000  F        4      -0.00159326       0.01339641       0.13660266
Si       0.00000000       1.91979491      16.07250000  F        3       0.00004241      -0.01245733      -0.15592487
Si       3.83958982       1.91979491      16.07250000  F        3      -0.00004244      -0.01245733      -0.15592485
Si       7.67917964       1.91979491      16.07250000  F        3       0.00000000      -0.05813837      -0.15858736
Si       0.00000000       5.75938473      16.07250000  F        3       0.00004241       0.01245736      -0.15592486
Si       3.83958982       5.75938473      16.07250000  F        3      -0.00004244       0.01245736      -0.15592484
Si       7.67917964       5.75938473      16.07250000  F        3       0.00000000       0.05813840      -0.15858735
Si       0.00000000       0.00000000      17.43000000  F        2       0.00052088      -0.00000002       0.54220382
Si       3.83958982       0.00000000      17.43000000  F        2      -0.00052092      -0.00000002       0.54220380
Si       7.67917964       0.00000000      17.43000000  F        2      -0.00000000      -0.00000002       0.51041768
Si       0.00000000       3.83958982      17.43000000  F        2       0.06753456       0.00000000       0.40068334
Si       3.83958982       3.83958982      17.43000000  F        2      -0.06753460       0.00000000       0.40068332
Si       7.67917964       3.83958982      17.43000000  F        2      -0.00000000       0.00000000       0.38977463
Si       1.91979491       0.00000000      18.78750000  F        1      -0.00000000       0.00000000      -0.25332088
Si       5.75938473       0.00000000      18.78750000  F        1      -0.01174849       0.00000000      -0.24257668
Si       9.59897455       0.00000000      18.78750000  F        1       0.01174853       0.00000000      -0.24257669
Si       1.91979491       3.83958982      18.78750000  F        1      -0.00000000      -0.00000000      -0.16803985
Si       5.75938473       3.83958982      18.78750000  F        1       0.03371599      -0.00000000      -0.15391848
Si       9.59897455       3.83958982      18.78750000  F        1      -0.03371595      -0.00000000      -0.15391850
H        7.67917964       3.83958982      21.03750000  T        0       0.00000000       0.00000000       0.22715505
H        7.67917964       3.83958982      21.78830562  T        0       0.00000000      -0.00000000       0.01197103
38
Lattice="11.518769465528859 0.0 0.0 0.0 7.679179643685906 0.0 0.0 0.0 30.7875" Properties=species:S:1:pos:R:3:move_mask:L:1:tags:I:1:forces:R:3 surface=Si100 species=H2 site=bridge_Si_Si orientation=upright height_A=1.9 substrate_atoms=36 calculation_kind="Rigid evaluated approach scan; not NEB" energy=-186.48945125815962 pbc="T T F"
Si       0.00000000       0.00000000      12.00000000  F        6      -0.00107404       0.00000000       0.24650120
Si       3.83958982       0.00000000      12.00000000  F        6       0.00107401       0.00000000       0.24650118
Si       7.67917964       0.00000000      12.00000000  F        6       0.00000000       0.00000000       0.24865076
Si       0.00000000       3.83958982      12.00000000  F        6      -0.00132915      -0.00000000       0.24997332
Si       3.83958982       3.83958982      12.00000000  F        6       0.00132911      -0.00000000       0.24997330
Si       7.67917964       3.83958982      12.00000000  F        6       0.00000000      -0.00000000       0.25283623
Si       1.91979491       0.00000000      13.35750000  F        5       0.00000000      -0.00000002      -0.52289502
Si       5.75938473       0.00000000      13.35750000  F        5      -0.00307418      -0.00000002      -0.52904226
Si       9.59897455       0.00000000      13.35750000  F        5       0.00307421      -0.00000002      -0.52904227
Si       1.91979491       3.83958982      13.35750000  F        5       0.00000000       0.00000000      -0.53677516
Si       5.75938473       3.83958982      13.35750000  F        5      -0.00889878       0.00000000      -0.54883500
Si       9.59897455       3.83958982      13.35750000  F        5       0.00889881       0.00000000      -0.54883502
Si       1.91979491       1.91979491      14.71500000  F        4      -0.00000000       0.00523347       0.14679787
Si       5.75938473       1.91979491      14.71500000  F        4      -0.00081209      -0.00633384       0.14953911
Si       9.59897455       1.91979491      14.71500000  F        4       0.00081213      -0.00633384       0.14953913
Si       1.91979491       5.75938473      14.71500000  F        4      -0.00000000      -0.00523345       0.14679786
Si       5.75938473       5.75938473      14.71500000  F        4      -0.00081209       0.00633386       0.14953909
Si       9.59897455       5.75938473      14.71500000  F        4       0.00081213       0.00633386       0.14953911
Si       0.00000000       1.91979491      16.07250000  F        3      -0.00722154      -0.01081488      -0.15537279
Si       3.83958982       1.91979491      16.07250000  F        3       0.00722150      -0.01081488      -0.15537277
Si       7.67917964       1.91979491      16.07250000  F        3       0.00000000      -0.08000125      -0.15929282
Si       0.00000000       5.75938473      16.07250000  F        3      -0.00722154       0.01081490      -0.15537278
Si       3.83958982       5.75938473      16.07250000  F        3       0.00722150       0.01081490      -0.15537276
Si       7.67917964       5.75938473      16.07250000  F        3       0.00000000       0.08000127      -0.15929281
Si       0.00000000       0.00000000      17.43000000  F        2       0.00064199      -0.00000002       0.54839401
Si       3.83958982       0.00000000      17.43000000  F        2      -0.00064203      -0.00000002       0.54839399
Si       7.67917964       0.00000000      17.43000000  F        2      -0.00000000      -0.00000002       0.49907263
Si       0.00000000       3.83958982      17.43000000  F        2       0.14645227       0.00000000       0.30655034
Si       3.83958982       3.83958982      17.43000000  F        2      -0.14645231       0.00000000       0.30655032
Si       7.67917964       3.83958982      17.43000000  F        2      -0.00000000       0.00000000       0.55658866
Si       1.91979491       0.00000000      18.78750000  F        1      -0.00000000       0.00000000      -0.26286184
Si       5.75938473       0.00000000      18.78750000  F        1      -0.03738568       0.00000000      -0.27115065
Si       9.59897455       0.00000000      18.78750000  F        1       0.03738572       0.00000000      -0.27115066
Si       1.91979491       3.83958982      18.78750000  F        1      -0.00000000      -0.00000000      -0.15281875
Si       5.75938473       3.83958982      18.78750000  F        1       0.03736911      -0.00000000      -0.18595801
Si       9.59897455       3.83958982      18.78750000  F        1      -0.03736907      -0.00000000      -0.18595802
H        7.67917964       3.83958982      20.68750000  T        0       0.00000000       0.00000000       0.01204158
H        7.67917964       3.83958982      21.43830562  T        0       0.00000000      -0.00000000       0.32161968
38
Lattice="11.518769465528859 0.0 0.0 0.0 7.679179643685906 0.0 0.0 0.0 30.7875" Properties=species:S:1:pos:R:3:move_mask:L:1:tags:I:1:forces:R:3 surface=Si100 species=H2 site=bridge_Si_Si orientation=upright height_A=1.6 substrate_atoms=36 calculation_kind="Rigid evaluated approach scan; not NEB" energy=-186.34835565218097 pbc="T T F"
Si       0.00000000       0.00000000      12.00000000  F        6      -0.00149689       0.00000000       0.24480850
Si       3.83958982       0.00000000      12.00000000  F        6       0.00149685       0.00000000       0.24480849
Si       7.67917964       0.00000000      12.00000000  F        6       0.00000000       0.00000000       0.24795003
Si       0.00000000       3.83958982      12.00000000  F        6      -0.00241890      -0.00000000       0.25049645
Si       3.83958982       3.83958982      12.00000000  F        6       0.00241886      -0.00000000       0.25049644
Si       7.67917964       3.83958982      12.00000000  F        6       0.00000000      -0.00000000       0.25476506
Si       1.91979491       0.00000000      13.35750000  F        5       0.00000000      -0.00000002      -0.52403593
Si       5.75938473       0.00000000      13.35750000  F        5      -0.00397762      -0.00000002      -0.52913051
Si       9.59897455       0.00000000      13.35750000  F        5       0.00397765      -0.00000002      -0.52913053
Si       1.91979491       3.83958982      13.35750000  F        5       0.00000000       0.00000000      -0.54169525
Si       5.75938473       3.83958982      13.35750000  F        5      -0.00675160       0.00000000      -0.54526589
Si       9.59897455       3.83958982      13.35750000  F        5       0.00675163       0.00000000      -0.54526591
Si       1.91979491       1.91979491      14.71500000  F        4      -0.00000000       0.00810828       0.14917181
Si       5.75938473       1.91979491      14.71500000  F        4      -0.00512220       0.00242280       0.15805817
Si       9.59897455       1.91979491      14.71500000  F        4       0.00512224       0.00242280       0.15805819
Si       1.91979491       5.75938473      14.71500000  F        4      -0.00000000      -0.00810826       0.14917180
Si       5.75938473       5.75938473      14.71500000  F        4      -0.00512220      -0.00242277       0.15805816
Si       9.59897455       5.75938473      14.71500000  F        4       0.00512224      -0.00242277       0.15805818
Si       0.00000000       1.91979491      16.07250000  F        3      -0.01160348      -0.00690442      -0.15073901
Si       3.83958982       1.91979491      16.07250000  F        3       0.01160344      -0.00690442      -0.15073899
Si       7.67917964       1.91979491      16.07250000  F        3       0.00000000      -0.10149878      -0.19215871
Si       0.00000000       5.75938473      16.07250000  F        3      -0.01160348       0.00690445      -0.15073900
Si       3.83958982       5.75938473      16.07250000  F        3       0.01160344       0.00690445      -0.15073898
Si       7.67917964       5.75938473      16.07250000  F        3       0.00000000       0.10149881      -0.19215869
Si       0.00000000       0.00000000      17.43000000  F        2       0.00112425      -0.00000002       0.55066879
Si       3.83958982       0.00000000      17.43000000  F        2      -0.00112428      -0.00000002       0.55066877
Si       7.67917964       0.00000000      17.43000000  F        2      -0.00000000      -0.00000002       0.46680043
Si       0.00000000       3.83958982      17.43000000  F        2       0.23395866       0.00000000       0.22825097
Si       3.83958982       3.83958982      17.43000000  F        2      -0.23395869       0.00000000       0.22825095
Si       7.67917964       3.83958982      17.43000000  F        2      -0.00000000       0.00000000       0.67844238
Si       1.91979491       0.00000000      18.78750000  F        1      -0.00000000       0.00000000      -0.27591753
Si       5.75938473       0.00000000      18.78750000  F        1      -0.06217479       0.00000000      -0.29227940
Si       9.59897455       0.00000000      18.78750000  F        1       0.06217482       0.00000000      -0.29227942
Si       1.91979491       3.83958982      18.78750000  F        1      -0.00000000      -0.00000000      -0.16272723
Si       5.75938473       3.83958982      18.78750000  F        1      -0.04614237      -0.00000000      -0.28393623
Si       9.59897455       3.83958982      18.78750000  F        1       0.04614240      -0.00000000      -0.28393625
H        7.67917964       3.83958982      20.38750000  T        0       0.00000000       0.00000000      -0.14873583
H        7.67917964       3.83958982      21.13830562  T        0       0.00000000       0.00000000       0.81462572
38
Lattice="11.518769465528859 0.0 0.0 0.0 7.679179643685906 0.0 0.0 0.0 30.7875" Properties=species:S:1:pos:R:3:move_mask:L:1:tags:I:1:forces:R:3 surface=Si100 species=H2 site=bridge_Si_Si orientation=upright height_A=1.3 substrate_atoms=36 calculation_kind="Rigid evaluated approach scan; not NEB" energy=-186.07369633984428 pbc="T T F"
Si       0.00000000       0.00000000      12.00000000  F        6      -0.00135558       0.00000000       0.24281831
Si       3.83958982       0.00000000      12.00000000  F        6       0.00135555       0.00000000       0.24281829
Si       7.67917964       0.00000000      12.00000000  F        6       0.00000000       0.00000000       0.24888172
Si       0.00000000       3.83958982      12.00000000  F        6      -0.00337396      -0.00000000       0.25155983
Si       3.83958982       3.83958982      12.00000000  F        6       0.00337392      -0.00000000       0.25155981
Si       7.67917964       3.83958982      12.00000000  F        6       0.00000000      -0.00000000       0.25787274
Si       1.91979491       0.00000000      13.35750000  F        5       0.00000000      -0.00000002      -0.52661738
Si       5.75938473       0.00000000      13.35750000  F        5      -0.00341750      -0.00000002      -0.53024212
Si       9.59897455       0.00000000      13.35750000  F        5       0.00341753      -0.00000002      -0.53024214
Si       1.91979491       3.83958982      13.35750000  F        5       0.00000000       0.00000000      -0.54284662
Si       5.75938473       3.83958982      13.35750000  F        5      -0.00633313       0.00000000      -0.53972013
Si       9.59897455       3.83958982      13.35750000  F        5       0.00633316       0.00000000      -0.53972014
Si       1.91979491       1.91979491      14.71500000  F        4      -0.00000000       0.00881031       0.15007949
Si       5.75938473       1.91979491      14.71500000  F        4      -0.00919671       0.00925863       0.16503236
Si       9.59897455       1.91979491      14.71500000  F        4       0.00919675       0.00925863       0.16503238
Si       1.91979491       5.75938473      14.71500000  F        4      -0.00000000      -0.00881029       0.15007948
Si       5.75938473       5.75938473      14.71500000  F        4      -0.00919671      -0.00925861       0.16503234
Si       9.59897455       5.75938473      14.71500000  F        4       0.00919675      -0.00925861       0.16503236
Si       0.00000000       1.91979491      16.07250000  F        3      -0.01281242      -0.00787342      -0.14927496
Si       3.83958982       1.91979491      16.07250000  F        3       0.01281238      -0.00787342      -0.14927494
Si       7.67917964       1.91979491      16.07250000  F        3       0.00000000      -0.10014668      -0.21664071
Si       0.00000000       5.75938473      16.07250000  F        3      -0.01281242       0.00787344      -0.14927494
Si       3.83958982       5.75938473      16.07250000  F        3       0.01281238       0.00787344      -0.14927492
Si       7.67917964       5.75938473      16.07250000  F        3       0.00000000       0.10014671      -0.21664070
Si       0.00000000       0.00000000      17.43000000  F        2      -0.00455947      -0.00000002       0.54518111
Si       3.83958982       0.00000000      17.43000000  F        2       0.00455944      -0.00000002       0.54518109
Si       7.67917964       0.00000000      17.43000000  F        2      -0.00000000      -0.00000002       0.38724839
Si       0.00000000       3.83958982      17.43000000  F        2       0.28441584       0.00000000       0.21239197
Si       3.83958982       3.83958982      17.43000000  F        2      -0.28441587       0.00000000       0.21239195
Si       7.67917964       3.83958982      17.43000000  F        2      -0.00000000       0.00000000       0.57230389
Si       1.91979491       0.00000000      18.78750000  F        1      -0.00000000       0.00000000      -0.28867410
Si       5.75938473       0.00000000      18.78750000  F        1      -0.09287945       0.00000000      -0.30398397
Si       9.59897455       0.00000000      18.78750000  F        1       0.09287949       0.00000000      -0.30398398
Si       1.91979491       3.83958982      18.78750000  F        1      -0.00000000      -0.00000000      -0.19457114
Si       5.75938473       3.83958982      18.78750000  F        1      -0.26593609      -0.00000000      -0.37492541
Si       9.59897455       3.83958982      18.78750000  F        1       0.26593613      -0.00000000      -0.37492543
H        7.67917964       3.83958982      20.08750000  T        0      -0.00000000       0.00000000      -0.15566090
H        7.67917964       3.83958982      20.83830562  T        0       0.00000000       0.00000000       1.30599713
