38
Lattice="9.8418 0.0 0.0 -2.460449999999999 4.261624409482844 0.0 0.0 -0.0 34.16586254" Properties=species:S:1:pos:R:3:move_mask:L:1:spacegroup_kinds:I:1:tags:I:1:forces:R:3 surface=alpha_quartz_001 calculation_kind="Single-HF reference relaxation; not a reaction path" energy=-274.597474153795 pbc="T T F"
Si       2.31725181       0.00000000      12.00000000  F        0        2      -0.13468827      -0.36641557      -1.70942236
Si      -1.15862590       2.00679893      15.60606667  F        0        2      -0.13184964       0.04094372       1.23656811
Si       1.30182410       2.25482548      13.80303333  F        0        2       0.03455125      -0.15893147       1.00484727
O        1.38326499       1.13103512      12.65233746  F        1        2      -0.50612662       0.21815612      -0.21348395
O        0.28787265       1.76346018      14.95372921  F        1        2       0.44297160      -0.24597671      -0.37696836
O        3.24976236       0.63242506      16.25840413  F        1        2      -0.19040902      -0.49806240       0.00171073
O        0.78931236       3.62919935      13.15069587  F        1        2       0.42747684       0.28327960       0.54220017
O        2.74832265       2.49816423      14.45537079  F        1        2       0.01239332       0.38607244      -0.72680641
O       -1.07718501       3.13058929      16.75676254  F        1        2       0.07045946       0.39625734       0.21681211
Si       2.31815910       0.00920718      17.46242077  T        0        1      -0.00028226      -0.00082513      -0.00568200
Si      -1.17357988       1.83682901      21.13161247  T        0        1      -0.00924188      -0.01090585       0.01672999
Si       1.31448686       2.26862594      19.30171319  T        0        1      -0.00282062      -0.00303955       0.00949512
O        1.37607646       1.16338792      18.08869696  T        1        1      -0.00105253       0.00250882       0.00129000
O        0.29816843       1.77632202      20.45284077  T        1        1       0.01543627      -0.00056079      -0.01369365
O        3.15340921       0.71083122      21.99042877  T        1        1       0.00169535      -0.00370378      -0.00964833
O        0.80737226       3.65564560      18.61281488  T        1        1       0.00026688      -0.00119755       0.00317405
O        2.78152716       2.51044243      19.94750643  T        1        1      -0.01245477       0.00150744      -0.00524103
O       -1.19661235       2.47056652      22.63819033  T        1        1      -0.00291626      -0.01304709      -0.00460507
Si       7.23815181       0.00000000      12.00000000  F        0        2      -0.13396718      -0.36633518      -1.70542382
Si       3.76227409       2.00679893      15.60606667  F        0        2      -0.11273028       0.07637419       1.23229741
Si       6.22272410       2.25482548      13.80303333  F        0        2       0.02882592      -0.16234889       1.01482153
O        6.30416499       1.13103512      12.65233746  F        1        2      -0.50572356       0.21645424      -0.21778289
O        5.20877265       1.76346018      14.95372921  F        1        2       0.43490839      -0.24935265      -0.37457389
O        8.17066236       0.63242506      16.25840413  F        1        2      -0.22096075      -0.53368378       0.09559702
O        5.71021236       3.62919935      13.15069587  F        1        2       0.42751852       0.28489264       0.53685530
O        7.66922265       2.49816423      14.45537079  F        1        2       0.02120778       0.38900363      -0.72347792
O        3.84371499       3.13058929      16.75676254  F        1        2       0.08991351       0.37557513       0.19471076
Si       7.24748243      -0.00094469      17.46786588  T        0        1      -0.00077775      -0.00180084      -0.00959563
Si       3.74948588       1.97611511      21.15591631  T        0        1      -0.01181383      -0.00775925       0.01958936
Si       6.22530509       2.24833866      19.32131190  T        0        1      -0.00339019      -0.00220119       0.00761729
O        6.30833491       1.14730026      18.10724571  T        1        1      -0.00344673       0.00560553       0.00300106
O        5.19418840       1.73461933      20.45727514  T        1        1       0.01814035      -0.00082071      -0.01640290
O        8.15400470       0.39711720      21.72518038  T        1        1      -0.00228084      -0.00193520      -0.00732614
O        5.73716052       3.63450461      18.61470624  T        1        1       0.00293271      -0.00404975       0.00562650
O        7.68426799       2.48771954      19.99368361  T        1        1      -0.01325386       0.00145593      -0.00820433
O        3.77960229       2.88330584      22.52395979  T        1        1      -0.00125688      -0.01556390      -0.00015940
F        3.00812123       0.27701871      24.41970756  T        0        0      -0.01694018      -0.01575568      -0.00737052
H        3.05583461       0.40780909      23.42523215  T        0        0      -0.01031425      -0.01381387      -0.00707520
38
Lattice="9.8418 0.0 0.0 -2.460449999999999 4.261624409482844 0.0 0.0 -0.0 34.16586254" Properties=species:S:1:pos:R:3:move_mask:L:1:spacegroup_kinds:I:1:tags:I:1:forces:R:3 surface=alpha_quartz_001 calculation_kind="Single-HF reference relaxation; not a reaction path" energy=-274.5975118283356 pbc="T T F"
Si       2.31725181       0.00000000      12.00000000  F        0        2      -0.13467031      -0.36644368      -1.70936699
Si      -1.15862590       2.00679893      15.60606667  F        0        2      -0.13171291       0.04131034       1.23723697
Si       1.30182410       2.25482548      13.80303333  F        0        2       0.03452819      -0.15896581       1.00520553
O        1.38326499       1.13103512      12.65233746  F        1        2      -0.50614811       0.21813616      -0.21356556
O        0.28787265       1.76346018      14.95372921  F        1        2       0.44303438      -0.24596429      -0.37723277
O        3.24976236       0.63242506      16.25840413  F        1        2      -0.18959055      -0.49737703       0.00010204
O        0.78931236       3.62919935      13.15069587  F        1        2       0.42748110       0.28331140       0.54211523
O        2.74832265       2.49816423      14.45537079  F        1        2       0.01230568       0.38608172      -0.72700658
O       -1.07718501       3.13058929      16.75676254  F        1        2       0.06980666       0.39509196       0.21533459
Si       2.31815507       0.00919539      17.46233960  T        0        1      -0.00005335       0.00040125       0.00183037
Si      -1.17371191       1.83667321      21.13185147  T        0        1      -0.00003290      -0.00413874      -0.00685615
Si       1.31444657       2.26858252      19.30184883  T        0        1      -0.00111682       0.00007068      -0.00199801
O        1.37606142       1.16342376      18.08871539  T        1        1       0.00069824      -0.00002830      -0.00136521
O        0.29838895       1.77631401      20.45264515  T        1        1      -0.00740252      -0.00417293       0.00245641
O        3.15343343       0.71077831      21.99029094  T        1        1      -0.00124826      -0.01032040      -0.00445161
O        0.80737607       3.65562849      18.61286022  T        1        1      -0.00195661       0.00039296       0.00007286
O        2.78134923       2.51046396      19.94743156  T        1        1       0.00037815      -0.00070634       0.00479202
O       -1.19665401       2.47038013      22.63812454  T        1        1      -0.00275932      -0.01030816       0.00203502
Si       7.23815181       0.00000000      12.00000000  F        0        2      -0.13395062      -0.36636666      -1.70539306
Si       3.76227409       2.00679893      15.60606667  F        0        2      -0.11288055       0.07603530       1.23279396
Si       6.22272410       2.25482548      13.80303333  F        0        2       0.02884010      -0.16236997       1.01509885
O        6.30416499       1.13103512      12.65233746  F        1        2      -0.50575879       0.21644009      -0.21785064
O        5.20877265       1.76346018      14.95372921  F        1        2       0.43498769      -0.24927117      -0.37477975
O        8.17066236       0.63242506      16.25840413  F        1        2      -0.22008615      -0.53311060       0.09377150
O        5.71021236       3.62919935      13.15069587  F        1        2       0.42752809       0.28492110       0.53679778
O        7.66922265       2.49816423      14.45537079  F        1        2       0.02107083       0.38893937      -0.72368458
O        3.84371499       3.13058929      16.75676254  F        1        2       0.08896345       0.37422408       0.19309085
Si       7.24747132      -0.00097042      17.46772880  T        0        1      -0.00021520       0.00072186       0.00206488
Si       3.74931711       1.97600426      21.15619616  T        0        1       0.00105920      -0.00442361      -0.00603241
Si       6.22525666       2.24830721      19.32142072  T        0        1      -0.00112143       0.00005917      -0.00243388
O        6.30828567       1.14738034      18.10728858  T        1        1       0.00028373      -0.00054667      -0.00243972
O        5.19444755       1.73460761      20.45704081  T        1        1      -0.00720032      -0.00255073       0.00155113
O        8.15397212       0.39708955      21.72507572  T        1        1      -0.00407165      -0.00742233      -0.00448744
O        5.73720242       3.63444676      18.61478662  T        1        1      -0.00203890       0.00131104      -0.00089132
O        7.68407865       2.48774034      19.99356641  T        1        1       0.00110385      -0.00178674       0.00276989
O        3.77958433       2.88308350      22.52395751  T        1        1      -0.00078063      -0.01166443       0.00551087
F        3.00787923       0.27679363      24.41960227  T        0        0      -0.01690217      -0.01561522      -0.00792362
H        3.05568726       0.40761175      23.42513108  T        0        0      -0.01037128      -0.01389466      -0.00687143
38
Lattice="9.8418 0.0 0.0 -2.460449999999999 4.261624409482844 0.0 0.0 -0.0 34.16586254" Properties=species:S:1:pos:R:3:move_mask:L:1:spacegroup_kinds:I:1:tags:I:1:forces:R:3 surface=alpha_quartz_001 calculation_kind="Single-HF reference relaxation; not a reaction path" energy=-274.597547014932 pbc="T T F"
Si       2.31725181       0.00000000      12.00000000  F        0        2      -0.13466603      -0.36644918      -1.70935008
Si      -1.15862590       2.00679893      15.60606667  F        0        2      -0.13167092       0.04143315       1.23738763
Si       1.30182410       2.25482548      13.80303333  F        0        2       0.03451884      -0.15897377       1.00528837
O        1.38326499       1.13103512      12.65233746  F        1        2      -0.50615078       0.21813031      -0.21358516
O        0.28787265       1.76346018      14.95372921  F        1        2       0.44304744      -0.24596464      -0.37729636
O        3.24976236       0.63242506      16.25840413  F        1        2      -0.18942293      -0.49729802      -0.00014022
O        0.78931236       3.62919935      13.15069587  F        1        2       0.42748060       0.28331921       0.54209358
O        2.74832265       2.49816423      14.45537079  F        1        2       0.01229074       0.38608586      -0.72704939
O       -1.07718501       3.13058929      16.75676254  F        1        2       0.06969372       0.39488438       0.21504972
Si       2.31815202       0.00919605      17.46232809  T        0        1      -0.00008428       0.00054609       0.00290531
Si      -1.17378232       1.83651972      21.13186017  T        0        1       0.00127164      -0.00265512      -0.01152493
Si       1.31440607       2.26856076      19.30188628  T        0        1      -0.00094304       0.00070460      -0.00426066
O        1.37606546       1.16344223      18.08870169  T        1        1       0.00086787      -0.00020284      -0.00165144
O        0.29837849       1.77623811      20.45258384  T        1        1      -0.01134301      -0.00479770       0.00521967
O        3.15342481       0.71057309      21.99014157  T        1        1      -0.00185885      -0.01172104      -0.00344732
O        0.80734449       3.65562619      18.61288546  T        1        1      -0.00209511       0.00031085      -0.00016211
O        2.78126160       2.51046323      19.94747424  T        1        1       0.00275513      -0.00110579       0.00662158
O       -1.19672343       2.47010451      22.63812469  T        1        1      -0.00272167      -0.00970408       0.00341713
Si       7.23815181       0.00000000      12.00000000  F        0        2      -0.13394642      -0.36637293      -1.70538452
Si       3.76227409       2.00679893      15.60606667  F        0        2      -0.11292328       0.07592667       1.23288663
Si       6.22272410       2.25482548      13.80303333  F        0        2       0.02884635      -0.16237211       1.01515570
O        6.30416499       1.13103512      12.65233746  F        1        2      -0.50576598       0.21643514      -0.21786592
O        5.20877265       1.76346018      14.95372921  F        1        2       0.43500093      -0.24924786      -0.37482493
O        8.17066236       0.63242506      16.25840413  F        1        2      -0.21984743      -0.53299947       0.09333278
O        5.71021236       3.62919935      13.15069587  F        1        2       0.42752810       0.28492852       0.53678439
O        7.66922265       2.49816423      14.45537079  F        1        2       0.02103917       0.38892124      -0.72373131
O        3.84371499       3.13058929      16.75676254  F        1        2       0.08868428       0.37386377       0.19269438
Si       7.24746175      -0.00097163      17.46769174  T        0        1      -0.00007459       0.00133468       0.00472811
Si       3.74924602       1.97586966      21.15624061  T        0        1       0.00393366      -0.00377563      -0.01113169
Si       6.22521178       2.24829160      19.32143649  T        0        1      -0.00039643       0.00059700      -0.00475226
O        6.30826449       1.14741332      18.10726937  T        1        1       0.00110523      -0.00196736      -0.00368335
O        5.19446100       1.73455760      20.45694348  T        1        1      -0.01281706      -0.00301271       0.00557084
O        8.15388496       0.39694747      21.72494329  T        1        1      -0.00445411      -0.00857138      -0.00390487
O        5.73718957       3.63443866      18.61481383  T        1        1      -0.00318498       0.00253994      -0.00237148
O        7.68399744       2.48772066      19.99355197  T        1        1       0.00423293      -0.00247417       0.00513364
O        3.77956143       2.88276557      22.52405094  T        1        1      -0.00066713      -0.01084825       0.00665434
F        3.00746095       0.27640640      24.41941050  T        0        0      -0.01689060      -0.01558026      -0.00798056
H        3.05543121       0.40726874      23.42495961  T        0        0      -0.01037199      -0.01386710      -0.00682521
38
Lattice="9.8418 0.0 0.0 -2.460449999999999 4.261624409482844 0.0 0.0 -0.0 34.16586254" Properties=species:S:1:pos:R:3:move_mask:L:1:spacegroup_kinds:I:1:tags:I:1:forces:R:3 surface=alpha_quartz_001 calculation_kind="Single-HF reference relaxation; not a reaction path" energy=-274.5983346166844 pbc="T T F"
Si       2.31725181       0.00000000      12.00000000  F        0        2      -0.13459229      -0.36653964      -1.70909099
Si      -1.15862590       2.00679893      15.60606667  F        0        2      -0.13098718       0.04331428       1.23943017
Si       1.30182410       2.25482548      13.80303333  F        0        2       0.03436414      -0.15907298       1.00651912
O        1.38326499       1.13103512      12.65233746  F        1        2      -0.50620056       0.21804214      -0.21387743
O        0.28787265       1.76346018      14.95372921  F        1        2       0.44316617      -0.24594973      -0.37825791
O        3.24976236       0.63242506      16.25840413  F        1        2      -0.18660830      -0.49711517      -0.00295526
O        0.78931236       3.62919935      13.15069587  F        1        2       0.42748074       0.28343634       0.54177382
O        2.74832265       2.49816423      14.45537079  F        1        2       0.01209042       0.38609772      -0.72766910
O       -1.07718501       3.13058929      16.75676254  F        1        2       0.06755921       0.39160078       0.21057691
Si       2.31805351       0.00923105      17.46213640  T        0        1      -0.00024258       0.00302122       0.02063095
Si      -1.17564936       1.83232378      21.13137190  T        0        1       0.02206595       0.01940716      -0.08006351
Si       1.31325038       2.26803298      19.30261208  T        0        1       0.00291352       0.01003099      -0.03796376
O        1.37619666       1.16397221      18.08827694  T        1        1       0.00372093      -0.00364383      -0.00681182
O        0.29749217       1.77394939      20.45121738  T        1        1      -0.07194772      -0.01449812       0.04733100
O        3.15307656       0.70440682      21.98597732  T        1        1      -0.01107145      -0.03306985       0.01126518
O        0.80642996       3.65551859      18.61360520  T        1        1      -0.00496754      -0.00001574      -0.00481148
O        2.77909123       2.51038132      19.94898817  T        1        1       0.03873442      -0.00706112       0.03395644
O       -1.19872575       2.46222972      22.63835268  T        1        1      -0.00204897      -0.00012635       0.02423961
Si       7.23815181       0.00000000      12.00000000  F        0        2      -0.13387919      -0.36647372      -1.70525956
Si       3.76227409       2.00679893      15.60606667  F        0        2      -0.11352792       0.07444252       1.23421589
Si       6.22272410       2.25482548      13.80303333  F        0        2       0.02891363      -0.16239775       1.01599624
O        6.30416499       1.13103512      12.65233746  F        1        2      -0.50587632       0.21635871      -0.21808503
O        5.20877265       1.76346018      14.95372921  F        1        2       0.43515095      -0.24887806      -0.37556056
O        8.17066236       0.63242506      16.25840413  F        1        2      -0.21558783      -0.53143929       0.08639410
O        5.71021236       3.62919935      13.15069587  F        1        2       0.42753045       0.28504724       0.53659468
O        7.66922265       2.49816423      14.45537079  F        1        2       0.02058757       0.38864122      -0.72441810
O        3.84371499       3.13058929      16.75676254  F        1        2       0.08380720       0.36774978       0.18623529
Si       7.24720909      -0.00090162      17.46706657  T        0        1       0.00183787       0.01011377       0.04337509
Si       3.74766755       1.97207678      21.15671672  T        0        1       0.04362021       0.00699879      -0.08605463
Si       6.22404758       2.24793127      19.32150222  T        0        1       0.01046128       0.00858883      -0.03897946
O        6.30778783       1.14812798      18.10650452  T        1        1       0.01257162      -0.02243139      -0.02182747
O        5.19391755       1.73302909      20.45479729  T        1        1      -0.09353574      -0.01023983       0.06361972
O        8.15130051       0.39264976      21.72120536  T        1        1      -0.01027333      -0.02593723       0.00464678
O        5.73662472       3.63441112      18.61535333  T        1        1      -0.01966820       0.02017686      -0.02362092
O        7.68216385       2.48703908      19.99352234  T        1        1       0.05007011      -0.01219701       0.03914864
O        3.77891806       2.87369889      22.52693703  T        1        1       0.00115672       0.00160163       0.02373733
F        2.99536045       0.26520830      24.41385639  T        0        0      -0.01652070      -0.01464805      -0.00912712
H        3.04802317       0.39735156      23.42000595  T        0        0      -0.01026730      -0.01293512      -0.00525286
38
Lattice="9.8418 0.0 0.0 -2.460449999999999 4.261624409482844 0.0 0.0 -0.0 34.16586254" Properties=species:S:1:pos:R:3:move_mask:L:1:spacegroup_kinds:I:1:tags:I:1:forces:R:3 surface=alpha_quartz_001 calculation_kind="Single-HF reference relaxation; not a reaction path" energy=-274.5995924122711 pbc="T T F"
Si       2.31725181       0.00000000      12.00000000  F        0        2      -0.13450181      -0.36663411      -1.70878259
Si      -1.15862590       2.00679893      15.60606667  F        0        2      -0.13014996       0.04547890       1.24116409
Si       1.30182410       2.25482548      13.80303333  F        0        2       0.03416219      -0.15914322       1.00776475
O        1.38326499       1.13103512      12.65233746  F        1        2      -0.50624697       0.21793858      -0.21418290
O        0.28787265       1.76346018      14.95372921  F        1        2       0.44316862      -0.24591899      -0.37927226
O        3.24976236       0.63242506      16.25840413  F        1        2      -0.18355046      -0.49899628      -0.00360750
O        0.78931236       3.62919935      13.15069587  F        1        2       0.42747750       0.28356163       0.54143372
O        2.74832265       2.49816423      14.45537079  F        1        2       0.01195133       0.38604815      -0.72825679
O       -1.07718501       3.13058929      16.75676254  F        1        2       0.06503240       0.38852171       0.20622674
Si       2.31786300       0.00932436      17.46196909  T        0        1      -0.00039354       0.00509261       0.03673972
Si      -1.17900234       1.82455096      21.12968439  T        0        1       0.03996195       0.04074978      -0.14225372
Si       1.31109226       2.26712700      19.30362317  T        0        1       0.00630929       0.01850571      -0.06875006
O        1.37647282       1.16495669      18.08740754  T        1        1       0.00594151      -0.00614988      -0.01138228
O        0.29512289       1.76945958      20.44906101  T        1        1      -0.12728840      -0.02349516       0.08495681
O        3.15230242       0.69235028      21.97816676  T        1        1      -0.01941217      -0.05275523       0.02465364
O        0.80465490       3.65529611      18.61493758  T        1        1      -0.00704890      -0.00124651      -0.00855875
O        2.77534015       2.51016028      19.95218318  T        1        1       0.07224394      -0.01254002       0.05887149
O       -1.20254796       2.44728049      22.63903207  T        1        1      -0.00143182       0.00931127       0.04340719
Si       7.23815181       0.00000000      12.00000000  F        0        2      -0.13380234      -0.36657675      -1.70511641
Si       3.76227409       2.00679893      15.60606667  F        0        2      -0.11413258       0.07299467       1.23537930
Si       6.22272410       2.25482548      13.80303333  F        0        2       0.02895657      -0.16239956       1.01680540
O        6.30416499       1.13103512      12.65233746  F        1        2      -0.50598031       0.21626261      -0.21829685
O        5.20877265       1.76346018      14.95372921  F        1        2       0.43520992      -0.24844534      -0.37639768
O        8.17066236       0.63242506      16.25840413  F        1        2      -0.21014523      -0.53022446       0.07893650
O        5.71021236       3.62919935      13.15069587  F        1        2       0.42751722       0.28518697       0.53640770
O        7.66922265       2.49816423      14.45537079  F        1        2       0.02016251       0.38833202      -0.72510007
O        3.84371499       3.13058929      16.75676254  F        1        2       0.07757803       0.36031907       0.17892119
Si       7.24674597      -0.00066688      17.46631221  T        0        1       0.00351166       0.01839755       0.07947122
Si       3.74506157       1.96495746      21.15680167  T        0        1       0.07971883       0.01784236      -0.15392169
Si       6.22196233       2.24733766      19.32122495  T        0        1       0.02125691       0.01612254      -0.07103769
O        6.30699699       1.14926332      18.10483138  T        1        1       0.02270476      -0.04160972      -0.03927436
O        5.19197821       1.73000785      20.45134391  T        1        1      -0.16937355      -0.01765702       0.11817383
O        8.14628460       0.38422034      21.71414682  T        1        1      -0.01579619      -0.04203419       0.01237204
O        5.73535699       3.63455709      18.61614724  T        1        1      -0.03509108       0.03684131      -0.04349386
O        7.67917703       2.48563103      19.99384098  T        1        1       0.09383507      -0.02114792       0.07067796
O        3.77771092       2.85649455      22.53265511  T        1        1       0.00309532       0.01303159       0.03873432
F        2.97220937       0.24379458      24.40321216  T        0        0      -0.01541752      -0.01224111      -0.01186839
H        3.03384897       0.37839389      23.41055873  T        0        0      -0.01003268      -0.01132360      -0.00154374
38
Lattice="9.8418 0.0 0.0 -2.460449999999999 4.261624409482844 0.0 0.0 -0.0 34.16586254" Properties=species:S:1:pos:R:3:move_mask:L:1:spacegroup_kinds:I:1:tags:I:1:forces:R:3 surface=alpha_quartz_001 calculation_kind="Single-HF reference relaxation; not a reaction path" energy=-274.6017758228529 pbc="T T F"
Si       2.31725181       0.00000000      12.00000000  F        0        2      -0.13438124      -0.36673237      -1.70837988
Si      -1.15862590       2.00679893      15.60606667  F        0        2      -0.12907201       0.04800722       1.24237951
Si       1.30182410       2.25482548      13.80303333  F        0        2       0.03388812      -0.15916090       1.00905039
O        1.38326499       1.13103512      12.65233746  F        1        2      -0.50628530       0.21780227      -0.21451885
O        0.28787265       1.76346018      14.95372921  F        1        2       0.44297116      -0.24585086      -0.38038484
O        3.24976236       0.63242506      16.25840413  F        1        2      -0.18015931      -0.50442587      -0.00052390
O        0.78931236       3.62919935      13.15069587  F        1        2       0.42746266       0.28370493       0.54104669
O        2.74832265       2.49816423      14.45537079  F        1        2       0.01190723       0.38588898      -0.72881183
O       -1.07718501       3.13058929      16.75676254  F        1        2       0.06182308       0.38581759       0.20212759
Si       2.31751755       0.00951127      17.46184227  T        0        1      -0.00032832       0.00670372       0.05084735
Si      -1.18488286       1.81078874      21.12598533  T        0        1       0.05383527       0.05978873      -0.19267014
Si       1.30724410       2.26558375      19.30511260  T        0        1       0.00934725       0.02538304      -0.09364521
O        1.37698348       1.16672193      18.08579275  T        1        1       0.00766048      -0.00782659      -0.01524160
O        0.29025388       1.76126065      20.44555632  T        1        1      -0.17465530      -0.03125655       0.11569951
O        3.15081279       0.67037290      21.96421796  T        1        1      -0.02510130      -0.06645564       0.03701541
O        0.80144469       3.65485687      18.61731326  T        1        1      -0.00871241      -0.00287901      -0.01178649
O        2.76894689       2.50970374      19.95820811  T        1        1       0.10179081      -0.01824452       0.08112053
O       -1.20943341       2.42044127      22.64047624  T        1        1      -0.00145501       0.01699485       0.05736791
Si       7.23815181       0.00000000      12.00000000  F        0        2      -0.13371049      -0.36668004      -1.70492923
Si       3.76227409       2.00679893      15.60606667  F        0        2      -0.11472470       0.07172143       1.23636624
Si       6.22272410       2.25482548      13.80303333  F        0        2       0.02894460      -0.16236822       1.01759348
O        6.30416499       1.13103512      12.65233746  F        1        2      -0.50606558       0.21613058      -0.21850273
O        5.20877265       1.76346018      14.95372921  F        1        2       0.43513752      -0.24791388      -0.37744342
O        8.17066236       0.63242506      16.25840413  F        1        2      -0.20283602      -0.52965471       0.07084867
O        5.71021236       3.62919935      13.15069587  F        1        2       0.42747416       0.28536438       0.53621386
O        7.66922265       2.49816423      14.45537079  F        1        2       0.01978130       0.38798921      -0.72579232
O        3.84371499       3.13058929      16.75676254  F        1        2       0.06925676       0.35084392       0.17030443
Si       7.24592677      -0.00014775      17.46536233  T        0        1       0.00466283       0.02539365       0.10951530
Si       3.74072342       1.95226520      21.15623889  T        0        1       0.10770572       0.02810270      -0.20734625
Si       6.21834955       2.24635769      19.32034847  T        0        1       0.03035266       0.02223376      -0.09672087
O        6.30566905       1.15109351      18.10160626  T        1        1       0.03016489      -0.05726147      -0.05435804
O        5.18763214       1.72445273      20.44573170  T        1        1      -0.23400346      -0.02410816       0.16419430
O        8.13717029       0.36882919      21.70149704  T        1        1      -0.02027052      -0.05455734       0.01824780
O        5.73289610       3.63500995      18.61735673  T        1        1      -0.04788880       0.05077216      -0.06004772
O        7.67429947       2.48299800      19.99475900  T        1        1       0.13224628      -0.02928148       0.09745834
O        3.77556187       2.82559456      22.54312567  T        1        1       0.00499198       0.02061095       0.04702270
F        2.93047677       0.20522500      24.38395659  T        0        0      -0.01190036      -0.00532070      -0.02044324
H        3.00828909       0.34423818      23.39360578  T        0        0      -0.00985462      -0.00927576       0.00712656
38
Lattice="9.8418 0.0 0.0 -2.460449999999999 4.261624409482844 0.0 0.0 -0.0 34.16586254" Properties=species:S:1:pos:R:3:move_mask:L:1:spacegroup_kinds:I:1:tags:I:1:forces:R:3 surface=alpha_quartz_001 calculation_kind="Single-HF reference relaxation; not a reaction path" energy=-274.60392985315787 pbc="T T F"
Si       2.31725181       0.00000000      12.00000000  F        0        2      -0.13428637      -0.36677910      -1.70804859
Si      -1.15862590       2.00679893      15.60606667  F        0        2      -0.12827030       0.04965861       1.24244375
Si       1.30182410       2.25482548      13.80303333  F        0        2       0.03367073      -0.15911154       1.00976771
O        1.38326499       1.13103512      12.65233746  F        1        2      -0.50628566       0.21768640      -0.21473487
O        0.28787265       1.76346018      14.95372921  F        1        2       0.44265803      -0.24577430      -0.38107038
O        3.24976236       0.63242506      16.25840413  F        1        2      -0.17827697      -0.51125275       0.00552346
O        0.78931236       3.62919935      13.15069587  F        1        2       0.42743085       0.28380314       0.54077817
O        2.74832265       2.49816423      14.45537079  F        1        2       0.01198651       0.38569140      -0.72907701
O       -1.07718501       3.13058929      16.75676254  F        1        2       0.05960271       0.38512341       0.20057031
Si       2.31717376       0.00970964      17.46184550  T        0        1      -0.00016523       0.00688294       0.05446244
Si      -1.19067100       1.79720231      21.12186153  T        0        1       0.05511488       0.06510660      -0.20207263
Si       1.30342521       2.26409711      19.30639061  T        0        1       0.01044017       0.02656680      -0.09752918
O        1.37750229       1.16848688      18.08414306  T        1        1       0.00791739      -0.00738584      -0.01572597
O        0.28495539       1.75298008      20.44230003  T        1        1      -0.18618940      -0.03286362       0.12120676
O        3.14927926       0.64825982      21.95036720  T        1        1      -0.02450891      -0.06451213       0.04288796
O        0.79822439       3.65438437      18.61966955  T        1        1      -0.00880364      -0.00438127      -0.01234167
O        2.76282354       2.50918873      19.96444209  T        1        1       0.10979102      -0.02179933       0.08855728
O       -1.21632992       2.39365036      22.64203585  T        1        1      -0.00295162       0.01820462       0.05669242
Si       7.23815181       0.00000000      12.00000000  F        0        2      -0.13364764      -0.36672505      -1.70476371
Si       3.76227409       2.00679893      15.60606667  F        0        2      -0.11501201       0.07129972       1.23673000
Si       6.22272410       2.25482548      13.80303333  F        0        2       0.02887336      -0.16231703       1.01799264
O        6.30416499       1.13103512      12.65233746  F        1        2      -0.50607566       0.21601519      -0.21861043
O        5.20877265       1.76346018      14.95372921  F        1        2       0.43497343      -0.24753541      -0.37822883
O        8.17066236       0.63242506      16.25840413  F        1        2      -0.19723068      -0.53018814       0.06634816
O        5.71021236       3.62919935      13.15069587  F        1        2       0.42740835       0.28550072       0.53609021
O        7.66922265       2.49816423      14.45537079  F        1        2       0.01963248       0.38778872      -0.72617398
O        3.84371499       3.13058929      16.75676254  F        1        2       0.06287398       0.34398505       0.16468570
Si       7.24511362       0.00043736      17.46468569  T        0        1       0.00460544       0.02719122       0.11639305
Si       3.73659084       1.93967647      21.15524222  T        0        1       0.11193282       0.03092200      -0.21560102
Si       6.21483162       2.24543431      19.31923655  T        0        1       0.03216048       0.02315265      -0.10027618
O        6.30439060       1.15278573      18.09823072  T        1        1       0.03061838      -0.06014964      -0.05819391
O        5.18268992       1.71881766      20.44053462  T        1        1      -0.25076095      -0.02512160       0.17531355
O        8.12800285       0.35330956      21.68887871  T        1        1      -0.02088834      -0.05579011       0.01855860
O        5.73031664       3.63559063      18.61841877  T        1        1      -0.05069825       0.05375675      -0.06376205
O        7.66978793       2.48028783      19.99591715  T        1        1       0.14282982      -0.03239733       0.10423890
O        3.77343339       2.79471512      22.55364583  T        1        1       0.00564029       0.01939455       0.04184998
F        2.88875412       0.16672534      24.36454017  T        0        0      -0.00631018       0.00410346      -0.02960997
H        2.98270318       0.31007856      23.37677904  T        0        0      -0.00979930      -0.00774973       0.01472933
38
Lattice="9.8418 0.0 0.0 -2.460449999999999 4.261624409482844 0.0 0.0 -0.0 34.16586254" Properties=species:S:1:pos:R:3:move_mask:L:1:spacegroup_kinds:I:1:tags:I:1:forces:R:3 surface=alpha_quartz_001 calculation_kind="Single-HF reference relaxation; not a reaction path" energy=-274.6059810824401 pbc="T T F"
Si       2.31725181       0.00000000      12.00000000  F        0        2      -0.13421291      -0.36677527      -1.70775672
Si      -1.15862590       2.00679893      15.60606667  F        0        2      -0.12772714       0.05051095       1.24154716
Si       1.30182410       2.25482548      13.80303333  F        0        2       0.03350652      -0.15900464       1.01002212
O        1.38326499       1.13103512      12.65233746  F        1        2      -0.50624484       0.21757779      -0.21486082
O        0.28787265       1.76346018      14.95372921  F        1        2       0.44225840      -0.24568589      -0.38140079
O        3.24976236       0.63242506      16.25840413  F        1        2      -0.17784607      -0.51941634       0.01439245
O        0.78931236       3.62919935      13.15069587  F        1        2       0.42737354       0.28386818       0.54059183
O        2.74832265       2.49816423      14.45537079  F        1        2       0.01216017       0.38545930      -0.72911592
O       -1.07718501       3.13058929      16.75676254  F        1        2       0.05833730       0.38636272       0.20136104
Si       2.31683277       0.00991728      17.46197643  T        0        1       0.00002067       0.00584938       0.04842715
Si      -1.19640382       1.78376742      21.11735653  T        0        1       0.04573260       0.05684447      -0.17474523
Si       1.29963488       2.26265595      19.30749910  T        0        1       0.01006145       0.02235939      -0.08231563
O        1.37803000       1.17026394      18.08246458  T        1        1       0.00706137      -0.00525188      -0.01311967
O        0.27923362       1.74461460      20.43925446  T        1        1      -0.16459308      -0.02845614       0.10374124
O        3.14772952       0.62606492      21.93663959  T        1        1      -0.01925687      -0.04983309       0.04315218
O        0.79499175       3.65386666      18.62201229  T        1        1      -0.00735874      -0.00567786      -0.01037754
O        2.75695860       2.50858166      19.97092053  T        1        1       0.09659309      -0.02304079       0.08140045
O       -1.22327268       2.36685203      22.64364572  T        1        1      -0.00650812       0.01496197       0.04385217
Si       7.23815181       0.00000000      12.00000000  F        0        2      -0.13360917      -0.36671374      -1.70459179
Si       3.76227409       2.00679893      15.60606667  F        0        2      -0.11502091       0.07166553       1.23662240
Si       6.22272410       2.25482548      13.80303333  F        0        2       0.02874620      -0.16225126       1.01809288
O        6.30416499       1.13103512      12.65233746  F        1        2      -0.50600954       0.21590375      -0.21864740
O        5.20877265       1.76346018      14.95372921  F        1        2       0.43474852      -0.24729093      -0.37881689
O        8.17066236       0.63242506      16.25840413  F        1        2      -0.19326389      -0.53175325       0.06520963
O        5.71021236       3.62919935      13.15069587  F        1        2       0.42731158       0.28560819       0.53600500
O        7.66922265       2.49816423      14.45537079  F        1        2       0.01967825       0.38772198      -0.72631101
O        3.84371499       3.13058929      16.75676254  F        1        2       0.05829366       0.33959452       0.16182401
Si       7.24430071       0.00108801      17.46426433  T        0        1       0.00350376       0.02417547       0.10203478
Si       3.73262133       1.92716335      21.15388358  T        0        1       0.09547869       0.02584253      -0.18518492
Si       6.21138792       2.24455392      19.31794106  T        0        1       0.02716240       0.01926217      -0.08372507
O        6.30314123       1.15436264      18.09470691  T        1        1       0.02473861      -0.05129165      -0.05132398
O        5.17715311       1.71311254      20.43572565  T        1        1      -0.22229889      -0.02074758       0.15374105
O        8.11877884       0.33767084      21.67625529  T        1        1      -0.01816735      -0.04750036       0.01385643
O        5.72762409       3.63628727      18.61934553  T        1        1      -0.04427572       0.04639933      -0.05546187
O        7.66563143       2.47748063      19.99731297  T        1        1       0.12639020      -0.03030962       0.09174681
O        3.77132225       2.76376394      22.56412370  T        1        1       0.00506856       0.01239868       0.02676224
F        2.84704901       0.12834527      24.34485125  T        0        0       0.00134077       0.01435341      -0.03296716
H        2.95705329       0.27587539      23.36010807  T        0        0      -0.00917307      -0.00571941       0.01633933
38
Lattice="9.8418 0.0 0.0 -2.460449999999999 4.261624409482844 0.0 0.0 -0.0 34.16586254" Properties=species:S:1:pos:R:3:move_mask:L:1:spacegroup_kinds:I:1:tags:I:1:forces:R:3 surface=alpha_quartz_001 calculation_kind="Single-HF reference relaxation; not a reaction path" energy=-274.6076712365406 pbc="T T F"
Si       2.31725181       0.00000000      12.00000000  F        0        2      -0.13416992      -0.36669194      -1.70749723
Si      -1.15862590       2.00679893      15.60606667  F        0        2      -0.12757526       0.05019758       1.23929107
Si       1.30182410       2.25482548      13.80303333  F        0        2       0.03342379      -0.15881490       1.00962900
O        1.38326499       1.13103512      12.65233746  F        1        2      -0.50613443       0.21746841      -0.21486961
O        0.28787265       1.76346018      14.95372921  F        1        2       0.44175259      -0.24557591      -0.38122563
O        3.24976236       0.63242506      16.25840413  F        1        2      -0.17966212      -0.52968834       0.02766232
O        0.78931236       3.62919935      13.15069587  F        1        2       0.42726663       0.28389108       0.54050556
O        2.74832265       2.49816423      14.45537079  F        1        2       0.01245670       0.38517330      -0.72884436
O       -1.07718501       3.13058929      16.75676254  F        1        2       0.05856800       0.39062662       0.20573756
Si       2.31649620       0.01013948      17.46231157  T        0        1       0.00027819       0.00293156       0.02786445
Si      -1.20208542       1.77050607      21.11227260  T        0        1       0.02135017       0.02755323      -0.09424809
Si       1.29589666       2.26126567      19.30839491  T        0        1       0.00698130       0.00997564      -0.03988507
O        1.37858011       1.17207506      18.08074810  T        1        1       0.00472765      -0.00105691      -0.00618653
O        0.27283413       1.73611074      20.43649519  T        1        1      -0.09302167      -0.01498128       0.05257617
O        3.14616788       0.60376962      21.92315714  T        1        1      -0.00878538      -0.02050414       0.03368194
O        0.79173592       3.65325786      18.62434541  T        1        1      -0.00345905      -0.00641355      -0.00458072
O        2.75145509       2.50777775      19.97783299  T        1        1       0.05037731      -0.01901469       0.05001293
O       -1.23037163       2.33997612      22.64526572  T        1        1      -0.01182004       0.00687445       0.01673075
Si       7.23815181       0.00000000      12.00000000  F        0        2      -0.13360428      -0.36661459      -1.70438083
Si       3.76227409       2.00679893      15.60606667  F        0        2      -0.11459800       0.07321021       1.23586792
Si       6.22272410       2.25482548      13.80303333  F        0        2       0.02853918      -0.16216422       1.01779362
O        6.30416499       1.13103512      12.65233746  F        1        2      -0.50582151       0.21578330      -0.21859901
O        5.20877265       1.76346018      14.95372921  F        1        2       0.43444524      -0.24724177      -0.37913445
O        8.17066236       0.63242506      16.25840413  F        1        2      -0.19187039      -0.53489405       0.06923488
O        5.71021236       3.62919935      13.15069587  F        1        2       0.42715512       0.28568308       0.53594936
O        7.66922265       2.49816423      14.45537079  F        1        2       0.02000190       0.38785635      -0.72611143
O        3.84371499       3.13058929      16.75676254  F        1        2       0.05640932       0.33899516       0.16313388
Si       7.24348007       0.00184421      17.46423108  T        0        1       0.00096759       0.01394365       0.05620462
Si       3.72887747       1.91469182      21.15197457  T        0        1       0.04927361       0.00849307      -0.09997246
Si       6.20802630       2.24371978      19.31642485  T        0        1       0.01267120       0.00870148      -0.03941414
O        6.30190818       1.15579008      18.09095328  T        1        1       0.00961688      -0.02546938      -0.02844931
O        5.17067950       1.70731753      20.43148590  T        1        1      -0.12452651      -0.00896790       0.08283342
O        8.10944667       0.32182217      21.66355962  T        1        1      -0.01105224      -0.02661291       0.00236340
O        5.72475608       3.63714609      18.62007801  T        1        1      -0.02424903       0.02368916      -0.02909106
O        7.66199397       2.47449688      19.99906898  T        1        1       0.06847121      -0.01894413       0.04922687
O        3.76923091       2.73259008      22.57445322  T        1        1       0.00291955       0.00075002       0.00259280
F        2.80536752       0.09018176      24.32469686  T        0        0       0.00917709       0.02333686      -0.02108225
H        2.93124170       0.24154456      23.34359413  T        0        0      -0.00648038      -0.00148358       0.00467965
38
Lattice="9.8418 0.0 0.0 -2.460449999999999 4.261624409482844 0.0 0.0 -0.0 34.16586254" Properties=species:S:1:pos:R:3:move_mask:L:1:spacegroup_kinds:I:1:tags:I:1:forces:R:3 surface=alpha_quartz_001 calculation_kind="Single-HF reference relaxation; not a reaction path" energy=-274.6081467532579 pbc="T T F"
Si       2.31725181       0.00000000      12.00000000  F        0        2      -0.13419771      -0.36658499      -1.70747517
Si      -1.15862590       2.00679893      15.60606667  F        0        2      -0.12801367       0.04883457       1.23747861
Si       1.30182410       2.25482548      13.80303333  F        0        2       0.03350946      -0.15869376       1.00885765
O        1.38326499       1.13103512      12.65233746  F        1        2      -0.50603109       0.21744255      -0.21474771
O        0.28787265       1.76346018      14.95372921  F        1        2       0.44158285      -0.24552821      -0.38064670
O        3.24976236       0.63242506      16.25840413  F        1        2      -0.18257872      -0.53376128       0.03485540
O        0.78931236       3.62919935      13.15069587  F        1        2       0.42718366       0.28385071       0.54059331
O        2.74832265       2.49816423      14.45537079  F        1        2       0.01262008       0.38506531      -0.72847599
O       -1.07718501       3.13058929      16.75676254  F        1        2       0.06039327       0.39482445       0.21061646
Si       2.31645488       0.01018656      17.46261124  T        0        1       0.00053144       0.00021865       0.00807512
Si      -1.20287358       1.76871912      21.11084814  T        0        1       0.00209107       0.00012757      -0.02374207
Si       1.29542871       2.26109497      19.30832287  T        0        1       0.00226941      -0.00085827      -0.00428636
O        1.37870120       1.17239013      18.08046329  T        1        1       0.00288701       0.00110211      -0.00095966
O        0.27108922       1.73472537      20.43639009  T        1        1      -0.02566531      -0.00344740       0.00772763
O        3.14592115       0.60043670      21.92158984  T        1        1      -0.00258413      -0.00515879       0.01735538
O        0.79124252       3.65303210      18.62468580  T        1        1      -0.00002397      -0.00523208       0.00062586
O        2.75101940       2.50737769      19.97937561  T        1        1       0.00520425      -0.00982139       0.01451701
O       -1.23167385       2.33598913      22.64547521  T        1        1      -0.01266046       0.00125365       0.00086752
Si       7.23815181       0.00000000      12.00000000  F        0        2      -0.13363974      -0.36649530      -1.70427795
Si       3.76227409       2.00679893      15.60606667  F        0        2      -0.11400770       0.07480352       1.23509348
Si       6.22272410       2.25482548      13.80303333  F        0        2       0.02841965      -0.16212800       1.01733267
O        6.30416499       1.13103512      12.65233746  F        1        2      -0.50564654       0.21573981      -0.21851271
O        5.20877265       1.76346018      14.95372921  F        1        2       0.43431580      -0.24745688      -0.37889947
O        8.17066236       0.63242506      16.25840413  F        1        2      -0.19477017      -0.53719734       0.07593189
O        5.71021236       3.62919935      13.15069587  F        1        2       0.42705061       0.28566700       0.53594897
O        7.66922265       2.49816423      14.45537079  F        1        2       0.02036395       0.38811005      -0.72571925
O        3.84371499       3.13058929      16.75676254  F        1        2       0.05922596       0.34334797       0.16817393
Si       7.24334320       0.00208394      17.46468310  T        0        1      -0.00098402       0.00420464       0.01384596
Si       3.72858770       1.91284311      21.15101482  T        0        1       0.00979640      -0.00695155      -0.02730683
Si       6.20760930       2.24363465      19.31600110  T        0        1       0.00060258       0.00042096      -0.00426536
O        6.30170896       1.15584928      18.09014273  T        1        1      -0.00272596      -0.00334771      -0.00723750
O        5.16864663       1.70639972      20.43150364  T        1        1      -0.02994346      -0.00056790       0.01580874
O        8.10794553       0.31924599      21.66157825  T        1        1      -0.00572926      -0.01079252      -0.00576949
O        5.72413430       3.63743714      18.61997653  T        1        1      -0.00613923       0.00350534      -0.00461782
O        7.66203117       2.47384896      19.99971308  T        1        1       0.01210296      -0.00525180       0.00738287
O        3.76895168       2.72778600      22.57572021  T        1        1       0.00133245      -0.00224311      -0.00320962
F        2.79940409       0.08502000      24.32131486  T        0        0       0.00698584       0.02050046       0.00394858
H        2.92730056       0.23644161      23.34123169  T        0        0      -0.00312755       0.00249895      -0.01488739
38
Lattice="9.8418 0.0 0.0 -2.460449999999999 4.261624409482844 0.0 0.0 -0.0 34.16586254" Properties=species:S:1:pos:R:3:move_mask:L:1:spacegroup_kinds:I:1:tags:I:1:forces:R:3 surface=alpha_quartz_001 calculation_kind="Single-HF reference relaxation; not a reaction path" energy=-274.60821739827776 pbc="T T F"
Si       2.31725181       0.00000000      12.00000000  F        0        2      -0.13421757      -0.36653628      -1.70746704
Si      -1.15862590       2.00679893      15.60606667  F        0        2      -0.12827396       0.04821218       1.23703620
Si       1.30182410       2.25482548      13.80303333  F        0        2       0.03358185      -0.15866538       1.00857412
O        1.38326499       1.13103512      12.65233746  F        1        2      -0.50598237       0.21742883      -0.21470618
O        0.28787265       1.76346018      14.95372921  F        1        2       0.44160505      -0.24552100      -0.38040533
O        3.24976236       0.63242506      16.25840413  F        1        2      -0.18393650      -0.53416980       0.03645473
O        0.78931236       3.62919935      13.15069587  F        1        2       0.42713768       0.28383797       0.54062010
O        2.74832265       2.49816423      14.45537079  F        1        2       0.01263119       0.38506214      -0.72837215
O       -1.07718501       3.13058929      16.75676254  F        1        2       0.06147735       0.39642864       0.21254294
Si       2.31650565       0.01016184      17.46273278  T        0        1       0.00105907      -0.00108778       0.00123433
Si      -1.20221409       1.77026457      21.11102258  T        0        1      -0.00520674      -0.00750537      -0.00061836
Si       1.29591410       2.26123138      19.30816552  T        0        1      -0.00181558      -0.00398256       0.00399649
O        1.37868714       1.17221956      18.08064876  T        1        1       0.00233464       0.00102700       0.00052921
O        0.27133215       1.73564092      20.43682279  T        1        1      -0.00332609      -0.00064087      -0.00559963
O        3.14607379       0.60296438      21.92351188  T        1        1      -0.00087682      -0.00222704       0.00886753
O        0.79162545       3.65297856      18.62443612  T        1        1       0.00064694      -0.00371227       0.00187396
O        2.75176588       2.50725311      19.97888257  T        1        1      -0.00728013      -0.00526661       0.00240364
O       -1.23112164       2.33911023      22.64525703  T        1        1      -0.01172068      -0.00111662      -0.00373361
Si       7.23815181       0.00000000      12.00000000  F        0        2      -0.13365685      -0.36644164      -1.70421656
Si       3.76227409       2.00679893      15.60606667  F        0        2      -0.11375776       0.07536446       1.23497130
Si       6.22272410       2.25482548      13.80303333  F        0        2       0.02839312      -0.16212852       1.01720315
O        6.30416499       1.13103512      12.65233746  F        1        2      -0.50557256       0.21571624      -0.21850459
O        5.20877265       1.76346018      14.95372921  F        1        2       0.43432405      -0.24757102      -0.37876433
O        8.17066236       0.63242506      16.25840413  F        1        2      -0.19687077      -0.53796683       0.07918287
O        5.71021236       3.62919935      13.15069587  F        1        2       0.42700313       0.28566086       0.53591955
O        7.66922265       2.49816423      14.45537079  F        1        2       0.02048903       0.38821950      -0.72557836
O        3.84371499       3.13058929      16.75676254  F        1        2       0.06119686       0.34599696       0.17075913
Si       7.24341358       0.00208062      17.46495367  T        0        1      -0.00147242       0.00099998       0.00024481
Si       3.72915845       1.91416079      21.15077606  T        0        1      -0.00391317      -0.01107344       0.00025672
Si       6.20801457       2.24373431      19.31611878  T        0        1      -0.00283060      -0.00123342       0.00277673
O        6.30177563       1.15563044      18.09042810  T        1        1      -0.00569579       0.00247795      -0.00058220
O        5.16879901       1.70705444      20.43230080  T        1        1       0.00098065       0.00010464      -0.00525234
O        8.10891273       0.32087998      21.66291251  T        1        1      -0.00411104      -0.00586596      -0.00763855
O        5.72434880       3.63740190      18.61980618  T        1        1      -0.00114909      -0.00186112       0.00272004
O        7.66270873       2.47407907      19.99965479  T        1        1      -0.00457427      -0.00065745      -0.00501502
O        3.76922262       2.73129588      22.57437390  T        1        1       0.00103014      -0.00251474      -0.00348618
F        2.80440457       0.08991289      24.32361646  T        0        0       0.00534619       0.01842908       0.00339704
H        2.93021339       0.24046333      23.34292901  T        0        0      -0.00299620       0.00277930      -0.01162415
