38
Lattice="11.518769465528859 0.0 0.0 0.0 7.679179643685906 0.0 0.0 0.0 30.7875" Properties=species:S:1:pos:R:3:move_mask:L:1:tags:I:1:forces:R:3 surface=Si100 species=HF site=bridge_Si_Si orientation=flipped height_A=6.5 substrate_atoms=36 calculation_kind="Rigid evaluated approach scan; not NEB" energy=-187.83852526514107 pbc="T T F"
Si       0.00000000       0.00000000      12.00000000  F        6      -0.00000004       0.00000000       0.24903484
Si       3.83958982       0.00000000      12.00000000  F        6      -0.00000000       0.00000000       0.24903482
Si       7.67917964       0.00000000      12.00000000  F        6       0.00000000       0.00000000       0.24903482
Si       0.00000000       3.83958982      12.00000000  F        6      -0.00000004      -0.00000000       0.24903484
Si       3.83958982       3.83958982      12.00000000  F        6      -0.00000000      -0.00000000       0.24903482
Si       7.67917964       3.83958982      12.00000000  F        6       0.00000000      -0.00000000       0.24903482
Si       1.91979491       0.00000000      13.35750000  F        5       0.00000000      -0.00000002      -0.52822352
Si       5.75938473       0.00000000      13.35750000  F        5       0.00000000      -0.00000002      -0.52822353
Si       9.59897455       0.00000000      13.35750000  F        5       0.00000003      -0.00000002      -0.52822354
Si       1.91979491       3.83958982      13.35750000  F        5       0.00000000       0.00000000      -0.52822354
Si       5.75938473       3.83958982      13.35750000  F        5       0.00000000       0.00000000      -0.52822354
Si       9.59897455       3.83958982      13.35750000  F        5       0.00000003       0.00000000      -0.52822356
Si       1.91979491       1.91979491      14.71500000  F        4      -0.00000000       0.00000000       0.14537709
Si       5.75938473       1.91979491      14.71500000  F        4       0.00000000       0.00000000       0.14537709
Si       9.59897455       1.91979491      14.71500000  F        4       0.00000004       0.00000000       0.14537711
Si       1.91979491       5.75938473      14.71500000  F        4      -0.00000000       0.00000002       0.14537707
Si       5.75938473       5.75938473      14.71500000  F        4       0.00000000       0.00000002       0.14537707
Si       9.59897455       5.75938473      14.71500000  F        4       0.00000004       0.00000002       0.14537709
Si       0.00000000       1.91979491      16.07250000  F        3      -0.00000004       0.00000000      -0.14537711
Si       3.83958982       1.91979491      16.07250000  F        3      -0.00000000       0.00000000      -0.14537709
Si       7.67917964       1.91979491      16.07250000  F        3       0.00000000       0.00000000      -0.14537709
Si       0.00000000       5.75938473      16.07250000  F        3      -0.00000004       0.00000002      -0.14537709
Si       3.83958982       5.75938473      16.07250000  F        3      -0.00000000       0.00000002      -0.14537707
Si       7.67917964       5.75938473      16.07250000  F        3       0.00000000       0.00000002      -0.14537707
Si       0.00000000       0.00000000      17.43000000  F        2      -0.00000003      -0.00000002       0.52822354
Si       3.83958982       0.00000000      17.43000000  F        2      -0.00000000      -0.00000002       0.52822353
Si       7.67917964       0.00000000      17.43000000  F        2      -0.00000000      -0.00000002       0.52822352
Si       0.00000000       3.83958982      17.43000000  F        2      -0.00000003       0.00000000       0.52822356
Si       3.83958982       3.83958982      17.43000000  F        2      -0.00000000       0.00000000       0.52822354
Si       7.67917964       3.83958982      17.43000000  F        2      -0.00000000       0.00000000       0.52822354
Si       1.91979491       0.00000000      18.78750000  F        1      -0.00000000       0.00000000      -0.24903482
Si       5.75938473       0.00000000      18.78750000  F        1       0.00000000       0.00000000      -0.24903482
Si       9.59897455       0.00000000      18.78750000  F        1       0.00000004       0.00000000      -0.24903484
Si       1.91979491       3.83958982      18.78750000  F        1      -0.00000000      -0.00000000      -0.24903482
Si       5.75938473       3.83958982      18.78750000  F        1       0.00000000      -0.00000000      -0.24903482
Si       9.59897455       3.83958982      18.78750000  F        1       0.00000004      -0.00000000      -0.24903484
F        7.67917964       3.83958982      26.24873254  T        0       0.00000000       0.00000000      -0.00058289
H        7.67917964       3.83958982      25.28750000  T        0       0.00000000       0.00000000       0.00058289
38
Lattice="11.518769465528859 0.0 0.0 0.0 7.679179643685906 0.0 0.0 0.0 30.7875" Properties=species:S:1:pos:R:3:move_mask:L:1:tags:I:1:forces:R:3 surface=Si100 species=HF site=bridge_Si_Si orientation=flipped height_A=5.0 substrate_atoms=36 calculation_kind="Rigid evaluated approach scan; not NEB" energy=-187.83852526514107 pbc="T T F"
Si       0.00000000       0.00000000      12.00000000  F        6      -0.00000004       0.00000000       0.24903484
Si       3.83958982       0.00000000      12.00000000  F        6      -0.00000000       0.00000000       0.24903482
Si       7.67917964       0.00000000      12.00000000  F        6       0.00000000       0.00000000       0.24903482
Si       0.00000000       3.83958982      12.00000000  F        6      -0.00000004      -0.00000000       0.24903484
Si       3.83958982       3.83958982      12.00000000  F        6      -0.00000000      -0.00000000       0.24903482
Si       7.67917964       3.83958982      12.00000000  F        6       0.00000000      -0.00000000       0.24903482
Si       1.91979491       0.00000000      13.35750000  F        5       0.00000000      -0.00000002      -0.52822352
Si       5.75938473       0.00000000      13.35750000  F        5       0.00000000      -0.00000002      -0.52822353
Si       9.59897455       0.00000000      13.35750000  F        5       0.00000003      -0.00000002      -0.52822354
Si       1.91979491       3.83958982      13.35750000  F        5       0.00000000       0.00000000      -0.52822354
Si       5.75938473       3.83958982      13.35750000  F        5       0.00000000       0.00000000      -0.52822354
Si       9.59897455       3.83958982      13.35750000  F        5       0.00000003       0.00000000      -0.52822356
Si       1.91979491       1.91979491      14.71500000  F        4      -0.00000000       0.00000000       0.14537709
Si       5.75938473       1.91979491      14.71500000  F        4       0.00000000       0.00000000       0.14537709
Si       9.59897455       1.91979491      14.71500000  F        4       0.00000004       0.00000000       0.14537711
Si       1.91979491       5.75938473      14.71500000  F        4      -0.00000000       0.00000002       0.14537707
Si       5.75938473       5.75938473      14.71500000  F        4       0.00000000       0.00000002       0.14537707
Si       9.59897455       5.75938473      14.71500000  F        4       0.00000004       0.00000002       0.14537709
Si       0.00000000       1.91979491      16.07250000  F        3      -0.00000004       0.00000000      -0.14537711
Si       3.83958982       1.91979491      16.07250000  F        3      -0.00000000       0.00000000      -0.14537709
Si       7.67917964       1.91979491      16.07250000  F        3       0.00000000       0.00000000      -0.14537709
Si       0.00000000       5.75938473      16.07250000  F        3      -0.00000004       0.00000002      -0.14537709
Si       3.83958982       5.75938473      16.07250000  F        3      -0.00000000       0.00000002      -0.14537707
Si       7.67917964       5.75938473      16.07250000  F        3       0.00000000       0.00000002      -0.14537707
Si       0.00000000       0.00000000      17.43000000  F        2      -0.00000003      -0.00000002       0.52822354
Si       3.83958982       0.00000000      17.43000000  F        2      -0.00000000      -0.00000002       0.52822353
Si       7.67917964       0.00000000      17.43000000  F        2      -0.00000000      -0.00000002       0.52822352
Si       0.00000000       3.83958982      17.43000000  F        2      -0.00000003       0.00000000       0.52822356
Si       3.83958982       3.83958982      17.43000000  F        2      -0.00000000       0.00000000       0.52822354
Si       7.67917964       3.83958982      17.43000000  F        2      -0.00000000       0.00000000       0.52822354
Si       1.91979491       0.00000000      18.78750000  F        1      -0.00000000       0.00000000      -0.24903482
Si       5.75938473       0.00000000      18.78750000  F        1       0.00000000       0.00000000      -0.24903482
Si       9.59897455       0.00000000      18.78750000  F        1       0.00000004       0.00000000      -0.24903484
Si       1.91979491       3.83958982      18.78750000  F        1      -0.00000000      -0.00000000      -0.24903482
Si       5.75938473       3.83958982      18.78750000  F        1       0.00000000      -0.00000000      -0.24903482
Si       9.59897455       3.83958982      18.78750000  F        1       0.00000004      -0.00000000      -0.24903484
F        7.67917964       3.83958982      24.74873254  T        0       0.00000000       0.00000000      -0.00058289
H        7.67917964       3.83958982      23.78750000  T        0       0.00000000       0.00000000       0.00058289
38
Lattice="11.518769465528859 0.0 0.0 0.0 7.679179643685906 0.0 0.0 0.0 30.7875" Properties=species:S:1:pos:R:3:move_mask:L:1:tags:I:1:forces:R:3 surface=Si100 species=HF site=bridge_Si_Si orientation=flipped height_A=4.0 substrate_atoms=36 calculation_kind="Rigid evaluated approach scan; not NEB" energy=-187.85132387079065 pbc="T T F"
Si       0.00000000       0.00000000      12.00000000  F        6      -0.00007437       0.00000000       0.24901994
Si       3.83958982       0.00000000      12.00000000  F        6       0.00007433       0.00000000       0.24901993
Si       7.67917964       0.00000000      12.00000000  F        6       0.00000000       0.00000000       0.24896635
Si       0.00000000       3.83958982      12.00000000  F        6      -0.00010978      -0.00000000       0.24914543
Si       3.83958982       3.83958982      12.00000000  F        6       0.00010974      -0.00000000       0.24914542
Si       7.67917964       3.83958982      12.00000000  F        6       0.00000000      -0.00000000       0.24916896
Si       1.91979491       0.00000000      13.35750000  F        5       0.00000000      -0.00000002      -0.52840364
Si       5.75938473       0.00000000      13.35750000  F        5      -0.00029991      -0.00000002      -0.52829630
Si       9.59897455       0.00000000      13.35750000  F        5       0.00029994      -0.00000002      -0.52829632
Si       1.91979491       3.83958982      13.35750000  F        5       0.00000000       0.00000000      -0.52752152
Si       5.75938473       3.83958982      13.35750000  F        5      -0.00004720       0.00000000      -0.52719253
Si       9.59897455       3.83958982      13.35750000  F        5       0.00004724       0.00000000      -0.52719255
Si       1.91979491       1.91979491      14.71500000  F        4      -0.00000000       0.00011905       0.14524734
Si       5.75938473       1.91979491      14.71500000  F        4      -0.00018085       0.00078057       0.14632388
Si       9.59897455       1.91979491      14.71500000  F        4       0.00018088       0.00078057       0.14632390
Si       1.91979491       5.75938473      14.71500000  F        4      -0.00000000      -0.00011902       0.14524733
Si       5.75938473       5.75938473      14.71500000  F        4      -0.00018085      -0.00078054       0.14632387
Si       9.59897455       5.75938473      14.71500000  F        4       0.00018088      -0.00078054       0.14632389
Si       0.00000000       1.91979491      16.07250000  F        3      -0.00094471       0.00350355      -0.14651428
Si       3.83958982       1.91979491      16.07250000  F        3       0.00094468       0.00350355      -0.14651426
Si       7.67917964       1.91979491      16.07250000  F        3       0.00000000      -0.00996642      -0.15535755
Si       0.00000000       5.75938473      16.07250000  F        3      -0.00094471      -0.00350352      -0.14651427
Si       3.83958982       5.75938473      16.07250000  F        3       0.00094468      -0.00350352      -0.14651425
Si       7.67917964       5.75938473      16.07250000  F        3       0.00000000       0.00996644      -0.15535754
Si       0.00000000       0.00000000      17.43000000  F        2       0.00019615      -0.00000002       0.52853004
Si       3.83958982       0.00000000      17.43000000  F        2      -0.00019619      -0.00000002       0.52853002
Si       7.67917964       0.00000000      17.43000000  F        2      -0.00000000      -0.00000002       0.52994790
Si       0.00000000       3.83958982      17.43000000  F        2      -0.00191839       0.00000000       0.53200974
Si       3.83958982       3.83958982      17.43000000  F        2       0.00191835       0.00000000       0.53200972
Si       7.67917964       3.83958982      17.43000000  F        2      -0.00000000       0.00000000       0.51932319
Si       1.91979491       0.00000000      18.78750000  F        1      -0.00000000       0.00000000      -0.25056379
Si       5.75938473       0.00000000      18.78750000  F        1       0.00335028       0.00000000      -0.24302321
Si       9.59897455       0.00000000      18.78750000  F        1      -0.00335024       0.00000000      -0.24302323
Si       1.91979491       3.83958982      18.78750000  F        1      -0.00000000      -0.00000000      -0.25163474
Si       5.75938473       3.83958982      18.78750000  F        1      -0.01147941      -0.00000000      -0.23575944
Si       9.59897455       3.83958982      18.78750000  F        1       0.01147944      -0.00000000      -0.23575945
F        7.67917964       3.83958982      23.74873254  T        0      -0.00000000       0.00000000      -0.03332388
H        7.67917964       3.83958982      22.78750000  T        0       0.00000000      -0.00000000       0.01615593
38
Lattice="11.518769465528859 0.0 0.0 0.0 7.679179643685906 0.0 0.0 0.0 30.7875" Properties=species:S:1:pos:R:3:move_mask:L:1:tags:I:1:forces:R:3 surface=Si100 species=HF site=bridge_Si_Si orientation=flipped height_A=3.25 substrate_atoms=36 calculation_kind="Rigid evaluated approach scan; not NEB" energy=-187.88249951014262 pbc="T T F"
Si       0.00000000       0.00000000      12.00000000  F        6      -0.00027857       0.00000000       0.24884265
Si       3.83958982       0.00000000      12.00000000  F        6       0.00027853       0.00000000       0.24884263
Si       7.67917964       0.00000000      12.00000000  F        6       0.00000000       0.00000000       0.24916628
Si       0.00000000       3.83958982      12.00000000  F        6      -0.00013765      -0.00000000       0.24893718
Si       3.83958982       3.83958982      12.00000000  F        6       0.00013761      -0.00000000       0.24893716
Si       7.67917964       3.83958982      12.00000000  F        6       0.00000000      -0.00000000       0.24921600
Si       1.91979491       0.00000000      13.35750000  F        5       0.00000000      -0.00000002      -0.52733523
Si       5.75938473       0.00000000      13.35750000  F        5      -0.00052135      -0.00000002      -0.52781391
Si       9.59897455       0.00000000      13.35750000  F        5       0.00052138      -0.00000002      -0.52781392
Si       1.91979491       3.83958982      13.35750000  F        5       0.00000000       0.00000000      -0.52576578
Si       5.75938473       3.83958982      13.35750000  F        5      -0.00045927       0.00000000      -0.52577287
Si       9.59897455       3.83958982      13.35750000  F        5       0.00045931       0.00000000      -0.52577289
Si       1.91979491       1.91979491      14.71500000  F        4      -0.00000000       0.00007437       0.14661658
Si       5.75938473       1.91979491      14.71500000  F        4       0.00389267      -0.00405075       0.14148161
Si       9.59897455       1.91979491      14.71500000  F        4      -0.00389263      -0.00405075       0.14148163
Si       1.91979491       5.75938473      14.71500000  F        4      -0.00000000      -0.00007435       0.14661656
Si       5.75938473       5.75938473      14.71500000  F        4       0.00389267       0.00405077       0.14148160
Si       9.59897455       5.75938473      14.71500000  F        4      -0.00389263       0.00405077       0.14148162
Si       0.00000000       1.91979491      16.07250000  F        3       0.00149834      -0.00493766      -0.14710257
Si       3.83958982       1.91979491      16.07250000  F        3      -0.00149838      -0.00493766      -0.14710255
Si       7.67917964       1.91979491      16.07250000  F        3       0.00000000      -0.01255541      -0.15746446
Si       0.00000000       5.75938473      16.07250000  F        3       0.00149834       0.00493768      -0.14710256
Si       3.83958982       5.75938473      16.07250000  F        3      -0.00149838       0.00493768      -0.14710254
Si       7.67917964       5.75938473      16.07250000  F        3       0.00000000       0.01255544      -0.15746445
Si       0.00000000       0.00000000      17.43000000  F        2      -0.00386081      -0.00000002       0.53197796
Si       3.83958982       0.00000000      17.43000000  F        2       0.00386078      -0.00000002       0.53197794
Si       7.67917964       0.00000000      17.43000000  F        2      -0.00000000      -0.00000002       0.52813407
Si       0.00000000       3.83958982      17.43000000  F        2       0.03351971       0.00000000       0.52823604
Si       3.83958982       3.83958982      17.43000000  F        2      -0.03351975       0.00000000       0.52823602
Si       7.67917964       3.83958982      17.43000000  F        2      -0.00000000       0.00000000       0.46046950
Si       1.91979491       0.00000000      18.78750000  F        1      -0.00000000       0.00000000      -0.25168036
Si       5.75938473       0.00000000      18.78750000  F        1       0.00080994       0.00000000      -0.24453447
Si       9.59897455       0.00000000      18.78750000  F        1      -0.00080990       0.00000000      -0.24453449
Si       1.91979491       3.83958982      18.78750000  F        1      -0.00000000      -0.00000000      -0.24160520
Si       5.75938473       3.83958982      18.78750000  F        1       0.07217365      -0.00000000      -0.16747698
Si       9.59897455       3.83958982      18.78750000  F        1      -0.07217361      -0.00000000      -0.16747700
F        7.67917964       3.83958982      22.99873254  T        0      -0.00000000       0.00000000      -0.32008577
H        7.67917964       3.83958982      22.03750000  T        0       0.00000000      -0.00000000       0.23887495
38
Lattice="11.518769465528859 0.0 0.0 0.0 7.679179643685906 0.0 0.0 0.0 30.7875" Properties=species:S:1:pos:R:3:move_mask:L:1:tags:I:1:forces:R:3 surface=Si100 species=HF site=bridge_Si_Si orientation=flipped height_A=2.75 substrate_atoms=36 calculation_kind="Rigid evaluated approach scan; not NEB" energy=-187.93160530633816 pbc="T T F"
Si       0.00000000       0.00000000      12.00000000  F        6      -0.00018968       0.00000000       0.24892507
Si       3.83958982       0.00000000      12.00000000  F        6       0.00018964       0.00000000       0.24892505
Si       7.67917964       0.00000000      12.00000000  F        6       0.00000000       0.00000000       0.25034041
Si       0.00000000       3.83958982      12.00000000  F        6       0.00008083      -0.00000000       0.24859905
Si       3.83958982       3.83958982      12.00000000  F        6      -0.00008087      -0.00000000       0.24859903
Si       7.67917964       3.83958982      12.00000000  F        6       0.00000000      -0.00000000       0.24951712
Si       1.91979491       0.00000000      13.35750000  F        5       0.00000000      -0.00000002      -0.52485608
Si       5.75938473       0.00000000      13.35750000  F        5       0.00003384      -0.00000002      -0.52595580
Si       9.59897455       0.00000000      13.35750000  F        5      -0.00003381      -0.00000002      -0.52595582
Si       1.91979491       3.83958982      13.35750000  F        5       0.00000000       0.00000000      -0.52524598
Si       5.75938473       3.83958982      13.35750000  F        5      -0.00288942       0.00000000      -0.52809609
Si       9.59897455       3.83958982      13.35750000  F        5       0.00288945       0.00000000      -0.52809611
Si       1.91979491       1.91979491      14.71500000  F        4      -0.00000000      -0.00107708       0.15010456
Si       5.75938473       1.91979491      14.71500000  F        4       0.00594759      -0.00814377       0.14468995
Si       9.59897455       1.91979491      14.71500000  F        4      -0.00594755      -0.00814377       0.14468997
Si       1.91979491       5.75938473      14.71500000  F        4      -0.00000000       0.00107711       0.15010455
Si       5.75938473       5.75938473      14.71500000  F        4       0.00594759       0.00814379       0.14468993
Si       9.59897455       5.75938473      14.71500000  F        4      -0.00594755       0.00814379       0.14468995
Si       0.00000000       1.91979491      16.07250000  F        3      -0.00404747       0.00094330      -0.14422691
Si       3.83958982       1.91979491      16.07250000  F        3       0.00404743       0.00094330      -0.14422689
Si       7.67917964       1.91979491      16.07250000  F        3       0.00000000      -0.02623605      -0.16758302
Si       0.00000000       5.75938473      16.07250000  F        3      -0.00404747      -0.00094327      -0.14422690
Si       3.83958982       5.75938473      16.07250000  F        3       0.00404743      -0.00094327      -0.14422688
Si       7.67917964       5.75938473      16.07250000  F        3       0.00000000       0.02623607      -0.16758301
Si       0.00000000       0.00000000      17.43000000  F        2      -0.00210189      -0.00000002       0.52412420
Si       3.83958982       0.00000000      17.43000000  F        2       0.00210186      -0.00000002       0.52412418
Si       7.67917964       0.00000000      17.43000000  F        2      -0.00000000      -0.00000002       0.51402358
Si       0.00000000       3.83958982      17.43000000  F        2       0.07951097       0.00000000       0.51447400
Si       3.83958982       3.83958982      17.43000000  F        2      -0.07951100       0.00000000       0.51447398
Si       7.67917964       3.83958982      17.43000000  F        2      -0.00000000       0.00000000       0.41623943
Si       1.91979491       0.00000000      18.78750000  F        1      -0.00000000       0.00000000      -0.25135875
Si       5.75938473       0.00000000      18.78750000  F        1       0.00101151       0.00000000      -0.24112543
Si       9.59897455       0.00000000      18.78750000  F        1      -0.00101148       0.00000000      -0.24112545
Si       1.91979491       3.83958982      18.78750000  F        1      -0.00000000      -0.00000000      -0.23650320
Si       5.75938473       3.83958982      18.78750000  F        1       0.15527508      -0.00000000      -0.07506422
Si       9.59897455       3.83958982      18.78750000  F        1      -0.15527504      -0.00000000      -0.07506424
F        7.67917964       3.83958982      22.49873254  T        0      -0.00000000       0.00000000      -0.62685511
H        7.67917964       3.83958982      21.53750000  T        0       0.00000000      -0.00000000       0.43604188
38
Lattice="11.518769465528859 0.0 0.0 0.0 7.679179643685906 0.0 0.0 0.0 30.7875" Properties=species:S:1:pos:R:3:move_mask:L:1:tags:I:1:forces:R:3 surface=Si100 species=HF site=bridge_Si_Si orientation=flipped height_A=2.25 substrate_atoms=36 calculation_kind="Rigid evaluated approach scan; not NEB" energy=-188.05816783080928 pbc="T T F"
Si       0.00000000       0.00000000      12.00000000  F        6      -0.00000771       0.00000000       0.24809854
Si       3.83958982       0.00000000      12.00000000  F        6       0.00000767       0.00000000       0.24809853
Si       7.67917964       0.00000000      12.00000000  F        6       0.00000000       0.00000000       0.25063739
Si       0.00000000       3.83958982      12.00000000  F        6       0.00031313      -0.00000000       0.24739900
Si       3.83958982       3.83958982      12.00000000  F        6      -0.00031317      -0.00000000       0.24739899
Si       7.67917964       3.83958982      12.00000000  F        6       0.00000000      -0.00000000       0.24893184
Si       1.91979491       0.00000000      13.35750000  F        5       0.00000000      -0.00000002      -0.52375591
Si       5.75938473       0.00000000      13.35750000  F        5       0.00049682      -0.00000002      -0.52447529
Si       9.59897455       0.00000000      13.35750000  F        5      -0.00049678      -0.00000002      -0.52447531
Si       1.91979491       3.83958982      13.35750000  F        5       0.00000000       0.00000000      -0.52534992
Si       5.75938473       3.83958982      13.35750000  F        5      -0.00645638       0.00000000      -0.53187529
Si       9.59897455       3.83958982      13.35750000  F        5       0.00645641       0.00000000      -0.53187530
Si       1.91979491       1.91979491      14.71500000  F        4      -0.00000000      -0.00337755       0.15326278
Si       5.75938473       1.91979491      14.71500000  F        4       0.00508874      -0.00684126       0.16418225
Si       9.59897455       1.91979491      14.71500000  F        4      -0.00508870      -0.00684126       0.16418227
Si       1.91979491       5.75938473      14.71500000  F        4      -0.00000000       0.00337757       0.15326277
Si       5.75938473       5.75938473      14.71500000  F        4       0.00508874       0.00684129       0.16418223
Si       9.59897455       5.75938473      14.71500000  F        4      -0.00508870       0.00684129       0.16418225
Si       0.00000000       1.91979491      16.07250000  F        3      -0.01299020       0.00989643      -0.14379382
Si       3.83958982       1.91979491      16.07250000  F        3       0.01299016       0.00989643      -0.14379380
Si       7.67917964       1.91979491      16.07250000  F        3       0.00000000      -0.04261057      -0.17982319
Si       0.00000000       5.75938473      16.07250000  F        3      -0.01299020      -0.00989641      -0.14379381
Si       3.83958982       5.75938473      16.07250000  F        3       0.01299016      -0.00989641      -0.14379379
Si       7.67917964       5.75938473      16.07250000  F        3       0.00000000       0.04261059      -0.17982318
Si       0.00000000       0.00000000      17.43000000  F        2       0.00338856      -0.00000002       0.50644448
Si       3.83958982       0.00000000      17.43000000  F        2      -0.00338859      -0.00000002       0.50644446
Si       7.67917964       0.00000000      17.43000000  F        2      -0.00000000      -0.00000002       0.48197876
Si       0.00000000       3.83958982      17.43000000  F        2       0.11708150       0.00000000       0.49941403
Si       3.83958982       3.83958982      17.43000000  F        2      -0.11708154       0.00000000       0.49941402
Si       7.67917964       3.83958982      17.43000000  F        2      -0.00000000       0.00000000       0.41194401
Si       1.91979491       0.00000000      18.78750000  F        1      -0.00000000       0.00000000      -0.25122811
Si       5.75938473       0.00000000      18.78750000  F        1      -0.00140987       0.00000000      -0.23797823
Si       9.59897455       0.00000000      18.78750000  F        1       0.00140991       0.00000000      -0.23797825
Si       1.91979491       3.83958982      18.78750000  F        1      -0.00000000      -0.00000000      -0.23904777
Si       5.75938473       3.83958982      18.78750000  F        1       0.19866843      -0.00000000      -0.03994406
Si       9.59897455       3.83958982      18.78750000  F        1      -0.19866839      -0.00000000      -0.03994408
F        7.67917964       3.83958982      21.99873254  T        0      -0.00000000      -0.00000000      -0.44010215
H        7.67917964       3.83958982      21.03750000  T        0       0.00000000       0.00000000       0.22339267
38
Lattice="11.518769465528859 0.0 0.0 0.0 7.679179643685906 0.0 0.0 0.0 30.7875" Properties=species:S:1:pos:R:3:move_mask:L:1:tags:I:1:forces:R:3 surface=Si100 species=HF site=bridge_Si_Si orientation=flipped height_A=1.9 substrate_atoms=36 calculation_kind="Rigid evaluated approach scan; not NEB" energy=-188.0842527622156 pbc="T T F"
Si       0.00000000       0.00000000      12.00000000  F        6       0.00017856       0.00000000       0.24765339
Si       3.83958982       0.00000000      12.00000000  F        6      -0.00017860       0.00000000       0.24765337
Si       7.67917964       0.00000000      12.00000000  F        6       0.00000000       0.00000000       0.25084737
Si       0.00000000       3.83958982      12.00000000  F        6       0.00010483      -0.00000000       0.24712391
Si       3.83958982       3.83958982      12.00000000  F        6      -0.00010487      -0.00000000       0.24712390
Si       7.67917964       3.83958982      12.00000000  F        6       0.00000000      -0.00000000       0.24963616
Si       1.91979491       0.00000000      13.35750000  F        5       0.00000000      -0.00000002      -0.52441215
Si       5.75938473       0.00000000      13.35750000  F        5       0.00037423      -0.00000002      -0.52381419
Si       9.59897455       0.00000000      13.35750000  F        5      -0.00037420      -0.00000002      -0.52381420
Si       1.91979491       3.83958982      13.35750000  F        5       0.00000000       0.00000000      -0.52693816
Si       5.75938473       3.83958982      13.35750000  F        5      -0.00460259       0.00000000      -0.52713508
Si       9.59897455       3.83958982      13.35750000  F        5       0.00460262       0.00000000      -0.52713510
Si       1.91979491       1.91979491      14.71500000  F        4      -0.00000000      -0.00362361       0.15702222
Si       5.75938473       1.91979491      14.71500000  F        4       0.00443568      -0.00350910       0.17364223
Si       9.59897455       1.91979491      14.71500000  F        4      -0.00443564      -0.00350910       0.17364225
Si       1.91979491       5.75938473      14.71500000  F        4      -0.00000000       0.00362364       0.15702220
Si       5.75938473       5.75938473      14.71500000  F        4       0.00443568       0.00350912       0.17364222
Si       9.59897455       5.75938473      14.71500000  F        4      -0.00443564       0.00350912       0.17364224
Si       0.00000000       1.91979491      16.07250000  F        3      -0.01469185       0.01246298      -0.14332345
Si       3.83958982       1.91979491      16.07250000  F        3       0.01469181       0.01246298      -0.14332343
Si       7.67917964       1.91979491      16.07250000  F        3       0.00000000      -0.03682669      -0.16936368
Si       0.00000000       5.75938473      16.07250000  F        3      -0.01469185      -0.01246296      -0.14332343
Si       3.83958982       5.75938473      16.07250000  F        3       0.01469181      -0.01246296      -0.14332341
Si       7.67917964       5.75938473      16.07250000  F        3       0.00000000       0.03682671      -0.16936367
Si       0.00000000       0.00000000      17.43000000  F        2       0.01561034      -0.00000002       0.49216313
Si       3.83958982       0.00000000      17.43000000  F        2      -0.01561037      -0.00000002       0.49216311
Si       7.67917964       0.00000000      17.43000000  F        2      -0.00000000      -0.00000002       0.45247402
Si       0.00000000       3.83958982      17.43000000  F        2       0.13938625       0.00000000       0.46093514
Si       3.83958982       3.83958982      17.43000000  F        2      -0.13938628       0.00000000       0.46093512
Si       7.67917964       3.83958982      17.43000000  F        2      -0.00000000       0.00000000       0.41023074
Si       1.91979491       0.00000000      18.78750000  F        1      -0.00000000       0.00000000      -0.25714909
Si       5.75938473       0.00000000      18.78750000  F        1      -0.01355385       0.00000000      -0.23979737
Si       9.59897455       0.00000000      18.78750000  F        1       0.01355389       0.00000000      -0.23979739
Si       1.91979491       3.83958982      18.78750000  F        1      -0.00000000      -0.00000000      -0.24466240
Si       5.75938473       3.83958982      18.78750000  F        1       0.10964308      -0.00000000      -0.16047430
Si       9.59897455       3.83958982      18.78750000  F        1      -0.10964304      -0.00000000      -0.16047432
F        7.67917964       3.83958982      21.64873254  T        0      -0.00000000       0.00000000       0.02670130
H        7.67917964       3.83958982      20.68750000  T        0       0.00000000       0.00000000       0.07337080
38
Lattice="11.518769465528859 0.0 0.0 0.0 7.679179643685906 0.0 0.0 0.0 30.7875" Properties=species:S:1:pos:R:3:move_mask:L:1:tags:I:1:forces:R:3 surface=Si100 species=HF site=bridge_Si_Si orientation=flipped height_A=1.6 substrate_atoms=36 calculation_kind="Rigid evaluated approach scan; not NEB" energy=-187.99405795177165 pbc="T T F"
Si       0.00000000       0.00000000      12.00000000  F        6       0.00069759       0.00000000       0.24793274
Si       3.83958982       0.00000000      12.00000000  F        6      -0.00069763       0.00000000       0.24793273
Si       7.67917964       0.00000000      12.00000000  F        6       0.00000000       0.00000000       0.25237004
Si       0.00000000       3.83958982      12.00000000  F        6      -0.00006476      -0.00000000       0.24745708
Si       3.83958982       3.83958982      12.00000000  F        6       0.00006472      -0.00000000       0.24745707
Si       7.67917964       3.83958982      12.00000000  F        6       0.00000000      -0.00000000       0.25064576
Si       1.91979491       0.00000000      13.35750000  F        5       0.00000000      -0.00000002      -0.52591365
Si       5.75938473       0.00000000      13.35750000  F        5       0.00034475      -0.00000002      -0.52448367
Si       9.59897455       0.00000000      13.35750000  F        5      -0.00034472      -0.00000002      -0.52448369
Si       1.91979491       3.83958982      13.35750000  F        5       0.00000000       0.00000000      -0.52969103
Si       5.75938473       3.83958982      13.35750000  F        5      -0.00067832       0.00000000      -0.51908197
Si       9.59897455       3.83958982      13.35750000  F        5       0.00067836       0.00000000      -0.51908199
Si       1.91979491       1.91979491      14.71500000  F        4      -0.00000000      -0.00350063       0.15934061
Si       5.75938473       1.91979491      14.71500000  F        4       0.00255688      -0.00164165       0.17300387
Si       9.59897455       1.91979491      14.71500000  F        4      -0.00255685      -0.00164165       0.17300389
Si       1.91979491       5.75938473      14.71500000  F        4      -0.00000000       0.00350066       0.15934060
Si       5.75938473       5.75938473      14.71500000  F        4       0.00255688       0.00164167       0.17300385
Si       9.59897455       5.75938473      14.71500000  F        4      -0.00255685       0.00164167       0.17300387
Si       0.00000000       1.91979491      16.07250000  F        3      -0.01408723       0.01382951      -0.14181018
Si       3.83958982       1.91979491      16.07250000  F        3       0.01408719       0.01382950      -0.14181016
Si       7.67917964       1.91979491      16.07250000  F        3       0.00000000      -0.02158387      -0.16164008
Si       0.00000000       5.75938473      16.07250000  F        3      -0.01408723      -0.01382948      -0.14181016
Si       3.83958982       5.75938473      16.07250000  F        3       0.01408719      -0.01382948      -0.14181014
Si       7.67917964       5.75938473      16.07250000  F        3       0.00000000       0.02158389      -0.16164007
Si       0.00000000       0.00000000      17.43000000  F        2       0.02604211      -0.00000002       0.48264724
Si       3.83958982       0.00000000      17.43000000  F        2      -0.02604214      -0.00000002       0.48264723
Si       7.67917964       0.00000000      17.43000000  F        2      -0.00000000      -0.00000002       0.41739325
Si       0.00000000       3.83958982      17.43000000  F        2       0.17048773       0.00000000       0.40689424
Si       3.83958982       3.83958982      17.43000000  F        2      -0.17048776       0.00000000       0.40689422
Si       7.67917964       3.83958982      17.43000000  F        2      -0.00000000       0.00000000       0.31949319
Si       1.91979491       0.00000000      18.78750000  F        1      -0.00000000       0.00000000      -0.26612202
Si       5.75938473       0.00000000      18.78750000  F        1      -0.02656837       0.00000000      -0.23694080
Si       9.59897455       0.00000000      18.78750000  F        1       0.02656840       0.00000000      -0.23694082
Si       1.91979491       3.83958982      18.78750000  F        1      -0.00000000      -0.00000000      -0.24679150
Si       5.75938473       3.83958982      18.78750000  F        1      -0.01794541      -0.00000000      -0.27125019
Si       9.59897455       3.83958982      18.78750000  F        1       0.01794545      -0.00000000      -0.27125021
F        7.67917964       3.83958982      21.34873254  T        0      -0.00000000       0.00000000       0.50264423
H        7.67917964       3.83958982      20.38750000  T        0       0.00000000       0.00000000       0.03944659
38
Lattice="11.518769465528859 0.0 0.0 0.0 7.679179643685906 0.0 0.0 0.0 30.7875" Properties=species:S:1:pos:R:3:move_mask:L:1:tags:I:1:forces:R:3 surface=Si100 species=HF site=bridge_Si_Si orientation=flipped height_A=1.3 substrate_atoms=36 calculation_kind="Rigid evaluated approach scan; not NEB" energy=-187.72997213237315 pbc="T T F"
Si       0.00000000       0.00000000      12.00000000  F        6       0.00182102       0.00000000       0.24817834
Si       3.83958982       0.00000000      12.00000000  F        6      -0.00182106       0.00000000       0.24817832
Si       7.67917964       0.00000000      12.00000000  F        6       0.00000000       0.00000000       0.25460147
Si       0.00000000       3.83958982      12.00000000  F        6       0.00013255      -0.00000000       0.24852353
Si       3.83958982       3.83958982      12.00000000  F        6      -0.00013259      -0.00000000       0.24852351
Si       7.67917964       3.83958982      12.00000000  F        6       0.00000000      -0.00000000       0.25085568
Si       1.91979491       0.00000000      13.35750000  F        5       0.00000000      -0.00000002      -0.52845477
Si       5.75938473       0.00000000      13.35750000  F        5       0.00058896      -0.00000002      -0.52845167
Si       9.59897455       0.00000000      13.35750000  F        5      -0.00058893      -0.00000002      -0.52845168
Si       1.91979491       3.83958982      13.35750000  F        5       0.00000000       0.00000000      -0.53256743
Si       5.75938473       3.83958982      13.35750000  F        5      -0.00090317       0.00000000      -0.51623973
Si       9.59897455       3.83958982      13.35750000  F        5       0.00090321       0.00000000      -0.51623974
Si       1.91979491       1.91979491      14.71500000  F        4      -0.00000000      -0.00433590       0.15691297
Si       5.75938473       1.91979491      14.71500000  F        4      -0.00200043      -0.00012346       0.17032109
Si       9.59897455       1.91979491      14.71500000  F        4       0.00200046      -0.00012346       0.17032111
Si       1.91979491       5.75938473      14.71500000  F        4      -0.00000000       0.00433593       0.15691296
Si       5.75938473       5.75938473      14.71500000  F        4      -0.00200043       0.00012348       0.17032107
Si       9.59897455       5.75938473      14.71500000  F        4       0.00200046       0.00012348       0.17032109
Si       0.00000000       1.91979491      16.07250000  F        3      -0.01464959       0.01585351      -0.13921066
Si       3.83958982       1.91979491      16.07250000  F        3       0.01464956       0.01585351      -0.13921064
Si       7.67917964       1.91979491      16.07250000  F        3       0.00000000      -0.00613005      -0.16847445
Si       0.00000000       5.75938473      16.07250000  F        3      -0.01464959      -0.01585349      -0.13921064
Si       3.83958982       5.75938473      16.07250000  F        3       0.01464956      -0.01585349      -0.13921062
Si       7.67917964       5.75938473      16.07250000  F        3       0.00000000       0.00613008      -0.16847444
Si       0.00000000       0.00000000      17.43000000  F        2       0.02131634      -0.00000002       0.48411123
Si       3.83958982       0.00000000      17.43000000  F        2      -0.02131637      -0.00000002       0.48411121
Si       7.67917964       0.00000000      17.43000000  F        2      -0.00000000      -0.00000002       0.36242669
Si       0.00000000       3.83958982      17.43000000  F        2       0.17024903       0.00000000       0.36645033
Si       3.83958982       3.83958982      17.43000000  F        2      -0.17024906       0.00000000       0.36645031
Si       7.67917964       3.83958982      17.43000000  F        2      -0.00000000       0.00000000       0.01294652
Si       1.91979491       0.00000000      18.78750000  F        1      -0.00000000       0.00000000      -0.27547308
Si       5.75938473       0.00000000      18.78750000  F        1      -0.01138846       0.00000000      -0.19640104
Si       9.59897455       0.00000000      18.78750000  F        1       0.01138849       0.00000000      -0.19640106
Si       1.91979491       3.83958982      18.78750000  F        1      -0.00000000      -0.00000000      -0.24425197
Si       5.75938473       3.83958982      18.78750000  F        1      -0.33859871      -0.00000000      -0.42751456
Si       9.59897455       3.83958982      18.78750000  F        1       0.33859874      -0.00000000      -0.42751459
F        7.67917964       3.83958982      21.04873254  T        0      -0.00000000      -0.00000000       1.16255565
H        7.67917964       3.83958982      20.08750000  T        0       0.00000000       0.00000000       0.07872967
