3
Properties=species:S:1:pos:R:3:forces:R:3 energy=-14.161416503705231 pbc="F F F"
O        0.00000000       0.00000000       0.00000000      -0.00000000       0.00000000      -0.90009041
H        0.75700000       0.00000000       0.58600000       0.45792789       0.00000000       0.45004520
H       -0.75700000       0.00000000       0.58600000      -0.45792789       0.00000000       0.45004520
3
Properties=species:S:1:pos:R:3:forces:R:3 energy=-14.162827017663407 pbc="F F F"
O       -0.00000000       0.00000000      -0.00081008      -0.00000000       0.00000000      -0.82980738
H        0.75741214       0.00000000       0.58640504       0.41454433       0.00000000       0.41490369
H       -0.75741214       0.00000000       0.58640504      -0.41454433       0.00000000       0.41490369
3
Properties=species:S:1:pos:R:3:forces:R:3 energy=-14.165195369042848 pbc="F F F"
O       -0.00000000       0.00000000      -0.00236736      -0.00000000       0.00000000      -0.69640295
H        0.75819680       0.00000000       0.58718368       0.33274134       0.00000000       0.34820147
H       -0.75819680       0.00000000       0.58718368      -0.33274134       0.00000000       0.34820147
3
Properties=species:S:1:pos:R:3:forces:R:3 energy=-14.167776031546063 pbc="F F F"
O       -0.00000000       0.00000000      -0.00455343       0.00000000       0.00000000      -0.51307857
H        0.75927784       0.00000000       0.58827672       0.22157661       0.00000000       0.25653929
H       -0.75927784       0.00000000       0.58827672      -0.22157661       0.00000000       0.25653929
3
Properties=species:S:1:pos:R:3:forces:R:3 energy=-14.169785241569661 pbc="F F F"
O       -0.00000000       0.00000000      -0.00720795       0.00000000       0.00000000      -0.29709994
H        0.76054749       0.00000000       0.58960397       0.09271637       0.00000000       0.14854997
H       -0.76054749       0.00000000       0.58960397      -0.09271637       0.00000000       0.14854997
3
Properties=species:S:1:pos:R:3:forces:R:3 energy=-14.170654120610674 pbc="F F F"
O       -0.00000000       0.00000000      -0.01014968       0.00000000       0.00000000      -0.06751408
H        0.76186265       0.00000000       0.59107484      -0.04104480       0.00000000       0.03375704
H       -0.76186265       0.00000000       0.59107484       0.04104480       0.00000000       0.03375704
3
Properties=species:S:1:pos:R:3:forces:R:3 energy=-14.170275108514968 pbc="F F F"
O       -0.00000000       0.00000000      -0.01312897      -0.00000000       0.00000000       0.14842903
H        0.76284462       0.00000000       0.59256449      -0.15980039       0.00000000      -0.07421452
H       -0.76284462       0.00000000       0.59256449       0.15980039       0.00000000      -0.07421452
3
Properties=species:S:1:pos:R:3:forces:R:3 energy=-14.170293872168203 pbc="F F F"
O       -0.00000000       0.00000000      -0.01309558      -0.00000000       0.00000000       0.14510197
H        0.76280866       0.00000000       0.59254779      -0.15758046       0.00000000      -0.07255099
H       -0.76280866       0.00000000       0.59254779       0.15758046       0.00000000      -0.07255099
3
Properties=species:S:1:pos:R:3:forces:R:3 energy=-14.170330111907138 pbc="F F F"
O       -0.00000000       0.00000000      -0.01302955       0.00000000       0.00000000       0.13850931
H        0.76273724       0.00000000       0.59251477      -0.15317700       0.00000000      -0.06925466
H       -0.76273724       0.00000000       0.59251477       0.15317700       0.00000000      -0.06925466
3
Properties=species:S:1:pos:R:3:forces:R:3 energy=-14.170381345158365 pbc="F F F"
O       -0.00000000       0.00000000      -0.01293245       0.00000000       0.00000000       0.12877433
H        0.76263129       0.00000000       0.59246622      -0.14666246       0.00000000      -0.06438717
H       -0.76263129       0.00000000       0.59246622       0.14666246       0.00000000      -0.06438717
3
Properties=species:S:1:pos:R:3:forces:R:3 energy=-14.17044407397805 pbc="F F F"
O       -0.00000000       0.00000000      -0.01280663       0.00000000       0.00000000       0.11608188
H        0.76249217       0.00000000       0.59240331      -0.13814461       0.00000000      -0.05804094
H       -0.76249217       0.00000000       0.59240331       0.13814461       0.00000000      -0.05804094
3
Properties=species:S:1:pos:R:3:forces:R:3 energy=-14.170514040638299 pbc="F F F"
O       -0.00000000       0.00000000      -0.01265526      -0.00000000       0.00000000       0.10067781
H        0.76232159       0.00000000       0.59232763      -0.12776563       0.00000000      -0.05033891
H       -0.76232159       0.00000000       0.59232763       0.12776563       0.00000000      -0.05033891
3
Properties=species:S:1:pos:R:3:forces:R:3 energy=-14.170586543445804 pbc="F F F"
O       -0.00000000       0.00000000      -0.01248238      -0.00000000       0.00000000       0.08286907
H        0.76212155       0.00000000       0.59224119      -0.11570109       0.00000000      -0.04143453
H       -0.76212155       0.00000000       0.59224119       0.11570109       0.00000000      -0.04143453
3
Properties=species:S:1:pos:R:3:forces:R:3 energy=-14.170656794569307 pbc="F F F"
O       -0.00000000       0.00000000      -0.01229293       0.00000000       0.00000000       0.06302586
H        0.76189425       0.00000000       0.59214647      -0.10215974       0.00000000      -0.03151293
H       -0.76189425       0.00000000       0.59214647       0.10215974       0.00000000      -0.03151293
3
Properties=species:S:1:pos:R:3:forces:R:3 energy=-14.170726416139198 pbc="F F F"
O       -0.00000000       0.00000000      -0.01207144       0.00000000       0.00000000       0.03925624
H        0.76161421       0.00000000       0.59203572      -0.08577061       0.00000000      -0.01962812
H       -0.76161421       0.00000000       0.59203572       0.08577061       0.00000000      -0.01962812
3
Properties=species:S:1:pos:R:3:forces:R:3 energy=-14.17078764498121 pbc="F F F"
O       -0.00000000       0.00000000      -0.01182327       0.00000000       0.00000000       0.01158529
H        0.76127405       0.00000000       0.59191163      -0.06639293       0.00000000      -0.00579265
H       -0.76127405       0.00000000       0.59191163       0.06639293       0.00000000      -0.00579265
3
Properties=species:S:1:pos:R:3:forces:R:3 energy=-14.170831171844107 pbc="F F F"
O       -0.00000000       0.00000000      -0.01156492      -0.00000000       0.00000000      -0.01926118
H        0.76086719       0.00000000       0.59178246      -0.04422581       0.00000000       0.00963059
H       -0.76086719       0.00000000       0.59178246       0.04422581       0.00000000       0.00963059
3
Properties=species:S:1:pos:R:3:forces:R:3 energy=-14.170849785743954 pbc="F F F"
O       -0.00000000       0.00000000      -0.01133780       0.00000000       0.00000000      -0.05073786
H        0.76039536       0.00000000       0.59166890      -0.02047808       0.00000000       0.02536893
H       -0.76039536       0.00000000       0.59166890       0.02047808       0.00000000       0.02536893
3
Properties=species:S:1:pos:R:3:forces:R:3 energy=-14.170845567666682 pbc="F F F"
O       -0.00000000       0.00000000      -0.01119812       0.00000000       0.00000000      -0.07820791
H        0.75989144       0.00000000       0.59159906       0.00205372       0.00000000       0.03910395
H       -0.75989144       0.00000000       0.59159906      -0.00205372       0.00000000       0.03910395
3
Properties=species:S:1:pos:R:3:forces:R:3 energy=-14.170846901337214 pbc="F F F"
O       -0.00000000       0.00000000      -0.01120953      -0.00000000       0.00000000      -0.07750296
H        0.75989174       0.00000000       0.59160476       0.00171951       0.00000000       0.03875148
H       -0.75989174       0.00000000       0.59160476      -0.00171951       0.00000000       0.03875148
3
Properties=species:S:1:pos:R:3:forces:R:3 energy=-14.170849520047101 pbc="F F F"
O       -0.00000000       0.00000000      -0.01123224      -0.00000000       0.00000000      -0.07610145
H        0.75989229       0.00000000       0.59161612       0.00105610       0.00000000       0.03805072
H       -0.75989229       0.00000000       0.59161612      -0.00105610       0.00000000       0.03805072
3
Properties=species:S:1:pos:R:3:forces:R:3 energy=-14.170853328839605 pbc="F F F"
O       -0.00000000       0.00000000      -0.01126607       0.00000000       0.00000000      -0.07402032
H        0.75989296       0.00000000       0.59163303       0.00007378       0.00000000       0.03701016
H       -0.75989296       0.00000000       0.59163303      -0.00007378       0.00000000       0.03701016
3
Properties=species:S:1:pos:R:3:forces:R:3 energy=-14.170858190987087 pbc="F F F"
O       -0.00000000       0.00000000      -0.01131069      -0.00000000       0.00000000      -0.07128488
H        0.75989359       0.00000000       0.59165534      -0.00121193       0.00000000       0.03564244
H       -0.75989359       0.00000000       0.59165534       0.00121193       0.00000000       0.03564244
3
Properties=species:S:1:pos:R:3:forces:R:3 energy=-14.170863934641691 pbc="F F F"
O       -0.00000000       0.00000000      -0.01136571       0.00000000       0.00000000      -0.06792926
H        0.75989390       0.00000000       0.59168285      -0.00277989       0.00000000       0.03396463
H       -0.75989390       0.00000000       0.59168285       0.00277989       0.00000000       0.03396463
3
Properties=species:S:1:pos:R:3:forces:R:3 energy=-14.170870361389028 pbc="F F F"
O       -0.00000000       0.00000000      -0.01143064      -0.00000000       0.00000000      -0.06399661
H        0.75989354       0.00000000       0.59171532      -0.00460304       0.00000000       0.03199830
H       -0.75989354       0.00000000       0.59171532       0.00460304       0.00000000       0.03199830
3
Properties=species:S:1:pos:R:3:forces:R:3 energy=-14.170877256386495 pbc="F F F"
O       -0.00000000       0.00000000      -0.01150488       0.00000000       0.00000000      -0.05953933
H        0.75989209       0.00000000       0.59175244      -0.00664820       0.00000000       0.02976967
H       -0.75989209       0.00000000       0.59175244       0.00664820       0.00000000       0.02976967
3
Properties=species:S:1:pos:R:3:forces:R:3 energy=-14.170885160683575 pbc="F F F"
O       -0.00000000       0.00000000      -0.01159699      -0.00000000       0.00000000      -0.05407366
H        0.75988857       0.00000000       0.59179849      -0.00912132       0.00000000       0.02703683
H       -0.75988857       0.00000000       0.59179849       0.00912132       0.00000000       0.02703683
3
Properties=species:S:1:pos:R:3:forces:R:3 energy=-14.170893895544072 pbc="F F F"
O       -0.00000000       0.00000000      -0.01170969      -0.00000000       0.00000000      -0.04749139
H        0.75988147       0.00000000       0.59185484      -0.01204260       0.00000000       0.02374569
H       -0.75988147       0.00000000       0.59185484       0.01204260       0.00000000       0.02374569
3
Properties=species:S:1:pos:R:3:forces:R:3 energy=-14.170903138163398 pbc="F F F"
O       -0.00000000       0.00000000      -0.01184547       0.00000000       0.00000000      -0.03973214
H        0.75986835       0.00000000       0.59192274      -0.01539182       0.00000000       0.01986607
H       -0.75986835       0.00000000       0.59192274       0.01539182       0.00000000       0.01986607
3
Properties=species:S:1:pos:R:3:forces:R:3 energy=-14.170912431174127 pbc="F F F"
O       -0.00000000       0.00000000      -0.01200608      -0.00000000       0.00000000      -0.03083479
H        0.75984535       0.00000000       0.59200304      -0.01907496       0.00000000       0.01541739
H       -0.75984535       0.00000000       0.59200304       0.01907496       0.00000000       0.01541739
3
Properties=species:S:1:pos:R:3:forces:R:3 energy=-14.170921266020585 pbc="F F F"
O       -0.00000000       0.00000000      -0.01219144      -0.00000000       0.00000000      -0.02102253
H        0.75980660       0.00000000       0.59209572      -0.02287358       0.00000000       0.01051127
H       -0.75980660       0.00000000       0.59209572       0.02287358       0.00000000       0.01051127
3
Properties=species:S:1:pos:R:3:forces:R:3 energy=-14.170929279957997 pbc="F F F"
O       -0.00000000       0.00000000      -0.01239800       0.00000000       0.00000000      -0.01081259
H        0.75974404       0.00000000       0.59219900      -0.02639063       0.00000000       0.00540630
H       -0.75974404       0.00000000       0.59219900       0.02639063       0.00000000       0.00540630
3
Properties=species:S:1:pos:R:3:forces:R:3 energy=-14.170936525117472 pbc="F F F"
O       -0.00000000       0.00000000      -0.01261739       0.00000000       0.00000000      -0.00105135
H        0.75964859       0.00000000       0.59230869      -0.02905786       0.00000000       0.00052567
H       -0.75964859       0.00000000       0.59230869       0.02905786       0.00000000       0.00052567
3
Properties=species:S:1:pos:R:3:forces:R:3 energy=-14.17094359712583 pbc="F F F"
O       -0.00000000       0.00000000      -0.01283772      -0.00000000       0.00000000       0.00723567
H        0.75951210       0.00000000       0.59241886      -0.03024398       0.00000000      -0.00361784
H       -0.75951210       0.00000000       0.59241886       0.03024398       0.00000000      -0.00361784
3
Properties=species:S:1:pos:R:3:forces:R:3 energy=-14.170951400929827 pbc="F F F"
O       -0.00000000       0.00000000      -0.01304627       0.00000000       0.00000000       0.01302806
H        0.75932798       0.00000000       0.59252313      -0.02935091       0.00000000      -0.00651403
H       -0.75932798       0.00000000       0.59252313       0.02935091       0.00000000      -0.00651403
3
Properties=species:S:1:pos:R:3:forces:R:3 energy=-14.170960543198857 pbc="F F F"
O       -0.00000000       0.00000000      -0.01323119       0.00000000       0.00000000       0.01540533
H        0.75909094       0.00000000       0.59261559      -0.02585375       0.00000000      -0.00770267
H       -0.75909094       0.00000000       0.59261559       0.02585375       0.00000000      -0.00770267
3
Properties=species:S:1:pos:R:3:forces:R:3 energy=-14.170970493551916 pbc="F F F"
O       -0.00000000       0.00000000      -0.01338284       0.00000000       0.00000000       0.01365316
H        0.75879778       0.00000000       0.59269142      -0.01936241       0.00000000      -0.00682658
H       -0.75879778       0.00000000       0.59269142       0.01936241       0.00000000      -0.00682658
3
Properties=species:S:1:pos:R:3:forces:R:3 energy=-14.170978845656391 pbc="F F F"
O       -0.00000000       0.00000000      -0.01349607      -0.00000000       0.00000000       0.00747646
H        0.75844935       0.00000000       0.59274803      -0.00975769       0.00000000      -0.00373823
H       -0.75844935       0.00000000       0.59274803       0.00975769       0.00000000      -0.00373823
3
Properties=species:S:1:pos:R:3:forces:R:3 energy=-14.170981401811636 pbc="F F F"
O       -0.00000000       0.00000000      -0.01357404       0.00000000       0.00000000      -0.00264541
H        0.75805368       0.00000000       0.59278702       0.00258476       0.00000000       0.00132270
H       -0.75805368       0.00000000       0.59278702      -0.00258476       0.00000000       0.00132270
