41
Lattice="11.518769465528859 0.0 0.0 0.0 7.679179643685906 0.0 0.0 0.0 30.7875" Properties=species:S:1:pos:R:3:move_mask:L:1:tags:I:1:forces:R:3 surface=Si100 species=SiCl4 site=atop_Si orientation=upright height_A=6.5 substrate_atoms=36 calculation_kind="Rigid evaluated approach scan; not NEB" energy=-199.31249491099615 pbc="T T F"
Si       0.00000000       0.00000000      12.00000000  F        6      -0.00000004       0.00000000       0.24903484
Si       3.83958982       0.00000000      12.00000000  F        6      -0.00000000       0.00000000       0.24903482
Si       7.67917964       0.00000000      12.00000000  F        6       0.00000000       0.00000000       0.24903482
Si       0.00000000       3.83958982      12.00000000  F        6      -0.00000004      -0.00000000       0.24903484
Si       3.83958982       3.83958982      12.00000000  F        6      -0.00000000      -0.00000000       0.24903482
Si       7.67917964       3.83958982      12.00000000  F        6       0.00000000      -0.00000000       0.24903482
Si       1.91979491       0.00000000      13.35750000  F        5       0.00000000      -0.00000002      -0.52822352
Si       5.75938473       0.00000000      13.35750000  F        5       0.00000000      -0.00000002      -0.52822353
Si       9.59897455       0.00000000      13.35750000  F        5       0.00000003      -0.00000002      -0.52822354
Si       1.91979491       3.83958982      13.35750000  F        5       0.00000000       0.00000000      -0.52822354
Si       5.75938473       3.83958982      13.35750000  F        5       0.00000000       0.00000000      -0.52822354
Si       9.59897455       3.83958982      13.35750000  F        5       0.00000003       0.00000000      -0.52822356
Si       1.91979491       1.91979491      14.71500000  F        4      -0.00000000       0.00000000       0.14537709
Si       5.75938473       1.91979491      14.71500000  F        4       0.00000000       0.00000000       0.14537709
Si       9.59897455       1.91979491      14.71500000  F        4       0.00000004       0.00000000       0.14537711
Si       1.91979491       5.75938473      14.71500000  F        4      -0.00000000       0.00000002       0.14537707
Si       5.75938473       5.75938473      14.71500000  F        4       0.00000000       0.00000002       0.14537707
Si       9.59897455       5.75938473      14.71500000  F        4       0.00000004       0.00000002       0.14537709
Si       0.00000000       1.91979491      16.07250000  F        3      -0.00000004       0.00000000      -0.14537711
Si       3.83958982       1.91979491      16.07250000  F        3      -0.00000000       0.00000000      -0.14537709
Si       7.67917964       1.91979491      16.07250000  F        3       0.00000000       0.00000000      -0.14537709
Si       0.00000000       5.75938473      16.07250000  F        3      -0.00000004       0.00000002      -0.14537709
Si       3.83958982       5.75938473      16.07250000  F        3      -0.00000000       0.00000002      -0.14537707
Si       7.67917964       5.75938473      16.07250000  F        3       0.00000000       0.00000002      -0.14537707
Si       0.00000000       0.00000000      17.43000000  F        2      -0.00000003      -0.00000002       0.52822354
Si       3.83958982       0.00000000      17.43000000  F        2      -0.00000000      -0.00000002       0.52822353
Si       7.67917964       0.00000000      17.43000000  F        2      -0.00000000      -0.00000002       0.52822352
Si       0.00000000       3.83958982      17.43000000  F        2      -0.00000003       0.00000000       0.52822356
Si       3.83958982       3.83958982      17.43000000  F        2      -0.00000000       0.00000000       0.52822354
Si       7.67917964       3.83958982      17.43000000  F        2      -0.00000000       0.00000000       0.52822354
Si       1.91979491       0.00000000      18.78750000  F        1      -0.00000000       0.00000000      -0.24903482
Si       5.75938473       0.00000000      18.78750000  F        1       0.00000000       0.00000000      -0.24903482
Si       9.59897455       0.00000000      18.78750000  F        1       0.00000004       0.00000000      -0.24903484
Si       1.91979491       3.83958982      18.78750000  F        1      -0.00000000      -0.00000000      -0.24903482
Si       5.75938473       3.83958982      18.78750000  F        1       0.00000000      -0.00000000      -0.24903482
Si       9.59897455       3.83958982      18.78750000  F        1       0.00000004      -0.00000000      -0.24903484
Si       5.75938473       3.83958982      27.32191304  T        0       0.00074226       0.00000000      -0.00052482
Cl       5.75938473       3.83958982      25.28750000  T        0       0.00187593       0.00000000      -0.00472478
Cl       7.67744774       3.83958982      28.00005072  T        0       0.00507986       0.00000000      -0.00019372
Cl       4.80035323       5.50068111      28.00005072  T        0      -0.00384902      -0.00477622       0.00272166
Cl       4.80035323       2.17849853      28.00005072  T        0      -0.00384902       0.00477622       0.00272166
41
Lattice="11.518769465528859 0.0 0.0 0.0 7.679179643685906 0.0 0.0 0.0 30.7875" Properties=species:S:1:pos:R:3:move_mask:L:1:tags:I:1:forces:R:3 surface=Si100 species=SiCl4 site=atop_Si orientation=upright height_A=5.0 substrate_atoms=36 calculation_kind="Rigid evaluated approach scan; not NEB" energy=-199.31249491099615 pbc="T T F"
Si       0.00000000       0.00000000      12.00000000  F        6      -0.00000004       0.00000000       0.24903484
Si       3.83958982       0.00000000      12.00000000  F        6      -0.00000000       0.00000000       0.24903482
Si       7.67917964       0.00000000      12.00000000  F        6       0.00000000       0.00000000       0.24903482
Si       0.00000000       3.83958982      12.00000000  F        6      -0.00000004      -0.00000000       0.24903484
Si       3.83958982       3.83958982      12.00000000  F        6      -0.00000000      -0.00000000       0.24903482
Si       7.67917964       3.83958982      12.00000000  F        6       0.00000000      -0.00000000       0.24903482
Si       1.91979491       0.00000000      13.35750000  F        5       0.00000000      -0.00000002      -0.52822352
Si       5.75938473       0.00000000      13.35750000  F        5       0.00000000      -0.00000002      -0.52822353
Si       9.59897455       0.00000000      13.35750000  F        5       0.00000003      -0.00000002      -0.52822354
Si       1.91979491       3.83958982      13.35750000  F        5       0.00000000       0.00000000      -0.52822354
Si       5.75938473       3.83958982      13.35750000  F        5       0.00000000       0.00000000      -0.52822354
Si       9.59897455       3.83958982      13.35750000  F        5       0.00000003       0.00000000      -0.52822356
Si       1.91979491       1.91979491      14.71500000  F        4      -0.00000000       0.00000000       0.14537709
Si       5.75938473       1.91979491      14.71500000  F        4       0.00000000       0.00000000       0.14537709
Si       9.59897455       1.91979491      14.71500000  F        4       0.00000004       0.00000000       0.14537711
Si       1.91979491       5.75938473      14.71500000  F        4      -0.00000000       0.00000002       0.14537707
Si       5.75938473       5.75938473      14.71500000  F        4       0.00000000       0.00000002       0.14537707
Si       9.59897455       5.75938473      14.71500000  F        4       0.00000004       0.00000002       0.14537709
Si       0.00000000       1.91979491      16.07250000  F        3      -0.00000004       0.00000000      -0.14537711
Si       3.83958982       1.91979491      16.07250000  F        3      -0.00000000       0.00000000      -0.14537709
Si       7.67917964       1.91979491      16.07250000  F        3       0.00000000       0.00000000      -0.14537709
Si       0.00000000       5.75938473      16.07250000  F        3      -0.00000004       0.00000002      -0.14537709
Si       3.83958982       5.75938473      16.07250000  F        3      -0.00000000       0.00000002      -0.14537707
Si       7.67917964       5.75938473      16.07250000  F        3       0.00000000       0.00000002      -0.14537707
Si       0.00000000       0.00000000      17.43000000  F        2      -0.00000003      -0.00000002       0.52822354
Si       3.83958982       0.00000000      17.43000000  F        2      -0.00000000      -0.00000002       0.52822353
Si       7.67917964       0.00000000      17.43000000  F        2      -0.00000000      -0.00000002       0.52822352
Si       0.00000000       3.83958982      17.43000000  F        2      -0.00000003       0.00000000       0.52822356
Si       3.83958982       3.83958982      17.43000000  F        2      -0.00000000       0.00000000       0.52822354
Si       7.67917964       3.83958982      17.43000000  F        2      -0.00000000       0.00000000       0.52822354
Si       1.91979491       0.00000000      18.78750000  F        1      -0.00000000       0.00000000      -0.24903482
Si       5.75938473       0.00000000      18.78750000  F        1       0.00000000       0.00000000      -0.24903482
Si       9.59897455       0.00000000      18.78750000  F        1       0.00000004       0.00000000      -0.24903484
Si       1.91979491       3.83958982      18.78750000  F        1      -0.00000000      -0.00000000      -0.24903482
Si       5.75938473       3.83958982      18.78750000  F        1       0.00000000      -0.00000000      -0.24903482
Si       9.59897455       3.83958982      18.78750000  F        1       0.00000004      -0.00000000      -0.24903484
Si       5.75938473       3.83958982      25.82191304  T        0       0.00074226       0.00000000      -0.00052482
Cl       5.75938473       3.83958982      23.78750000  T        0       0.00187593       0.00000000      -0.00472478
Cl       7.67744774       3.83958982      26.50005072  T        0       0.00507986       0.00000000      -0.00019372
Cl       4.80035323       5.50068111      26.50005072  T        0      -0.00384902      -0.00477622       0.00272166
Cl       4.80035323       2.17849853      26.50005072  T        0      -0.00384902       0.00477622       0.00272166
41
Lattice="11.518769465528859 0.0 0.0 0.0 7.679179643685906 0.0 0.0 0.0 30.7875" Properties=species:S:1:pos:R:3:move_mask:L:1:tags:I:1:forces:R:3 surface=Si100 species=SiCl4 site=atop_Si orientation=upright height_A=4.0 substrate_atoms=36 calculation_kind="Rigid evaluated approach scan; not NEB" energy=-199.37083846685417 pbc="T T F"
Si       0.00000000       0.00000000      12.00000000  F        6      -0.00000004       0.00000000       0.24889000
Si       3.83958982       0.00000000      12.00000000  F        6       0.00029213       0.00000000       0.24853474
Si       7.67917964       0.00000000      12.00000000  F        6      -0.00029213       0.00000000       0.24853474
Si       0.00000000       3.83958982      12.00000000  F        6      -0.00000004      -0.00000000       0.24885801
Si       3.83958982       3.83958982      12.00000000  F        6       0.00042816      -0.00000000       0.24882520
Si       7.67917964       3.83958982      12.00000000  F        6      -0.00042816      -0.00000000       0.24882519
Si       1.91979491       0.00000000      13.35750000  F        5       0.00022238      -0.00000002      -0.52753573
Si       5.75938473       0.00000000      13.35750000  F        5       0.00000000      -0.00000002      -0.52708772
Si       9.59897455       0.00000000      13.35750000  F        5      -0.00022234      -0.00000002      -0.52753575
Si       1.91979491       3.83958982      13.35750000  F        5       0.00099882       0.00000000      -0.52574246
Si       5.75938473       3.83958982      13.35750000  F        5       0.00000000       0.00000000      -0.52368745
Si       9.59897455       3.83958982      13.35750000  F        5      -0.00099879       0.00000000      -0.52574249
Si       1.91979491       1.91979491      14.71500000  F        4       0.00218320       0.00009638       0.14648694
Si       5.75938473       1.91979491      14.71500000  F        4       0.00000000       0.00781312       0.16009182
Si       9.59897455       1.91979491      14.71500000  F        4      -0.00218316       0.00009638       0.14648697
Si       1.91979491       5.75938473      14.71500000  F        4       0.00218320      -0.00009635       0.14648693
Si       5.75938473       5.75938473      14.71500000  F        4       0.00000000      -0.00781309       0.16009181
Si       9.59897455       5.75938473      14.71500000  F        4      -0.00218316      -0.00009635       0.14648695
Si       0.00000000       1.91979491      16.07250000  F        3      -0.00000004       0.00407186      -0.14295622
Si       3.83958982       1.91979491      16.07250000  F        3       0.00076565       0.01095827      -0.14249861
Si       7.67917964       1.91979491      16.07250000  F        3      -0.00076565       0.01095827      -0.14249861
Si       0.00000000       5.75938473      16.07250000  F        3      -0.00000004      -0.00407183      -0.14295621
Si       3.83958982       5.75938473      16.07250000  F        3       0.00076565      -0.01095825      -0.14249860
Si       7.67917964       5.75938473      16.07250000  F        3      -0.00076565      -0.01095825      -0.14249860
Si       0.00000000       0.00000000      17.43000000  F        2      -0.00000003      -0.00000002       0.52860356
Si       3.83958982       0.00000000      17.43000000  F        2      -0.00551271      -0.00000002       0.51820048
Si       7.67917964       0.00000000      17.43000000  F        2       0.00551271      -0.00000002       0.51820048
Si       0.00000000       3.83958982      17.43000000  F        2      -0.00000003       0.00000000       0.52785367
Si       3.83958982       3.83958982      17.43000000  F        2      -0.02687045       0.00000000       0.50467291
Si       7.67917964       3.83958982      17.43000000  F        2       0.02687045       0.00000000       0.50467291
Si       1.91979491       0.00000000      18.78750000  F        1       0.00150881       0.00000000      -0.24988998
Si       5.75938473       0.00000000      18.78750000  F        1       0.00000000       0.00000000      -0.24579344
Si       9.59897455       0.00000000      18.78750000  F        1      -0.00150878       0.00000000      -0.24989000
Si       1.91979491       3.83958982      18.78750000  F        1      -0.01179604      -0.00000000      -0.26318356
Si       5.75938473       3.83958982      18.78750000  F        1      -0.00000081      -0.00000000      -0.20864179
Si       9.59897455       3.83958982      18.78750000  F        1       0.01179607      -0.00000000      -0.26318358
Si       5.75938473       3.83958982      24.82191304  T        0       0.00082442       0.00000000      -0.08320142
Cl       5.75938473       3.83958982      22.78750000  T        0       0.00187457       0.00000000       0.04879357
Cl       7.67744774       3.83958982      25.50005072  T        0       0.00994135       0.00000000       0.00718199
Cl       4.80035323       5.50068111      25.50005072  T        0      -0.00631976       0.00123751       0.01012167
Cl       4.80035323       2.17849853      25.50005072  T        0      -0.00631976      -0.00123751       0.01012167
41
Lattice="11.518769465528859 0.0 0.0 0.0 7.679179643685906 0.0 0.0 0.0 30.7875" Properties=species:S:1:pos:R:3:move_mask:L:1:tags:I:1:forces:R:3 surface=Si100 species=SiCl4 site=atop_Si orientation=upright height_A=3.25 substrate_atoms=36 calculation_kind="Rigid evaluated approach scan; not NEB" energy=-199.3153243266853 pbc="T T F"
Si       0.00000000       0.00000000      12.00000000  F        6      -0.00000004       0.00000000       0.24992702
Si       3.83958982       0.00000000      12.00000000  F        6      -0.00042151       0.00000000       0.25018442
Si       7.67917964       0.00000000      12.00000000  F        6       0.00042151       0.00000000       0.25018442
Si       0.00000000       3.83958982      12.00000000  F        6      -0.00000004      -0.00000000       0.24897467
Si       3.83958982       3.83958982      12.00000000  F        6      -0.00016185      -0.00000000       0.24855531
Si       7.67917964       3.83958982      12.00000000  F        6       0.00016185      -0.00000000       0.24855531
Si       1.91979491       0.00000000      13.35750000  F        5       0.00037763      -0.00000002      -0.52671734
Si       5.75938473       0.00000000      13.35750000  F        5       0.00000000      -0.00000002      -0.52916924
Si       9.59897455       0.00000000      13.35750000  F        5      -0.00037759      -0.00000002      -0.52671736
Si       1.91979491       3.83958982      13.35750000  F        5       0.00101633       0.00000000      -0.52424714
Si       5.75938473       3.83958982      13.35750000  F        5       0.00000000       0.00000000      -0.52688624
Si       9.59897455       3.83958982      13.35750000  F        5      -0.00101630       0.00000000      -0.52424716
Si       1.91979491       1.91979491      14.71500000  F        4       0.00180512      -0.00119632       0.14634861
Si       5.75938473       1.91979491      14.71500000  F        4       0.00000000       0.00112309       0.15910631
Si       9.59897455       1.91979491      14.71500000  F        4      -0.00180508      -0.00119632       0.14634864
Si       1.91979491       5.75938473      14.71500000  F        4       0.00180512       0.00119635       0.14634860
Si       5.75938473       5.75938473      14.71500000  F        4       0.00000000      -0.00112307       0.15910629
Si       9.59897455       5.75938473      14.71500000  F        4      -0.00180508       0.00119635       0.14634862
Si       0.00000000       1.91979491      16.07250000  F        3      -0.00000004       0.00632237      -0.14273820
Si       3.83958982       1.91979491      16.07250000  F        3      -0.00125646       0.02160999      -0.14959026
Si       7.67917964       1.91979491      16.07250000  F        3       0.00125646       0.02160999      -0.14959026
Si       0.00000000       5.75938473      16.07250000  F        3      -0.00000004      -0.00632234      -0.14273819
Si       3.83958982       5.75938473      16.07250000  F        3      -0.00125646      -0.02160997      -0.14959025
Si       7.67917964       5.75938473      16.07250000  F        3       0.00125646      -0.02160997      -0.14959025
Si       0.00000000       0.00000000      17.43000000  F        2      -0.00000003      -0.00000002       0.52286491
Si       3.83958982       0.00000000      17.43000000  F        2      -0.00992424      -0.00000002       0.50815543
Si       7.67917964       0.00000000      17.43000000  F        2       0.00992424      -0.00000002       0.50815542
Si       0.00000000       3.83958982      17.43000000  F        2      -0.00000003       0.00000000       0.52109778
Si       3.83958982       3.83958982      17.43000000  F        2       0.04949131       0.00000000       0.53934905
Si       7.67917964       3.83958982      17.43000000  F        2      -0.04949119       0.00000000       0.53934874
Si       1.91979491       0.00000000      18.78750000  F        1       0.00254226       0.00000000      -0.24513998
Si       5.75938473       0.00000000      18.78750000  F        1       0.00000000       0.00000000      -0.24314801
Si       9.59897455       0.00000000      18.78750000  F        1      -0.00254223       0.00000000      -0.24514000
Si       1.91979491       3.83958982      18.78750000  F        1      -0.02139420      -0.00000000      -0.25882570
Si       5.75938473       3.83958982      18.78750000  F        1       0.00004975      -0.00000000      -0.45837951
Si       9.59897455       3.83958982      18.78750000  F        1       0.02139423      -0.00000000      -0.25882572
Si       5.75938473       3.83958982      24.07191304  T        0       0.00187852       0.00000000      -0.11421237
Cl       5.75938473       3.83958982      22.03750000  T        0       0.00175264       0.00000000       0.32223309
Cl       7.67744774       3.83958982      24.75005072  T        0       0.02775925       0.00000000      -0.00076488
Cl       4.80035323       5.50068111      24.75005072  T        0      -0.01572014       0.01831089       0.00253271
Cl       4.80035323       2.17849853      24.75005072  T        0      -0.01572014      -0.01831089       0.00253271
41
Lattice="11.518769465528859 0.0 0.0 0.0 7.679179643685906 0.0 0.0 0.0 30.7875" Properties=species:S:1:pos:R:3:move_mask:L:1:tags:I:1:forces:R:3 surface=Si100 species=SiCl4 site=atop_Si orientation=upright height_A=2.75 substrate_atoms=36 calculation_kind="Rigid evaluated approach scan; not NEB" energy=-199.0208697321548 pbc="T T F"
Si       0.00000000       0.00000000      12.00000000  F        6      -0.00000004       0.00000000       0.25104260
Si       3.83958982       0.00000000      12.00000000  F        6      -0.00144935       0.00000000       0.25172064
Si       7.67917964       0.00000000      12.00000000  F        6       0.00144936       0.00000000       0.25172064
Si       0.00000000       3.83958982      12.00000000  F        6      -0.00000004      -0.00000000       0.24879795
Si       3.83958982       3.83958982      12.00000000  F        6      -0.00050692      -0.00000000       0.24951576
Si       7.67917964       3.83958982      12.00000000  F        6       0.00050693      -0.00000000       0.24951576
Si       1.91979491       0.00000000      13.35750000  F        5       0.00106390      -0.00000002      -0.52814065
Si       5.75938473       0.00000000      13.35750000  F        5       0.00000000      -0.00000002      -0.52927342
Si       9.59897455       0.00000000      13.35750000  F        5      -0.00106387      -0.00000002      -0.52814067
Si       1.91979491       3.83958982      13.35750000  F        5       0.00175766       0.00000000      -0.52920332
Si       5.75938473       3.83958982      13.35750000  F        5       0.00000202       0.00000000      -0.52770804
Si       9.59897455       3.83958982      13.35750000  F        5      -0.00176021       0.00000000      -0.52919718
Si       1.91979491       1.91979491      14.71500000  F        4       0.00320370      -0.00424122       0.14225058
Si       5.75938473       1.91979491      14.71500000  F        4       0.00000294      -0.00908800       0.15359192
Si       9.59897455       1.91979491      14.71500000  F        4      -0.00320694      -0.00423261       0.14226399
Si       1.91979491       5.75938473      14.71500000  F        4       0.00320370       0.00424124       0.14225057
Si       5.75938473       5.75938473      14.71500000  F        4       0.00000294       0.00908802       0.15359190
Si       9.59897455       5.75938473      14.71500000  F        4      -0.00320694       0.00423263       0.14226398
Si       0.00000000       1.91979491      16.07250000  F        3      -0.00000169      -0.00001344      -0.14415303
Si       3.83958982       1.91979491      16.07250000  F        3       0.01213811       0.02699300      -0.14891016
Si       7.67917964       1.91979491      16.07250000  F        3      -0.01213662       0.02696166      -0.14893422
Si       0.00000000       5.75938473      16.07250000  F        3      -0.00000169       0.00001346      -0.14415302
Si       3.83958982       5.75938473      16.07250000  F        3       0.01213811      -0.02699298      -0.14891014
Si       7.67917964       5.75938473      16.07250000  F        3      -0.01213662      -0.02696164      -0.14893421
Si       0.00000000       0.00000000      17.43000000  F        2      -0.00000288      -0.00000002       0.52577155
Si       3.83958982       0.00000000      17.43000000  F        2      -0.00260289      -0.00000002       0.50541934
Si       7.67917964       0.00000000      17.43000000  F        2       0.00260575      -0.00000002       0.50541682
Si       0.00000000       3.83958982      17.43000000  F        2       0.00004520       0.00000000       0.54826448
Si       3.83958982       3.83958982      17.43000000  F        2      -0.01460297       0.00000000       0.54761277
Si       7.67917964       3.83958982      17.43000000  F        2       0.01461664       0.00000000       0.54703059
Si       1.91979491       0.00000000      18.78750000  F        1       0.00448758       0.00000000      -0.25109261
Si       5.75938473       0.00000000      18.78750000  F        1       0.00020595       0.00000000      -0.16257134
Si       9.59897455       0.00000000      18.78750000  F        1      -0.00448686       0.00000000      -0.25109669
Si       1.91979491       3.83958982      18.78750000  F        1      -0.03058489      -0.00000000      -0.28351868
Si       5.75938473       3.83958982      18.78750000  F        1       0.00041831      -0.00000000      -1.27830579
Si       9.59897455       3.83958982      18.78750000  F        1       0.03243148      -0.00000000      -0.28487748
Si       5.75938473       3.83958982      23.57191304  T        0       0.00434376       0.00000000       0.36544433
Cl       5.75938473       3.83958982      21.53750000  T        0      -0.00263087      -0.00000000       0.95955269
Cl       7.67744774       3.83958982      24.25005072  T        0       0.04749428       0.00000000      -0.10639622
Cl       4.80035323       5.50068111      24.25005072  T        0      -0.02586800       0.04212699      -0.10476099
Cl       4.80035323       2.17849853      24.25005072  T        0      -0.02586800      -0.04212699      -0.10476099
41
Lattice="11.518769465528859 0.0 0.0 0.0 7.679179643685906 0.0 0.0 0.0 30.7875" Properties=species:S:1:pos:R:3:move_mask:L:1:tags:I:1:forces:R:3 surface=Si100 species=SiCl4 site=atop_Si orientation=upright height_A=2.25 substrate_atoms=36 calculation_kind="Rigid evaluated approach scan; not NEB" energy=-198.38798176642663 pbc="T T F"
Si       0.00000000       0.00000000      12.00000000  F        6      -0.00000004       0.00000000       0.25202501
Si       3.83958982       0.00000000      12.00000000  F        6      -0.00306260       0.00000000       0.25574345
Si       7.67917964       0.00000000      12.00000000  F        6       0.00306260       0.00000000       0.25574344
Si       0.00000000       3.83958982      12.00000000  F        6      -0.00000004      -0.00000000       0.24944146
Si       3.83958982       3.83958982      12.00000000  F        6      -0.00294770      -0.00000000       0.25076870
Si       7.67917964       3.83958982      12.00000000  F        6       0.00294770      -0.00000000       0.25076870
Si       1.91979491       0.00000000      13.35750000  F        5       0.00758759      -0.00000002      -0.52535763
Si       5.75938473       0.00000000      13.35750000  F        5       0.00000000      -0.00000002      -0.52345212
Si       9.59897455       0.00000000      13.35750000  F        5      -0.00758756      -0.00000002      -0.52535766
Si       1.91979491       3.83958982      13.35750000  F        5       0.00275954       0.00000000      -0.53669806
Si       5.75938473       3.83958982      13.35750000  F        5       0.00001008       0.00000000      -0.51464294
Si       9.59897455       3.83958982      13.35750000  F        5      -0.00277273       0.00000000      -0.53666655
Si       1.91979491       1.91979491      14.71500000  F        4       0.00758076      -0.00794404       0.14532651
Si       5.75938473       1.91979491      14.71500000  F        4       0.00001330      -0.03845485       0.11200209
Si       9.59897455       1.91979491      14.71500000  F        4      -0.00759704      -0.00789813       0.14539523
Si       1.91979491       5.75938473      14.71500000  F        4       0.00758076       0.00794406       0.14532650
Si       5.75938473       5.75938473      14.71500000  F        4       0.00001330       0.03845488       0.11200207
Si       9.59897455       5.75938473      14.71500000  F        4      -0.00759704       0.00789815       0.14539522
Si       0.00000000       1.91979491      16.07250000  F        3      -0.00000552      -0.00021188      -0.13690892
Si       3.83958982       1.91979491      16.07250000  F        3       0.01408476       0.00943120      -0.14911319
Si       7.67917964       1.91979491      16.07250000  F        3      -0.01408650       0.00932339      -0.14919549
Si       0.00000000       5.75938473      16.07250000  F        3      -0.00000552       0.00021190      -0.13690891
Si       3.83958982       5.75938473      16.07250000  F        3       0.01408476      -0.00943118      -0.14911318
Si       7.67917964       5.75938473      16.07250000  F        3      -0.01408650      -0.00932336      -0.14919547
Si       0.00000000       0.00000000      17.43000000  F        2      -0.00001713      -0.00000002       0.50040341
Si       3.83958982       0.00000000      17.43000000  F        2      -0.07530176      -0.00000002       0.47295653
Si       7.67917964       0.00000000      17.43000000  F        2       0.07532080      -0.00000002       0.47295240
Si       0.00000000       3.83958982      17.43000000  F        2       0.00035488       0.00000000       0.53153042
Si       3.83958982       3.83958982      17.43000000  F        2      -0.15014580       0.00000000       0.58526098
Si       7.67917964       3.83958982      17.43000000  F        2       0.14970921       0.00000000       0.58515310
Si       1.91979491       0.00000000      18.78750000  F        1       0.00084326       0.00000000      -0.26311498
Si       5.75938473       0.00000000      18.78750000  F        1       0.00047038       0.00000000      -0.07165976
Si       9.59897455       0.00000000      18.78750000  F        1      -0.00084492       0.00000000      -0.26312994
Si       1.91979491       3.83958982      18.78750000  F        1      -0.02209577      -0.00000000      -0.22939452
Si       5.75938473       3.83958982      18.78750000  F        1       0.00180485      -0.00000000      -1.64045059
Si       9.59897455       3.83958982      18.78750000  F        1       0.02235068      -0.00000000      -0.22921347
Si       5.75938473       3.83958982      23.07191304  T        0       0.01002974       0.00000000       1.23942009
Cl       5.75938473       3.83958982      21.03750000  T        0      -0.00966471       0.00000000       0.75005762
Cl       7.67744774       3.83958982      23.75005072  T        0       0.03517801      -0.00000000      -0.23974067
Cl       4.80035323       5.50068111      23.75005072  T        0      -0.01898404       0.04837244      -0.24417943
Cl       4.80035323       2.17849853      23.75005072  T        0      -0.01898404      -0.04837244      -0.24417943
41
Lattice="11.518769465528859 0.0 0.0 0.0 7.679179643685906 0.0 0.0 0.0 30.7875" Properties=species:S:1:pos:R:3:move_mask:L:1:tags:I:1:forces:R:3 surface=Si100 species=SiCl4 site=atop_Si orientation=upright height_A=1.9 substrate_atoms=36 calculation_kind="Rigid evaluated approach scan; not NEB" energy=-197.5939680974648 pbc="T T F"
Si       0.00000000       0.00000000      12.00000000  F        6      -0.00000004       0.00000000       0.25292859
Si       3.83958982       0.00000000      12.00000000  F        6      -0.00138031       0.00000000       0.25672868
Si       7.67917964       0.00000000      12.00000000  F        6       0.00138031       0.00000000       0.25672868
Si       0.00000000       3.83958982      12.00000000  F        6      -0.00000004      -0.00000000       0.25028330
Si       3.83958982       3.83958982      12.00000000  F        6      -0.00212670      -0.00000000       0.25041077
Si       7.67917964       3.83958982      12.00000000  F        6       0.00212671      -0.00000000       0.25041077
Si       1.91979491       0.00000000      13.35750000  F        5       0.00697534      -0.00000002      -0.52184766
Si       5.75938473       0.00000000      13.35750000  F        5       0.00000000      -0.00000002      -0.52441838
Si       9.59897455       0.00000000      13.35750000  F        5      -0.00697530      -0.00000002      -0.52184768
Si       1.91979491       3.83958982      13.35750000  F        5       0.00513834       0.00000000      -0.52624635
Si       5.75938473       3.83958982      13.35750000  F        5       0.00001150       0.00000000      -0.49991505
Si       9.59897455       3.83958982      13.35750000  F        5      -0.00515374       0.00000000      -0.52621080
Si       1.91979491       1.91979491      14.71500000  F        4       0.00956722      -0.00682690       0.14874197
Si       5.75938473       1.91979491      14.71500000  F        4       0.00002480      -0.04052368       0.10576749
Si       9.59897455       1.91979491      14.71500000  F        4      -0.00960405      -0.00675758       0.14884160
Si       1.91979491       5.75938473      14.71500000  F        4       0.00956722       0.00682692       0.14874195
Si       5.75938473       5.75938473      14.71500000  F        4       0.00002480       0.04052370       0.10576748
Si       9.59897455       5.75938473      14.71500000  F        4      -0.00960405       0.00675760       0.14884159
Si       0.00000000       1.91979491      16.07250000  F        3      -0.00000276       0.01475194      -0.12764946
Si       3.83958982       1.91979491      16.07250000  F        3       0.01006441      -0.01134281      -0.14687549
Si       7.67917964       1.91979491      16.07250000  F        3      -0.01008132      -0.01152934      -0.14701335
Si       0.00000000       5.75938473      16.07250000  F        3      -0.00000276      -0.01475191      -0.12764944
Si       3.83958982       5.75938473      16.07250000  F        3       0.01006441       0.01134283      -0.14687547
Si       7.67917964       5.75938473      16.07250000  F        3      -0.01008132       0.01152936      -0.14701334
Si       0.00000000       0.00000000      17.43000000  F        2      -0.00003265      -0.00000002       0.47991369
Si       3.83958982       0.00000000      17.43000000  F        2      -0.09998835      -0.00000002       0.46261081
Si       7.67917964       0.00000000      17.43000000  F        2       0.10002067      -0.00000002       0.46260205
Si       0.00000000       3.83958982      17.43000000  F        2       0.00055166       0.00000000       0.52885125
Si       3.83958982       3.83958982      17.43000000  F        2      -0.09905348       0.00000000       0.69372158
Si       7.67917964       3.83958982      17.43000000  F        2       0.09891905       0.00000000       0.69312961
Si       1.91979491       0.00000000      18.78750000  F        1       0.00062287       0.00000000      -0.25888023
Si       5.75938473       0.00000000      18.78750000  F        1      -0.00032740       0.00000000      -0.03730267
Si       9.59897455       0.00000000      18.78750000  F        1      -0.00061856       0.00000000      -0.25889351
Si       1.91979491       3.83958982      18.78750000  F        1      -0.01100839      -0.00000000      -0.16065779
Si       5.75938473       3.83958982      18.78750000  F        1       0.00086560      -0.00000000      -5.86421291
Si       9.59897455       3.83958982      18.78750000  F        1       0.00929586      -0.00000000      -0.15872697
Si       5.75938473       3.83958982      22.72191304  T        0       0.01392369       0.00000000       1.57244428
Cl       5.75938473       3.83958982      20.68750000  T        0      -0.00751857       0.00000000       4.52329795
Cl       7.67744774       3.83958982      23.40005072  T        0      -0.04458013      -0.00000000      -0.34258446
Cl       4.80035323       5.50068111      23.40005072  T        0       0.01949775      -0.01335124      -0.34797154
Cl       4.80035323       2.17849853      23.40005072  T        0       0.01949775       0.01335124      -0.34797154
41
Lattice="11.518769465528859 0.0 0.0 0.0 7.679179643685906 0.0 0.0 0.0 30.7875" Properties=species:S:1:pos:R:3:move_mask:L:1:tags:I:1:forces:R:3 surface=Si100 species=SiCl4 site=atop_Si orientation=upright height_A=1.6 substrate_atoms=36 calculation_kind="Rigid evaluated approach scan; not NEB" energy=-194.1623832294756 pbc="T T F"
Si       0.00000000       0.00000000      12.00000000  F        6      -0.00002666       0.00000000       0.25361395
Si       3.83958982       0.00000000      12.00000000  F        6       0.00115026       0.00000000       0.25722939
Si       7.67917964       0.00000000      12.00000000  F        6      -0.00112339       0.00000000       0.25722510
Si       0.00000000       3.83958982      12.00000000  F        6      -0.00004112      -0.00000000       0.25066782
Si       3.83958982       3.83958982      12.00000000  F        6       0.00000446      -0.00000000       0.24966204
Si       7.67917964       3.83958982      12.00000000  F        6       0.00003698      -0.00000000       0.24972048
Si       1.91979491       0.00000000      13.35750000  F        5       0.00361463      -0.00000002      -0.52016685
Si       5.75938473       0.00000000      13.35750000  F        5      -0.00001467      -0.00000002      -0.52696551
Si       9.59897455       0.00000000      13.35750000  F        5      -0.00360470      -0.00000002      -0.52012498
Si       1.91979491       3.83958982      13.35750000  F        5       0.00626863       0.00000000      -0.51924519
Si       5.75938473       3.83958982      13.35750000  F        5       0.00013841       0.00000000      -0.50690793
Si       9.59897455       3.83958982      13.35750000  F        5      -0.00643659       0.00000000      -0.51896751
Si       1.91979491       1.91979491      14.71500000  F        4       0.01215720      -0.00022748       0.15829337
Si       5.75938473       1.91979491      14.71500000  F        4       0.00021514      -0.04733415       0.11443780
Si       9.59897455       1.91979491      14.71500000  F        4      -0.01249160       0.00056966       0.15938021
Si       1.91979491       5.75938473      14.71500000  F        4       0.01215720       0.00022751       0.15829336
Si       5.75938473       5.75938473      14.71500000  F        4       0.00021514       0.04733417       0.11443779
Si       9.59897455       5.75938473      14.71500000  F        4      -0.01249160      -0.00056963       0.15938020
Si       0.00000000       1.91979491      16.07250000  F        3       0.00059660       0.02172199      -0.12359126
Si       3.83958982       1.91979491      16.07250000  F        3      -0.00475002      -0.08526568      -0.20895668
Si       7.67917964       1.91979491      16.07250000  F        3       0.00462535      -0.08529714      -0.20878799
Si       0.00000000       5.75938473      16.07250000  F        3       0.00059660      -0.02172196      -0.12359124
Si       3.83958982       5.75938473      16.07250000  F        3      -0.00475002       0.08526571      -0.20895667
Si       7.67917964       5.75938473      16.07250000  F        3       0.00462535       0.08529716      -0.20878798
Si       0.00000000       0.00000000      17.43000000  F        2       0.00006429      -0.00000002       0.47676749
Si       3.83958982       0.00000000      17.43000000  F        2      -0.06664209      -0.00000002       0.48613239
Si       7.67917964       0.00000000      17.43000000  F        2       0.06700852      -0.00000002       0.48580959
Si       0.00000000       3.83958982      17.43000000  F        2       0.00327445       0.00000000       0.52898821
Si       3.83958982       3.83958982      17.43000000  F        2       0.42087571       0.00000000       0.83881889
Si       7.67917964       3.83958982      17.43000000  F        2      -0.42134944       0.00000000       0.83330846
Si       1.91979491       0.00000000      18.78750000  F        1      -0.00632414       0.00000000      -0.23799213
Si       5.75938473       0.00000000      18.78750000  F        1      -0.00422509       0.00000000      -0.01519852
Si       9.59897455       0.00000000      18.78750000  F        1       0.00620521       0.00000000      -0.23775266
Si       1.91979491       3.83958982      18.78750000  F        1      -0.13010925      -0.00000000      -0.05808586
Si       5.75938473       3.83958982      18.78750000  F        1      -0.01307781      -0.00000000     -20.92690486
Si       9.59897455       3.83958982      18.78750000  F        1       0.10234917      -0.00000000      -0.00525002
Si       5.75938473       3.83958982      22.42191304  T        0       0.02643926       0.00000000       1.45164570
Cl       5.75938473       3.83958982      20.38750000  T        0       0.00624246       0.00000000      19.57756901
Cl       7.67744774       3.83958982      23.10005072  T        0      -0.10095249       0.00000000      -0.48176644
Cl       4.80035323       5.50068111      23.10005072  T        0       0.05477483      -0.07924454      -0.45169048
Cl       4.80035323       2.17849853      23.10005072  T        0       0.05477483       0.07924454      -0.45169048
41
Lattice="11.518769465528859 0.0 0.0 0.0 7.679179643685906 0.0 0.0 0.0 30.7875" Properties=species:S:1:pos:R:3:move_mask:L:1:tags:I:1:forces:R:3 surface=Si100 species=SiCl4 site=atop_Si orientation=upright height_A=1.3 substrate_atoms=36 calculation_kind="Rigid evaluated approach scan; not NEB" energy=-179.30489611135343 pbc="T T F"
Si       0.00000000       0.00000000      12.00000000  F        6      -0.00011533       0.00000000       0.25497014
Si       3.83958982       0.00000000      12.00000000  F        6       0.00515534       0.00000000       0.25817174
Si       7.67917964       0.00000000      12.00000000  F        6      -0.00503782       0.00000000       0.25811780
Si       0.00000000       3.83958982      12.00000000  F        6      -0.00017990      -0.00000000       0.25118887
Si       3.83958982       3.83958982      12.00000000  F        6       0.00395064      -0.00000000       0.24836529
Si       7.67917964       3.83958982      12.00000000  F        6      -0.00376882      -0.00000000       0.24859089
Si       1.91979491       0.00000000      13.35750000  F        5      -0.00063832      -0.00000002      -0.51846795
Si       5.75938473       0.00000000      13.35750000  F        5      -0.00003955      -0.00000002      -0.52882455
Si       9.59897455       0.00000000      13.35750000  F        5       0.00065013      -0.00000002      -0.51818404
Si       1.91979491       3.83958982      13.35750000  F        5      -0.00066608       0.00000000      -0.52272904
Si       5.75938473       3.83958982      13.35750000  F        5       0.00038576       0.00000000      -0.55133138
Si       9.59897455       3.83958982      13.35750000  F        5       0.00022607       0.00000000      -0.52214414
Si       1.91979491       1.91979491      14.71500000  F        4       0.01856590      -0.00270607       0.16750783
Si       5.75938473       1.91979491      14.71500000  F        4       0.00001022      -0.16870154      -0.08425097
Si       9.59897455       1.91979491      14.71500000  F        4      -0.01910183       0.00036620       0.17154278
Si       1.91979491       5.75938473      14.71500000  F        4       0.01856590       0.00270610       0.16750782
Si       5.75938473       5.75938473      14.71500000  F        4       0.00001022       0.16870156      -0.08425098
Si       9.59897455       5.75938473      14.71500000  F        4      -0.01910183      -0.00036618       0.17154277
Si       0.00000000       1.91979491      16.07250000  F        3       0.00153063       0.01402306      -0.12640574
Si       3.83958982       1.91979491      16.07250000  F        3      -0.15801555      -0.22933846      -0.59884804
Si       7.67917964       1.91979491      16.07250000  F        3       0.15470537      -0.23019684      -0.59200863
Si       0.00000000       5.75938473      16.07250000  F        3       0.00153063      -0.01402303      -0.12640573
Si       3.83958982       5.75938473      16.07250000  F        3      -0.15801555       0.22933849      -0.59884802
Si       7.67917964       5.75938473      16.07250000  F        3       0.15470537       0.23019686      -0.59200862
Si       0.00000000       0.00000000      17.43000000  F        2       0.00208247      -0.00000002       0.46902631
Si       3.83958982       0.00000000      17.43000000  F        2      -0.34991220      -0.00000003       0.26692130
Si       7.67917964       0.00000000      17.43000000  F        2       0.36291356      -0.00000003       0.26322151
Si       0.00000000       3.83958982      17.43000000  F        2       0.00953963       0.00000000       0.59000181
Si       3.83958982       3.83958982      17.43000000  F        2       2.23325607      -0.00000000       1.93182808
Si       7.67917964       3.83958982      17.43000000  F        2      -2.23486447      -0.00000000       1.92077405
Si       1.91979491       0.00000000      18.78750000  F        1      -0.08161570       0.00000000      -0.20476751
Si       5.75938473       0.00000000      18.78750000  F        1      -0.01504099       0.00000000       0.44634603
Si       9.59897455       0.00000000      18.78750000  F        1       0.07715627       0.00000000      -0.20315931
Si       1.91979491       3.83958982      18.78750000  F        1      -0.07190379      -0.00000000       0.11952303
Si       5.75938473       3.83958982      18.78750000  F        1      -0.07875335       0.00000000    -100.69090064
Si       9.59897455       3.83958982      18.78750000  F        1       0.07526629      -0.00000000       0.17049822
Si       5.75938473       3.83958982      22.12191304  T        0       0.03766124      -0.00000000      -0.04578828
Cl       5.75938473       3.83958982      20.08750000  T        0       0.01571900      -0.00000000      97.94049546
Cl       7.67744774       3.83958982      22.80005072  T        0       0.42901647      -0.00000000       0.27247345
Cl       4.80035323       5.50068111      22.80005072  T        0      -0.20291604       0.35786855       0.26035419
Cl       4.80035323       2.17849853      22.80005072  T        0      -0.20291604      -0.35786855       0.26035419
