38
Lattice="11.518769465528859 0.0 0.0 0.0 7.679179643685906 0.0 0.0 0.0 30.7875" Properties=species:S:1:pos:R:3:move_mask:L:1:tags:I:1:forces:R:3 surface=Si100 species=HCl site=atop_Si orientation=parallel height_A=6.5 substrate_atoms=36 calculation_kind="Rigid evaluated approach scan; not NEB" energy=-186.32958991594327 pbc="T T F"
Si       0.00000000       0.00000000      12.00000000  F        6      -0.00000004       0.00000000       0.24903484
Si       3.83958982       0.00000000      12.00000000  F        6      -0.00000000       0.00000000       0.24903482
Si       7.67917964       0.00000000      12.00000000  F        6       0.00000000       0.00000000       0.24903482
Si       0.00000000       3.83958982      12.00000000  F        6      -0.00000004      -0.00000000       0.24903484
Si       3.83958982       3.83958982      12.00000000  F        6      -0.00000000      -0.00000000       0.24903482
Si       7.67917964       3.83958982      12.00000000  F        6       0.00000000      -0.00000000       0.24903482
Si       1.91979491       0.00000000      13.35750000  F        5       0.00000000      -0.00000002      -0.52822352
Si       5.75938473       0.00000000      13.35750000  F        5       0.00000000      -0.00000002      -0.52822353
Si       9.59897455       0.00000000      13.35750000  F        5       0.00000003      -0.00000002      -0.52822354
Si       1.91979491       3.83958982      13.35750000  F        5       0.00000000       0.00000000      -0.52822354
Si       5.75938473       3.83958982      13.35750000  F        5       0.00000000       0.00000000      -0.52822354
Si       9.59897455       3.83958982      13.35750000  F        5       0.00000003       0.00000000      -0.52822356
Si       1.91979491       1.91979491      14.71500000  F        4      -0.00000000       0.00000000       0.14537709
Si       5.75938473       1.91979491      14.71500000  F        4       0.00000000       0.00000000       0.14537709
Si       9.59897455       1.91979491      14.71500000  F        4       0.00000004       0.00000000       0.14537711
Si       1.91979491       5.75938473      14.71500000  F        4      -0.00000000       0.00000002       0.14537707
Si       5.75938473       5.75938473      14.71500000  F        4       0.00000000       0.00000002       0.14537707
Si       9.59897455       5.75938473      14.71500000  F        4       0.00000004       0.00000002       0.14537709
Si       0.00000000       1.91979491      16.07250000  F        3      -0.00000004       0.00000000      -0.14537711
Si       3.83958982       1.91979491      16.07250000  F        3      -0.00000000       0.00000000      -0.14537709
Si       7.67917964       1.91979491      16.07250000  F        3       0.00000000       0.00000000      -0.14537709
Si       0.00000000       5.75938473      16.07250000  F        3      -0.00000004       0.00000002      -0.14537709
Si       3.83958982       5.75938473      16.07250000  F        3      -0.00000000       0.00000002      -0.14537707
Si       7.67917964       5.75938473      16.07250000  F        3       0.00000000       0.00000002      -0.14537707
Si       0.00000000       0.00000000      17.43000000  F        2      -0.00000003      -0.00000002       0.52822354
Si       3.83958982       0.00000000      17.43000000  F        2      -0.00000000      -0.00000002       0.52822353
Si       7.67917964       0.00000000      17.43000000  F        2      -0.00000000      -0.00000002       0.52822352
Si       0.00000000       3.83958982      17.43000000  F        2      -0.00000003       0.00000000       0.52822356
Si       3.83958982       3.83958982      17.43000000  F        2      -0.00000000       0.00000000       0.52822354
Si       7.67917964       3.83958982      17.43000000  F        2      -0.00000000       0.00000000       0.52822354
Si       1.91979491       0.00000000      18.78750000  F        1      -0.00000000       0.00000000      -0.24903482
Si       5.75938473       0.00000000      18.78750000  F        1       0.00000000       0.00000000      -0.24903482
Si       9.59897455       0.00000000      18.78750000  F        1       0.00000004       0.00000000      -0.24903484
Si       1.91979491       3.83958982      18.78750000  F        1      -0.00000000      -0.00000000      -0.24903482
Si       5.75938473       3.83958982      18.78750000  F        1       0.00000000      -0.00000000      -0.24903482
Si       9.59897455       3.83958982      18.78750000  F        1       0.00000004      -0.00000000      -0.24903484
Cl       5.10849010       3.83958982      25.28750000  T        0      -0.00729331       0.00000000       0.00000000
H        6.41027936       3.83958982      25.28750000  T        0       0.00729331       0.00000000       0.00000000
38
Lattice="11.518769465528859 0.0 0.0 0.0 7.679179643685906 0.0 0.0 0.0 30.7875" Properties=species:S:1:pos:R:3:move_mask:L:1:tags:I:1:forces:R:3 surface=Si100 species=HCl site=atop_Si orientation=parallel height_A=5.0 substrate_atoms=36 calculation_kind="Rigid evaluated approach scan; not NEB" energy=-186.32958991594327 pbc="T T F"
Si       0.00000000       0.00000000      12.00000000  F        6      -0.00000004       0.00000000       0.24903484
Si       3.83958982       0.00000000      12.00000000  F        6      -0.00000000       0.00000000       0.24903482
Si       7.67917964       0.00000000      12.00000000  F        6       0.00000000       0.00000000       0.24903482
Si       0.00000000       3.83958982      12.00000000  F        6      -0.00000004      -0.00000000       0.24903484
Si       3.83958982       3.83958982      12.00000000  F        6      -0.00000000      -0.00000000       0.24903482
Si       7.67917964       3.83958982      12.00000000  F        6       0.00000000      -0.00000000       0.24903482
Si       1.91979491       0.00000000      13.35750000  F        5       0.00000000      -0.00000002      -0.52822352
Si       5.75938473       0.00000000      13.35750000  F        5       0.00000000      -0.00000002      -0.52822353
Si       9.59897455       0.00000000      13.35750000  F        5       0.00000003      -0.00000002      -0.52822354
Si       1.91979491       3.83958982      13.35750000  F        5       0.00000000       0.00000000      -0.52822354
Si       5.75938473       3.83958982      13.35750000  F        5       0.00000000       0.00000000      -0.52822354
Si       9.59897455       3.83958982      13.35750000  F        5       0.00000003       0.00000000      -0.52822356
Si       1.91979491       1.91979491      14.71500000  F        4      -0.00000000       0.00000000       0.14537709
Si       5.75938473       1.91979491      14.71500000  F        4       0.00000000       0.00000000       0.14537709
Si       9.59897455       1.91979491      14.71500000  F        4       0.00000004       0.00000000       0.14537711
Si       1.91979491       5.75938473      14.71500000  F        4      -0.00000000       0.00000002       0.14537707
Si       5.75938473       5.75938473      14.71500000  F        4       0.00000000       0.00000002       0.14537707
Si       9.59897455       5.75938473      14.71500000  F        4       0.00000004       0.00000002       0.14537709
Si       0.00000000       1.91979491      16.07250000  F        3      -0.00000004       0.00000000      -0.14537711
Si       3.83958982       1.91979491      16.07250000  F        3      -0.00000000       0.00000000      -0.14537709
Si       7.67917964       1.91979491      16.07250000  F        3       0.00000000       0.00000000      -0.14537709
Si       0.00000000       5.75938473      16.07250000  F        3      -0.00000004       0.00000002      -0.14537709
Si       3.83958982       5.75938473      16.07250000  F        3      -0.00000000       0.00000002      -0.14537707
Si       7.67917964       5.75938473      16.07250000  F        3       0.00000000       0.00000002      -0.14537707
Si       0.00000000       0.00000000      17.43000000  F        2      -0.00000003      -0.00000002       0.52822354
Si       3.83958982       0.00000000      17.43000000  F        2      -0.00000000      -0.00000002       0.52822353
Si       7.67917964       0.00000000      17.43000000  F        2      -0.00000000      -0.00000002       0.52822352
Si       0.00000000       3.83958982      17.43000000  F        2      -0.00000003       0.00000000       0.52822356
Si       3.83958982       3.83958982      17.43000000  F        2      -0.00000000       0.00000000       0.52822354
Si       7.67917964       3.83958982      17.43000000  F        2      -0.00000000       0.00000000       0.52822354
Si       1.91979491       0.00000000      18.78750000  F        1      -0.00000000       0.00000000      -0.24903482
Si       5.75938473       0.00000000      18.78750000  F        1       0.00000000       0.00000000      -0.24903482
Si       9.59897455       0.00000000      18.78750000  F        1       0.00000004       0.00000000      -0.24903484
Si       1.91979491       3.83958982      18.78750000  F        1      -0.00000000      -0.00000000      -0.24903482
Si       5.75938473       3.83958982      18.78750000  F        1       0.00000000      -0.00000000      -0.24903482
Si       9.59897455       3.83958982      18.78750000  F        1       0.00000004      -0.00000000      -0.24903484
Cl       5.10849010       3.83958982      23.78750000  T        0      -0.00729331       0.00000000       0.00000000
H        6.41027936       3.83958982      23.78750000  T        0       0.00729331       0.00000000       0.00000000
38
Lattice="11.518769465528859 0.0 0.0 0.0 7.679179643685906 0.0 0.0 0.0 30.7875" Properties=species:S:1:pos:R:3:move_mask:L:1:tags:I:1:forces:R:3 surface=Si100 species=HCl site=atop_Si orientation=parallel height_A=4.0 substrate_atoms=36 calculation_kind="Rigid evaluated approach scan; not NEB" energy=-186.39661416099423 pbc="T T F"
Si       0.00000000       0.00000000      12.00000000  F        6      -0.00000004       0.00000000       0.24847084
Si       3.83958982       0.00000000      12.00000000  F        6       0.00064725       0.00000000       0.24807707
Si       7.67917964       0.00000000      12.00000000  F        6      -0.00064725       0.00000000       0.24790117
Si       0.00000000       3.83958982      12.00000000  F        6      -0.00000004      -0.00000000       0.24877186
Si       3.83958982       3.83958982      12.00000000  F        6       0.00074158      -0.00000000       0.24899824
Si       7.67917964       3.83958982      12.00000000  F        6      -0.00074157      -0.00000000       0.24882235
Si       1.91979491       0.00000000      13.35750000  F        5      -0.00040783      -0.00000002      -0.52770943
Si       5.75938473       0.00000000      13.35750000  F        5      -0.00009984      -0.00000002      -0.52642789
Si       9.59897455       0.00000000      13.35750000  F        5       0.00050770      -0.00000002      -0.52782160
Si       1.91979491       3.83958982      13.35750000  F        5       0.00176305       0.00000000      -0.52445874
Si       5.75938473       3.83958982      13.35750000  F        5      -0.00026472       0.00000000      -0.52050790
Si       9.59897455       3.83958982      13.35750000  F        5      -0.00149829       0.00000000      -0.52484324
Si       1.91979491       1.91979491      14.71500000  F        4       0.00450854       0.00107703       0.14766490
Si       5.75938473       1.91979491      14.71500000  F        4       0.00003870       0.00671796       0.15913289
Si       9.59897455       1.91979491      14.71500000  F        4      -0.00447045       0.00105614       0.14786112
Si       1.91979491       5.75938473      14.71500000  F        4       0.00450854      -0.00107700       0.14766488
Si       5.75938473       5.75938473      14.71500000  F        4       0.00003870      -0.00671793       0.15913287
Si       9.59897455       5.75938473      14.71500000  F        4      -0.00447045      -0.00105612       0.14786111
Si       0.00000000       1.91979491      16.07250000  F        3      -0.00001619       0.00428536      -0.14287144
Si       3.83958982       1.91979491      16.07250000  F        3      -0.00158235       0.00042611      -0.15259318
Si       7.67917964       1.91979491      16.07250000  F        3       0.00275227       0.00173482      -0.14876329
Si       0.00000000       5.75938473      16.07250000  F        3      -0.00001619      -0.00428534      -0.14287143
Si       3.83958982       5.75938473      16.07250000  F        3      -0.00158235      -0.00042608      -0.15259317
Si       7.67917964       5.75938473      16.07250000  F        3       0.00275227      -0.00173480      -0.14876328
Si       0.00000000       0.00000000      17.43000000  F        2       0.00008032      -0.00000002       0.53211753
Si       3.83958982       0.00000000      17.43000000  F        2      -0.01052754      -0.00000002       0.51394308
Si       7.67917964       0.00000000      17.43000000  F        2       0.01047082      -0.00000002       0.51358651
Si       0.00000000       3.83958982      17.43000000  F        2       0.00050026       0.00000000       0.53488235
Si       3.83958982       3.83958982      17.43000000  F        2      -0.01887372       0.00000000       0.50202641
Si       7.67917964       3.83958982      17.43000000  F        2       0.02410118       0.00000000       0.51909472
Si       1.91979491       0.00000000      18.78750000  F        1       0.00136450       0.00000000      -0.25378261
Si       5.75938473       0.00000000      18.78750000  F        1       0.00099103       0.00000000      -0.23213457
Si       9.59897455       0.00000000      18.78750000  F        1      -0.00157254       0.00000000      -0.25392009
Si       1.91979491       3.83958982      18.78750000  F        1      -0.02463383      -0.00000000      -0.25627934
Si       5.75938473       3.83958982      18.78750000  F        1       0.02168487      -0.00000000      -0.15806777
Si       9.59897455       3.83958982      18.78750000  F        1       0.01172551      -0.00000000      -0.25895075
Cl       5.10849010       3.83958982      22.78750000  T        0       0.06733374       0.00000000       0.06108046
H        6.41027936       3.83958982      22.78750000  T        0      -0.08510565      -0.00000000      -0.12373063
38
Lattice="11.518769465528859 0.0 0.0 0.0 7.679179643685906 0.0 0.0 0.0 30.7875" Properties=species:S:1:pos:R:3:move_mask:L:1:tags:I:1:forces:R:3 surface=Si100 species=HCl site=atop_Si orientation=parallel height_A=3.25 substrate_atoms=36 calculation_kind="Rigid evaluated approach scan; not NEB" energy=-186.47860386012027 pbc="T T F"
Si       0.00000000       0.00000000      12.00000000  F        6       0.00017528       0.00000000       0.24925618
Si       3.83958982       0.00000000      12.00000000  F        6       0.00004506       0.00000000       0.24972951
Si       7.67917964       0.00000000      12.00000000  F        6      -0.00022057       0.00000000       0.24939453
Si       0.00000000       3.83958982      12.00000000  F        6       0.00027591      -0.00000000       0.24879808
Si       3.83958982       3.83958982      12.00000000  F        6      -0.00008728      -0.00000000       0.24878482
Si       7.67917964       3.83958982      12.00000000  F        6      -0.00018870      -0.00000000       0.24804073
Si       1.91979491       0.00000000      13.35750000  F        5      -0.00004685      -0.00000002      -0.52604754
Si       5.75938473       0.00000000      13.35750000  F        5       0.00015495      -0.00000002      -0.52612189
Si       9.59897455       0.00000000      13.35750000  F        5      -0.00010909      -0.00000002      -0.52650173
Si       1.91979491       3.83958982      13.35750000  F        5       0.00177628       0.00000000      -0.52340599
Si       5.75938473       3.83958982      13.35750000  F        5      -0.00093900       0.00000000      -0.52054798
Si       9.59897455       3.83958982      13.35750000  F        5      -0.00093480       0.00000000      -0.52465025
Si       1.91979491       1.91979491      14.71500000  F        4       0.00810938      -0.00117687       0.15186140
Si       5.75938473       1.91979491      14.71500000  F        4       0.00081326      -0.00049552       0.16152864
Si       9.59897455       1.91979491      14.71500000  F        4      -0.00795947      -0.00312198       0.14786939
Si       1.91979491       5.75938473      14.71500000  F        4       0.00810938       0.00117689       0.15186139
Si       5.75938473       5.75938473      14.71500000  F        4       0.00081326       0.00049554       0.16152863
Si       9.59897455       5.75938473      14.71500000  F        4      -0.00795947       0.00312200       0.14786937
Si       0.00000000       1.91979491      16.07250000  F        3       0.00499155       0.00626741      -0.14204051
Si       3.83958982       1.91979491      16.07250000  F        3      -0.00808424      -0.00698436      -0.17386841
Si       7.67917964       1.91979491      16.07250000  F        3      -0.00336312       0.01630875      -0.15157864
Si       0.00000000       5.75938473      16.07250000  F        3       0.00499155      -0.00626739      -0.14204050
Si       3.83958982       5.75938473      16.07250000  F        3      -0.00808424       0.00698438      -0.17386840
Si       7.67917964       5.75938473      16.07250000  F        3      -0.00336312      -0.01630872      -0.15157862
Si       0.00000000       0.00000000      17.43000000  F        2       0.00222642      -0.00000002       0.52465192
Si       3.83958982       0.00000000      17.43000000  F        2      -0.02329553      -0.00000002       0.49357064
Si       7.67917964       0.00000000      17.43000000  F        2       0.01824585      -0.00000002       0.49550678
Si       0.00000000       3.83958982      17.43000000  F        2      -0.01281834       0.00000000       0.54539985
Si       3.83958982       3.83958982      17.43000000  F        2       0.03966277       0.00000000       0.48511922
Si       7.67917964       3.83958982      17.43000000  F        2      -0.05426549       0.00000000       0.52998993
Si       1.91979491       0.00000000      18.78750000  F        1      -0.00174564       0.00000000      -0.25695737
Si       5.75938473       0.00000000      18.78750000  F        1      -0.00256171       0.00000000      -0.22034888
Si       9.59897455       0.00000000      18.78750000  F        1      -0.00273759       0.00000000      -0.24559912
Si       1.91979491       3.83958982      18.78750000  F        1      -0.01881246      -0.00000000      -0.24078623
Si       5.75938473       3.83958982      18.78750000  F        1      -0.00213463      -0.00000000      -0.06853828
Si       9.59897455       3.83958982      18.78750000  F        1       0.03540105      -0.00000000      -0.27141858
Cl       5.10849010       3.83958982      22.03750000  T        0       0.32103341       0.00000000      -0.18232788
H        6.41027936       3.83958982      22.03750000  T        0      -0.28711402      -0.00000000       0.07746578
38
Lattice="11.518769465528859 0.0 0.0 0.0 7.679179643685906 0.0 0.0 0.0 30.7875" Properties=species:S:1:pos:R:3:move_mask:L:1:tags:I:1:forces:R:3 surface=Si100 species=HCl site=atop_Si orientation=parallel height_A=2.75 substrate_atoms=36 calculation_kind="Rigid evaluated approach scan; not NEB" energy=-186.2884132567782 pbc="T T F"
Si       0.00000000       0.00000000      12.00000000  F        6      -0.00004165       0.00000000       0.25019192
Si       3.83958982       0.00000000      12.00000000  F        6      -0.00086812       0.00000000       0.25081400
Si       7.67917964       0.00000000      12.00000000  F        6       0.00090924       0.00000000       0.24988280
Si       0.00000000       3.83958982      12.00000000  F        6       0.00045147      -0.00000000       0.24840019
Si       3.83958982       3.83958982      12.00000000  F        6      -0.00014693      -0.00000000       0.25019896
Si       7.67917964       3.83958982      12.00000000  F        6      -0.00030369      -0.00000000       0.24819027
Si       1.91979491       0.00000000      13.35750000  F        5       0.00034679      -0.00000002      -0.52640947
Si       5.75938473       0.00000000      13.35750000  F        5      -0.00006048      -0.00000002      -0.52433932
Si       9.59897455       0.00000000      13.35750000  F        5      -0.00028784      -0.00000002      -0.52766112
Si       1.91979491       3.83958982      13.35750000  F        5       0.00173115       0.00000000      -0.52830236
Si       5.75938473       3.83958982      13.35750000  F        5      -0.00272884       0.00000000      -0.51961719
Si       9.59897455       3.83958982      13.35750000  F        5       0.00037465       0.00000000      -0.53152504
Si       1.91979491       1.91979491      14.71500000  F        4       0.00872757      -0.00250296       0.15417685
Si       5.75938473       1.91979491      14.71500000  F        4      -0.00197353      -0.00475280       0.17391412
Si       9.59897455       1.91979491      14.71500000  F        4      -0.00695257      -0.00632229       0.14700599
Si       1.91979491       5.75938473      14.71500000  F        4       0.00872757       0.00250298       0.15417683
Si       5.75938473       5.75938473      14.71500000  F        4      -0.00197353       0.00475282       0.17391411
Si       9.59897455       5.75938473      14.71500000  F        4      -0.00695257       0.00632231       0.14700597
Si       0.00000000       1.91979491      16.07250000  F        3       0.01043589       0.01126940      -0.13145178
Si       3.83958982       1.91979491      16.07250000  F        3       0.00469535      -0.02355246      -0.20020810
Si       7.67917964       1.91979491      16.07250000  F        3      -0.02231008       0.02152285      -0.14995762
Si       0.00000000       5.75938473      16.07250000  F        3       0.01043589      -0.01126938      -0.13145177
Si       3.83958982       5.75938473      16.07250000  F        3       0.00469535       0.02355248      -0.20020809
Si       7.67917964       5.75938473      16.07250000  F        3      -0.02231008      -0.02152283      -0.14995761
Si       0.00000000       0.00000000      17.43000000  F        2      -0.00080672      -0.00000002       0.52150660
Si       3.83958982       0.00000000      17.43000000  F        2      -0.01097329      -0.00000002       0.47989314
Si       7.67917964       0.00000000      17.43000000  F        2       0.01923130      -0.00000002       0.48657398
Si       0.00000000       3.83958982      17.43000000  F        2      -0.00946770       0.00000000       0.56084979
Si       3.83958982       3.83958982      17.43000000  F        2      -0.01373480       0.00000000       0.41202030
Si       7.67917964       3.83958982      17.43000000  F        2       0.02634641       0.00000000       0.42858431
Si       1.91979491       0.00000000      18.78750000  F        1      -0.00757367       0.00000000      -0.25885203
Si       5.75938473       0.00000000      18.78750000  F        1      -0.02165390       0.00000000      -0.16091498
Si       9.59897455       0.00000000      18.78750000  F        1      -0.00533923       0.00000000      -0.24712131
Si       1.91979491       3.83958982      18.78750000  F        1      -0.03498454      -0.00000000      -0.20620866
Si       5.75938473       3.83958982      18.78750000  F        1       0.27304436      -0.00000000      -1.05573626
Si       9.59897455       3.83958982      18.78750000  F        1       0.01158317      -0.00000000      -0.27998071
Cl       5.10849010       3.83958982      21.53750000  T        0       0.07731971      -0.00000000       0.80942668
H        6.41027936       3.83958982      21.53750000  T        0      -0.28761210       0.00000000       0.18317661
38
Lattice="11.518769465528859 0.0 0.0 0.0 7.679179643685906 0.0 0.0 0.0 30.7875" Properties=species:S:1:pos:R:3:move_mask:L:1:tags:I:1:forces:R:3 surface=Si100 species=HCl site=atop_Si orientation=parallel height_A=2.25 substrate_atoms=36 calculation_kind="Rigid evaluated approach scan; not NEB" energy=-185.60985852224607 pbc="T T F"
Si       0.00000000       0.00000000      12.00000000  F        6      -0.00009461       0.00000000       0.25135334
Si       3.83958982       0.00000000      12.00000000  F        6      -0.00218916       0.00000000       0.25473436
Si       7.67917964       0.00000000      12.00000000  F        6       0.00228095       0.00000000       0.25480878
Si       0.00000000       3.83958982      12.00000000  F        6       0.00016952      -0.00000000       0.24752112
Si       3.83958982       3.83958982      12.00000000  F        6      -0.00137966      -0.00000000       0.24918243
Si       7.67917964       3.83958982      12.00000000  F        6       0.00121128      -0.00000000       0.24917550
Si       1.91979491       0.00000000      13.35750000  F        5       0.00405827      -0.00000002      -0.52582500
Si       5.75938473       0.00000000      13.35750000  F        5       0.00161137      -0.00000002      -0.52367185
Si       9.59897455       0.00000000      13.35750000  F        5      -0.00563736      -0.00000002      -0.52428623
Si       1.91979491       3.83958982      13.35750000  F        5       0.00546823       0.00000000      -0.52647397
Si       5.75938473       3.83958982      13.35750000  F        5      -0.00816378       0.00000000      -0.50354453
Si       9.59897455       3.83958982      13.35750000  F        5       0.00719666       0.00000000      -0.55477952
Si       1.91979491       1.91979491      14.71500000  F        4       0.01193135      -0.00696157       0.15796324
Si       5.75938473       1.91979491      14.71500000  F        4      -0.01093138      -0.04804234       0.15348019
Si       9.59897455       1.91979491      14.71500000  F        4      -0.00368010      -0.01548961       0.15246815
Si       1.91979491       5.75938473      14.71500000  F        4       0.01193135       0.00696159       0.15796323
Si       5.75938473       5.75938473      14.71500000  F        4      -0.01093138       0.04804236       0.15348017
Si       9.59897455       5.75938473      14.71500000  F        4      -0.00368010       0.01548963       0.15246814
Si       0.00000000       1.91979491      16.07250000  F        3       0.01330890       0.01763522      -0.11376385
Si       3.83958982       1.91979491      16.07250000  F        3       0.01584470      -0.04205335      -0.19973729
Si       7.67917964       1.91979491      16.07250000  F        3      -0.03732387      -0.01784603      -0.15980452
Si       0.00000000       5.75938473      16.07250000  F        3       0.01330890      -0.01763520      -0.11376383
Si       3.83958982       5.75938473      16.07250000  F        3       0.01584470       0.04205337      -0.19973728
Si       7.67917964       5.75938473      16.07250000  F        3      -0.03732387       0.01784605      -0.15980451
Si       0.00000000       0.00000000      17.43000000  F        2      -0.01338339      -0.00000002       0.48627505
Si       3.83958982       0.00000000      17.43000000  F        2      -0.03507276      -0.00000002       0.41801116
Si       7.67917964       0.00000000      17.43000000  F        2       0.08366833      -0.00000002       0.43280432
Si       0.00000000       3.83958982      17.43000000  F        2       0.02702241       0.00000000       0.54543870
Si       3.83958982       3.83958982      17.43000000  F        2      -0.28842906       0.00000000       0.46274650
Si       7.67917964       3.83958982      17.43000000  F        2       0.22897859       0.00000000       0.37432676
Si       1.91979491       0.00000000      18.78750000  F        1      -0.02296464       0.00000000      -0.24465832
Si       5.75938473       0.00000000      18.78750000  F        1      -0.05289269       0.00000000      -0.00854683
Si       9.59897455       0.00000000      18.78750000  F        1      -0.00350809       0.00000000      -0.25328903
Si       1.91979491       3.83958982      18.78750000  F        1      -0.10444846      -0.00000000      -0.21164146
Si       5.75938473       3.83958982      18.78750000  F        1       0.67359225      -0.00000000      -1.75399633
Si       9.59897455       3.83958982      18.78750000  F        1      -0.00474187      -0.00000000      -0.21046994
Cl       5.10849010       3.83958982      21.03750000  T        0      -0.66041763       0.00000000       1.33897544
H        6.41027936       3.83958982      21.03750000  T        0       0.18976607       0.00000000       0.29461774
38
Lattice="11.518769465528859 0.0 0.0 0.0 7.679179643685906 0.0 0.0 0.0 30.7875" Properties=species:S:1:pos:R:3:move_mask:L:1:tags:I:1:forces:R:3 surface=Si100 species=HCl site=atop_Si orientation=parallel height_A=1.9 substrate_atoms=36 calculation_kind="Rigid evaluated approach scan; not NEB" energy=-184.79989075110151 pbc="T T F"
Si       0.00000000       0.00000000      12.00000000  F        6      -0.00009841       0.00000000       0.25250451
Si       3.83958982       0.00000000      12.00000000  F        6      -0.00147357       0.00000000       0.25759719
Si       7.67917964       0.00000000      12.00000000  F        6       0.00156831       0.00000000       0.25780665
Si       0.00000000       3.83958982      12.00000000  F        6      -0.00018631      -0.00000000       0.24845799
Si       3.83958982       3.83958982      12.00000000  F        6      -0.00122901      -0.00000000       0.24844155
Si       7.67917964       3.83958982      12.00000000  F        6       0.00141577      -0.00000000       0.24991185
Si       1.91979491       0.00000000      13.35750000  F        5       0.00535590      -0.00000002      -0.52232355
Si       5.75938473       0.00000000      13.35750000  F        5       0.00167258      -0.00000002      -0.52468942
Si       9.59897455       0.00000000      13.35750000  F        5      -0.00695973      -0.00000002      -0.51998254
Si       1.91979491       3.83958982      13.35750000  F        5       0.01215132       0.00000000      -0.50989986
Si       5.75938473       3.83958982      13.35750000  F        5      -0.01002848       0.00000000      -0.48496738
Si       9.59897455       3.83958982      13.35750000  F        5       0.00596640       0.00000000      -0.55012566
Si       1.91979491       1.91979491      14.71500000  F        4       0.01376355      -0.01341182       0.15411588
Si       5.75938473       1.91979491      14.71500000  F        4      -0.01428152      -0.08254445       0.11783409
Si       9.59897455       1.91979491      14.71500000  F        4      -0.00305912      -0.02023539       0.15393242
Si       1.91979491       5.75938473      14.71500000  F        4       0.01376355       0.01341184       0.15411586
Si       5.75938473       5.75938473      14.71500000  F        4      -0.01428152       0.08254447       0.11783407
Si       9.59897455       5.75938473      14.71500000  F        4      -0.00305912       0.02023541       0.15393240
Si       0.00000000       1.91979491      16.07250000  F        3       0.01140056       0.02795095      -0.10923979
Si       3.83958982       1.91979491      16.07250000  F        3       0.02785565      -0.03649168      -0.16949760
Si       7.67917964       1.91979491      16.07250000  F        3      -0.03351709      -0.05875017      -0.17848435
Si       0.00000000       5.75938473      16.07250000  F        3       0.01140056      -0.02795093      -0.10923977
Si       3.83958982       5.75938473      16.07250000  F        3       0.02785565       0.03649171      -0.16949759
Si       7.67917964       5.75938473      16.07250000  F        3      -0.03351709       0.05875019      -0.17848434
Si       0.00000000       0.00000000      17.43000000  F        2      -0.02192371      -0.00000002       0.45285443
Si       3.83958982       0.00000000      17.43000000  F        2      -0.07014288      -0.00000002       0.37529271
Si       7.67917964       0.00000000      17.43000000  F        2       0.13951634      -0.00000002       0.39688518
Si       0.00000000       3.83958982      17.43000000  F        2       0.03106201       0.00000000       0.52313434
Si       3.83958982       3.83958982      17.43000000  F        2      -0.37695159       0.00000000       0.52408513
Si       7.67917964       3.83958982      17.43000000  F        2       0.45238860       0.00000000       0.39729229
Si       1.91979491       0.00000000      18.78750000  F        1      -0.02433361       0.00000000      -0.22245675
Si       5.75938473       0.00000000      18.78750000  F        1      -0.07950376      -0.00000000       0.05700285
Si       9.59897455       0.00000000      18.78750000  F        1      -0.00822809       0.00000000      -0.24457032
Si       1.91979491       3.83958982      18.78750000  F        1      -0.25088171      -0.00000000      -0.24180671
Si       5.75938473       3.83958982      18.78750000  F        1       0.86471243      -0.00000000      -3.99691639
Si       9.59897455       3.83958982      18.78750000  F        1       0.03837727      -0.00000000      -0.14187886
Cl       5.10849010       3.83958982      20.68750000  T        0      -1.34850842       0.00000000       2.91118082
H        6.41027936       3.83958982      20.68750000  T        0       0.64193828       0.00000000       0.86984867
38
Lattice="11.518769465528859 0.0 0.0 0.0 7.679179643685906 0.0 0.0 0.0 30.7875" Properties=species:S:1:pos:R:3:move_mask:L:1:tags:I:1:forces:R:3 surface=Si100 species=HCl site=atop_Si orientation=parallel height_A=1.6 substrate_atoms=36 calculation_kind="Rigid evaluated approach scan; not NEB" energy=-182.6096447058683 pbc="T T F"
Si       0.00000000       0.00000000      12.00000000  F        6       0.00010889       0.00000000       0.25336408
Si       3.83958982       0.00000000      12.00000000  F        6       0.00080135       0.00000000       0.25966265
Si       7.67917964       0.00000000      12.00000000  F        6      -0.00090886       0.00000000       0.25907682
Si       0.00000000       3.83958982      12.00000000  F        6      -0.00045581      -0.00000000       0.24967098
Si       3.83958982       3.83958982      12.00000000  F        6       0.00046939      -0.00000000       0.24858154
Si       7.67917964       3.83958982      12.00000000  F        6      -0.00001116      -0.00000000       0.25055535
Si       1.91979491       0.00000000      13.35750000  F        5       0.00159183      -0.00000002      -0.52202801
Si       5.75938473       0.00000000      13.35750000  F        5       0.00061918      -0.00000002      -0.53147643
Si       9.59897455       0.00000000      13.35750000  F        5      -0.00219524      -0.00000002      -0.52081399
Si       1.91979491       3.83958982      13.35750000  F        5       0.02061938       0.00000000      -0.49115596
Si       5.75938473       3.83958982      13.35750000  F        5      -0.01372333       0.00000000      -0.47459668
Si       9.59897455       3.83958982      13.35750000  F        5       0.00167634       0.00000000      -0.53909331
Si       1.91979491       1.91979491      14.71500000  F        4       0.01684695      -0.00884972       0.15710876
Si       5.75938473       1.91979491      14.71500000  F        4      -0.03094634      -0.05690176       0.15194981
Si       9.59897455       1.91979491      14.71500000  F        4       0.00329436      -0.01451212       0.15361990
Si       1.91979491       5.75938473      14.71500000  F        4       0.01684695       0.00884975       0.15710875
Si       5.75938473       5.75938473      14.71500000  F        4      -0.03094634       0.05690178       0.15194979
Si       9.59897455       5.75938473      14.71500000  F        4       0.00329436       0.01451214       0.15361988
Si       0.00000000       1.91979491      16.07250000  F        3       0.00761431       0.03472880      -0.11264151
Si       3.83958982       1.91979491      16.07250000  F        3       0.05517398      -0.02733903      -0.15257742
Si       7.67917964       1.91979491      16.07250000  F        3      -0.03991994      -0.13580361      -0.22567690
Si       0.00000000       5.75938473      16.07250000  F        3       0.00761431      -0.03472878      -0.11264149
Si       3.83958982       5.75938473      16.07250000  F        3       0.05517398       0.02733905      -0.15257741
Si       7.67917964       5.75938473      16.07250000  F        3      -0.03991994       0.13580364      -0.22567689
Si       0.00000000       0.00000000      17.43000000  F        2      -0.02440303      -0.00000002       0.44044841
Si       3.83958982       0.00000000      17.43000000  F        2      -0.05761183      -0.00000002       0.38550300
Si       7.67917964       0.00000000      17.43000000  F        2       0.13528566      -0.00000002       0.41661491
Si       0.00000000       3.83958982      17.43000000  F        2       0.00124743       0.00000000       0.49047912
Si       3.83958982       3.83958982      17.43000000  F        2      -0.35510618       0.00000000       0.14333957
Si       7.67917964       3.83958982      17.43000000  F        2       0.02784512       0.00000000       0.67201317
Si       1.91979491       0.00000000      18.78750000  F        1      -0.02984680       0.00000000      -0.20270042
Si       5.75938473       0.00000000      18.78750000  F        1      -0.13931651      -0.00000000       0.09142412
Si       9.59897455       0.00000000      18.78750000  F        1       0.00699993       0.00000000      -0.23303179
Si       1.91979491       3.83958982      18.78750000  F        1      -0.45585047      -0.00000000      -0.19132058
Si       5.75938473       3.83958982      18.78750000  F        1       4.84317692      -0.00000000     -12.76412222
Si       9.59897455       3.83958982      18.78750000  F        1       0.17536097      -0.00000000      -0.01125198
Cl       5.10849010       3.83958982      20.38750000  T        0      -5.68507646       0.00000000      12.01751341
H        6.41027936       3.83958982      20.38750000  T        0       1.52457665      -0.00000000       0.35977897
38
Lattice="11.518769465528859 0.0 0.0 0.0 7.679179643685906 0.0 0.0 0.0 30.7875" Properties=species:S:1:pos:R:3:move_mask:L:1:tags:I:1:forces:R:3 surface=Si100 species=HCl site=atop_Si orientation=parallel height_A=1.3 substrate_atoms=36 calculation_kind="Rigid evaluated approach scan; not NEB" energy=-175.56211896644083 pbc="T T F"
Si       0.00000000       0.00000000      12.00000000  F        6       0.00052928       0.00000000       0.25494064
Si       3.83958982       0.00000000      12.00000000  F        6       0.00180539       0.00000000       0.25919328
Si       7.67917964       0.00000000      12.00000000  F        6      -0.00201969       0.00000000       0.26429057
Si       0.00000000       3.83958982      12.00000000  F        6      -0.00104623      -0.00000000       0.25065921
Si       3.83958982       3.83958982      12.00000000  F        6       0.00083372      -0.00000000       0.24791336
Si       7.67917964       3.83958982      12.00000000  F        6       0.00024424      -0.00000000       0.25226594
Si       1.91979491       0.00000000      13.35750000  F        5       0.00015438      -0.00000002      -0.51868426
Si       5.75938473       0.00000000      13.35750000  F        5      -0.00134206      -0.00000002      -0.53590766
Si       9.59897455       0.00000000      13.35750000  F        5      -0.00103700      -0.00000002      -0.52306607
Si       1.91979491       3.83958982      13.35750000  F        5       0.02742172       0.00000000      -0.47950702
Si       5.75938473       3.83958982      13.35750000  F        5      -0.02155000       0.00000000      -0.46567741
Si       9.59897455       3.83958982      13.35750000  F        5      -0.00499604       0.00000000      -0.52299655
Si       1.91979491       1.91979491      14.71500000  F        4       0.03144806       0.00744304       0.18477202
Si       5.75938473       1.91979491      14.71500000  F        4      -0.04207809      -0.06268761       0.13074837
Si       9.59897455       1.91979491      14.71500000  F        4      -0.00635857      -0.01824454       0.16589275
Si       1.91979491       5.75938473      14.71500000  F        4       0.03144806      -0.00744301       0.18477200
Si       5.75938473       5.75938473      14.71500000  F        4      -0.04207809       0.06268763       0.13074836
Si       9.59897455       5.75938473      14.71500000  F        4      -0.00635857       0.01824457       0.16589273
Si       0.00000000       1.91979491      16.07250000  F        3       0.00442982       0.02927169      -0.12047182
Si       3.83958982       1.91979491      16.07250000  F        3      -0.02002682      -0.06589106      -0.24517052
Si       7.67917964       1.91979491      16.07250000  F        3       0.03941465      -0.26699967      -0.34515762
Si       0.00000000       5.75938473      16.07250000  F        3       0.00442982      -0.02927166      -0.12047180
Si       3.83958982       5.75938473      16.07250000  F        3      -0.02002682       0.06589109      -0.24517051
Si       7.67917964       5.75938473      16.07250000  F        3       0.03941465       0.26699969      -0.34515760
Si       0.00000000       0.00000000      17.43000000  F        2      -0.01826030      -0.00000002       0.43655998
Si       3.83958982       0.00000000      17.43000000  F        2      -0.04949908      -0.00000002       0.41117910
Si       7.67917964       0.00000000      17.43000000  F        2       0.12469438      -0.00000002       0.42794273
Si       0.00000000       3.83958982      17.43000000  F        2      -0.08017666       0.00000000       0.44424560
Si       3.83958982       3.83958982      17.43000000  F        2      -0.75614912       0.00000000      -0.66778703
Si       7.67917964       3.83958982      17.43000000  F        2      -0.56743899       0.00000000       1.00996753
Si       1.91979491       0.00000000      18.78750000  F        1      -0.05844938       0.00000000      -0.18039794
Si       5.75938473       0.00000000      18.78750000  F        1      -0.15597317       0.00000000       0.11880302
Si       9.59897455       0.00000000      18.78750000  F        1       0.03869856       0.00000000      -0.21907641
Si       1.91979491       3.83958982      18.78750000  F        1      -0.51936850      -0.00000000      -0.04968357
Si       5.75938473       3.83958982      18.78750000  F        1      18.81066670      -0.00000000     -41.50335636
Si       9.59897455       3.83958982      18.78750000  F        1       0.26151163      -0.00000000       0.12670663
Cl       5.10849010       3.83958982      20.08750000  T        0     -21.15537697       0.00000000      39.07804353
H        6.41027936       3.83958982      20.08750000  T        0       4.11246509       0.00000000       2.54220276
