117
Properties=species:S:1:pos:R:3 source_doi=10.3390/sym15010213 source_label=P1 coordinates_only=T cell_not_supplied=T pbc="F F F"
Si       2.92640515       0.24845924      11.32156423
Si       0.95970000       2.31320000       8.55840000
Si       0.94133483       0.37872162       9.99930537
Si       2.87970000       2.31320000       7.20140000
Si       3.68771283       2.33460736      12.00209094
Si       6.66990206       0.45446032      11.28488951
Si       4.79970000       2.31320000       8.55840000
Si       4.77134883       0.39691454       9.85313717
Si       6.71870000       2.31320000       7.20140000
Si       5.95719987       2.34279283      12.44062907
Si       2.94077658       4.41654121      11.32957698
Si       0.95970000       6.15320000       8.55840000
Si       0.99361396       4.23390405       9.97046208
Si       2.87970000       6.15320000       7.20140000
Si       3.41939091       6.15195523      12.90601277
Si       6.64689252       4.26317053      11.30827249
Si       4.79970000       6.15320000       8.55840000
Si       4.79666648       4.22728280       9.87109125
Si       6.71870000       6.15320000       7.20140000
Si       5.84786260       6.15287721      12.49508613
Si      10.63672035       0.51785320      11.34164546
Si       8.63870000       2.31320000       8.55840000
Si       8.66847054       0.39638867       9.98697937
Si      10.55870000       2.31320000       7.20140000
Si      11.15876526       2.33165124      12.80661380
Si      14.31506366       0.26694667      11.33809460
Si      12.47870000       2.31320000       8.55840000
Si      12.47415856       0.39239801       9.85530025
Si      14.39870000       2.31320000       7.20140000
Si      13.39201425       2.29001534      12.06687057
Si      10.64153121       4.16404327      11.35822201
Si       8.63870000       6.15320000       8.55840000
Si       8.65693861       4.23226856      10.01263680
Si      10.55870000       6.15320000       7.20140000
Si      11.28614032       6.15201063      12.47658229
Si      14.36486116       4.25793501      11.26449395
Si      12.47870000       6.15320000       8.55840000
Si      12.44016879       4.23949125       9.85974330
Si      14.39870000       6.15320000       7.20140000
Si      13.68225896       6.15232520      12.43187044
Si       2.94726407       7.88650756      11.32714887
Si       0.95970000       9.99220000       8.55840000
Si       0.99754056       8.07159783       9.97323325
Si       2.87970000       9.99220000       7.20140000
Si       3.68842981       9.97144395      12.00052068
Si       6.63947029       8.04415608      11.30377361
Si       4.79970000       9.99220000       8.55840000
Si       4.79518127       8.07743575       9.86319225
Si       6.71870000       9.99220000       7.20140000
Si       5.95592250       9.96439498      12.44074638
Si       2.92680888      12.05763279      11.32273475
Si       0.95970000      13.83220000       8.55840000
Si       0.94342382      11.92706058       9.99872614
Si       2.87970000      13.83220000       7.20140000
Si       3.46753746      13.83269565      12.83479759
Si       6.66926866      11.85107935      11.28344173
Si       4.79970000      13.83220000       8.55840000
Si       4.77088711      11.90805000       9.85280388
Si       6.71870000      13.83220000       7.20140000
Si       5.69433221      13.83189927      12.05264418
Si      10.64218060       8.14154440      11.35938872
Si       8.63870000       9.99220000       8.55840000
Si       8.65424769       8.07379056      10.01555940
Si      10.55870000       9.99220000       7.20140000
Si      11.15842066       9.97534832      12.80789273
Si      14.36531095       8.04701748      11.26410491
Si      12.47870000       9.99220000       8.55840000
Si      12.44055149       8.06635158       9.85951374
Si      14.39870000       9.99220000       7.20140000
Si      13.39226874      10.01595833      12.06751111
Si      10.63654647      11.78857607      11.34074403
Si       8.63870000      13.83220000       8.55840000
Si       8.66748385      11.90914567       9.98604297
Si      10.55870000      13.83220000       7.20140000
Si      11.52178007      13.83228621      12.06314657
Si      14.31595070      12.03924372      11.33687436
Si      12.47870000      13.83220000       8.55840000
Si      12.47465432      11.91336009       9.85495813
Si      14.39870000      13.83220000       7.20140000
Si      13.75911140      13.83220948      12.80922852
H        2.87970000       3.57020000       6.31140000
H        2.87970000       1.05620000       6.31140000
H        6.71870000       3.57020000       6.31140000
H        6.71870000       1.05620000       6.31140000
H        2.87970000       7.41020000       6.31140000
H        2.87970000       4.89520000       6.31140000
H        6.71870000       7.41020000       6.31140000
H        6.71870000       4.89520000       6.31140000
H       10.55870000       3.57020000       6.31140000
H       10.55870000       1.05620000       6.31140000
H       14.39870000       3.57020000       6.31140000
H       14.39870000       1.05620000       6.31140000
H       10.55870000       7.41020000       6.31140000
H       10.55870000       4.89520000       6.31140000
H       14.39870000       7.41020000       6.31140000
H       14.39870000       4.89520000       6.31140000
H        2.87970000      11.25020000       6.31140000
H        2.87970000       8.73520000       6.31140000
H        6.71870000      11.25020000       6.31140000
H        6.71870000       8.73520000       6.31140000
H        2.87970000      15.08920000       6.31140000
H        2.87970000      12.57420000       6.31140000
H        6.71870000      15.08920000       6.31140000
H        6.71870000      12.57420000       6.31140000
H       10.55870000      11.25020000       6.31140000
H       10.55870000       8.73520000       6.31140000
H       14.39870000      11.25020000       6.31140000
H       14.39870000       8.73520000       6.31140000
H       10.55870000      15.08920000       6.31140000
H       10.55870000      12.57420000       6.31140000
H       14.39870000      15.08920000       6.31140000
H       14.39870000      12.57420000       6.31140000
Si       6.81471770       6.15445682      14.63314045
Cl       7.97913538       7.84651744      14.91599184
Cl       5.40430570       6.16267810      16.14444444
Cl       7.97300303       4.46016902      14.92572434
Cl      10.94469351       6.14881933      14.53704447
