117
Properties=species:S:1:pos:R:3 source_doi=10.3390/sym15010213 source_label=TS5 coordinates_only=T cell_not_supplied=T pbc="F F F"
Si       2.94886343       0.28743000      11.53213753
Si       0.95970000       2.31320000       8.76709824
Si       0.95700760       0.38586001      10.20901085
Si       2.87970000       2.31320000       7.41009824
Si       3.84442512       2.31625071      12.25241697
Si       6.64715878       0.53365287      11.55108084
Si       4.79970000       2.31320000       8.76709824
Si       4.80046702       0.39233167      10.06511595
Si       6.71870000       2.31320000       7.41009824
Si       6.08228441       2.31786210      13.03481748
Si       2.94546560       4.34158833      11.52990514
Si       0.95970000       6.15320000       8.76709824
Si       0.95504405       4.24003693      10.20759417
Si       2.87970000       6.15320000       7.41009824
Si       3.45681293       6.14091028      13.02427345
Si       6.64420426       4.10296374      11.55124603
Si       4.79970000       6.15320000       8.76709824
Si       4.79921967       4.23394988      10.06374302
Si       6.71870000       6.15320000       7.41009824
Si       5.70041362       6.09903100      12.27614535
Si      10.63346917       0.52094805      11.53881219
Si       8.63870000       2.31320000       8.76709824
Si       8.63657219       0.40175782      10.21577245
Si      10.55870000       2.31320000       7.41009824
Si      11.19091767       2.31859648      13.01449115
Si      14.32145836       0.27180373      11.53887379
Si      12.47870000       2.31320000       8.76709824
Si      12.47758418       0.39381797      10.06095697
Si      14.39870000       2.31320000       7.41009824
Si      13.43021679       2.31472976      12.27101818
Si      10.63283139       4.11725850      11.53941128
Si       8.63870000       6.15320000       8.76709824
Si       8.63564894       4.22713645      10.21644452
Si      10.55870000       6.15320000       7.41009824
Si      11.52317461       6.15624174      12.29066337
Si      14.32023673       4.35758701      11.53909973
Si      12.47870000       6.15320000       8.76709824
Si      12.47572723       4.23297193      10.06155519
Si      14.39870000       6.15320000       7.41009824
Si      13.76947601       6.15214620      13.02773637
Si       2.92110668       7.93804259      11.52492871
Si       0.95970000       9.99220000       8.76709824
Si       0.93881408       8.06104915      10.20384638
Si       2.87970000       9.99220000       7.41009824
Si       3.56483401       9.98942562      12.38160704
Si       6.66950208       8.07883325      11.51100216
Si       4.79970000       9.99220000       8.76709824
Si       4.77422853       8.08854329      10.07644691
Si       6.71870000       9.99220000       7.41009824
Si       5.92930811      10.01920816      12.61929335
Si       2.91951764      12.03985763      11.51920538
Si       0.95970000      13.83220000       8.76709824
Si       0.93695436      11.92412520      10.20144338
Si       2.87970000      13.83220000       7.41009824
Si       3.47929252      13.83651796      13.00732108
Si       6.66074705      11.91305873      11.44731147
Si       4.79970000      13.83220000       8.76709824
Si       4.75684051      11.90251809      10.05495464
Si       6.71870000      13.83220000       7.41009824
Si       5.70929180      13.88530753      12.24560968
Si      10.63794178       8.19778687      11.55504842
Si       8.63870000       9.99220000       8.76709824
Si       8.66591817       8.07521279      10.20218700
Si      10.55870000       9.99220000       7.41009824
Si      11.17320019       9.99677962      13.03872888
Si      14.31152382       7.94967134      11.54349030
Si      12.47870000       9.99220000       8.76709824
Si      12.47107972       8.07292613      10.06169495
Si      14.39870000       9.99220000       7.41009824
Si      13.41695948       9.99163276      12.27505027
Si      10.63897865      11.79417187      11.54884558
Si       8.63870000      13.83220000       8.76709824
Si       8.67340204      11.91093416      10.18627798
Si      10.55870000      13.83220000       7.41009824
Si      11.52682714      13.83859379      12.27496412
Si      14.31010616      12.03228660      11.53863829
Si      12.47870000      13.83220000       8.76709824
Si      12.47147056      11.91238689      10.05792760
Si      14.39870000      13.83220000       7.41009824
Si      13.76674493      13.83201063      13.01890252
H        2.87970000       3.57020000       6.52009824
H        2.87970000       1.05620000       6.52009824
H        6.71870000       3.57020000       6.52009824
H        6.71870000       1.05620000       6.52009824
H        2.87970000       7.41020000       6.52009824
H        2.87970000       4.89520000       6.52009824
H        6.71870000       7.41020000       6.52009824
H        6.71870000       4.89520000       6.52009824
H       10.55870000       3.57020000       6.52009824
H       10.55870000       1.05620000       6.52009824
H       14.39870000       3.57020000       6.52009824
H       14.39870000       1.05620000       6.52009824
H       10.55870000       7.41020000       6.52009824
H       10.55870000       4.89520000       6.52009824
H       14.39870000       7.41020000       6.52009824
H       14.39870000       4.89520000       6.52009824
H        2.87970000      11.25020000       6.52009824
H        2.87970000       8.73520000       6.52009824
H        6.71870000      11.25020000       6.52009824
H        6.71870000       8.73520000       6.52009824
H        2.87970000      15.08920000       6.52009824
H        2.87970000      12.57420000       6.52009824
H        6.71870000      15.08920000       6.52009824
H        6.71870000      12.57420000       6.52009824
H       10.55870000      11.25020000       6.52009824
H       10.55870000       8.73520000       6.52009824
H       14.39870000      11.25020000       6.52009824
H       14.39870000       8.73520000       6.52009824
H       10.55870000      15.08920000       6.52009824
H       10.55870000      12.57420000       6.52009824
H       14.39870000      15.08920000       6.52009824
H       14.39870000      12.57420000       6.52009824
Si       7.53685675       7.98385582      16.41624947
Cl       8.25261994       7.55382669      18.31972568
Cl       8.91142934       7.32250452      14.99107654
Cl       5.77036690       6.94279194      16.08236757
Cl       6.54831952      10.24311575      14.63471303
