37
Lattice="11.518769465528859 0.0 0.0 3.839589821842953 6.650364651656328 0.0 0.0 0.0 28.62128289467409" Properties=species:S:1:pos:R:3:move_mask:L:1:tags:I:1 pbc="T T F"
Si       1.91979491       1.10839411      10.00000000  F        6
Si       5.75938473       1.10839411      10.00000000  F        6
Si       9.59897455       1.10839411      10.00000000  F        6
Si       3.83958982       4.43357643      10.00000000  F        6
Si       7.67917964       4.43357643      10.00000000  F        6
Si      11.51876947       4.43357643      10.00000000  F        6
Si       1.91979491       1.10839411      12.35125897  F        5
Si       5.75938473       1.10839411      12.35125897  F        5
Si       9.59897455       1.10839411      12.35125897  F        5
Si       3.83958982       4.43357643      12.35125897  F        5
Si       7.67917964       4.43357643      12.35125897  F        5
Si      11.51876947       4.43357643      12.35125897  F        5
Si      -0.00000000       2.21678822      13.13501196  F        4
Si       3.83958982       2.21678822      13.13501196  F        4
Si       7.67917964       2.21678822      13.13501196  F        4
Si       1.91979491       5.54197054      13.13501196  F        4
Si       5.75938473       5.54197054      13.13501196  F        4
Si       9.59897455       5.54197054      13.13501196  F        4
Si      -0.00000000       2.21678822      15.48627093  F        3
Si       3.83958982       2.21678822      15.48627093  F        3
Si       7.67917964       2.21678822      15.48627093  F        3
Si       1.91979491       5.54197054      15.48627093  F        3
Si       5.75938473       5.54197054      15.48627093  F        3
Si       9.59897455       5.54197054      15.48627093  F        3
Si       0.00000000       0.00000000      16.27002392  F        2
Si       3.83958982       0.00000000      16.27002392  F        2
Si       7.67917964       0.00000000      16.27002392  F        2
Si       1.91979491       3.32518233      16.27002392  F        2
Si       5.75938473       3.32518233      16.27002392  F        2
Si       9.59897455       3.32518233      16.27002392  F        2
Si       0.00000000       0.00000000      18.62128289  F        1
Si       3.83958982       0.00000000      18.62128289  F        1
Si       7.67917964       0.00000000      18.62128289  F        1
Si       1.91979491       3.32518233      18.62128289  F        1
Si       5.75938473       3.32518233      18.62128289  F        1
Si       9.59897455       3.32518233      18.62128289  F        1
F        1.11069577       1.57524517      18.63421156  T        0
37
Lattice="11.518769465528859 0.0 0.0 3.839589821842953 6.650364651656328 0.0 0.0 0.0 28.62128289467409" Properties=species:S:1:pos:R:3:move_mask:L:1:tags:I:1 pbc="T T F"
Si       1.91979491       1.10839411      10.00000000  F        6
Si       5.75938473       1.10839411      10.00000000  F        6
Si       9.59897455       1.10839411      10.00000000  F        6
Si       3.83958982       4.43357643      10.00000000  F        6
Si       7.67917964       4.43357643      10.00000000  F        6
Si      11.51876947       4.43357643      10.00000000  F        6
Si       1.91979491       1.10839411      12.35125897  F        5
Si       5.75938473       1.10839411      12.35125897  F        5
Si       9.59897455       1.10839411      12.35125897  F        5
Si       3.83958982       4.43357643      12.35125897  F        5
Si       7.67917964       4.43357643      12.35125897  F        5
Si      11.51876947       4.43357643      12.35125897  F        5
Si      -0.00000000       2.21678822      13.13501196  F        4
Si       3.83958982       2.21678822      13.13501196  F        4
Si       7.67917964       2.21678822      13.13501196  F        4
Si       1.91979491       5.54197054      13.13501196  F        4
Si       5.75938473       5.54197054      13.13501196  F        4
Si       9.59897455       5.54197054      13.13501196  F        4
Si      -0.00000000       2.21678822      15.48627093  F        3
Si       3.83958982       2.21678822      15.48627093  F        3
Si       7.67917964       2.21678822      15.48627093  F        3
Si       1.91979491       5.54197054      15.48627093  F        3
Si       5.75938473       5.54197054      15.48627093  F        3
Si       9.59897455       5.54197054      15.48627093  F        3
Si       0.00000000       0.00000000      16.27002392  F        2
Si       3.83958982       0.00000000      16.27002392  F        2
Si       7.67917964       0.00000000      16.27002392  F        2
Si       1.91979491       3.32518233      16.27002392  F        2
Si       5.75938473       3.32518233      16.27002392  F        2
Si       9.59897455       3.32518233      16.27002392  F        2
Si       0.00000000       0.00000000      18.62128289  F        1
Si       3.83958982       0.00000000      18.62128289  F        1
Si       7.67917964       0.00000000      18.62128289  F        1
Si       1.91979491       3.32518233      18.62128289  F        1
Si       5.75938473       3.32518233      18.62128289  F        1
Si       9.59897455       3.32518233      18.62128289  F        1
F        1.58981036       1.58218323      18.63165401  T        0
37
Lattice="11.518769465528859 0.0 0.0 3.839589821842953 6.650364651656328 0.0 0.0 0.0 28.62128289467409" Properties=species:S:1:pos:R:3:move_mask:L:1:tags:I:1 pbc="T T F"
Si       1.91979491       1.10839411      10.00000000  F        6
Si       5.75938473       1.10839411      10.00000000  F        6
Si       9.59897455       1.10839411      10.00000000  F        6
Si       3.83958982       4.43357643      10.00000000  F        6
Si       7.67917964       4.43357643      10.00000000  F        6
Si      11.51876947       4.43357643      10.00000000  F        6
Si       1.91979491       1.10839411      12.35125897  F        5
Si       5.75938473       1.10839411      12.35125897  F        5
Si       9.59897455       1.10839411      12.35125897  F        5
Si       3.83958982       4.43357643      12.35125897  F        5
Si       7.67917964       4.43357643      12.35125897  F        5
Si      11.51876947       4.43357643      12.35125897  F        5
Si      -0.00000000       2.21678822      13.13501196  F        4
Si       3.83958982       2.21678822      13.13501196  F        4
Si       7.67917964       2.21678822      13.13501196  F        4
Si       1.91979491       5.54197054      13.13501196  F        4
Si       5.75938473       5.54197054      13.13501196  F        4
Si       9.59897455       5.54197054      13.13501196  F        4
Si      -0.00000000       2.21678822      15.48627093  F        3
Si       3.83958982       2.21678822      15.48627093  F        3
Si       7.67917964       2.21678822      15.48627093  F        3
Si       1.91979491       5.54197054      15.48627093  F        3
Si       5.75938473       5.54197054      15.48627093  F        3
Si       9.59897455       5.54197054      15.48627093  F        3
Si       0.00000000       0.00000000      16.27002392  F        2
Si       3.83958982       0.00000000      16.27002392  F        2
Si       7.67917964       0.00000000      16.27002392  F        2
Si       1.91979491       3.32518233      16.27002392  F        2
Si       5.75938473       3.32518233      16.27002392  F        2
Si       9.59897455       3.32518233      16.27002392  F        2
Si       0.00000000       0.00000000      18.62128289  F        1
Si       3.83958982       0.00000000      18.62128289  F        1
Si       7.67917964       0.00000000      18.62128289  F        1
Si       1.91979491       3.32518233      18.62128289  F        1
Si       5.75938473       3.32518233      18.62128289  F        1
Si       9.59897455       3.32518233      18.62128289  F        1
F        2.07151164       1.62398999      18.62899381  T        0
37
Lattice="11.518769465528859 0.0 0.0 3.839589821842953 6.650364651656328 0.0 0.0 0.0 28.62128289467409" Properties=species:S:1:pos:R:3:move_mask:L:1:tags:I:1 pbc="T T F"
Si       1.91979491       1.10839411      10.00000000  F        6
Si       5.75938473       1.10839411      10.00000000  F        6
Si       9.59897455       1.10839411      10.00000000  F        6
Si       3.83958982       4.43357643      10.00000000  F        6
Si       7.67917964       4.43357643      10.00000000  F        6
Si      11.51876947       4.43357643      10.00000000  F        6
Si       1.91979491       1.10839411      12.35125897  F        5
Si       5.75938473       1.10839411      12.35125897  F        5
Si       9.59897455       1.10839411      12.35125897  F        5
Si       3.83958982       4.43357643      12.35125897  F        5
Si       7.67917964       4.43357643      12.35125897  F        5
Si      11.51876947       4.43357643      12.35125897  F        5
Si      -0.00000000       2.21678822      13.13501196  F        4
Si       3.83958982       2.21678822      13.13501196  F        4
Si       7.67917964       2.21678822      13.13501196  F        4
Si       1.91979491       5.54197054      13.13501196  F        4
Si       5.75938473       5.54197054      13.13501196  F        4
Si       9.59897455       5.54197054      13.13501196  F        4
Si      -0.00000000       2.21678822      15.48627093  F        3
Si       3.83958982       2.21678822      15.48627093  F        3
Si       7.67917964       2.21678822      15.48627093  F        3
Si       1.91979491       5.54197054      15.48627093  F        3
Si       5.75938473       5.54197054      15.48627093  F        3
Si       9.59897455       5.54197054      15.48627093  F        3
Si       0.00000000       0.00000000      16.27002392  F        2
Si       3.83958982       0.00000000      16.27002392  F        2
Si       7.67917964       0.00000000      16.27002392  F        2
Si       1.91979491       3.32518233      16.27002392  F        2
Si       5.75938473       3.32518233      16.27002392  F        2
Si       9.59897455       3.32518233      16.27002392  F        2
Si       0.00000000       0.00000000      18.62128289  F        1
Si       3.83958982       0.00000000      18.62128289  F        1
Si       7.67917964       0.00000000      18.62128289  F        1
Si       1.91979491       3.32518233      18.62128289  F        1
Si       5.75938473       3.32518233      18.62128289  F        1
Si       9.59897455       3.32518233      18.62128289  F        1
F        2.55301342       1.52304591      18.60702141  T        0
37
Lattice="11.518769465528859 0.0 0.0 3.839589821842953 6.650364651656328 0.0 0.0 0.0 28.62128289467409" Properties=species:S:1:pos:R:3:move_mask:L:1:tags:I:1 pbc="T T F"
Si       1.91979491       1.10839411      10.00000000  F        6
Si       5.75938473       1.10839411      10.00000000  F        6
Si       9.59897455       1.10839411      10.00000000  F        6
Si       3.83958982       4.43357643      10.00000000  F        6
Si       7.67917964       4.43357643      10.00000000  F        6
Si      11.51876947       4.43357643      10.00000000  F        6
Si       1.91979491       1.10839411      12.35125897  F        5
Si       5.75938473       1.10839411      12.35125897  F        5
Si       9.59897455       1.10839411      12.35125897  F        5
Si       3.83958982       4.43357643      12.35125897  F        5
Si       7.67917964       4.43357643      12.35125897  F        5
Si      11.51876947       4.43357643      12.35125897  F        5
Si      -0.00000000       2.21678822      13.13501196  F        4
Si       3.83958982       2.21678822      13.13501196  F        4
Si       7.67917964       2.21678822      13.13501196  F        4
Si       1.91979491       5.54197054      13.13501196  F        4
Si       5.75938473       5.54197054      13.13501196  F        4
Si       9.59897455       5.54197054      13.13501196  F        4
Si      -0.00000000       2.21678822      15.48627093  F        3
Si       3.83958982       2.21678822      15.48627093  F        3
Si       7.67917964       2.21678822      15.48627093  F        3
Si       1.91979491       5.54197054      15.48627093  F        3
Si       5.75938473       5.54197054      15.48627093  F        3
Si       9.59897455       5.54197054      15.48627093  F        3
Si       0.00000000       0.00000000      16.27002392  F        2
Si       3.83958982       0.00000000      16.27002392  F        2
Si       7.67917964       0.00000000      16.27002392  F        2
Si       1.91979491       3.32518233      16.27002392  F        2
Si       5.75938473       3.32518233      16.27002392  F        2
Si       9.59897455       3.32518233      16.27002392  F        2
Si       0.00000000       0.00000000      18.62128289  F        1
Si       3.83958982       0.00000000      18.62128289  F        1
Si       7.67917964       0.00000000      18.62128289  F        1
Si       1.91979491       3.32518233      18.62128289  F        1
Si       5.75938473       3.32518233      18.62128289  F        1
Si       9.59897455       3.32518233      18.62128289  F        1
F        3.01086230       1.70800381      18.73086625  T        0
37
Lattice="11.518769465528859 0.0 0.0 3.839589821842953 6.650364651656328 0.0 0.0 0.0 28.62128289467409" Properties=species:S:1:pos:R:3:move_mask:L:1:tags:I:1 pbc="T T F"
Si       1.91979491       1.10839411      10.00000000  F        6
Si       5.75938473       1.10839411      10.00000000  F        6
Si       9.59897455       1.10839411      10.00000000  F        6
Si       3.83958982       4.43357643      10.00000000  F        6
Si       7.67917964       4.43357643      10.00000000  F        6
Si      11.51876947       4.43357643      10.00000000  F        6
Si       1.91979491       1.10839411      12.35125897  F        5
Si       5.75938473       1.10839411      12.35125897  F        5
Si       9.59897455       1.10839411      12.35125897  F        5
Si       3.83958982       4.43357643      12.35125897  F        5
Si       7.67917964       4.43357643      12.35125897  F        5
Si      11.51876947       4.43357643      12.35125897  F        5
Si      -0.00000000       2.21678822      13.13501196  F        4
Si       3.83958982       2.21678822      13.13501196  F        4
Si       7.67917964       2.21678822      13.13501196  F        4
Si       1.91979491       5.54197054      13.13501196  F        4
Si       5.75938473       5.54197054      13.13501196  F        4
Si       9.59897455       5.54197054      13.13501196  F        4
Si      -0.00000000       2.21678822      15.48627093  F        3
Si       3.83958982       2.21678822      15.48627093  F        3
Si       7.67917964       2.21678822      15.48627093  F        3
Si       1.91979491       5.54197054      15.48627093  F        3
Si       5.75938473       5.54197054      15.48627093  F        3
Si       9.59897455       5.54197054      15.48627093  F        3
Si       0.00000000       0.00000000      16.27002392  F        2
Si       3.83958982       0.00000000      16.27002392  F        2
Si       7.67917964       0.00000000      16.27002392  F        2
Si       1.91979491       3.32518233      16.27002392  F        2
Si       5.75938473       3.32518233      16.27002392  F        2
Si       9.59897455       3.32518233      16.27002392  F        2
Si       0.00000000       0.00000000      18.62128289  F        1
Si       3.83958982       0.00000000      18.62128289  F        1
Si       7.67917964       0.00000000      18.62128289  F        1
Si       1.91979491       3.32518233      18.62128289  F        1
Si       5.75938473       3.32518233      18.62128289  F        1
Si       9.59897455       3.32518233      18.62128289  F        1
F        3.50178321       1.63828602      18.79481801  T        0
37
Lattice="11.518769465528859 0.0 0.0 3.839589821842953 6.650364651656328 0.0 0.0 0.0 28.62128289467409" Properties=species:S:1:pos:R:3:move_mask:L:1:tags:I:1 pbc="T T F"
Si       1.91979491       1.10839411      10.00000000  F        6
Si       5.75938473       1.10839411      10.00000000  F        6
Si       9.59897455       1.10839411      10.00000000  F        6
Si       3.83958982       4.43357643      10.00000000  F        6
Si       7.67917964       4.43357643      10.00000000  F        6
Si      11.51876947       4.43357643      10.00000000  F        6
Si       1.91979491       1.10839411      12.35125897  F        5
Si       5.75938473       1.10839411      12.35125897  F        5
Si       9.59897455       1.10839411      12.35125897  F        5
Si       3.83958982       4.43357643      12.35125897  F        5
Si       7.67917964       4.43357643      12.35125897  F        5
Si      11.51876947       4.43357643      12.35125897  F        5
Si      -0.00000000       2.21678822      13.13501196  F        4
Si       3.83958982       2.21678822      13.13501196  F        4
Si       7.67917964       2.21678822      13.13501196  F        4
Si       1.91979491       5.54197054      13.13501196  F        4
Si       5.75938473       5.54197054      13.13501196  F        4
Si       9.59897455       5.54197054      13.13501196  F        4
Si      -0.00000000       2.21678822      15.48627093  F        3
Si       3.83958982       2.21678822      15.48627093  F        3
Si       7.67917964       2.21678822      15.48627093  F        3
Si       1.91979491       5.54197054      15.48627093  F        3
Si       5.75938473       5.54197054      15.48627093  F        3
Si       9.59897455       5.54197054      15.48627093  F        3
Si       0.00000000       0.00000000      16.27002392  F        2
Si       3.83958982       0.00000000      16.27002392  F        2
Si       7.67917964       0.00000000      16.27002392  F        2
Si       1.91979491       3.32518233      16.27002392  F        2
Si       5.75938473       3.32518233      16.27002392  F        2
Si       9.59897455       3.32518233      16.27002392  F        2
Si       0.00000000       0.00000000      18.62128289  F        1
Si       3.83958982       0.00000000      18.62128289  F        1
Si       7.67917964       0.00000000      18.62128289  F        1
Si       1.91979491       3.32518233      18.62128289  F        1
Si       5.75938473       3.32518233      18.62128289  F        1
Si       9.59897455       3.32518233      18.62128289  F        1
F        3.98513896       1.60369942      18.82196960  T        0
37
Lattice="11.518769465528859 0.0 0.0 3.839589821842953 6.650364651656328 0.0 0.0 0.0 28.62128289467409" Properties=species:S:1:pos:R:3:move_mask:L:1:tags:I:1 pbc="T T F"
Si       1.91979491       1.10839411      10.00000000  F        6
Si       5.75938473       1.10839411      10.00000000  F        6
Si       9.59897455       1.10839411      10.00000000  F        6
Si       3.83958982       4.43357643      10.00000000  F        6
Si       7.67917964       4.43357643      10.00000000  F        6
Si      11.51876947       4.43357643      10.00000000  F        6
Si       1.91979491       1.10839411      12.35125897  F        5
Si       5.75938473       1.10839411      12.35125897  F        5
Si       9.59897455       1.10839411      12.35125897  F        5
Si       3.83958982       4.43357643      12.35125897  F        5
Si       7.67917964       4.43357643      12.35125897  F        5
Si      11.51876947       4.43357643      12.35125897  F        5
Si      -0.00000000       2.21678822      13.13501196  F        4
Si       3.83958982       2.21678822      13.13501196  F        4
Si       7.67917964       2.21678822      13.13501196  F        4
Si       1.91979491       5.54197054      13.13501196  F        4
Si       5.75938473       5.54197054      13.13501196  F        4
Si       9.59897455       5.54197054      13.13501196  F        4
Si      -0.00000000       2.21678822      15.48627093  F        3
Si       3.83958982       2.21678822      15.48627093  F        3
Si       7.67917964       2.21678822      15.48627093  F        3
Si       1.91979491       5.54197054      15.48627093  F        3
Si       5.75938473       5.54197054      15.48627093  F        3
Si       9.59897455       5.54197054      15.48627093  F        3
Si       0.00000000       0.00000000      16.27002392  F        2
Si       3.83958982       0.00000000      16.27002392  F        2
Si       7.67917964       0.00000000      16.27002392  F        2
Si       1.91979491       3.32518233      16.27002392  F        2
Si       5.75938473       3.32518233      16.27002392  F        2
Si       9.59897455       3.32518233      16.27002392  F        2
Si       0.00000000       0.00000000      18.62128289  F        1
Si       3.83958982       0.00000000      18.62128289  F        1
Si       7.67917964       0.00000000      18.62128289  F        1
Si       1.91979491       3.32518233      18.62128289  F        1
Si       5.75938473       3.32518233      18.62128289  F        1
Si       9.59897455       3.32518233      18.62128289  F        1
F        4.48530230       1.70524545      18.81444248  T        0
37
Lattice="11.518769465528859 0.0 0.0 3.839589821842953 6.650364651656328 0.0 0.0 0.0 28.62128289467409" Properties=species:S:1:pos:R:3:move_mask:L:1:tags:I:1 pbc="T T F"
Si       1.91979491       1.10839411      10.00000000  F        6
Si       5.75938473       1.10839411      10.00000000  F        6
Si       9.59897455       1.10839411      10.00000000  F        6
Si       3.83958982       4.43357643      10.00000000  F        6
Si       7.67917964       4.43357643      10.00000000  F        6
Si      11.51876947       4.43357643      10.00000000  F        6
Si       1.91979491       1.10839411      12.35125897  F        5
Si       5.75938473       1.10839411      12.35125897  F        5
Si       9.59897455       1.10839411      12.35125897  F        5
Si       3.83958982       4.43357643      12.35125897  F        5
Si       7.67917964       4.43357643      12.35125897  F        5
Si      11.51876947       4.43357643      12.35125897  F        5
Si      -0.00000000       2.21678822      13.13501196  F        4
Si       3.83958982       2.21678822      13.13501196  F        4
Si       7.67917964       2.21678822      13.13501196  F        4
Si       1.91979491       5.54197054      13.13501196  F        4
Si       5.75938473       5.54197054      13.13501196  F        4
Si       9.59897455       5.54197054      13.13501196  F        4
Si      -0.00000000       2.21678822      15.48627093  F        3
Si       3.83958982       2.21678822      15.48627093  F        3
Si       7.67917964       2.21678822      15.48627093  F        3
Si       1.91979491       5.54197054      15.48627093  F        3
Si       5.75938473       5.54197054      15.48627093  F        3
Si       9.59897455       5.54197054      15.48627093  F        3
Si       0.00000000       0.00000000      16.27002392  F        2
Si       3.83958982       0.00000000      16.27002392  F        2
Si       7.67917964       0.00000000      16.27002392  F        2
Si       1.91979491       3.32518233      16.27002392  F        2
Si       5.75938473       3.32518233      16.27002392  F        2
Si       9.59897455       3.32518233      16.27002392  F        2
Si       0.00000000       0.00000000      18.62128289  F        1
Si       3.83958982       0.00000000      18.62128289  F        1
Si       7.67917964       0.00000000      18.62128289  F        1
Si       1.91979491       3.32518233      18.62128289  F        1
Si       5.75938473       3.32518233      18.62128289  F        1
Si       9.59897455       3.32518233      18.62128289  F        1
F        4.95028559       1.57524517      18.63421156  T        0
