37
Lattice="11.518769465528859 0.0 0.0 3.839589821842953 6.650364651656328 0.0 0.0 0.0 28.62128289467409" Properties=species:S:1:pos:R:3:move_mask:L:1:tags:I:1:forces:R:3 energy=-173.920638721987 pbc="T T F"
Si       1.91979491       1.10839411      10.00000000  F        6      -0.00032575       0.00018795       0.16915827
Si       5.75938473       1.10839411      10.00000000  F        6      -0.00029037       0.00037788       0.17266676
Si       9.59897455       1.10839411      10.00000000  F        6       0.00062242      -0.00033246       0.17119285
Si       3.83958982       4.43357643      10.00000000  F        6      -0.00002882       0.00001675       0.16997289
Si       7.67917964       4.43357643      10.00000000  F        6      -0.00078184       0.00024115       0.17328315
Si      11.51876947       4.43357643      10.00000000  F        6       0.00081185      -0.00049562       0.17111737
Si       1.91979491       1.10839411      12.35125897  F        5      -0.01472998       0.00836136      -0.32714111
Si       5.75938473       1.10839411      12.35125897  F        5      -0.01421329       0.00111512      -0.37401893
Si       9.59897455       1.10839411      12.35125897  F        5       0.02404292      -0.00064706      -0.35001218
Si       3.83958982       4.43357643      12.35125897  F        5      -0.01738205       0.01021588      -0.32495577
Si       7.67917964       4.43357643      12.35125897  F        5      -0.00326098       0.00895202      -0.36693441
Si      11.51876947       4.43357643      12.35125897  F        5       0.01445517      -0.02158360      -0.35064439
Si      -0.00000000       2.21678822      13.13501196  F        4       0.01613370      -0.00978591      -0.08805374
Si       3.83958982       2.21678822      13.13501196  F        4      -0.02188624       0.00123105      -0.13596633
Si       7.67917964       2.21678822      13.13501196  F        4       0.00684023      -0.00100059      -0.13501753
Si       1.91979491       5.54197054      13.13501196  F        4       0.02675241      -0.01501118      -0.11038977
Si       5.75938473       5.54197054      13.13501196  F        4      -0.01146933       0.01801738      -0.13488205
Si       9.59897455       5.54197054      13.13501196  F        4      -0.01432581       0.00530589      -0.09311725
Si      -0.00000000       2.21678822      15.48627093  F        3      -0.21285774       0.12292175      -0.27573805
Si       3.83958982       2.21678822      15.48627093  F        3       0.13656227      -0.00853008       0.05156828
Si       7.67917964       2.21678822      15.48627093  F        3      -0.02605606       0.00255443       0.12532675
Si       1.91979491       5.54197054      15.48627093  F        3      -0.13979670       0.08063849      -0.02254320
Si       5.75938473       5.54197054      15.48627093  F        3       0.07797958      -0.11549818       0.05178056
Si       9.59897455       5.54197054      15.48627093  F        3       0.02804258      -0.00367319       0.12756003
Si       0.00000000       0.00000000      16.27002392  F        2      -0.15431178      -0.26637385       0.17916515
Si       3.83958982       0.00000000      16.27002392  F        2       0.09782964      -0.09065592       0.69149093
Si       7.67917964       0.00000000      16.27002392  F        2      -0.13940588       0.02492967       0.47413576
Si       1.91979491       3.32518233      16.27002392  F        2       0.15125058       0.26707842       0.18252887
Si       5.75938473       3.32518233      16.27002392  F        2       0.10735026      -0.02723811       0.43389928
Si       9.59897455       3.32518233      16.27002392  F        2      -0.06735971       0.09479975       0.61438316
Si       0.00000000       0.00000000      18.62128289  F        1       1.02451305       1.46895887       0.34978427
Si       3.83958982       0.00000000      18.62128289  F        1       0.04725836      -0.03116010      -0.50888731
Si       7.67917964       0.00000000      18.62128289  F        1      -0.19175459       0.12862356      -0.31445290
Si       1.91979491       3.32518233      18.62128289  F        1      -0.75608759      -1.62313764       0.34908321
Si       5.75938473       3.32518233      18.62128289  F        1       0.20347903      -0.11443168      -0.29629730
Si       9.59897455       3.32518233      18.62128289  F        1      -0.17800932       0.08506459      -0.44774119
F        1.11069577       1.57524517      18.63421156  T        0       0.00040982      -0.00003680      -0.00130413
