39
Lattice="11.518769465528859 0.0 0.0 0.0 7.679179643685906 0.0 0.0 0.0 30.7875" Properties=species:S:1:pos:R:3:move_mask:L:1:tags:I:1:forces:R:3 surface=Si100 species=H2O site=hollow orientation=upright height_A=6.5 substrate_atoms=36 calculation_kind="Rigid evaluated approach scan; not NEB" energy=-194.37464166994567 pbc="T T F"
Si       0.00000000       0.00000000      12.00000000  F        6      -0.00000004       0.00000000       0.24903484
Si       3.83958982       0.00000000      12.00000000  F        6      -0.00000000       0.00000000       0.24903482
Si       7.67917964       0.00000000      12.00000000  F        6       0.00000000       0.00000000       0.24903482
Si       0.00000000       3.83958982      12.00000000  F        6      -0.00000004      -0.00000000       0.24903484
Si       3.83958982       3.83958982      12.00000000  F        6      -0.00000000      -0.00000000       0.24903482
Si       7.67917964       3.83958982      12.00000000  F        6       0.00000000      -0.00000000       0.24903482
Si       1.91979491       0.00000000      13.35750000  F        5       0.00000000      -0.00000002      -0.52822352
Si       5.75938473       0.00000000      13.35750000  F        5       0.00000000      -0.00000002      -0.52822353
Si       9.59897455       0.00000000      13.35750000  F        5       0.00000003      -0.00000002      -0.52822354
Si       1.91979491       3.83958982      13.35750000  F        5       0.00000000       0.00000000      -0.52822354
Si       5.75938473       3.83958982      13.35750000  F        5       0.00000000       0.00000000      -0.52822354
Si       9.59897455       3.83958982      13.35750000  F        5       0.00000003       0.00000000      -0.52822356
Si       1.91979491       1.91979491      14.71500000  F        4      -0.00000000       0.00000000       0.14537709
Si       5.75938473       1.91979491      14.71500000  F        4       0.00000000       0.00000000       0.14537709
Si       9.59897455       1.91979491      14.71500000  F        4       0.00000004       0.00000000       0.14537711
Si       1.91979491       5.75938473      14.71500000  F        4      -0.00000000       0.00000002       0.14537707
Si       5.75938473       5.75938473      14.71500000  F        4       0.00000000       0.00000002       0.14537707
Si       9.59897455       5.75938473      14.71500000  F        4       0.00000004       0.00000002       0.14537709
Si       0.00000000       1.91979491      16.07250000  F        3      -0.00000004       0.00000000      -0.14537711
Si       3.83958982       1.91979491      16.07250000  F        3      -0.00000000       0.00000000      -0.14537709
Si       7.67917964       1.91979491      16.07250000  F        3       0.00000000       0.00000000      -0.14537709
Si       0.00000000       5.75938473      16.07250000  F        3      -0.00000004       0.00000002      -0.14537709
Si       3.83958982       5.75938473      16.07250000  F        3      -0.00000000       0.00000002      -0.14537707
Si       7.67917964       5.75938473      16.07250000  F        3       0.00000000       0.00000002      -0.14537707
Si       0.00000000       0.00000000      17.43000000  F        2      -0.00000003      -0.00000002       0.52822354
Si       3.83958982       0.00000000      17.43000000  F        2      -0.00000000      -0.00000002       0.52822353
Si       7.67917964       0.00000000      17.43000000  F        2      -0.00000000      -0.00000002       0.52822352
Si       0.00000000       3.83958982      17.43000000  F        2      -0.00000003       0.00000000       0.52822356
Si       3.83958982       3.83958982      17.43000000  F        2      -0.00000000       0.00000000       0.52822354
Si       7.67917964       3.83958982      17.43000000  F        2      -0.00000000       0.00000000       0.52822354
Si       1.91979491       0.00000000      18.78750000  F        1      -0.00000000       0.00000000      -0.24903482
Si       5.75938473       0.00000000      18.78750000  F        1       0.00000000       0.00000000      -0.24903482
Si       9.59897455       0.00000000      18.78750000  F        1       0.00000004       0.00000000      -0.24903484
Si       1.91979491       3.83958982      18.78750000  F        1      -0.00000000      -0.00000000      -0.24903482
Si       5.75938473       3.83958982      18.78750000  F        1       0.00000000      -0.00000000      -0.24903482
Si       9.59897455       3.83958982      18.78750000  F        1       0.00000004      -0.00000000      -0.24903484
O        7.67917964       1.91979491      25.28750000  T        0      -0.00000000       0.00000000      -0.00791150
H        8.43727111       1.91979491      25.89369698  T        0       0.00428516       0.00000000       0.00395575
H        6.92108817       1.91979491      25.89369698  T        0      -0.00428516       0.00000000       0.00395575
39
Lattice="11.518769465528859 0.0 0.0 0.0 7.679179643685906 0.0 0.0 0.0 30.7875" Properties=species:S:1:pos:R:3:move_mask:L:1:tags:I:1:forces:R:3 surface=Si100 species=H2O site=hollow orientation=upright height_A=5.0 substrate_atoms=36 calculation_kind="Rigid evaluated approach scan; not NEB" energy=-194.37464166994567 pbc="T T F"
Si       0.00000000       0.00000000      12.00000000  F        6      -0.00000004       0.00000000       0.24903484
Si       3.83958982       0.00000000      12.00000000  F        6      -0.00000000       0.00000000       0.24903482
Si       7.67917964       0.00000000      12.00000000  F        6       0.00000000       0.00000000       0.24903482
Si       0.00000000       3.83958982      12.00000000  F        6      -0.00000004      -0.00000000       0.24903484
Si       3.83958982       3.83958982      12.00000000  F        6      -0.00000000      -0.00000000       0.24903482
Si       7.67917964       3.83958982      12.00000000  F        6       0.00000000      -0.00000000       0.24903482
Si       1.91979491       0.00000000      13.35750000  F        5       0.00000000      -0.00000002      -0.52822352
Si       5.75938473       0.00000000      13.35750000  F        5       0.00000000      -0.00000002      -0.52822353
Si       9.59897455       0.00000000      13.35750000  F        5       0.00000003      -0.00000002      -0.52822354
Si       1.91979491       3.83958982      13.35750000  F        5       0.00000000       0.00000000      -0.52822354
Si       5.75938473       3.83958982      13.35750000  F        5       0.00000000       0.00000000      -0.52822354
Si       9.59897455       3.83958982      13.35750000  F        5       0.00000003       0.00000000      -0.52822356
Si       1.91979491       1.91979491      14.71500000  F        4      -0.00000000       0.00000000       0.14537709
Si       5.75938473       1.91979491      14.71500000  F        4       0.00000000       0.00000000       0.14537709
Si       9.59897455       1.91979491      14.71500000  F        4       0.00000004       0.00000000       0.14537711
Si       1.91979491       5.75938473      14.71500000  F        4      -0.00000000       0.00000002       0.14537707
Si       5.75938473       5.75938473      14.71500000  F        4       0.00000000       0.00000002       0.14537707
Si       9.59897455       5.75938473      14.71500000  F        4       0.00000004       0.00000002       0.14537709
Si       0.00000000       1.91979491      16.07250000  F        3      -0.00000004       0.00000000      -0.14537711
Si       3.83958982       1.91979491      16.07250000  F        3      -0.00000000       0.00000000      -0.14537709
Si       7.67917964       1.91979491      16.07250000  F        3       0.00000000       0.00000000      -0.14537709
Si       0.00000000       5.75938473      16.07250000  F        3      -0.00000004       0.00000002      -0.14537709
Si       3.83958982       5.75938473      16.07250000  F        3      -0.00000000       0.00000002      -0.14537707
Si       7.67917964       5.75938473      16.07250000  F        3       0.00000000       0.00000002      -0.14537707
Si       0.00000000       0.00000000      17.43000000  F        2      -0.00000003      -0.00000002       0.52822354
Si       3.83958982       0.00000000      17.43000000  F        2      -0.00000000      -0.00000002       0.52822353
Si       7.67917964       0.00000000      17.43000000  F        2      -0.00000000      -0.00000002       0.52822352
Si       0.00000000       3.83958982      17.43000000  F        2      -0.00000003       0.00000000       0.52822356
Si       3.83958982       3.83958982      17.43000000  F        2      -0.00000000       0.00000000       0.52822354
Si       7.67917964       3.83958982      17.43000000  F        2      -0.00000000       0.00000000       0.52822354
Si       1.91979491       0.00000000      18.78750000  F        1      -0.00000000       0.00000000      -0.24903482
Si       5.75938473       0.00000000      18.78750000  F        1       0.00000000       0.00000000      -0.24903482
Si       9.59897455       0.00000000      18.78750000  F        1       0.00000004       0.00000000      -0.24903484
Si       1.91979491       3.83958982      18.78750000  F        1      -0.00000000      -0.00000000      -0.24903482
Si       5.75938473       3.83958982      18.78750000  F        1       0.00000000      -0.00000000      -0.24903482
Si       9.59897455       3.83958982      18.78750000  F        1       0.00000004      -0.00000000      -0.24903484
O        7.67917964       1.91979491      23.78750000  T        0      -0.00000000       0.00000000      -0.00791150
H        8.43727111       1.91979491      24.39369698  T        0       0.00428516       0.00000000       0.00395575
H        6.92108817       1.91979491      24.39369698  T        0      -0.00428516       0.00000000       0.00395575
39
Lattice="11.518769465528859 0.0 0.0 0.0 7.679179643685906 0.0 0.0 0.0 30.7875" Properties=species:S:1:pos:R:3:move_mask:L:1:tags:I:1:forces:R:3 surface=Si100 species=H2O site=hollow orientation=upright height_A=4.0 substrate_atoms=36 calculation_kind="Rigid evaluated approach scan; not NEB" energy=-194.374880218319 pbc="T T F"
Si       0.00000000       0.00000000      12.00000000  F        6      -0.00000678      -0.00000422       0.24904593
Si       3.83958982       0.00000000      12.00000000  F        6       0.00000674      -0.00000422       0.24904591
Si       7.67917964       0.00000000      12.00000000  F        6       0.00000000      -0.00000315       0.24903754
Si       0.00000000       3.83958982      12.00000000  F        6      -0.00000678       0.00000422       0.24904593
Si       3.83958982       3.83958982      12.00000000  F        6       0.00000674       0.00000422       0.24904591
Si       7.67917964       3.83958982      12.00000000  F        6       0.00000000       0.00000315       0.24903754
Si       1.91979491       0.00000000      13.35750000  F        5       0.00000000      -0.00001021      -0.52822212
Si       5.75938473       0.00000000      13.35750000  F        5      -0.00001904      -0.00000165      -0.52824036
Si       9.59897455       0.00000000      13.35750000  F        5       0.00001908      -0.00000165      -0.52824038
Si       1.91979491       3.83958982      13.35750000  F        5       0.00000000       0.00001019      -0.52822213
Si       5.75938473       3.83958982      13.35750000  F        5      -0.00001904       0.00000163      -0.52824037
Si       9.59897455       3.83958982      13.35750000  F        5       0.00001908       0.00000163      -0.52824039
Si       1.91979491       1.91979491      14.71500000  F        4      -0.00000000       0.00000000       0.14538595
Si       5.75938473       1.91979491      14.71500000  F        4       0.00001775       0.00000000       0.14517943
Si       9.59897455       1.91979491      14.71500000  F        4      -0.00001771       0.00000000       0.14517945
Si       1.91979491       5.75938473      14.71500000  F        4      -0.00000000       0.00000002       0.14527531
Si       5.75938473       5.75938473      14.71500000  F        4       0.00003538       0.00000002       0.14546301
Si       9.59897455       5.75938473      14.71500000  F        4      -0.00003534       0.00000002       0.14546303
Si       0.00000000       1.91979491      16.07250000  F        3       0.00015239       0.00000000      -0.14543375
Si       3.83958982       1.91979491      16.07250000  F        3      -0.00015242       0.00000000      -0.14543373
Si       7.67917964       1.91979491      16.07250000  F        3       0.00000000       0.00000000      -0.14480791
Si       0.00000000       5.75938473      16.07250000  F        3       0.00036624       0.00000002      -0.14562422
Si       3.83958982       5.75938473      16.07250000  F        3      -0.00036628       0.00000002      -0.14562419
Si       7.67917964       5.75938473      16.07250000  F        3       0.00000000       0.00000002      -0.14501786
Si       0.00000000       0.00000000      17.43000000  F        2      -0.00094080      -0.00055415       0.52826025
Si       3.83958982       0.00000000      17.43000000  F        2       0.00094077      -0.00055415       0.52826023
Si       7.67917964       0.00000000      17.43000000  F        2      -0.00000000      -0.00004287       0.52876559
Si       0.00000000       3.83958982      17.43000000  F        2      -0.00094080       0.00055413       0.52826026
Si       3.83958982       3.83958982      17.43000000  F        2       0.00094077       0.00055413       0.52826024
Si       7.67917964       3.83958982      17.43000000  F        2      -0.00000000       0.00004285       0.52876560
Si       1.91979491       0.00000000      18.78750000  F        1      -0.00000000      -0.00008451      -0.24870124
Si       5.75938473       0.00000000      18.78750000  F        1      -0.00054040       0.00139255      -0.24866593
Si       9.59897455       0.00000000      18.78750000  F        1       0.00054044       0.00139255      -0.24866594
Si       1.91979491       3.83958982      18.78750000  F        1      -0.00000000       0.00008451      -0.24870124
Si       5.75938473       3.83958982      18.78750000  F        1      -0.00054040      -0.00139255      -0.24866593
Si       9.59897455       3.83958982      18.78750000  F        1       0.00054044      -0.00139255      -0.24866594
O        7.67917964       1.91979491      22.78750000  T        0      -0.00000000       0.00000000      -0.02055948
H        8.43727111       1.91979491      23.39369698  T        0       0.00334868      -0.00000000       0.00859800
H        6.92108817       1.91979491      23.39369698  T        0      -0.00334868      -0.00000000       0.00859800
39
Lattice="11.518769465528859 0.0 0.0 0.0 7.679179643685906 0.0 0.0 0.0 30.7875" Properties=species:S:1:pos:R:3:move_mask:L:1:tags:I:1:forces:R:3 surface=Si100 species=H2O site=hollow orientation=upright height_A=3.25 substrate_atoms=36 calculation_kind="Rigid evaluated approach scan; not NEB" energy=-194.3814835640777 pbc="T T F"
Si       0.00000000       0.00000000      12.00000000  F        6      -0.00090568      -0.00011263       0.24944638
Si       3.83958982       0.00000000      12.00000000  F        6       0.00090564      -0.00011263       0.24944636
Si       7.67917964       0.00000000      12.00000000  F        6       0.00000000      -0.00005348       0.24938880
Si       0.00000000       3.83958982      12.00000000  F        6      -0.00090568       0.00011263       0.24944638
Si       3.83958982       3.83958982      12.00000000  F        6       0.00090564       0.00011263       0.24944636
Si       7.67917964       3.83958982      12.00000000  F        6       0.00000000       0.00005348       0.24938880
Si       1.91979491       0.00000000      13.35750000  F        5       0.00000000      -0.00008466      -0.52761297
Si       5.75938473       0.00000000      13.35750000  F        5      -0.00054625      -0.00016171      -0.52649078
Si       9.59897455       0.00000000      13.35750000  F        5       0.00054628      -0.00016171      -0.52649079
Si       1.91979491       3.83958982      13.35750000  F        5       0.00000000       0.00008464      -0.52761299
Si       5.75938473       3.83958982      13.35750000  F        5      -0.00054625       0.00016168      -0.52649079
Si       9.59897455       3.83958982      13.35750000  F        5       0.00054628       0.00016168      -0.52649081
Si       1.91979491       1.91979491      14.71500000  F        4      -0.00000000      -0.00000000       0.14466800
Si       5.75938473       1.91979491      14.71500000  F        4       0.00063185      -0.00000000       0.13675722
Si       9.59897455       1.91979491      14.71500000  F        4      -0.00063181      -0.00000000       0.13675724
Si       1.91979491       5.75938473      14.71500000  F        4      -0.00000000       0.00000002       0.14242193
Si       5.75938473       5.75938473      14.71500000  F        4      -0.00003753       0.00000002       0.16709891
Si       9.59897455       5.75938473      14.71500000  F        4       0.00003757       0.00000002       0.16709893
Si       0.00000000       1.91979491      16.07250000  F        3       0.00335709       0.00000000      -0.15020695
Si       3.83958982       1.91979491      16.07250000  F        3      -0.00335713       0.00000000      -0.15020693
Si       7.67917964       1.91979491      16.07250000  F        3       0.00000000       0.00000000      -0.14630442
Si       0.00000000       5.75938473      16.07250000  F        3      -0.00083645       0.00000002      -0.14967785
Si       3.83958982       5.75938473      16.07250000  F        3       0.00083641       0.00000002      -0.14967783
Si       7.67917964       5.75938473      16.07250000  F        3       0.00000000       0.00000002      -0.16171088
Si       0.00000000       0.00000000      17.43000000  F        2      -0.01957872      -0.02383575       0.53127389
Si       3.83958982       0.00000000      17.43000000  F        2       0.01957868      -0.02383575       0.53127388
Si       7.67917964       0.00000000      17.43000000  F        2      -0.00000000       0.01289456       0.54198235
Si       0.00000000       3.83958982      17.43000000  F        2      -0.01957872       0.02383572       0.53127391
Si       3.83958982       3.83958982      17.43000000  F        2       0.01957868       0.02383572       0.53127389
Si       7.67917964       3.83958982      17.43000000  F        2      -0.00000000      -0.01289458       0.54198236
Si       1.91979491       0.00000000      18.78750000  F        1      -0.00000000      -0.00115524      -0.25107014
Si       5.75938473       0.00000000      18.78750000  F        1      -0.03642747       0.04331119      -0.24964826
Si       9.59897455       0.00000000      18.78750000  F        1       0.03642751       0.04331119      -0.24964827
Si       1.91979491       3.83958982      18.78750000  F        1      -0.00000000       0.00115524      -0.25107014
Si       5.75938473       3.83958982      18.78750000  F        1      -0.03642747      -0.04331119      -0.24964826
Si       9.59897455       3.83958982      18.78750000  F        1       0.03642751      -0.04331119      -0.24964827
O        7.67917964       1.91979491      22.03750000  T        0      -0.00000000       0.00000000      -0.28909994
H        8.43727111       1.91979491      22.64369698  T        0      -0.05583785      -0.00000000       0.12919083
H        6.92108817       1.91979491      22.64369698  T        0       0.05583785      -0.00000000       0.12919084
39
Lattice="11.518769465528859 0.0 0.0 0.0 7.679179643685906 0.0 0.0 0.0 30.7875" Properties=species:S:1:pos:R:3:move_mask:L:1:tags:I:1:forces:R:3 surface=Si100 species=H2O site=hollow orientation=upright height_A=2.75 substrate_atoms=36 calculation_kind="Rigid evaluated approach scan; not NEB" energy=-194.4890009677087 pbc="T T F"
Si       0.00000000       0.00000000      12.00000000  F        6      -0.00154219      -0.00011474       0.24954670
Si       3.83958982       0.00000000      12.00000000  F        6       0.00154215      -0.00011474       0.24954669
Si       7.67917964       0.00000000      12.00000000  F        6       0.00000000       0.00003175       0.25027069
Si       0.00000000       3.83958982      12.00000000  F        6      -0.00154219       0.00011474       0.24954670
Si       3.83958982       3.83958982      12.00000000  F        6       0.00154215       0.00011474       0.24954669
Si       7.67917964       3.83958982      12.00000000  F        6       0.00000000      -0.00003175       0.25027069
Si       1.91979491       0.00000000      13.35750000  F        5       0.00000000       0.00015307      -0.52565469
Si       5.75938473       0.00000000      13.35750000  F        5       0.00029446      -0.00057773      -0.52392420
Si       9.59897455       0.00000000      13.35750000  F        5      -0.00029443      -0.00057773      -0.52392422
Si       1.91979491       3.83958982      13.35750000  F        5       0.00000000      -0.00015309      -0.52565470
Si       5.75938473       3.83958982      13.35750000  F        5       0.00029446       0.00057771      -0.52392421
Si       9.59897455       3.83958982      13.35750000  F        5      -0.00029443       0.00057771      -0.52392423
Si       1.91979491       1.91979491      14.71500000  F        4      -0.00000000      -0.00000000       0.14424221
Si       5.75938473       1.91979491      14.71500000  F        4       0.00169501      -0.00000000       0.12834411
Si       9.59897455       1.91979491      14.71500000  F        4      -0.00169497      -0.00000000       0.12834413
Si       1.91979491       5.75938473      14.71500000  F        4      -0.00000000       0.00000002       0.14269212
Si       5.75938473       5.75938473      14.71500000  F        4      -0.00040391       0.00000002       0.14772638
Si       9.59897455       5.75938473      14.71500000  F        4       0.00040395       0.00000002       0.14772640
Si       0.00000000       1.91979491      16.07250000  F        3       0.00778800       0.00000000      -0.14659268
Si       3.83958982       1.91979491      16.07250000  F        3      -0.00778804       0.00000000      -0.14659266
Si       7.67917964       1.91979491      16.07250000  F        3       0.00000000       0.00000000      -0.16154363
Si       0.00000000       5.75938473      16.07250000  F        3      -0.00093697       0.00000002      -0.13173720
Si       3.83958982       5.75938473      16.07250000  F        3       0.00093693       0.00000002      -0.13173718
Si       7.67917964       5.75938473      16.07250000  F        3       0.00000000       0.00000002      -0.17578248
Si       0.00000000       0.00000000      17.43000000  F        2      -0.02358642      -0.03264135       0.53558947
Si       3.83958982       0.00000000      17.43000000  F        2       0.02358639      -0.03264135       0.53558945
Si       7.67917964       0.00000000      17.43000000  F        2      -0.00000000       0.05417590       0.53842208
Si       0.00000000       3.83958982      17.43000000  F        2      -0.02358642       0.03264133       0.53558948
Si       3.83958982       3.83958982      17.43000000  F        2       0.02358639       0.03264133       0.53558946
Si       7.67917964       3.83958982      17.43000000  F        2      -0.00000000      -0.05417592       0.53842210
Si       1.91979491       0.00000000      18.78750000  F        1      -0.00000000      -0.00516769      -0.26268138
Si       5.75938473       0.00000000      18.78750000  F        1      -0.02481127       0.10485600      -0.16212145
Si       9.59897455       0.00000000      18.78750000  F        1       0.02481131       0.10485600      -0.16212147
Si       1.91979491       3.83958982      18.78750000  F        1      -0.00000000       0.00516769      -0.26268138
Si       5.75938473       3.83958982      18.78750000  F        1      -0.02481127      -0.10485600      -0.16212145
Si       9.59897455       3.83958982      18.78750000  F        1       0.02481131      -0.10485600      -0.16212147
O        7.67917964       1.91979491      21.53750000  T        0      -0.00000000       0.00000000      -0.53292467
H        8.43727111       1.91979491      22.14369698  T        0       0.04823641      -0.00000000       0.09537990
H        6.92108817       1.91979491      22.14369698  T        0      -0.04823641      -0.00000000       0.09537990
39
Lattice="11.518769465528859 0.0 0.0 0.0 7.679179643685906 0.0 0.0 0.0 30.7875" Properties=species:S:1:pos:R:3:move_mask:L:1:tags:I:1:forces:R:3 surface=Si100 species=H2O site=hollow orientation=upright height_A=2.25 substrate_atoms=36 calculation_kind="Rigid evaluated approach scan; not NEB" energy=-194.67777240567563 pbc="T T F"
Si       0.00000000       0.00000000      12.00000000  F        6      -0.00200663      -0.00006796       0.25063304
Si       3.83958982       0.00000000      12.00000000  F        6       0.00200659      -0.00006796       0.25063302
Si       7.67917964       0.00000000      12.00000000  F        6       0.00000000       0.00033507       0.25290842
Si       0.00000000       3.83958982      12.00000000  F        6      -0.00200663       0.00006796       0.25063304
Si       3.83958982       3.83958982      12.00000000  F        6       0.00200659       0.00006796       0.25063302
Si       7.67917964       3.83958982      12.00000000  F        6       0.00000000      -0.00033507       0.25290842
Si       1.91979491       0.00000000      13.35750000  F        5       0.00000000       0.00003720      -0.52450469
Si       5.75938473       0.00000000      13.35750000  F        5       0.00170123      -0.00158580      -0.52409375
Si       9.59897455       0.00000000      13.35750000  F        5      -0.00170119      -0.00158580      -0.52409377
Si       1.91979491       3.83958982      13.35750000  F        5       0.00000000      -0.00003723      -0.52450470
Si       5.75938473       3.83958982      13.35750000  F        5       0.00170123       0.00158578      -0.52409376
Si       9.59897455       3.83958982      13.35750000  F        5      -0.00170119       0.00158578      -0.52409378
Si       1.91979491       1.91979491      14.71500000  F        4      -0.00000000      -0.00000000       0.14763680
Si       5.75938473       1.91979491      14.71500000  F        4       0.00151348      -0.00000000       0.13600403
Si       9.59897455       1.91979491      14.71500000  F        4      -0.00151344      -0.00000000       0.13600405
Si       1.91979491       5.75938473      14.71500000  F        4      -0.00000000       0.00000002       0.14645061
Si       5.75938473       5.75938473      14.71500000  F        4       0.00953613       0.00000002       0.12441113
Si       9.59897455       5.75938473      14.71500000  F        4      -0.00953609       0.00000002       0.12441115
Si       0.00000000       1.91979491      16.07250000  F        3       0.01637380      -0.00000000      -0.14831082
Si       3.83958982       1.91979491      16.07250000  F        3      -0.01637384      -0.00000000      -0.14831080
Si       7.67917964       1.91979491      16.07250000  F        3       0.00000000      -0.00000000      -0.18001024
Si       0.00000000       5.75938473      16.07250000  F        3      -0.00473051       0.00000002      -0.10233078
Si       3.83958982       5.75938473      16.07250000  F        3       0.00473047       0.00000002      -0.10233076
Si       7.67917964       5.75938473      16.07250000  F        3       0.00000000       0.00000002      -0.20365814
Si       0.00000000       0.00000000      17.43000000  F        2      -0.01126026      -0.02737102       0.53193465
Si       3.83958982       0.00000000      17.43000000  F        2       0.01126023      -0.02737102       0.53193463
Si       7.67917964       0.00000000      17.43000000  F        2      -0.00000000       0.03360661       0.45989383
Si       0.00000000       3.83958982      17.43000000  F        2      -0.01126026       0.02737100       0.53193466
Si       3.83958982       3.83958982      17.43000000  F        2       0.01126023       0.02737100       0.53193464
Si       7.67917964       3.83958982      17.43000000  F        2      -0.00000000      -0.03360663       0.45989384
Si       1.91979491       0.00000000      18.78750000  F        1      -0.00000000      -0.00939166      -0.27221068
Si       5.75938473       0.00000000      18.78750000  F        1       0.01737127       0.16358225      -0.10822496
Si       9.59897455       0.00000000      18.78750000  F        1      -0.01737124       0.16358225      -0.10822498
Si       1.91979491       3.83958982      18.78750000  F        1      -0.00000000       0.00939166      -0.27221068
Si       5.75938473       3.83958982      18.78750000  F        1       0.01737127      -0.16358225      -0.10822496
Si       9.59897455       3.83958982      18.78750000  F        1      -0.01737124      -0.16358225      -0.10822498
O        7.67917964       1.91979491      21.03750000  T        0      -0.00000000       0.00000000      -0.83846623
H        8.43727111       1.91979491      21.64369698  T        0       0.12674098      -0.00000000       0.23766525
H        6.92108817       1.91979491      21.64369698  T        0      -0.12674098      -0.00000000       0.23766525
39
Lattice="11.518769465528859 0.0 0.0 0.0 7.679179643685906 0.0 0.0 0.0 30.7875" Properties=species:S:1:pos:R:3:move_mask:L:1:tags:I:1:forces:R:3 surface=Si100 species=H2O site=hollow orientation=upright height_A=1.9 substrate_atoms=36 calculation_kind="Rigid evaluated approach scan; not NEB" energy=-194.78594213400828 pbc="T T F"
Si       0.00000000       0.00000000      12.00000000  F        6      -0.00206079       0.00004274       0.25167443
Si       3.83958982       0.00000000      12.00000000  F        6       0.00206075       0.00004274       0.25167441
Si       7.67917964       0.00000000      12.00000000  F        6       0.00000000       0.00173216       0.25716734
Si       0.00000000       3.83958982      12.00000000  F        6      -0.00206079      -0.00004274       0.25167443
Si       3.83958982       3.83958982      12.00000000  F        6       0.00206075      -0.00004274       0.25167441
Si       7.67917964       3.83958982      12.00000000  F        6       0.00000000      -0.00173216       0.25716734
Si       1.91979491       0.00000000      13.35750000  F        5       0.00000000      -0.00035155      -0.52390824
Si       5.75938473       0.00000000      13.35750000  F        5       0.00367534      -0.00204162      -0.52505685
Si       9.59897455       0.00000000      13.35750000  F        5      -0.00367531      -0.00204162      -0.52505687
Si       1.91979491       3.83958982      13.35750000  F        5       0.00000000       0.00035153      -0.52390826
Si       5.75938473       3.83958982      13.35750000  F        5       0.00367534       0.00204160      -0.52505687
Si       9.59897455       3.83958982      13.35750000  F        5      -0.00367531       0.00204160      -0.52505688
Si       1.91979491       1.91979491      14.71500000  F        4      -0.00000000      -0.00000000       0.15106142
Si       5.75938473       1.91979491      14.71500000  F        4      -0.00808396      -0.00000000       0.14725853
Si       9.59897455       1.91979491      14.71500000  F        4       0.00808400      -0.00000000       0.14725855
Si       1.91979491       5.75938473      14.71500000  F        4      -0.00000000       0.00000002       0.14956311
Si       5.75938473       5.75938473      14.71500000  F        4       0.01878087       0.00000002       0.12132571
Si       9.59897455       5.75938473      14.71500000  F        4      -0.01878084       0.00000002       0.12132573
Si       0.00000000       1.91979491      16.07250000  F        3       0.01395314      -0.00000000      -0.14905249
Si       3.83958982       1.91979491      16.07250000  F        3      -0.01395318      -0.00000000      -0.14905247
Si       7.67917964       1.91979491      16.07250000  F        3       0.00000000      -0.00000000      -0.19727265
Si       0.00000000       5.75938473      16.07250000  F        3      -0.01009505       0.00000002      -0.09499403
Si       3.83958982       5.75938473      16.07250000  F        3       0.01009501       0.00000002      -0.09499401
Si       7.67917964       5.75938473      16.07250000  F        3       0.00000000       0.00000002      -0.21703918
Si       0.00000000       0.00000000      17.43000000  F        2       0.01145382      -0.00733829       0.51557522
Si       3.83958982       0.00000000      17.43000000  F        2      -0.01145385      -0.00733829       0.51557520
Si       7.67917964       0.00000000      17.43000000  F        2      -0.00000000       0.01132643       0.44580236
Si       0.00000000       3.83958982      17.43000000  F        2       0.01145382       0.00733826       0.51557523
Si       3.83958982       3.83958982      17.43000000  F        2      -0.01145385       0.00733826       0.51557521
Si       7.67917964       3.83958982      17.43000000  F        2      -0.00000000      -0.01132645       0.44580237
Si       1.91979491       0.00000000      18.78750000  F        1      -0.00000000      -0.00824559      -0.26634230
Si       5.75938473       0.00000000      18.78750000  F        1       0.03388010       0.13511436      -0.11902694
Si       9.59897455       0.00000000      18.78750000  F        1      -0.03388007       0.13511436      -0.11902696
Si       1.91979491       3.83958982      18.78750000  F        1      -0.00000000       0.00824559      -0.26634230
Si       5.75938473       3.83958982      18.78750000  F        1       0.03388010      -0.13511436      -0.11902694
Si       9.59897455       3.83958982      18.78750000  F        1      -0.03388007      -0.13511436      -0.11902696
O        7.67917964       1.91979491      20.68750000  T        0       0.00000000       0.00000000      -0.82452490
H        8.43727111       1.91979491      21.29369698  T        0       0.13823426      -0.00000000       0.28551754
H        6.92108817       1.91979491      21.29369698  T        0      -0.13823426      -0.00000000       0.28551754
39
Lattice="11.518769465528859 0.0 0.0 0.0 7.679179643685906 0.0 0.0 0.0 30.7875" Properties=species:S:1:pos:R:3:move_mask:L:1:tags:I:1:forces:R:3 surface=Si100 species=H2O site=hollow orientation=upright height_A=1.6 substrate_atoms=36 calculation_kind="Rigid evaluated approach scan; not NEB" energy=-194.8372199666943 pbc="T T F"
Si       0.00000000       0.00000000      12.00000000  F        6      -0.00182409       0.00021232       0.25238374
Si       3.83958982       0.00000000      12.00000000  F        6       0.00182405       0.00021232       0.25238372
Si       7.67917964       0.00000000      12.00000000  F        6       0.00000000       0.00365118       0.26182741
Si       0.00000000       3.83958982      12.00000000  F        6      -0.00182409      -0.00021232       0.25238374
Si       3.83958982       3.83958982      12.00000000  F        6       0.00182405      -0.00021232       0.25238372
Si       7.67917964       3.83958982      12.00000000  F        6       0.00000000      -0.00365118       0.26182741
Si       1.91979491       0.00000000      13.35750000  F        5       0.00000000      -0.00078100      -0.52396636
Si       5.75938473       0.00000000      13.35750000  F        5       0.00493900      -0.00079494      -0.52773708
Si       9.59897455       0.00000000      13.35750000  F        5      -0.00493897      -0.00079494      -0.52773710
Si       1.91979491       3.83958982      13.35750000  F        5       0.00000000       0.00078098      -0.52396638
Si       5.75938473       3.83958982      13.35750000  F        5       0.00493900       0.00079492      -0.52773710
Si       9.59897455       3.83958982      13.35750000  F        5      -0.00493897       0.00079492      -0.52773711
Si       1.91979491       1.91979491      14.71500000  F        4      -0.00000000      -0.00000000       0.15423111
Si       5.75938473       1.91979491      14.71500000  F        4      -0.01758107      -0.00000000       0.15964899
Si       9.59897455       1.91979491      14.71500000  F        4       0.01758111      -0.00000000       0.15964901
Si       1.91979491       5.75938473      14.71500000  F        4      -0.00000000       0.00000002       0.15234516
Si       5.75938473       5.75938473      14.71500000  F        4       0.01723823       0.00000002       0.13735259
Si       9.59897455       5.75938473      14.71500000  F        4      -0.01723819       0.00000002       0.13735261
Si       0.00000000       1.91979491      16.07250000  F        3       0.00315586      -0.00000000      -0.14793124
Si       3.83958982       1.91979491      16.07250000  F        3      -0.00315589      -0.00000000      -0.14793122
Si       7.67917964       1.91979491      16.07250000  F        3       0.00000000      -0.00000000      -0.23869623
Si       0.00000000       5.75938473      16.07250000  F        3      -0.01666316       0.00000002      -0.10181566
Si       3.83958982       5.75938473      16.07250000  F        3       0.01666312       0.00000002      -0.10181564
Si       7.67917964       5.75938473      16.07250000  F        3       0.00000000       0.00000002      -0.22893662
Si       0.00000000       0.00000000      17.43000000  F        2       0.02890017       0.01085713       0.49077518
Si       3.83958982       0.00000000      17.43000000  F        2      -0.02890021       0.01085713       0.49077516
Si       7.67917964       0.00000000      17.43000000  F        2      -0.00000000       0.03517825       0.53238228
Si       0.00000000       3.83958982      17.43000000  F        2       0.02890017      -0.01085715       0.49077520
Si       3.83958982       3.83958982      17.43000000  F        2      -0.02890021      -0.01085715       0.49077518
Si       7.67917964       3.83958982      17.43000000  F        2      -0.00000000      -0.03517827       0.53238230
Si       1.91979491       0.00000000      18.78750000  F        1      -0.00000000      -0.00489687      -0.25618530
Si       5.75938473       0.00000000      18.78750000  F        1      -0.02594698       0.00664551      -0.19291305
Si       9.59897455       0.00000000      18.78750000  F        1       0.02594701       0.00664551      -0.19291306
Si       1.91979491       3.83958982      18.78750000  F        1      -0.00000000       0.00489687      -0.25618530
Si       5.75938473       3.83958982      18.78750000  F        1      -0.02594698      -0.00664551      -0.19291305
Si       9.59897455       3.83958982      18.78750000  F        1       0.02594701      -0.00664551      -0.19291306
O        7.67917964       1.91979491      20.38750000  T        0       0.00000000       0.00000000      -0.61127415
H        8.43727111       1.91979491      20.99369698  T        0       0.16671236      -0.00000000       0.27983510
H        6.92108817       1.91979491      20.99369698  T        0      -0.16671236      -0.00000000       0.27983510
39
Lattice="11.518769465528859 0.0 0.0 0.0 7.679179643685906 0.0 0.0 0.0 30.7875" Properties=species:S:1:pos:R:3:move_mask:L:1:tags:I:1:forces:R:3 surface=Si100 species=H2O site=hollow orientation=upright height_A=1.3 substrate_atoms=36 calculation_kind="Rigid evaluated approach scan; not NEB" energy=-194.7858504756751 pbc="T T F"
Si       0.00000000       0.00000000      12.00000000  F        6      -0.00136878       0.00038182       0.25293597
Si       3.83958982       0.00000000      12.00000000  F        6       0.00136874       0.00038182       0.25293596
Si       7.67917964       0.00000000      12.00000000  F        6       0.00000000       0.00440448       0.26392716
Si       0.00000000       3.83958982      12.00000000  F        6      -0.00136878      -0.00038182       0.25293597
Si       3.83958982       3.83958982      12.00000000  F        6       0.00136874      -0.00038182       0.25293596
Si       7.67917964       3.83958982      12.00000000  F        6       0.00000000      -0.00440448       0.26392716
Si       1.91979491       0.00000000      13.35750000  F        5       0.00000000      -0.00109086      -0.52316125
Si       5.75938473       0.00000000      13.35750000  F        5       0.00660336       0.00166761      -0.52848428
Si       9.59897455       0.00000000      13.35750000  F        5      -0.00660333       0.00166761      -0.52848430
Si       1.91979491       3.83958982      13.35750000  F        5       0.00000000       0.00109084      -0.52316126
Si       5.75938473       3.83958982      13.35750000  F        5       0.00660336      -0.00166763      -0.52848429
Si       9.59897455       3.83958982      13.35750000  F        5      -0.00660333      -0.00166763      -0.52848431
Si       1.91979491       1.91979491      14.71500000  F        4      -0.00000000      -0.00000000       0.15663487
Si       5.75938473       1.91979491      14.71500000  F        4      -0.01933287      -0.00000000       0.16811306
Si       9.59897455       1.91979491      14.71500000  F        4       0.01933290      -0.00000000       0.16811308
Si       1.91979491       5.75938473      14.71500000  F        4      -0.00000000       0.00000002       0.15424207
Si       5.75938473       5.75938473      14.71500000  F        4       0.00776976       0.00000002       0.16540764
Si       9.59897455       5.75938473      14.71500000  F        4      -0.00776972       0.00000002       0.16540766
Si       0.00000000       1.91979491      16.07250000  F        3      -0.00828481      -0.00000000      -0.14436105
Si       3.83958982       1.91979491      16.07250000  F        3       0.00828478      -0.00000000      -0.14436103
Si       7.67917964       1.91979491      16.07250000  F        3       0.00000000      -0.00000000      -0.35672847
Si       0.00000000       5.75938473      16.07250000  F        3      -0.02215167       0.00000002      -0.11716224
Si       3.83958982       5.75938473      16.07250000  F        3       0.02215163       0.00000002      -0.11716222
Si       7.67917964       5.75938473      16.07250000  F        3       0.00000000       0.00000002      -0.23458741
Si       0.00000000       0.00000000      17.43000000  F        2       0.04413532       0.01901945       0.45590764
Si       3.83958982       0.00000000      17.43000000  F        2      -0.04413535       0.01901945       0.45590762
Si       7.67917964       0.00000000      17.43000000  F        2      -0.00000000      -0.02056065       0.52449691
Si       0.00000000       3.83958982      17.43000000  F        2       0.04413532      -0.01901947       0.45590765
Si       3.83958982       3.83958982      17.43000000  F        2      -0.04413535      -0.01901947       0.45590764
Si       7.67917964       3.83958982      17.43000000  F        2      -0.00000000       0.02056063       0.52449693
Si       1.91979491       0.00000000      18.78750000  F        1      -0.00000000      -0.00097999      -0.24466115
Si       5.75938473       0.00000000      18.78750000  F        1      -0.12789080      -0.17323792      -0.25961666
Si       9.59897455       0.00000000      18.78750000  F        1       0.12789084      -0.17323791      -0.25961667
Si       1.91979491       3.83958982      18.78750000  F        1      -0.00000000       0.00097999      -0.24466115
Si       5.75938473       3.83958982      18.78750000  F        1      -0.12789080       0.17323792      -0.25961666
Si       9.59897455       3.83958982      18.78750000  F        1       0.12789084       0.17323791      -0.25961667
O        7.67917964       1.91979491      20.08750000  T        0       0.00000000       0.00000000      -0.22748582
H        8.43727111       1.91979491      20.69369698  T        0       0.21325849      -0.00000000       0.31987797
H        6.92108817       1.91979491      20.69369698  T        0      -0.21325849      -0.00000000       0.31987797
