38
Lattice="11.518769465528859 0.0 0.0 0.0 7.679179643685906 0.0 0.0 0.0 30.7875" Properties=species:S:1:pos:R:3:move_mask:L:1:tags:I:1:forces:R:3 surface=Si100 species=F2 site=bridge_Si_Si orientation=upright height_A=6.5 substrate_atoms=36 calculation_kind="Rigid evaluated approach scan; not NEB" energy=-183.06452351256468 pbc="T T F"
Si       0.00000000       0.00000000      12.00000000  F        6      -0.00000004       0.00000000       0.24903484
Si       3.83958982       0.00000000      12.00000000  F        6      -0.00000000       0.00000000       0.24903482
Si       7.67917964       0.00000000      12.00000000  F        6       0.00000000       0.00000000       0.24903482
Si       0.00000000       3.83958982      12.00000000  F        6      -0.00000004      -0.00000000       0.24903484
Si       3.83958982       3.83958982      12.00000000  F        6      -0.00000000      -0.00000000       0.24903482
Si       7.67917964       3.83958982      12.00000000  F        6       0.00000000      -0.00000000       0.24903482
Si       1.91979491       0.00000000      13.35750000  F        5       0.00000000      -0.00000002      -0.52822352
Si       5.75938473       0.00000000      13.35750000  F        5       0.00000000      -0.00000002      -0.52822353
Si       9.59897455       0.00000000      13.35750000  F        5       0.00000003      -0.00000002      -0.52822354
Si       1.91979491       3.83958982      13.35750000  F        5       0.00000000       0.00000000      -0.52822354
Si       5.75938473       3.83958982      13.35750000  F        5       0.00000000       0.00000000      -0.52822354
Si       9.59897455       3.83958982      13.35750000  F        5       0.00000003       0.00000000      -0.52822356
Si       1.91979491       1.91979491      14.71500000  F        4      -0.00000000       0.00000000       0.14537709
Si       5.75938473       1.91979491      14.71500000  F        4       0.00000000       0.00000000       0.14537709
Si       9.59897455       1.91979491      14.71500000  F        4       0.00000004       0.00000000       0.14537711
Si       1.91979491       5.75938473      14.71500000  F        4      -0.00000000       0.00000002       0.14537707
Si       5.75938473       5.75938473      14.71500000  F        4       0.00000000       0.00000002       0.14537707
Si       9.59897455       5.75938473      14.71500000  F        4       0.00000004       0.00000002       0.14537709
Si       0.00000000       1.91979491      16.07250000  F        3      -0.00000004       0.00000000      -0.14537711
Si       3.83958982       1.91979491      16.07250000  F        3      -0.00000000       0.00000000      -0.14537709
Si       7.67917964       1.91979491      16.07250000  F        3       0.00000000       0.00000000      -0.14537709
Si       0.00000000       5.75938473      16.07250000  F        3      -0.00000004       0.00000002      -0.14537709
Si       3.83958982       5.75938473      16.07250000  F        3      -0.00000000       0.00000002      -0.14537707
Si       7.67917964       5.75938473      16.07250000  F        3       0.00000000       0.00000002      -0.14537707
Si       0.00000000       0.00000000      17.43000000  F        2      -0.00000003      -0.00000002       0.52822354
Si       3.83958982       0.00000000      17.43000000  F        2      -0.00000000      -0.00000002       0.52822353
Si       7.67917964       0.00000000      17.43000000  F        2      -0.00000000      -0.00000002       0.52822352
Si       0.00000000       3.83958982      17.43000000  F        2      -0.00000003       0.00000000       0.52822356
Si       3.83958982       3.83958982      17.43000000  F        2      -0.00000000       0.00000000       0.52822354
Si       7.67917964       3.83958982      17.43000000  F        2      -0.00000000       0.00000000       0.52822354
Si       1.91979491       0.00000000      18.78750000  F        1      -0.00000000       0.00000000      -0.24903482
Si       5.75938473       0.00000000      18.78750000  F        1       0.00000000       0.00000000      -0.24903482
Si       9.59897455       0.00000000      18.78750000  F        1       0.00000004       0.00000000      -0.24903484
Si       1.91979491       3.83958982      18.78750000  F        1      -0.00000000      -0.00000000      -0.24903482
Si       5.75938473       3.83958982      18.78750000  F        1       0.00000000      -0.00000000      -0.24903482
Si       9.59897455       3.83958982      18.78750000  F        1       0.00000004      -0.00000000      -0.24903484
F        7.67917964       3.83958982      25.28750000  T        0       0.00000000       0.00000000       0.00152110
F        7.67917964       3.83958982      26.76807573  T        0       0.00000000       0.00000000      -0.00152110
38
Lattice="11.518769465528859 0.0 0.0 0.0 7.679179643685906 0.0 0.0 0.0 30.7875" Properties=species:S:1:pos:R:3:move_mask:L:1:tags:I:1:forces:R:3 surface=Si100 species=F2 site=bridge_Si_Si orientation=upright height_A=5.0 substrate_atoms=36 calculation_kind="Rigid evaluated approach scan; not NEB" energy=-183.06452351256468 pbc="T T F"
Si       0.00000000       0.00000000      12.00000000  F        6      -0.00000004       0.00000000       0.24903484
Si       3.83958982       0.00000000      12.00000000  F        6      -0.00000000       0.00000000       0.24903482
Si       7.67917964       0.00000000      12.00000000  F        6       0.00000000       0.00000000       0.24903482
Si       0.00000000       3.83958982      12.00000000  F        6      -0.00000004      -0.00000000       0.24903484
Si       3.83958982       3.83958982      12.00000000  F        6      -0.00000000      -0.00000000       0.24903482
Si       7.67917964       3.83958982      12.00000000  F        6       0.00000000      -0.00000000       0.24903482
Si       1.91979491       0.00000000      13.35750000  F        5       0.00000000      -0.00000002      -0.52822352
Si       5.75938473       0.00000000      13.35750000  F        5       0.00000000      -0.00000002      -0.52822353
Si       9.59897455       0.00000000      13.35750000  F        5       0.00000003      -0.00000002      -0.52822354
Si       1.91979491       3.83958982      13.35750000  F        5       0.00000000       0.00000000      -0.52822354
Si       5.75938473       3.83958982      13.35750000  F        5       0.00000000       0.00000000      -0.52822354
Si       9.59897455       3.83958982      13.35750000  F        5       0.00000003       0.00000000      -0.52822356
Si       1.91979491       1.91979491      14.71500000  F        4      -0.00000000       0.00000000       0.14537709
Si       5.75938473       1.91979491      14.71500000  F        4       0.00000000       0.00000000       0.14537709
Si       9.59897455       1.91979491      14.71500000  F        4       0.00000004       0.00000000       0.14537711
Si       1.91979491       5.75938473      14.71500000  F        4      -0.00000000       0.00000002       0.14537707
Si       5.75938473       5.75938473      14.71500000  F        4       0.00000000       0.00000002       0.14537707
Si       9.59897455       5.75938473      14.71500000  F        4       0.00000004       0.00000002       0.14537709
Si       0.00000000       1.91979491      16.07250000  F        3      -0.00000004       0.00000000      -0.14537711
Si       3.83958982       1.91979491      16.07250000  F        3      -0.00000000       0.00000000      -0.14537709
Si       7.67917964       1.91979491      16.07250000  F        3       0.00000000       0.00000000      -0.14537709
Si       0.00000000       5.75938473      16.07250000  F        3      -0.00000004       0.00000002      -0.14537709
Si       3.83958982       5.75938473      16.07250000  F        3      -0.00000000       0.00000002      -0.14537707
Si       7.67917964       5.75938473      16.07250000  F        3       0.00000000       0.00000002      -0.14537707
Si       0.00000000       0.00000000      17.43000000  F        2      -0.00000003      -0.00000002       0.52822354
Si       3.83958982       0.00000000      17.43000000  F        2      -0.00000000      -0.00000002       0.52822353
Si       7.67917964       0.00000000      17.43000000  F        2      -0.00000000      -0.00000002       0.52822352
Si       0.00000000       3.83958982      17.43000000  F        2      -0.00000003       0.00000000       0.52822356
Si       3.83958982       3.83958982      17.43000000  F        2      -0.00000000       0.00000000       0.52822354
Si       7.67917964       3.83958982      17.43000000  F        2      -0.00000000       0.00000000       0.52822354
Si       1.91979491       0.00000000      18.78750000  F        1      -0.00000000       0.00000000      -0.24903482
Si       5.75938473       0.00000000      18.78750000  F        1       0.00000000       0.00000000      -0.24903482
Si       9.59897455       0.00000000      18.78750000  F        1       0.00000004       0.00000000      -0.24903484
Si       1.91979491       3.83958982      18.78750000  F        1      -0.00000000      -0.00000000      -0.24903482
Si       5.75938473       3.83958982      18.78750000  F        1       0.00000000      -0.00000000      -0.24903482
Si       9.59897455       3.83958982      18.78750000  F        1       0.00000004      -0.00000000      -0.24903484
F        7.67917964       3.83958982      23.78750000  T        0       0.00000000       0.00000000       0.00152110
F        7.67917964       3.83958982      25.26807573  T        0       0.00000000       0.00000000      -0.00152110
38
Lattice="11.518769465528859 0.0 0.0 0.0 7.679179643685906 0.0 0.0 0.0 30.7875" Properties=species:S:1:pos:R:3:move_mask:L:1:tags:I:1:forces:R:3 surface=Si100 species=F2 site=bridge_Si_Si orientation=upright height_A=4.0 substrate_atoms=36 calculation_kind="Rigid evaluated approach scan; not NEB" energy=-183.12357396210052 pbc="T T F"
Si       0.00000000       0.00000000      12.00000000  F        6       0.00005059       0.00000000       0.24957432
Si       3.83958982       0.00000000      12.00000000  F        6      -0.00005063       0.00000000       0.24957430
Si       7.67917964       0.00000000      12.00000000  F        6       0.00000000       0.00000000       0.24980907
Si       0.00000000       3.83958982      12.00000000  F        6       0.00018165      -0.00000000       0.24910800
Si       3.83958982       3.83958982      12.00000000  F        6      -0.00018169      -0.00000000       0.24910799
Si       7.67917964       3.83958982      12.00000000  F        6       0.00000000      -0.00000000       0.24904767
Si       1.91979491       0.00000000      13.35750000  F        5       0.00000000      -0.00000002      -0.52702442
Si       5.75938473       0.00000000      13.35750000  F        5       0.00039276      -0.00000002      -0.52709984
Si       9.59897455       0.00000000      13.35750000  F        5      -0.00039273      -0.00000002      -0.52709986
Si       1.91979491       3.83958982      13.35750000  F        5       0.00000000       0.00000000      -0.52791562
Si       5.75938473       3.83958982      13.35750000  F        5       0.00042840       0.00000000      -0.52635858
Si       9.59897455       3.83958982      13.35750000  F        5      -0.00042837       0.00000000      -0.52635859
Si       1.91979491       1.91979491      14.71500000  F        4      -0.00000000      -0.00081116       0.14840983
Si       5.75938473       1.91979491      14.71500000  F        4       0.00274374      -0.00305976       0.14357769
Si       9.59897455       1.91979491      14.71500000  F        4      -0.00274370      -0.00305976       0.14357771
Si       1.91979491       5.75938473      14.71500000  F        4      -0.00000000       0.00081118       0.14840981
Si       5.75938473       5.75938473      14.71500000  F        4       0.00274374       0.00305978       0.14357767
Si       9.59897455       5.75938473      14.71500000  F        4      -0.00274370       0.00305978       0.14357769
Si       0.00000000       1.91979491      16.07250000  F        3      -0.00111320       0.00280507      -0.14545692
Si       3.83958982       1.91979491      16.07250000  F        3       0.00111316       0.00280507      -0.14545690
Si       7.67917964       1.91979491      16.07250000  F        3       0.00000000      -0.00046779      -0.15738672
Si       0.00000000       5.75938473      16.07250000  F        3      -0.00111320      -0.00280505      -0.14545691
Si       3.83958982       5.75938473      16.07250000  F        3       0.00111316      -0.00280505      -0.14545689
Si       7.67917964       5.75938473      16.07250000  F        3       0.00000000       0.00046781      -0.15738671
Si       0.00000000       0.00000000      17.43000000  F        2       0.00511942      -0.00000002       0.52120266
Si       3.83958982       0.00000000      17.43000000  F        2      -0.00511945      -0.00000002       0.52120264
Si       7.67917964       0.00000000      17.43000000  F        2      -0.00000000      -0.00000002       0.51762280
Si       0.00000000       3.83958982      17.43000000  F        2      -0.01072564       0.00000000       0.55171542
Si       3.83958982       3.83958982      17.43000000  F        2       0.01072560       0.00000000       0.55171540
Si       7.67917964       3.83958982      17.43000000  F        2      -0.00000000       0.00000000       0.57999579
Si       1.91979491       0.00000000      18.78750000  F        1      -0.00000000       0.00000000      -0.24917477
Si       5.75938473       0.00000000      18.78750000  F        1       0.00009662       0.00000000      -0.24526333
Si       9.59897455       0.00000000      18.78750000  F        1      -0.00009658       0.00000000      -0.24526335
Si       1.91979491       3.83958982      18.78750000  F        1      -0.00000000      -0.00000000      -0.24164540
Si       5.75938473       3.83958982      18.78750000  F        1       0.07968501      -0.00000000      -0.21920921
Si       9.59897455       3.83958982      18.78750000  F        1      -0.07968497      -0.00000000      -0.21920923
F        7.67917964       3.83958982      22.78750000  T        0      -0.00000000       0.00000000      -0.39499071
F        7.67917964       3.83958982      24.26807573  T        0      -0.00000000       0.00000000       0.26240753
38
Lattice="11.518769465528859 0.0 0.0 0.0 7.679179643685906 0.0 0.0 0.0 30.7875" Properties=species:S:1:pos:R:3:move_mask:L:1:tags:I:1:forces:R:3 surface=Si100 species=F2 site=bridge_Si_Si orientation=upright height_A=3.25 substrate_atoms=36 calculation_kind="Rigid evaluated approach scan; not NEB" energy=-183.4194773412396 pbc="T T F"
Si       0.00000000       0.00000000      12.00000000  F        6       0.00040284       0.00000000       0.25023931
Si       3.83958982       0.00000000      12.00000000  F        6      -0.00040287       0.00000000       0.25023929
Si       7.67917964       0.00000000      12.00000000  F        6       0.00000000       0.00000000       0.25063439
Si       0.00000000       3.83958982      12.00000000  F        6       0.00071204      -0.00000000       0.24835298
Si       3.83958982       3.83958982      12.00000000  F        6      -0.00071208      -0.00000000       0.24835296
Si       7.67917964       3.83958982      12.00000000  F        6       0.00000000      -0.00000000       0.24769977
Si       1.91979491       0.00000000      13.35750000  F        5       0.00000000      -0.00000002      -0.52619885
Si       5.75938473       0.00000000      13.35750000  F        5       0.00072944      -0.00000002      -0.52729780
Si       9.59897455       0.00000000      13.35750000  F        5      -0.00072940      -0.00000002      -0.52729782
Si       1.91979491       3.83958982      13.35750000  F        5       0.00000000       0.00000000      -0.52665672
Si       5.75938473       3.83958982      13.35750000  F        5       0.00048862       0.00000000      -0.52464930
Si       9.59897455       3.83958982      13.35750000  F        5      -0.00048858       0.00000000      -0.52464932
Si       1.91979491       1.91979491      14.71500000  F        4      -0.00000000      -0.00314761       0.15062771
Si       5.75938473       1.91979491      14.71500000  F        4       0.00431740       0.00255211       0.16342589
Si       9.59897455       1.91979491      14.71500000  F        4      -0.00431737       0.00255211       0.16342591
Si       1.91979491       5.75938473      14.71500000  F        4      -0.00000000       0.00314763       0.15062770
Si       5.75938473       5.75938473      14.71500000  F        4       0.00431740      -0.00255208       0.16342587
Si       9.59897455       5.75938473      14.71500000  F        4      -0.00431737      -0.00255208       0.16342589
Si       0.00000000       1.91979491      16.07250000  F        3      -0.01030180       0.01470676      -0.14074706
Si       3.83958982       1.91979491      16.07250000  F        3       0.01030176       0.01470676      -0.14074704
Si       7.67917964       1.91979491      16.07250000  F        3       0.00000000       0.00051719      -0.16735585
Si       0.00000000       5.75938473      16.07250000  F        3      -0.01030180      -0.01470674      -0.14074704
Si       3.83958982       5.75938473      16.07250000  F        3       0.01030176      -0.01470674      -0.14074702
Si       7.67917964       5.75938473      16.07250000  F        3       0.00000000      -0.00051717      -0.16735584
Si       0.00000000       0.00000000      17.43000000  F        2       0.00341996      -0.00000002       0.51098770
Si       3.83958982       0.00000000      17.43000000  F        2      -0.00341999      -0.00000002       0.51098768
Si       7.67917964       0.00000000      17.43000000  F        2      -0.00000000      -0.00000002       0.50568216
Si       0.00000000       3.83958982      17.43000000  F        2       0.01512707       0.00000000       0.52976144
Si       3.83958982       3.83958982      17.43000000  F        2      -0.01512710       0.00000000       0.52976142
Si       7.67917964       3.83958982      17.43000000  F        2      -0.00000000       0.00000000       0.54484289
Si       1.91979491       0.00000000      18.78750000  F        1      -0.00000000       0.00000000      -0.24575031
Si       5.75938473       0.00000000      18.78750000  F        1       0.00189989       0.00000000      -0.24143622
Si       9.59897455       0.00000000      18.78750000  F        1      -0.00189986       0.00000000      -0.24143623
Si       1.91979491       3.83958982      18.78750000  F        1      -0.00000000      -0.00000000      -0.23016903
Si       5.75938473       3.83958982      18.78750000  F        1       0.22217821      -0.00000000       0.00048465
Si       9.59897455       3.83958982      18.78750000  F        1      -0.22217817      -0.00000000       0.00048463
F        7.67917964       3.83958982      22.03750000  T        0       0.00000000       0.00000000      -1.25999918
F        7.67917964       3.83958982      23.51807573  T        0      -0.00000000       0.00000000       0.68977039
38
Lattice="11.518769465528859 0.0 0.0 0.0 7.679179643685906 0.0 0.0 0.0 30.7875" Properties=species:S:1:pos:R:3:move_mask:L:1:tags:I:1:forces:R:3 surface=Si100 species=F2 site=bridge_Si_Si orientation=upright height_A=2.75 substrate_atoms=36 calculation_kind="Rigid evaluated approach scan; not NEB" energy=-183.69890295030862 pbc="T T F"
Si       0.00000000       0.00000000      12.00000000  F        6       0.00062206       0.00000000       0.24997074
Si       3.83958982       0.00000000      12.00000000  F        6      -0.00062210       0.00000000       0.24997072
Si       7.67917964       0.00000000      12.00000000  F        6       0.00000000       0.00000000       0.24965950
Si       0.00000000       3.83958982      12.00000000  F        6       0.00073844      -0.00000000       0.24820725
Si       3.83958982       3.83958982      12.00000000  F        6      -0.00073848      -0.00000000       0.24820723
Si       7.67917964       3.83958982      12.00000000  F        6       0.00000000      -0.00000000       0.24693390
Si       1.91979491       0.00000000      13.35750000  F        5       0.00000000      -0.00000002      -0.52702689
Si       5.75938473       0.00000000      13.35750000  F        5       0.00009972      -0.00000002      -0.52832081
Si       9.59897455       0.00000000      13.35750000  F        5      -0.00009968      -0.00000002      -0.52832082
Si       1.91979491       3.83958982      13.35750000  F        5       0.00000000       0.00000000      -0.52961157
Si       5.75938473       3.83958982      13.35750000  F        5       0.00200824       0.00000000      -0.52156967
Si       9.59897455       3.83958982      13.35750000  F        5      -0.00200820       0.00000000      -0.52156969
Si       1.91979491       1.91979491      14.71500000  F        4      -0.00000000      -0.00244108       0.15058548
Si       5.75938473       1.91979491      14.71500000  F        4       0.00857298       0.01206276       0.18298491
Si       9.59897455       1.91979491      14.71500000  F        4      -0.00857294       0.01206276       0.18298493
Si       1.91979491       5.75938473      14.71500000  F        4      -0.00000000       0.00244110       0.15058547
Si       5.75938473       5.75938473      14.71500000  F        4       0.00857298      -0.01206273       0.18298489
Si       9.59897455       5.75938473      14.71500000  F        4      -0.00857294      -0.01206273       0.18298491
Si       0.00000000       1.91979491      16.07250000  F        3      -0.02167636       0.02599816      -0.13007018
Si       3.83958982       1.91979491      16.07250000  F        3       0.02167632       0.02599816      -0.13007016
Si       7.67917964       1.91979491      16.07250000  F        3       0.00000000       0.00221378      -0.16011232
Si       0.00000000       5.75938473      16.07250000  F        3      -0.02167636      -0.02599813      -0.13007017
Si       3.83958982       5.75938473      16.07250000  F        3       0.02167632      -0.02599813      -0.13007015
Si       7.67917964       5.75938473      16.07250000  F        3       0.00000000      -0.00221375      -0.16011231
Si       0.00000000       0.00000000      17.43000000  F        2      -0.00129401      -0.00000002       0.51675701
Si       3.83958982       0.00000000      17.43000000  F        2       0.00129397      -0.00000002       0.51675700
Si       7.67917964       0.00000000      17.43000000  F        2      -0.00000000      -0.00000002       0.50109400
Si       0.00000000       3.83958982      17.43000000  F        2       0.05391153       0.00000000       0.46863866
Si       3.83958982       3.83958982      17.43000000  F        2      -0.05391157       0.00000000       0.46863864
Si       7.67917964       3.83958982      17.43000000  F        2      -0.00000000       0.00000000       0.61578587
Si       1.91979491       0.00000000      18.78750000  F        1      -0.00000000       0.00000000      -0.24859356
Si       5.75938473       0.00000000      18.78750000  F        1       0.00572251       0.00000000      -0.25210207
Si       9.59897455       0.00000000      18.78750000  F        1      -0.00572247       0.00000000      -0.25210209
Si       1.91979491       3.83958982      18.78750000  F        1      -0.00000000      -0.00000000      -0.23157174
Si       5.75938473       3.83958982      18.78750000  F        1       0.12905035      -0.00000000      -0.07980687
Si       9.59897455       3.83958982      18.78750000  F        1      -0.12905031      -0.00000000      -0.07980689
F        7.67917964       3.83958982      21.53750000  T        0       0.00000000       0.00000000      -2.24759023
F        7.67917964       3.83958982      23.01807573  T        0       0.00000000      -0.00000000       1.77476710
38
Lattice="11.518769465528859 0.0 0.0 0.0 7.679179643685906 0.0 0.0 0.0 30.7875" Properties=species:S:1:pos:R:3:move_mask:L:1:tags:I:1:forces:R:3 surface=Si100 species=F2 site=bridge_Si_Si orientation=upright height_A=2.25 substrate_atoms=36 calculation_kind="Rigid evaluated approach scan; not NEB" energy=-183.97354112678178 pbc="T T F"
Si       0.00000000       0.00000000      12.00000000  F        6       0.00138781       0.00000000       0.24954636
Si       3.83958982       0.00000000      12.00000000  F        6      -0.00138785       0.00000000       0.24954634
Si       7.67917964       0.00000000      12.00000000  F        6       0.00000000       0.00000000       0.24738290
Si       0.00000000       3.83958982      12.00000000  F        6       0.00083592      -0.00000000       0.24772440
Si       3.83958982       3.83958982      12.00000000  F        6      -0.00083596      -0.00000000       0.24772438
Si       7.67917964       3.83958982      12.00000000  F        6       0.00000000      -0.00000000       0.24535787
Si       1.91979491       0.00000000      13.35750000  F        5       0.00000000      -0.00000002      -0.52894872
Si       5.75938473       0.00000000      13.35750000  F        5      -0.00125453      -0.00000002      -0.53065238
Si       9.59897455       0.00000000      13.35750000  F        5       0.00125456      -0.00000002      -0.53065240
Si       1.91979491       3.83958982      13.35750000  F        5       0.00000000       0.00000000      -0.53148405
Si       5.75938473       3.83958982      13.35750000  F        5       0.00858035       0.00000000      -0.50833621
Si       9.59897455       3.83958982      13.35750000  F        5      -0.00858032       0.00000000      -0.50833623
Si       1.91979491       1.91979491      14.71500000  F        4      -0.00000000       0.00376214       0.15083935
Si       5.75938473       1.91979491      14.71500000  F        4       0.01949690       0.02424034       0.19664498
Si       9.59897455       1.91979491      14.71500000  F        4      -0.01949686       0.02424034       0.19664500
Si       1.91979491       5.75938473      14.71500000  F        4      -0.00000000      -0.00376212       0.15083934
Si       5.75938473       5.75938473      14.71500000  F        4       0.01949690      -0.02424032       0.19664496
Si       9.59897455       5.75938473      14.71500000  F        4      -0.01949686      -0.02424032       0.19664499
Si       0.00000000       1.91979491      16.07250000  F        3      -0.03363898       0.04312619      -0.11238325
Si       3.83958982       1.91979491      16.07250000  F        3       0.03363894       0.04312619      -0.11238323
Si       7.67917964       1.91979491      16.07250000  F        3       0.00000000       0.03564530      -0.15021151
Si       0.00000000       5.75938473      16.07250000  F        3      -0.03363898      -0.04312617      -0.11238324
Si       3.83958982       5.75938473      16.07250000  F        3       0.03363894      -0.04312617      -0.11238322
Si       7.67917964       5.75938473      16.07250000  F        3       0.00000000      -0.03564528      -0.15021150
Si       0.00000000       0.00000000      17.43000000  F        2      -0.00810327      -0.00000002       0.53721046
Si       3.83958982       0.00000000      17.43000000  F        2       0.00810324      -0.00000002       0.53721044
Si       7.67917964       0.00000000      17.43000000  F        2      -0.00000000      -0.00000002       0.49778568
Si       0.00000000       3.83958982      17.43000000  F        2       0.16548331       0.00000000       0.35828410
Si       3.83958982       3.83958982      17.43000000  F        2      -0.16548335       0.00000000       0.35828407
Si       7.67917964       3.83958982      17.43000000  F        2      -0.00000000       0.00000000       0.49256207
Si       1.91979491       0.00000000      18.78750000  F        1      -0.00000000       0.00000000      -0.25685724
Si       5.75938473       0.00000000      18.78750000  F        1      -0.00786864       0.00000000      -0.27290955
Si       9.59897455       0.00000000      18.78750000  F        1       0.00786867       0.00000000      -0.27290956
Si       1.91979491       3.83958982      18.78750000  F        1      -0.00000000      -0.00000000      -0.21332124
Si       5.75938473       3.83958982      18.78750000  F        1       0.14687592      -0.00000000       0.12562356
Si       9.59897455       3.83958982      18.78750000  F        1      -0.14687588      -0.00000000       0.12562354
F        7.67917964       3.83958982      21.03750000  T        0       0.00000000       0.00000000      -2.65341686
F        7.67917964       3.83958982      22.51807573  T        0       0.00000000      -0.00000000       1.94965560
38
Lattice="11.518769465528859 0.0 0.0 0.0 7.679179643685906 0.0 0.0 0.0 30.7875" Properties=species:S:1:pos:R:3:move_mask:L:1:tags:I:1:forces:R:3 surface=Si100 species=F2 site=bridge_Si_Si orientation=upright height_A=1.9 substrate_atoms=36 calculation_kind="Rigid evaluated approach scan; not NEB" energy=-184.071605336889 pbc="T T F"
Si       0.00000000       0.00000000      12.00000000  F        6       0.00234955       0.00000000       0.24923462
Si       3.83958982       0.00000000      12.00000000  F        6      -0.00234959       0.00000000       0.24923460
Si       7.67917964       0.00000000      12.00000000  F        6       0.00000000       0.00000000       0.24603693
Si       0.00000000       3.83958982      12.00000000  F        6       0.00142806      -0.00000000       0.24567095
Si       3.83958982       3.83958982      12.00000000  F        6      -0.00142809      -0.00000000       0.24567094
Si       7.67917964       3.83958982      12.00000000  F        6       0.00000000      -0.00000000       0.24283019
Si       1.91979491       0.00000000      13.35750000  F        5       0.00000000      -0.00000002      -0.53060157
Si       5.75938473       0.00000000      13.35750000  F        5      -0.00225077      -0.00000002      -0.53474643
Si       9.59897455       0.00000000      13.35750000  F        5       0.00225081      -0.00000002      -0.53474645
Si       1.91979491       3.83958982      13.35750000  F        5       0.00000000       0.00000000      -0.52909276
Si       5.75938473       3.83958982      13.35750000  F        5       0.01759418       0.00000000      -0.49262408
Si       9.59897455       3.83958982      13.35750000  F        5      -0.01759415       0.00000000      -0.49262410
Si       1.91979491       1.91979491      14.71500000  F        4      -0.00000000       0.01014221       0.14828377
Si       5.75938473       1.91979491      14.71500000  F        4       0.02880272       0.03492325       0.20841927
Si       9.59897455       1.91979491      14.71500000  F        4      -0.02880268       0.03492325       0.20841929
Si       1.91979491       5.75938473      14.71500000  F        4      -0.00000000      -0.01014218       0.14828375
Si       5.75938473       5.75938473      14.71500000  F        4       0.02880272      -0.03492322       0.20841926
Si       9.59897455       5.75938473      14.71500000  F        4      -0.02880268      -0.03492322       0.20841928
Si       0.00000000       1.91979491      16.07250000  F        3      -0.04311245       0.06145521      -0.09535823
Si       3.83958982       1.91979491      16.07250000  F        3       0.04311242       0.06145521      -0.09535821
Si       7.67917964       1.91979491      16.07250000  F        3       0.00000000       0.06030220      -0.14823165
Si       0.00000000       5.75938473      16.07250000  F        3      -0.04311245      -0.06145518      -0.09535822
Si       3.83958982       5.75938473      16.07250000  F        3       0.04311242      -0.06145518      -0.09535820
Si       7.67917964       5.75938473      16.07250000  F        3       0.00000000      -0.06030218      -0.14823163
Si       0.00000000       0.00000000      17.43000000  F        2      -0.03291852      -0.00000002       0.56471431
Si       3.83958982       0.00000000      17.43000000  F        2       0.03291849      -0.00000002       0.56471430
Si       7.67917964       0.00000000      17.43000000  F        2      -0.00000000      -0.00000002       0.48973348
Si       0.00000000       3.83958982      17.43000000  F        2       0.31830370       0.00000000       0.23212093
Si       3.83958982       3.83958982      17.43000000  F        2      -0.31830374       0.00000000       0.23212091
Si       7.67917964       3.83958982      17.43000000  F        2      -0.00000000       0.00000000      -0.30551614
Si       1.91979491       0.00000000      18.78750000  F        1      -0.00000000       0.00000000      -0.25854494
Si       5.75938473       0.00000000      18.78750000  F        1      -0.14880929       0.00000000      -0.38808999
Si       9.59897455       0.00000000      18.78750000  F        1       0.14880933       0.00000000      -0.38809001
Si       1.91979491       3.83958982      18.78750000  F        1      -0.00000000      -0.00000000      -0.18167699
Si       5.75938473       3.83958982      18.78750000  F        1       0.04479495      -0.00000000       0.13427047
Si       9.59897455       3.83958982      18.78750000  F        1      -0.04479491      -0.00000000       0.13427045
F        7.67917964       3.83958982      20.68750000  T        0       0.00000000       0.00000000      -3.11777996
F        7.67917964       3.83958982      22.16807573  T        0       0.00000000      -0.00000000       3.47116185
38
Lattice="11.518769465528859 0.0 0.0 0.0 7.679179643685906 0.0 0.0 0.0 30.7875" Properties=species:S:1:pos:R:3:move_mask:L:1:tags:I:1:forces:R:3 surface=Si100 species=F2 site=bridge_Si_Si orientation=upright height_A=1.6 substrate_atoms=36 calculation_kind="Rigid evaluated approach scan; not NEB" energy=-183.9041660855191 pbc="T T F"
Si       0.00000000       0.00000000      12.00000000  F        6       0.00356271       0.00000000       0.24966685
Si       3.83958982       0.00000000      12.00000000  F        6      -0.00356275       0.00000000       0.24966684
Si       7.67917964       0.00000000      12.00000000  F        6       0.00000000       0.00000000       0.24361097
Si       0.00000000       3.83958982      12.00000000  F        6       0.00294476      -0.00000000       0.24318763
Si       3.83958982       3.83958982      12.00000000  F        6      -0.00294480      -0.00000000       0.24318761
Si       7.67917964       3.83958982      12.00000000  F        6       0.00000000      -0.00000000       0.23908679
Si       1.91979491       0.00000000      13.35750000  F        5       0.00000000      -0.00000002      -0.53115572
Si       5.75938473       0.00000000      13.35750000  F        5      -0.00315404      -0.00000002      -0.53863903
Si       9.59897455       0.00000000      13.35750000  F        5       0.00315407      -0.00000002      -0.53863905
Si       1.91979491       3.83958982      13.35750000  F        5       0.00000000       0.00000000      -0.53282209
Si       5.75938473       3.83958982      13.35750000  F        5       0.02768282       0.00000000      -0.47678277
Si       9.59897455       3.83958982      13.35750000  F        5      -0.02768278       0.00000000      -0.47678279
Si       1.91979491       1.91979491      14.71500000  F        4      -0.00000000       0.01243503       0.14424721
Si       5.75938473       1.91979491      14.71500000  F        4       0.03835460       0.04878814       0.24013416
Si       9.59897455       1.91979491      14.71500000  F        4      -0.03835456       0.04878814       0.24013418
Si       1.91979491       5.75938473      14.71500000  F        4      -0.00000000      -0.01243500       0.14424719
Si       5.75938473       5.75938473      14.71500000  F        4       0.03835460      -0.04878811       0.24013414
Si       9.59897455       5.75938473      14.71500000  F        4      -0.03835456      -0.04878811       0.24013416
Si       0.00000000       1.91979491      16.07250000  F        3      -0.07026824       0.09494298      -0.06789924
Si       3.83958982       1.91979491      16.07250000  F        3       0.07026820       0.09494298      -0.06789923
Si       7.67917964       1.91979491      16.07250000  F        3       0.00000000      -0.01500031      -0.25515815
Si       0.00000000       5.75938473      16.07250000  F        3      -0.07026824      -0.09494296      -0.06789923
Si       3.83958982       5.75938473      16.07250000  F        3       0.07026820      -0.09494296      -0.06789921
Si       7.67917964       5.75938473      16.07250000  F        3       0.00000000       0.01500034      -0.25515814
Si       0.00000000       0.00000000      17.43000000  F        2      -0.06346743      -0.00000002       0.58742356
Si       3.83958982       0.00000000      17.43000000  F        2       0.06346739      -0.00000002       0.58742354
Si       7.67917964       0.00000000      17.43000000  F        2      -0.00000000      -0.00000003       0.31186092
Si       0.00000000       3.83958982      17.43000000  F        2       0.48857459       0.00000000       0.09836853
Si       3.83958982       3.83958982      17.43000000  F        2      -0.48857462       0.00000000       0.09836851
Si       7.67917964       3.83958982      17.43000000  F        2      -0.00000000       0.00000000      -0.64781298
Si       1.91979491       0.00000000      18.78750000  F        1      -0.00000000       0.00000000      -0.25488324
Si       5.75938473       0.00000000      18.78750000  F        1      -0.36073980       0.00000000      -0.49357678
Si       9.59897455       0.00000000      18.78750000  F        1       0.36073984       0.00000000      -0.49357680
Si       1.91979491       3.83958982      18.78750000  F        1      -0.00000000      -0.00000000      -0.14547416
Si       5.75938473       3.83958982      18.78750000  F        1       0.26494664      -0.00000000       0.56624221
Si       9.59897455       3.83958982      18.78750000  F        1      -0.26494660      -0.00000000       0.56624219
F        7.67917964       3.83958982      20.38750000  T        0       0.00000000       0.00000000      -6.81539315
F        7.67917964       3.83958982      21.86807573  T        0       0.00000000      -0.00000000       7.19408459
38
Lattice="11.518769465528859 0.0 0.0 0.0 7.679179643685906 0.0 0.0 0.0 30.7875" Properties=species:S:1:pos:R:3:move_mask:L:1:tags:I:1:forces:R:3 surface=Si100 species=F2 site=bridge_Si_Si orientation=upright height_A=1.3 substrate_atoms=36 calculation_kind="Rigid evaluated approach scan; not NEB" energy=-184.03190255602885 pbc="T T F"
Si       0.00000000       0.00000000      12.00000000  F        6       0.00465051       0.00000000       0.25164144
Si       3.83958982       0.00000000      12.00000000  F        6      -0.00465055       0.00000000       0.25164142
Si       7.67917964       0.00000000      12.00000000  F        6       0.00000000       0.00000000       0.23627173
Si       0.00000000       3.83958982      12.00000000  F        6       0.00556740      -0.00000000       0.24106034
Si       3.83958982       3.83958982      12.00000000  F        6      -0.00556744      -0.00000000       0.24106033
Si       7.67917964       3.83958982      12.00000000  F        6       0.00000000      -0.00000000       0.23349948
Si       1.91979491       0.00000000      13.35750000  F        5       0.00000000      -0.00000002      -0.52969276
Si       5.75938473       0.00000000      13.35750000  F        5      -0.00358231      -0.00000002      -0.53889308
Si       9.59897455       0.00000000      13.35750000  F        5       0.00358234      -0.00000002      -0.53889310
Si       1.91979491       3.83958982      13.35750000  F        5       0.00000000       0.00000000      -0.53998866
Si       5.75938473       3.83958982      13.35750000  F        5       0.02265538       0.00000000      -0.48210963
Si       9.59897455       3.83958982      13.35750000  F        5      -0.02265535       0.00000000      -0.48210965
Si       1.91979491       1.91979491      14.71500000  F        4      -0.00000000       0.00742713       0.13632747
Si       5.75938473       1.91979491      14.71500000  F        4       0.04539301       0.04690353       0.26026064
Si       9.59897455       1.91979491      14.71500000  F        4      -0.04539297       0.04690353       0.26026066
Si       1.91979491       5.75938473      14.71500000  F        4      -0.00000000      -0.00742711       0.13632746
Si       5.75938473       5.75938473      14.71500000  F        4       0.04539301      -0.04690351       0.26026062
Si       9.59897455       5.75938473      14.71500000  F        4      -0.04539297      -0.04690351       0.26026064
Si       0.00000000       1.91979491      16.07250000  F        3      -0.09011202       0.13420518      -0.04203403
Si       3.83958982       1.91979491      16.07250000  F        3       0.09011198       0.13420517      -0.04203401
Si       7.67917964       1.91979491      16.07250000  F        3       0.00000000      -0.14264956      -0.48221309
Si       0.00000000       5.75938473      16.07250000  F        3      -0.09011202      -0.13420515      -0.04203401
Si       3.83958982       5.75938473      16.07250000  F        3       0.09011198      -0.13420515      -0.04203399
Si       7.67917964       5.75938473      16.07250000  F        3       0.00000000       0.14264958      -0.48221308
Si       0.00000000       0.00000000      17.43000000  F        2      -0.07656776      -0.00000002       0.58958564
Si       3.83958982       0.00000000      17.43000000  F        2       0.07656773      -0.00000002       0.58958562
Si       7.67917964       0.00000000      17.43000000  F        2      -0.00000000      -0.00000003      -0.07307862
Si       0.00000000       3.83958982      17.43000000  F        2       0.70239278       0.00000000      -0.08337321
Si       3.83958982       3.83958982      17.43000000  F        2      -0.70239281       0.00000000      -0.08337323
Si       7.67917964       3.83958982      17.43000000  F        2      -0.00000000       0.00000000       1.02493190
Si       1.91979491       0.00000000      18.78750000  F        1      -0.00000000       0.00000000      -0.24262288
Si       5.75938473       0.00000000      18.78750000  F        1      -0.36397222       0.00000001      -0.38653790
Si       9.59897455       0.00000000      18.78750000  F        1       0.36397226       0.00000001      -0.38653791
Si       1.91979491       3.83958982      18.78750000  F        1      -0.00000000      -0.00000000      -0.11245964
Si       5.75938473       3.83958982      18.78750000  F        1       1.04344979      -0.00000000       1.00687247
Si       9.59897455       3.83958982      18.78750000  F        1      -1.04344975      -0.00000000       1.00687245
F        7.67917964       3.83958982      20.08750000  T        0       0.00000000      -0.00000000     -13.30935676
F        7.67917964       3.83958982      21.56807573  T        0      -0.00000000      -0.00000000      11.93486893
