38
Lattice="11.518769465528859 0.0 0.0 0.0 7.679179643685906 0.0 0.0 0.0 30.7875" Properties=species:S:1:pos:R:3:move_mask:L:1:tags:I:1:forces:R:3 surface=Si100 species=HCl site=hollow orientation=parallel height_A=6.5 substrate_atoms=36 calculation_kind="Rigid evaluated approach scan; not NEB" energy=-186.32958991594327 pbc="T T F"
Si       0.00000000       0.00000000      12.00000000  F        6      -0.00000004       0.00000000       0.24903484
Si       3.83958982       0.00000000      12.00000000  F        6      -0.00000000       0.00000000       0.24903482
Si       7.67917964       0.00000000      12.00000000  F        6       0.00000000       0.00000000       0.24903482
Si       0.00000000       3.83958982      12.00000000  F        6      -0.00000004      -0.00000000       0.24903484
Si       3.83958982       3.83958982      12.00000000  F        6      -0.00000000      -0.00000000       0.24903482
Si       7.67917964       3.83958982      12.00000000  F        6       0.00000000      -0.00000000       0.24903482
Si       1.91979491       0.00000000      13.35750000  F        5       0.00000000      -0.00000002      -0.52822352
Si       5.75938473       0.00000000      13.35750000  F        5       0.00000000      -0.00000002      -0.52822353
Si       9.59897455       0.00000000      13.35750000  F        5       0.00000003      -0.00000002      -0.52822354
Si       1.91979491       3.83958982      13.35750000  F        5       0.00000000       0.00000000      -0.52822354
Si       5.75938473       3.83958982      13.35750000  F        5       0.00000000       0.00000000      -0.52822354
Si       9.59897455       3.83958982      13.35750000  F        5       0.00000003       0.00000000      -0.52822356
Si       1.91979491       1.91979491      14.71500000  F        4      -0.00000000       0.00000000       0.14537709
Si       5.75938473       1.91979491      14.71500000  F        4       0.00000000       0.00000000       0.14537709
Si       9.59897455       1.91979491      14.71500000  F        4       0.00000004       0.00000000       0.14537711
Si       1.91979491       5.75938473      14.71500000  F        4      -0.00000000       0.00000002       0.14537707
Si       5.75938473       5.75938473      14.71500000  F        4       0.00000000       0.00000002       0.14537707
Si       9.59897455       5.75938473      14.71500000  F        4       0.00000004       0.00000002       0.14537709
Si       0.00000000       1.91979491      16.07250000  F        3      -0.00000004       0.00000000      -0.14537711
Si       3.83958982       1.91979491      16.07250000  F        3      -0.00000000       0.00000000      -0.14537709
Si       7.67917964       1.91979491      16.07250000  F        3       0.00000000       0.00000000      -0.14537709
Si       0.00000000       5.75938473      16.07250000  F        3      -0.00000004       0.00000002      -0.14537709
Si       3.83958982       5.75938473      16.07250000  F        3      -0.00000000       0.00000002      -0.14537707
Si       7.67917964       5.75938473      16.07250000  F        3       0.00000000       0.00000002      -0.14537707
Si       0.00000000       0.00000000      17.43000000  F        2      -0.00000003      -0.00000002       0.52822354
Si       3.83958982       0.00000000      17.43000000  F        2      -0.00000000      -0.00000002       0.52822353
Si       7.67917964       0.00000000      17.43000000  F        2      -0.00000000      -0.00000002       0.52822352
Si       0.00000000       3.83958982      17.43000000  F        2      -0.00000003       0.00000000       0.52822356
Si       3.83958982       3.83958982      17.43000000  F        2      -0.00000000       0.00000000       0.52822354
Si       7.67917964       3.83958982      17.43000000  F        2      -0.00000000       0.00000000       0.52822354
Si       1.91979491       0.00000000      18.78750000  F        1      -0.00000000       0.00000000      -0.24903482
Si       5.75938473       0.00000000      18.78750000  F        1       0.00000000       0.00000000      -0.24903482
Si       9.59897455       0.00000000      18.78750000  F        1       0.00000004       0.00000000      -0.24903484
Si       1.91979491       3.83958982      18.78750000  F        1      -0.00000000      -0.00000000      -0.24903482
Si       5.75938473       3.83958982      18.78750000  F        1       0.00000000      -0.00000000      -0.24903482
Si       9.59897455       3.83958982      18.78750000  F        1       0.00000004      -0.00000000      -0.24903484
Cl       7.02828501       1.91979491      25.28750000  T        0      -0.00729331       0.00000000       0.00000000
H        8.33007427       1.91979491      25.28750000  T        0       0.00729331       0.00000000       0.00000000
38
Lattice="11.518769465528859 0.0 0.0 0.0 7.679179643685906 0.0 0.0 0.0 30.7875" Properties=species:S:1:pos:R:3:move_mask:L:1:tags:I:1:forces:R:3 surface=Si100 species=HCl site=hollow orientation=parallel height_A=5.0 substrate_atoms=36 calculation_kind="Rigid evaluated approach scan; not NEB" energy=-186.32958991594327 pbc="T T F"
Si       0.00000000       0.00000000      12.00000000  F        6      -0.00000004       0.00000000       0.24903484
Si       3.83958982       0.00000000      12.00000000  F        6      -0.00000000       0.00000000       0.24903482
Si       7.67917964       0.00000000      12.00000000  F        6       0.00000000       0.00000000       0.24903482
Si       0.00000000       3.83958982      12.00000000  F        6      -0.00000004      -0.00000000       0.24903484
Si       3.83958982       3.83958982      12.00000000  F        6      -0.00000000      -0.00000000       0.24903482
Si       7.67917964       3.83958982      12.00000000  F        6       0.00000000      -0.00000000       0.24903482
Si       1.91979491       0.00000000      13.35750000  F        5       0.00000000      -0.00000002      -0.52822352
Si       5.75938473       0.00000000      13.35750000  F        5       0.00000000      -0.00000002      -0.52822353
Si       9.59897455       0.00000000      13.35750000  F        5       0.00000003      -0.00000002      -0.52822354
Si       1.91979491       3.83958982      13.35750000  F        5       0.00000000       0.00000000      -0.52822354
Si       5.75938473       3.83958982      13.35750000  F        5       0.00000000       0.00000000      -0.52822354
Si       9.59897455       3.83958982      13.35750000  F        5       0.00000003       0.00000000      -0.52822356
Si       1.91979491       1.91979491      14.71500000  F        4      -0.00000000       0.00000000       0.14537709
Si       5.75938473       1.91979491      14.71500000  F        4       0.00000000       0.00000000       0.14537709
Si       9.59897455       1.91979491      14.71500000  F        4       0.00000004       0.00000000       0.14537711
Si       1.91979491       5.75938473      14.71500000  F        4      -0.00000000       0.00000002       0.14537707
Si       5.75938473       5.75938473      14.71500000  F        4       0.00000000       0.00000002       0.14537707
Si       9.59897455       5.75938473      14.71500000  F        4       0.00000004       0.00000002       0.14537709
Si       0.00000000       1.91979491      16.07250000  F        3      -0.00000004       0.00000000      -0.14537711
Si       3.83958982       1.91979491      16.07250000  F        3      -0.00000000       0.00000000      -0.14537709
Si       7.67917964       1.91979491      16.07250000  F        3       0.00000000       0.00000000      -0.14537709
Si       0.00000000       5.75938473      16.07250000  F        3      -0.00000004       0.00000002      -0.14537709
Si       3.83958982       5.75938473      16.07250000  F        3      -0.00000000       0.00000002      -0.14537707
Si       7.67917964       5.75938473      16.07250000  F        3       0.00000000       0.00000002      -0.14537707
Si       0.00000000       0.00000000      17.43000000  F        2      -0.00000003      -0.00000002       0.52822354
Si       3.83958982       0.00000000      17.43000000  F        2      -0.00000000      -0.00000002       0.52822353
Si       7.67917964       0.00000000      17.43000000  F        2      -0.00000000      -0.00000002       0.52822352
Si       0.00000000       3.83958982      17.43000000  F        2      -0.00000003       0.00000000       0.52822356
Si       3.83958982       3.83958982      17.43000000  F        2      -0.00000000       0.00000000       0.52822354
Si       7.67917964       3.83958982      17.43000000  F        2      -0.00000000       0.00000000       0.52822354
Si       1.91979491       0.00000000      18.78750000  F        1      -0.00000000       0.00000000      -0.24903482
Si       5.75938473       0.00000000      18.78750000  F        1       0.00000000       0.00000000      -0.24903482
Si       9.59897455       0.00000000      18.78750000  F        1       0.00000004       0.00000000      -0.24903484
Si       1.91979491       3.83958982      18.78750000  F        1      -0.00000000      -0.00000000      -0.24903482
Si       5.75938473       3.83958982      18.78750000  F        1       0.00000000      -0.00000000      -0.24903482
Si       9.59897455       3.83958982      18.78750000  F        1       0.00000004      -0.00000000      -0.24903484
Cl       7.02828501       1.91979491      23.78750000  T        0      -0.00729331       0.00000000       0.00000000
H        8.33007427       1.91979491      23.78750000  T        0       0.00729331       0.00000000       0.00000000
38
Lattice="11.518769465528859 0.0 0.0 0.0 7.679179643685906 0.0 0.0 0.0 30.7875" Properties=species:S:1:pos:R:3:move_mask:L:1:tags:I:1:forces:R:3 surface=Si100 species=HCl site=hollow orientation=parallel height_A=4.0 substrate_atoms=36 calculation_kind="Rigid evaluated approach scan; not NEB" energy=-186.3315139226129 pbc="T T F"
Si       0.00000000       0.00000000      12.00000000  F        6      -0.00019114       0.00000118       0.24890925
Si       3.83958982       0.00000000      12.00000000  F        6       0.00026344       0.00005051       0.24868363
Si       7.67917964       0.00000000      12.00000000  F        6      -0.00007247       0.00002452       0.24886050
Si       0.00000000       3.83958982      12.00000000  F        6      -0.00019114      -0.00000118       0.24890925
Si       3.83958982       3.83958982      12.00000000  F        6       0.00026344      -0.00005051       0.24868363
Si       7.67917964       3.83958982      12.00000000  F        6      -0.00007247      -0.00002452       0.24886050
Si       1.91979491       0.00000000      13.35750000  F        5       0.00023824       0.00008698      -0.52795162
Si       5.75938473       0.00000000      13.35750000  F        5      -0.00003058      -0.00009216      -0.52614052
Si       9.59897455       0.00000000      13.35750000  F        5      -0.00020730       0.00001119      -0.52729486
Si       1.91979491       3.83958982      13.35750000  F        5       0.00023824      -0.00008700      -0.52795163
Si       5.75938473       3.83958982      13.35750000  F        5      -0.00003058       0.00009213      -0.52614053
Si       9.59897455       3.83958982      13.35750000  F        5      -0.00020730      -0.00001121      -0.52729487
Si       1.91979491       1.91979491      14.71500000  F        4       0.00085165      -0.00000000       0.14588942
Si       5.75938473       1.91979491      14.71500000  F        4       0.00031809      -0.00000000       0.14905327
Si       9.59897455       1.91979491      14.71500000  F        4      -0.00076631      -0.00000000       0.14412321
Si       1.91979491       5.75938473      14.71500000  F        4       0.00143662       0.00000002       0.14655599
Si       5.75938473       5.75938473      14.71500000  F        4       0.00036991       0.00000002       0.15024621
Si       9.59897455       5.75938473      14.71500000  F        4      -0.00080670       0.00000002       0.15081181
Si       0.00000000       1.91979491      16.07250000  F        3       0.00187634       0.00000000      -0.14819454
Si       3.83958982       1.91979491      16.07250000  F        3       0.00062474       0.00000000      -0.14485994
Si       7.67917964       1.91979491      16.07250000  F        3      -0.00488994       0.00000000      -0.15146390
Si       0.00000000       5.75938473      16.07250000  F        3      -0.00436894       0.00000002      -0.14415975
Si       3.83958982       5.75938473      16.07250000  F        3      -0.00214273       0.00000002      -0.14556910
Si       7.67917964       5.75938473      16.07250000  F        3      -0.00134934       0.00000002      -0.14864897
Si       0.00000000       0.00000000      17.43000000  F        2      -0.00394716      -0.00127801       0.53081334
Si       3.83958982       0.00000000      17.43000000  F        2      -0.01053932       0.00112181       0.52934002
Si       7.67917964       0.00000000      17.43000000  F        2       0.00248918      -0.00394874       0.52365774
Si       0.00000000       3.83958982      17.43000000  F        2      -0.00394716       0.00127798       0.53081336
Si       3.83958982       3.83958982      17.43000000  F        2      -0.01053932      -0.00112184       0.52934003
Si       7.67917964       3.83958982      17.43000000  F        2       0.00248918       0.00394872       0.52365776
Si       1.91979491       0.00000000      18.78750000  F        1       0.00473687      -0.00012765      -0.25116356
Si       5.75938473       0.00000000      18.78750000  F        1       0.02005580       0.00922468      -0.22668089
Si       9.59897455       0.00000000      18.78750000  F        1       0.01887307      -0.00486996      -0.27712109
Si       1.91979491       3.83958982      18.78750000  F        1       0.00473687       0.00012765      -0.25116356
Si       5.75938473       3.83958982      18.78750000  F        1       0.02005580      -0.00922468      -0.22668089
Si       9.59897455       3.83958982      18.78750000  F        1       0.01887307       0.00486996      -0.27712109
Cl       7.02828501       1.91979491      22.78750000  T        0       0.04114750       0.00000000      -0.01760978
H        8.33007427       1.91979491      22.78750000  T        0      -0.09563818       0.00000000       0.02600219
38
Lattice="11.518769465528859 0.0 0.0 0.0 7.679179643685906 0.0 0.0 0.0 30.7875" Properties=species:S:1:pos:R:3:move_mask:L:1:tags:I:1:forces:R:3 surface=Si100 species=HCl site=hollow orientation=parallel height_A=3.25 substrate_atoms=36 calculation_kind="Rigid evaluated approach scan; not NEB" energy=-186.38836976356606 pbc="T T F"
Si       0.00000000       0.00000000      12.00000000  F        6      -0.00101374       0.00007547       0.24861406
Si       3.83958982       0.00000000      12.00000000  F        6       0.00091463       0.00031883       0.24776208
Si       7.67917964       0.00000000      12.00000000  F        6       0.00009868       0.00018768       0.24870832
Si       0.00000000       3.83958982      12.00000000  F        6      -0.00101374      -0.00007547       0.24861406
Si       3.83958982       3.83958982      12.00000000  F        6       0.00091463      -0.00031883       0.24776208
Si       7.67917964       3.83958982      12.00000000  F        6       0.00009867      -0.00018768       0.24870832
Si       1.91979491       0.00000000      13.35750000  F        5       0.00113893       0.00028260      -0.52579107
Si       5.75938473       0.00000000      13.35750000  F        5       0.00003499      -0.00087272      -0.52019748
Si       9.59897455       0.00000000      13.35750000  F        5      -0.00117227      -0.00009548      -0.52347993
Si       1.91979491       3.83958982      13.35750000  F        5       0.00113893      -0.00028263      -0.52579108
Si       5.75938473       3.83958982      13.35750000  F        5       0.00003499       0.00087269      -0.52019749
Si       9.59897455       3.83958982      13.35750000  F        5      -0.00117227       0.00009546      -0.52347994
Si       1.91979491       1.91979491      14.71500000  F        4       0.00146997      -0.00000000       0.14804489
Si       5.75938473       1.91979491      14.71500000  F        4       0.00120331      -0.00000000       0.16247468
Si       9.59897455       1.91979491      14.71500000  F        4      -0.00409848      -0.00000000       0.15284914
Si       1.91979491       5.75938473      14.71500000  F        4       0.00434172       0.00000002       0.15141805
Si       5.75938473       5.75938473      14.71500000  F        4       0.00016588       0.00000002       0.18847975
Si       9.59897455       5.75938473      14.71500000  F        4      -0.00691693       0.00000002       0.14825138
Si       0.00000000       1.91979491      16.07250000  F        3       0.00428258       0.00000000      -0.14656952
Si       3.83958982       1.91979491      16.07250000  F        3       0.00182814       0.00000000      -0.15533790
Si       7.67917964       1.91979491      16.07250000  F        3      -0.00197789      -0.00000000      -0.18967836
Si       0.00000000       5.75938473      16.07250000  F        3      -0.00326612       0.00000002      -0.14181925
Si       3.83958982       5.75938473      16.07250000  F        3       0.03071999       0.00000002      -0.11166964
Si       7.67917964       5.75938473      16.07250000  F        3      -0.01711709       0.00000002      -0.16226656
Si       0.00000000       0.00000000      17.43000000  F        2       0.01446165       0.01078816       0.52992067
Si       3.83958982       0.00000000      17.43000000  F        2      -0.03485938      -0.01183779       0.52715603
Si       7.67917964       0.00000000      17.43000000  F        2       0.02535297      -0.04054383       0.47660770
Si       0.00000000       3.83958982      17.43000000  F        2       0.01446165      -0.01078819       0.52992068
Si       3.83958982       3.83958982      17.43000000  F        2      -0.03485938       0.01183777       0.52715604
Si       7.67917964       3.83958982      17.43000000  F        2       0.02535297       0.04054381       0.47660772
Si       1.91979491       0.00000000      18.78750000  F        1       0.00196932      -0.00205558      -0.26013571
Si       5.75938473       0.00000000      18.78750000  F        1      -0.01871902      -0.02257088      -0.23189942
Si       9.59897455       0.00000000      18.78750000  F        1      -0.05157473       0.05662982      -0.15733839
Si       1.91979491       3.83958982      18.78750000  F        1       0.00196932       0.00205558      -0.26013571
Si       5.75938473       3.83958982      18.78750000  F        1      -0.01871902       0.02257088      -0.23189942
Si       9.59897455       3.83958982      18.78750000  F        1      -0.05157473      -0.05662982      -0.15733839
Cl       7.02828501       1.91979491      22.03750000  T        0       0.17650225       0.00000000      -0.21136997
H        8.33007427       1.91979491      22.03750000  T        0      -0.06040138      -0.00000000       0.04733958
38
Lattice="11.518769465528859 0.0 0.0 0.0 7.679179643685906 0.0 0.0 0.0 30.7875" Properties=species:S:1:pos:R:3:move_mask:L:1:tags:I:1:forces:R:3 surface=Si100 species=HCl site=hollow orientation=parallel height_A=2.75 substrate_atoms=36 calculation_kind="Rigid evaluated approach scan; not NEB" energy=-186.43278264693757 pbc="T T F"
Si       0.00000000       0.00000000      12.00000000  F        6      -0.00134997       0.00019972       0.24836611
Si       3.83958982       0.00000000      12.00000000  F        6       0.00095396       0.00056759       0.24746630
Si       7.67917964       0.00000000      12.00000000  F        6       0.00039603       0.00042864       0.24991440
Si       0.00000000       3.83958982      12.00000000  F        6      -0.00134997      -0.00019972       0.24836611
Si       3.83958982       3.83958982      12.00000000  F        6       0.00095396      -0.00056759       0.24746630
Si       7.67917964       3.83958982      12.00000000  F        6       0.00039603      -0.00042864       0.24991440
Si       1.91979491       0.00000000      13.35750000  F        5       0.00117160       0.00038929      -0.52472106
Si       5.75938473       0.00000000      13.35750000  F        5       0.00037186      -0.00171171      -0.52168744
Si       9.59897455       0.00000000      13.35750000  F        5      -0.00130139      -0.00034561      -0.52378431
Si       1.91979491       3.83958982      13.35750000  F        5       0.00117160      -0.00038931      -0.52472108
Si       5.75938473       3.83958982      13.35750000  F        5       0.00037186       0.00171169      -0.52168746
Si       9.59897455       3.83958982      13.35750000  F        5      -0.00130139       0.00034559      -0.52378433
Si       1.91979491       1.91979491      14.71500000  F        4       0.00053882      -0.00000000       0.14952812
Si       5.75938473       1.91979491      14.71500000  F        4      -0.00194291      -0.00000000       0.15900458
Si       9.59897455       1.91979491      14.71500000  F        4      -0.00052367       0.00000000       0.16314859
Si       1.91979491       5.75938473      14.71500000  F        4       0.00451331       0.00000002       0.15497580
Si       5.75938473       5.75938473      14.71500000  F        4      -0.00028983       0.00000002       0.19048061
Si       9.59897455       5.75938473      14.71500000  F        4      -0.00765469       0.00000002       0.15280071
Si       0.00000000       1.91979491      16.07250000  F        3       0.00329691       0.00000000      -0.14530188
Si       3.83958982       1.91979491      16.07250000  F        3      -0.00665325      -0.00000000      -0.16076629
Si       7.67917964       1.91979491      16.07250000  F        3       0.00648221      -0.00000000      -0.22654194
Si       0.00000000       5.75938473      16.07250000  F        3      -0.01097902       0.00000002      -0.12826230
Si       3.83958982       5.75938473      16.07250000  F        3       0.04843850       0.00000002      -0.07887751
Si       7.67917964       5.75938473      16.07250000  F        3      -0.01145909       0.00000002      -0.17026870
Si       0.00000000       0.00000000      17.43000000  F        2       0.03373393       0.02313090       0.52330581
Si       3.83958982       0.00000000      17.43000000  F        2      -0.01221131      -0.03086458       0.53604920
Si       7.67917964       0.00000000      17.43000000  F        2       0.00564885      -0.14862022       0.32405857
Si       0.00000000       3.83958982      17.43000000  F        2       0.03373393      -0.02313093       0.52330583
Si       3.83958982       3.83958982      17.43000000  F        2      -0.01221131       0.03086456       0.53604921
Si       7.67917964       3.83958982      17.43000000  F        2       0.00564885       0.14862019       0.32405858
Si       1.91979491       0.00000000      18.78750000  F        1      -0.01097673      -0.00413888      -0.26888718
Si       5.75938473       0.00000000      18.78750000  F        1      -0.01002494       0.03623666      -0.19199919
Si       9.59897455       0.00000000      18.78750000  F        1      -0.04105936       0.01468978      -0.16367595
Si       1.91979491       3.83958982      18.78750000  F        1      -0.01097673       0.00413888      -0.26888718
Si       5.75938473       3.83958982      18.78750000  F        1      -0.01002494      -0.03623666      -0.19199919
Si       9.59897455       3.83958982      18.78750000  F        1      -0.04105936      -0.01468978      -0.16367595
Cl       7.02828501       1.91979491      21.53750000  T        0       0.23391019       0.00000000      -0.03784309
H        8.33007427       1.91979491      21.53750000  T        0      -0.18838259      -0.00000000       0.10911281
38
Lattice="11.518769465528859 0.0 0.0 0.0 7.679179643685906 0.0 0.0 0.0 30.7875" Properties=species:S:1:pos:R:3:move_mask:L:1:tags:I:1:forces:R:3 surface=Si100 species=HCl site=hollow orientation=parallel height_A=2.25 substrate_atoms=36 calculation_kind="Rigid evaluated approach scan; not NEB" energy=-186.3418197133176 pbc="T T F"
Si       0.00000000       0.00000000      12.00000000  F        6      -0.00071728       0.00040909       0.24827161
Si       3.83958982       0.00000000      12.00000000  F        6       0.00017714       0.00072950       0.24816820
Si       7.67917964       0.00000000      12.00000000  F        6       0.00054082       0.00058799       0.25303743
Si       0.00000000       3.83958982      12.00000000  F        6      -0.00071728      -0.00040909       0.24827161
Si       3.83958982       3.83958982      12.00000000  F        6       0.00017714      -0.00072950       0.24816820
Si       7.67917964       3.83958982      12.00000000  F        6       0.00054082      -0.00058799       0.25303743
Si       1.91979491       0.00000000      13.35750000  F        5       0.00140824       0.00061604      -0.52513493
Si       5.75938473       0.00000000      13.35750000  F        5       0.00060393      -0.00198726      -0.52555025
Si       9.59897455       0.00000000      13.35750000  F        5      -0.00197108      -0.00061787      -0.52436088
Si       1.91979491       3.83958982      13.35750000  F        5       0.00140824      -0.00061606      -0.52513495
Si       5.75938473       3.83958982      13.35750000  F        5       0.00060393       0.00198724      -0.52555026
Si       9.59897455       3.83958982      13.35750000  F        5      -0.00197108       0.00061785      -0.52436090
Si       1.91979491       1.91979491      14.71500000  F        4      -0.00020499      -0.00000000       0.15225715
Si       5.75938473       1.91979491      14.71500000  F        4      -0.00298128      -0.00000000       0.15080224
Si       9.59897455       1.91979491      14.71500000  F        4       0.00224661       0.00000000       0.15931299
Si       1.91979491       5.75938473      14.71500000  F        4       0.00167226       0.00000002       0.16032222
Si       5.75938473       5.75938473      14.71500000  F        4       0.00690655       0.00000002       0.19035756
Si       9.59897455       5.75938473      14.71500000  F        4      -0.01084720       0.00000002       0.17459276
Si       0.00000000       1.91979491      16.07250000  F        3       0.01143650      -0.00000000      -0.15080136
Si       3.83958982       1.91979491      16.07250000  F        3      -0.00914365      -0.00000000      -0.15548703
Si       7.67917964       1.91979491      16.07250000  F        3      -0.00368963      -0.00000000      -0.25689611
Si       0.00000000       5.75938473      16.07250000  F        3      -0.03004672       0.00000002      -0.09103453
Si       3.83958982       5.75938473      16.07250000  F        3       0.03413367       0.00000002      -0.08647607
Si       7.67917964       5.75938473      16.07250000  F        3      -0.01793228       0.00000002      -0.16335783
Si       0.00000000       0.00000000      17.43000000  F        2       0.02539495       0.01939095       0.51568782
Si       3.83958982       0.00000000      17.43000000  F        2      -0.00866152      -0.06251274       0.50538323
Si       7.67917964       0.00000000      17.43000000  F        2      -0.04020542      -0.12876490       0.42599225
Si       0.00000000       3.83958982      17.43000000  F        2       0.02539495      -0.01939097       0.51568783
Si       3.83958982       3.83958982      17.43000000  F        2      -0.00866152       0.06251272       0.50538324
Si       7.67917964       3.83958982      17.43000000  F        2      -0.04020542       0.12876488       0.42599227
Si       1.91979491       0.00000000      18.78750000  F        1      -0.02030882      -0.00759118      -0.27471942
Si       5.75938473       0.00000000      18.78750000  F        1      -0.05082274      -0.03943703      -0.33861722
Si       9.59897455       0.00000000      18.78750000  F        1       0.03941879      -0.05597847      -0.19572087
Si       1.91979491       3.83958982      18.78750000  F        1      -0.02030882       0.00759118      -0.27471942
Si       5.75938473       3.83958982      18.78750000  F        1      -0.05082274       0.03943703      -0.33861722
Si       9.59897455       3.83958982      18.78750000  F        1       0.03941879       0.05597847      -0.19572087
Cl       7.02828501       1.91979491      21.03750000  T        0       0.60691691       0.00000000       0.31758254
H        8.33007427       1.91979491      21.03750000  T        0      -0.47818074      -0.00000000      -0.02604846
38
Lattice="11.518769465528859 0.0 0.0 0.0 7.679179643685906 0.0 0.0 0.0 30.7875" Properties=species:S:1:pos:R:3:move_mask:L:1:tags:I:1:forces:R:3 surface=Si100 species=HCl site=hollow orientation=parallel height_A=1.9 substrate_atoms=36 calculation_kind="Rigid evaluated approach scan; not NEB" energy=-186.17095343796655 pbc="T T F"
Si       0.00000000       0.00000000      12.00000000  F        6      -0.00055124       0.00072669       0.24797712
Si       3.83958982       0.00000000      12.00000000  F        6      -0.00012746       0.00089220       0.24871447
Si       7.67917964       0.00000000      12.00000000  F        6       0.00063962       0.00081162       0.25456491
Si       0.00000000       3.83958982      12.00000000  F        6      -0.00055124      -0.00072669       0.24797712
Si       3.83958982       3.83958982      12.00000000  F        6      -0.00012746      -0.00089220       0.24871447
Si       7.67917964       3.83958982      12.00000000  F        6       0.00063962      -0.00081162       0.25456491
Si       1.91979491       0.00000000      13.35750000  F        5       0.00271943       0.00101625      -0.52575928
Si       5.75938473       0.00000000      13.35750000  F        5       0.00199115      -0.00085938      -0.52305388
Si       9.59897455       0.00000000      13.35750000  F        5      -0.00512809      -0.00146695      -0.51732645
Si       1.91979491       3.83958982      13.35750000  F        5       0.00271943      -0.00101627      -0.52575930
Si       5.75938473       3.83958982      13.35750000  F        5       0.00199115       0.00085935      -0.52305390
Si       9.59897455       3.83958982      13.35750000  F        5      -0.00512809       0.00146693      -0.51732646
Si       1.91979491       1.91979491      14.71500000  F        4       0.00151909      -0.00000000       0.15564594
Si       5.75938473       1.91979491      14.71500000  F        4      -0.00230015      -0.00000000       0.14459958
Si       9.59897455       1.91979491      14.71500000  F        4       0.00486024      -0.00000000       0.14967652
Si       1.91979491       5.75938473      14.71500000  F        4      -0.00321308       0.00000002       0.16467819
Si       5.75938473       5.75938473      14.71500000  F        4       0.01635921       0.00000002       0.19222138
Si       9.59897455       5.75938473      14.71500000  F        4      -0.01543889       0.00000002       0.20175771
Si       0.00000000       1.91979491      16.07250000  F        3       0.00989315      -0.00000000      -0.15081244
Si       3.83958982       1.91979491      16.07250000  F        3      -0.00528167      -0.00000000      -0.14656675
Si       7.67917964       1.91979491      16.07250000  F        3      -0.00940421      -0.00000000      -0.39165255
Si       0.00000000       5.75938473      16.07250000  F        3      -0.04688309       0.00000002      -0.07179950
Si       3.83958982       5.75938473      16.07250000  F        3       0.02988507       0.00000002      -0.08416597
Si       7.67917964       5.75938473      16.07250000  F        3      -0.01870051       0.00000002      -0.17144757
Si       0.00000000       0.00000000      17.43000000  F        2       0.04352660      -0.00347340       0.49350978
Si       3.83958982       0.00000000      17.43000000  F        2      -0.05478883      -0.08137471       0.43272856
Si       7.67917964       0.00000000      17.43000000  F        2      -0.07746514      -0.09858263       0.47832823
Si       0.00000000       3.83958982      17.43000000  F        2       0.04352660       0.00347338       0.49350979
Si       3.83958982       3.83958982      17.43000000  F        2      -0.05478883       0.08137469       0.43272857
Si       7.67917964       3.83958982      17.43000000  F        2      -0.07746514       0.09858261       0.47832824
Si       1.91979491       0.00000000      18.78750000  F        1      -0.02683529      -0.01130886      -0.27699713
Si       5.75938473       0.00000000      18.78750000  F        1      -0.19662858      -0.27943407      -0.49836444
Si       9.59897455       0.00000000      18.78750000  F        1       0.05144708      -0.04824076      -0.15781523
Si       1.91979491       3.83958982      18.78750000  F        1      -0.02683529       0.01130886      -0.27699713
Si       5.75938473       3.83958982      18.78750000  F        1      -0.19662858       0.27943407      -0.49836444
Si       9.59897455       3.83958982      18.78750000  F        1       0.05144708       0.04824076      -0.15781523
Cl       7.02828501       1.91979491      20.68750000  T        0       1.01071948       0.00000000       0.62852299
H        8.33007427       1.91979491      20.68750000  T        0      -0.44961313      -0.00000000       0.06632920
38
Lattice="11.518769465528859 0.0 0.0 0.0 7.679179643685906 0.0 0.0 0.0 30.7875" Properties=species:S:1:pos:R:3:move_mask:L:1:tags:I:1:forces:R:3 surface=Si100 species=HCl site=hollow orientation=parallel height_A=1.6 substrate_atoms=36 calculation_kind="Rigid evaluated approach scan; not NEB" energy=-185.93319391208675 pbc="T T F"
Si       0.00000000       0.00000000      12.00000000  F        6      -0.00049846       0.00115918       0.24823042
Si       3.83958982       0.00000000      12.00000000  F        6      -0.00024506       0.00122659       0.24955360
Si       7.67917964       0.00000000      12.00000000  F        6       0.00066945       0.00044096       0.25493336
Si       0.00000000       3.83958982      12.00000000  F        6      -0.00049846      -0.00115918       0.24823042
Si       3.83958982       3.83958982      12.00000000  F        6      -0.00024506      -0.00122659       0.24955360
Si       7.67917964       3.83958982      12.00000000  F        6       0.00066945      -0.00044096       0.25493336
Si       1.91979491       0.00000000      13.35750000  F        5       0.00452477       0.00165882      -0.52571664
Si       5.75938473       0.00000000      13.35750000  F        5       0.00408420       0.00202476      -0.51860887
Si       9.59897455       0.00000000      13.35750000  F        5      -0.00953379      -0.00185507      -0.50867894
Si       1.91979491       3.83958982      13.35750000  F        5       0.00452477      -0.00165884      -0.52571666
Si       5.75938473       3.83958982      13.35750000  F        5       0.00408420      -0.00202478      -0.51860889
Si       9.59897455       3.83958982      13.35750000  F        5      -0.00953379       0.00185505      -0.50867895
Si       1.91979491       1.91979491      14.71500000  F        4       0.00658183      -0.00000000       0.15743859
Si       5.75938473       1.91979491      14.71500000  F        4      -0.00826986      -0.00000000       0.14965723
Si       9.59897455       1.91979491      14.71500000  F        4       0.01488806      -0.00000000       0.14210284
Si       1.91979491       5.75938473      14.71500000  F        4      -0.00881784       0.00000002       0.16516710
Si       5.75938473       5.75938473      14.71500000  F        4       0.02432675       0.00000002       0.18411789
Si       9.59897455       5.75938473      14.71500000  F        4      -0.01338282       0.00000002       0.21069059
Si       0.00000000       1.91979491      16.07250000  F        3       0.00564023      -0.00000000      -0.14497835
Si       3.83958982       1.91979491      16.07250000  F        3      -0.00441242      -0.00000000      -0.14817918
Si       7.67917964       1.91979491      16.07250000  F        3      -0.03004627      -0.00000000      -0.37836670
Si       0.00000000       5.75938473      16.07250000  F        3      -0.05728487       0.00000002      -0.06364039
Si       3.83958982       5.75938473      16.07250000  F        3       0.04203903       0.00000002      -0.06355360
Si       7.67917964       5.75938473      16.07250000  F        3      -0.01757633       0.00000002      -0.18408301
Si       0.00000000       0.00000000      17.43000000  F        2       0.06480555      -0.02744279       0.47402132
Si       3.83958982       0.00000000      17.43000000  F        2      -0.09762908      -0.03831845       0.37668909
Si       7.67917964       0.00000000      17.43000000  F        2      -0.10955604      -0.07890544       0.50864014
Si       0.00000000       3.83958982      17.43000000  F        2       0.06480555       0.02744277       0.47402133
Si       3.83958982       3.83958982      17.43000000  F        2      -0.09762908       0.03831843       0.37668910
Si       7.67917964       3.83958982      17.43000000  F        2      -0.10955604       0.07890542       0.50864016
Si       1.91979491       0.00000000      18.78750000  F        1      -0.03790051      -0.01442717      -0.27429367
Si       5.75938473       0.00000000      18.78750000  F        1      -0.34495276      -0.60087185      -0.59703505
Si       9.59897455       0.00000000      18.78750000  F        1       0.05931568      -0.02339540      -0.13204924
Si       1.91979491       3.83958982      18.78750000  F        1      -0.03790051       0.01442717      -0.27429367
Si       5.75938473       3.83958982      18.78750000  F        1      -0.34495276       0.60087185      -0.59703505
Si       9.59897455       3.83958982      18.78750000  F        1       0.05931568       0.02339540      -0.13204924
Cl       7.02828501       1.91979491      20.38750000  T        0       1.11899611       0.00000000       0.69806665
H        8.33007427       1.91979491      20.38750000  T        0      -0.13884949      -0.00000000       0.16418934
38
Lattice="11.518769465528859 0.0 0.0 0.0 7.679179643685906 0.0 0.0 0.0 30.7875" Properties=species:S:1:pos:R:3:move_mask:L:1:tags:I:1:forces:R:3 surface=Si100 species=HCl site=hollow orientation=parallel height_A=1.3 substrate_atoms=36 calculation_kind="Rigid evaluated approach scan; not NEB" energy=-185.6481251144325 pbc="T T F"
Si       0.00000000       0.00000000      12.00000000  F        6      -0.00037194       0.00117087       0.24905131
Si       3.83958982       0.00000000      12.00000000  F        6      -0.00079193       0.00103358       0.25122360
Si       7.67917964       0.00000000      12.00000000  F        6       0.00122729      -0.00183372       0.25168338
Si       0.00000000       3.83958982      12.00000000  F        6      -0.00037194      -0.00117087       0.24905131
Si       3.83958982       3.83958982      12.00000000  F        6      -0.00079193      -0.00103358       0.25122360
Si       7.67917964       3.83958982      12.00000000  F        6       0.00122729       0.00183372       0.25168338
Si       1.91979491       0.00000000      13.35750000  F        5       0.00570984       0.00261142      -0.52616397
Si       5.75938473       0.00000000      13.35750000  F        5       0.00437315       0.00544330      -0.51509494
Si       9.59897455       0.00000000      13.35750000  F        5      -0.01422930       0.00091379      -0.49718845
Si       1.91979491       3.83958982      13.35750000  F        5       0.00570984      -0.00261144      -0.52616399
Si       5.75938473       3.83958982      13.35750000  F        5       0.00437315      -0.00544333      -0.51509496
Si       9.59897455       3.83958982      13.35750000  F        5      -0.01422930      -0.00091381      -0.49718846
Si       1.91979491       1.91979491      14.71500000  F        4       0.01322752      -0.00000000       0.15615260
Si       5.75938473       1.91979491      14.71500000  F        4      -0.01573537      -0.00000000       0.16004564
Si       9.59897455       1.91979491      14.71500000  F        4       0.01395707       0.00000000       0.13870136
Si       1.91979491       5.75938473      14.71500000  F        4      -0.01542474       0.00000002       0.16127898
Si       5.75938473       5.75938473      14.71500000  F        4       0.03413401       0.00000002       0.17690903
Si       9.59897455       5.75938473      14.71500000  F        4      -0.00984295       0.00000002       0.20872785
Si       0.00000000       1.91979491      16.07250000  F        3       0.00624450      -0.00000000      -0.14223770
Si       3.83958982       1.91979491      16.07250000  F        3      -0.00612089      -0.00000000      -0.17247344
Si       7.67917964       1.91979491      16.07250000  F        3      -0.03211610      -0.00000000      -0.26043696
Si       0.00000000       5.75938473      16.07250000  F        3      -0.06726492       0.00000002      -0.06271555
Si       3.83958982       5.75938473      16.07250000  F        3       0.06830492       0.00000002      -0.04127224
Si       7.67917964       5.75938473      16.07250000  F        3      -0.00943308       0.00000002      -0.20462505
Si       0.00000000       0.00000000      17.43000000  F        2       0.08907172      -0.04167348       0.45303720
Si       3.83958982       0.00000000      17.43000000  F        2      -0.13251824       0.03932738       0.33015797
Si       7.67917964       0.00000000      17.43000000  F        2      -0.10861905      -0.16144239       0.34153032
Si       0.00000000       3.83958982      17.43000000  F        2       0.08907172       0.04167345       0.45303721
Si       3.83958982       3.83958982      17.43000000  F        2      -0.13251824      -0.03932740       0.33015798
Si       7.67917964       3.83958982      17.43000000  F        2      -0.10861905       0.16144237       0.34153033
Si       1.91979491       0.00000000      18.78750000  F        1      -0.06062399      -0.01648558      -0.25790861
Si       5.75938473       0.00000000      18.78750000  F        1      -0.44037827      -0.92076420      -0.60338867
Si       9.59897455       0.00000000      18.78750000  F        1       0.04137846       0.07193692      -0.06882431
Si       1.91979491       3.83958982      18.78750000  F        1      -0.06062399       0.01648558      -0.25790861
Si       5.75938473       3.83958982      18.78750000  F        1      -0.44037827       0.92076420      -0.60338867
Si       9.59897455       3.83958982      18.78750000  F        1       0.04137846      -0.07193692      -0.06882431
Cl       7.02828501       1.91979491      20.08750000  T        0       0.57462900       0.00000000       1.00551136
H        8.33007427       1.91979491      20.08750000  T        0       0.67698555      -0.00000000       0.06020449
