41
Lattice="9.8418 0.0 0.0 -2.460449999999999 4.261624409482844 0.0 0.0 -0.0 34.16586254" Properties=species:S:1:pos:R:3:move_mask:L:1:spacegroup_kinds:I:1:tags:I:1 spacegroup="P 32 2 1" unit_cell=conventional surface=alpha_quartz_001 species=SiCl4 site=bridge_Si_O orientation=parallel height_A=6.5 substrate_atoms=36 calculation_kind="Rigid evaluated approach scan; not NEB" energy=-283.2558215924791 pbc="T T F"
Si       2.31725181       0.00000000      12.00000000  F        0        2
Si      -1.15862590       2.00679893      15.60606667  F        0        2
Si       1.30182410       2.25482548      13.80303333  F        0        2
O        1.38326499       1.13103512      12.65233746  F        1        2
O        0.28787265       1.76346018      14.95372921  F        1        2
O        3.24976236       0.63242506      16.25840413  F        1        2
O        0.78931236       3.62919935      13.15069587  F        1        2
O        2.74832265       2.49816423      14.45537079  F        1        2
O       -1.07718501       3.13058929      16.75676254  F        1        2
Si       2.31725181       0.00000000      17.40910000  F        0        1
Si      -1.15862590       2.00679893      21.01516667  F        0        1
Si       1.30182410       2.25482548      19.21213333  F        0        1
O        1.38326499       1.13103512      18.06143746  F        1        1
O        0.28787265       1.76346018      20.36282921  F        1        1
O        3.24976236       0.63242506      21.66750413  F        1        1
O        0.78931236       3.62919935      18.55979587  F        1        1
O        2.74832265       2.49816423      19.86447079  F        1        1
O       -1.07718501       3.13058929      22.16586254  F        1        1
Si       7.23815181       0.00000000      12.00000000  F        0        2
Si       3.76227409       2.00679893      15.60606667  F        0        2
Si       6.22272410       2.25482548      13.80303333  F        0        2
O        6.30416499       1.13103512      12.65233746  F        1        2
O        5.20877265       1.76346018      14.95372921  F        1        2
O        8.17066236       0.63242506      16.25840413  F        1        2
O        5.71021236       3.62919935      13.15069587  F        1        2
O        7.66922265       2.49816423      14.45537079  F        1        2
O        3.84371499       3.13058929      16.75676254  F        1        2
Si       7.23815181       0.00000000      17.40910000  F        0        1
Si       3.76227409       2.00679893      21.01516667  F        0        1
Si       6.22272410       2.25482548      19.21213333  F        0        1
O        6.30416499       1.13103512      18.06143746  F        1        1
O        5.20877265       1.76346018      20.36282921  F        1        1
O        8.17066236       0.63242506      21.66750413  F        1        1
O        5.71021236       3.62919935      18.55979587  F        1        1
O        7.66922265       2.49816423      19.86447079  F        1        1
O        3.84371499       3.13058929      22.16586254  F        1        1
Si       3.50601823       1.31961200      30.58392555  T        0        0
Cl       1.47160519       1.31961200      30.58392555  T        0        0
Cl       4.18415591       1.31961200      28.66586254  T        0        0
Cl       4.18415591       2.98070329      31.54295705  T        0        0
Cl       4.18415591      -0.34147929      31.54295705  T        0        0
41
Lattice="9.8418 0.0 0.0 -2.460449999999999 4.261624409482844 0.0 0.0 -0.0 34.16586254" Properties=species:S:1:pos:R:3:move_mask:L:1:spacegroup_kinds:I:1:tags:I:1 spacegroup="P 32 2 1" unit_cell=conventional surface=alpha_quartz_001 species=SiCl4 site=bridge_Si_O orientation=parallel height_A=5.0 substrate_atoms=36 calculation_kind="Rigid evaluated approach scan; not NEB" energy=-283.2558215924791 pbc="T T F"
Si       2.31725181       0.00000000      12.00000000  F        0        2
Si      -1.15862590       2.00679893      15.60606667  F        0        2
Si       1.30182410       2.25482548      13.80303333  F        0        2
O        1.38326499       1.13103512      12.65233746  F        1        2
O        0.28787265       1.76346018      14.95372921  F        1        2
O        3.24976236       0.63242506      16.25840413  F        1        2
O        0.78931236       3.62919935      13.15069587  F        1        2
O        2.74832265       2.49816423      14.45537079  F        1        2
O       -1.07718501       3.13058929      16.75676254  F        1        2
Si       2.31725181       0.00000000      17.40910000  F        0        1
Si      -1.15862590       2.00679893      21.01516667  F        0        1
Si       1.30182410       2.25482548      19.21213333  F        0        1
O        1.38326499       1.13103512      18.06143746  F        1        1
O        0.28787265       1.76346018      20.36282921  F        1        1
O        3.24976236       0.63242506      21.66750413  F        1        1
O        0.78931236       3.62919935      18.55979587  F        1        1
O        2.74832265       2.49816423      19.86447079  F        1        1
O       -1.07718501       3.13058929      22.16586254  F        1        1
Si       7.23815181       0.00000000      12.00000000  F        0        2
Si       3.76227409       2.00679893      15.60606667  F        0        2
Si       6.22272410       2.25482548      13.80303333  F        0        2
O        6.30416499       1.13103512      12.65233746  F        1        2
O        5.20877265       1.76346018      14.95372921  F        1        2
O        8.17066236       0.63242506      16.25840413  F        1        2
O        5.71021236       3.62919935      13.15069587  F        1        2
O        7.66922265       2.49816423      14.45537079  F        1        2
O        3.84371499       3.13058929      16.75676254  F        1        2
Si       7.23815181       0.00000000      17.40910000  F        0        1
Si       3.76227409       2.00679893      21.01516667  F        0        1
Si       6.22272410       2.25482548      19.21213333  F        0        1
O        6.30416499       1.13103512      18.06143746  F        1        1
O        5.20877265       1.76346018      20.36282921  F        1        1
O        8.17066236       0.63242506      21.66750413  F        1        1
O        5.71021236       3.62919935      18.55979587  F        1        1
O        7.66922265       2.49816423      19.86447079  F        1        1
O        3.84371499       3.13058929      22.16586254  F        1        1
Si       3.50601823       1.31961200      29.08392555  T        0        0
Cl       1.47160519       1.31961200      29.08392555  T        0        0
Cl       4.18415591       1.31961200      27.16586254  T        0        0
Cl       4.18415591       2.98070329      30.04295705  T        0        0
Cl       4.18415591      -0.34147929      30.04295705  T        0        0
41
Lattice="9.8418 0.0 0.0 -2.460449999999999 4.261624409482844 0.0 0.0 -0.0 34.16586254" Properties=species:S:1:pos:R:3:move_mask:L:1:spacegroup_kinds:I:1:tags:I:1 spacegroup="P 32 2 1" unit_cell=conventional surface=alpha_quartz_001 species=SiCl4 site=bridge_Si_O orientation=parallel height_A=4.0 substrate_atoms=36 calculation_kind="Rigid evaluated approach scan; not NEB" energy=-283.27113587650496 pbc="T T F"
Si       2.31725181       0.00000000      12.00000000  F        0        2
Si      -1.15862590       2.00679893      15.60606667  F        0        2
Si       1.30182410       2.25482548      13.80303333  F        0        2
O        1.38326499       1.13103512      12.65233746  F        1        2
O        0.28787265       1.76346018      14.95372921  F        1        2
O        3.24976236       0.63242506      16.25840413  F        1        2
O        0.78931236       3.62919935      13.15069587  F        1        2
O        2.74832265       2.49816423      14.45537079  F        1        2
O       -1.07718501       3.13058929      16.75676254  F        1        2
Si       2.31725181       0.00000000      17.40910000  F        0        1
Si      -1.15862590       2.00679893      21.01516667  F        0        1
Si       1.30182410       2.25482548      19.21213333  F        0        1
O        1.38326499       1.13103512      18.06143746  F        1        1
O        0.28787265       1.76346018      20.36282921  F        1        1
O        3.24976236       0.63242506      21.66750413  F        1        1
O        0.78931236       3.62919935      18.55979587  F        1        1
O        2.74832265       2.49816423      19.86447079  F        1        1
O       -1.07718501       3.13058929      22.16586254  F        1        1
Si       7.23815181       0.00000000      12.00000000  F        0        2
Si       3.76227409       2.00679893      15.60606667  F        0        2
Si       6.22272410       2.25482548      13.80303333  F        0        2
O        6.30416499       1.13103512      12.65233746  F        1        2
O        5.20877265       1.76346018      14.95372921  F        1        2
O        8.17066236       0.63242506      16.25840413  F        1        2
O        5.71021236       3.62919935      13.15069587  F        1        2
O        7.66922265       2.49816423      14.45537079  F        1        2
O        3.84371499       3.13058929      16.75676254  F        1        2
Si       7.23815181       0.00000000      17.40910000  F        0        1
Si       3.76227409       2.00679893      21.01516667  F        0        1
Si       6.22272410       2.25482548      19.21213333  F        0        1
O        6.30416499       1.13103512      18.06143746  F        1        1
O        5.20877265       1.76346018      20.36282921  F        1        1
O        8.17066236       0.63242506      21.66750413  F        1        1
O        5.71021236       3.62919935      18.55979587  F        1        1
O        7.66922265       2.49816423      19.86447079  F        1        1
O        3.84371499       3.13058929      22.16586254  F        1        1
Si       3.50601823       1.31961200      28.08392555  T        0        0
Cl       1.47160519       1.31961200      28.08392555  T        0        0
Cl       4.18415591       1.31961200      26.16586254  T        0        0
Cl       4.18415591       2.98070329      29.04295705  T        0        0
Cl       4.18415591      -0.34147929      29.04295705  T        0        0
41
Lattice="9.8418 0.0 0.0 -2.460449999999999 4.261624409482844 0.0 0.0 -0.0 34.16586254" Properties=species:S:1:pos:R:3:move_mask:L:1:spacegroup_kinds:I:1:tags:I:1 spacegroup="P 32 2 1" unit_cell=conventional surface=alpha_quartz_001 species=SiCl4 site=bridge_Si_O orientation=parallel height_A=3.25 substrate_atoms=36 calculation_kind="Rigid evaluated approach scan; not NEB" energy=-283.3311257006151 pbc="T T F"
Si       2.31725181       0.00000000      12.00000000  F        0        2
Si      -1.15862590       2.00679893      15.60606667  F        0        2
Si       1.30182410       2.25482548      13.80303333  F        0        2
O        1.38326499       1.13103512      12.65233746  F        1        2
O        0.28787265       1.76346018      14.95372921  F        1        2
O        3.24976236       0.63242506      16.25840413  F        1        2
O        0.78931236       3.62919935      13.15069587  F        1        2
O        2.74832265       2.49816423      14.45537079  F        1        2
O       -1.07718501       3.13058929      16.75676254  F        1        2
Si       2.31725181       0.00000000      17.40910000  F        0        1
Si      -1.15862590       2.00679893      21.01516667  F        0        1
Si       1.30182410       2.25482548      19.21213333  F        0        1
O        1.38326499       1.13103512      18.06143746  F        1        1
O        0.28787265       1.76346018      20.36282921  F        1        1
O        3.24976236       0.63242506      21.66750413  F        1        1
O        0.78931236       3.62919935      18.55979587  F        1        1
O        2.74832265       2.49816423      19.86447079  F        1        1
O       -1.07718501       3.13058929      22.16586254  F        1        1
Si       7.23815181       0.00000000      12.00000000  F        0        2
Si       3.76227409       2.00679893      15.60606667  F        0        2
Si       6.22272410       2.25482548      13.80303333  F        0        2
O        6.30416499       1.13103512      12.65233746  F        1        2
O        5.20877265       1.76346018      14.95372921  F        1        2
O        8.17066236       0.63242506      16.25840413  F        1        2
O        5.71021236       3.62919935      13.15069587  F        1        2
O        7.66922265       2.49816423      14.45537079  F        1        2
O        3.84371499       3.13058929      16.75676254  F        1        2
Si       7.23815181       0.00000000      17.40910000  F        0        1
Si       3.76227409       2.00679893      21.01516667  F        0        1
Si       6.22272410       2.25482548      19.21213333  F        0        1
O        6.30416499       1.13103512      18.06143746  F        1        1
O        5.20877265       1.76346018      20.36282921  F        1        1
O        8.17066236       0.63242506      21.66750413  F        1        1
O        5.71021236       3.62919935      18.55979587  F        1        1
O        7.66922265       2.49816423      19.86447079  F        1        1
O        3.84371499       3.13058929      22.16586254  F        1        1
Si       3.50601823       1.31961200      27.33392555  T        0        0
Cl       1.47160519       1.31961200      27.33392555  T        0        0
Cl       4.18415591       1.31961200      25.41586254  T        0        0
Cl       4.18415591       2.98070329      28.29295705  T        0        0
Cl       4.18415591      -0.34147929      28.29295705  T        0        0
41
Lattice="9.8418 0.0 0.0 -2.460449999999999 4.261624409482844 0.0 0.0 -0.0 34.16586254" Properties=species:S:1:pos:R:3:move_mask:L:1:spacegroup_kinds:I:1:tags:I:1 spacegroup="P 32 2 1" unit_cell=conventional surface=alpha_quartz_001 species=SiCl4 site=bridge_Si_O orientation=parallel height_A=2.75 substrate_atoms=36 calculation_kind="Rigid evaluated approach scan; not NEB" energy=-283.3772244578015 pbc="T T F"
Si       2.31725181       0.00000000      12.00000000  F        0        2
Si      -1.15862590       2.00679893      15.60606667  F        0        2
Si       1.30182410       2.25482548      13.80303333  F        0        2
O        1.38326499       1.13103512      12.65233746  F        1        2
O        0.28787265       1.76346018      14.95372921  F        1        2
O        3.24976236       0.63242506      16.25840413  F        1        2
O        0.78931236       3.62919935      13.15069587  F        1        2
O        2.74832265       2.49816423      14.45537079  F        1        2
O       -1.07718501       3.13058929      16.75676254  F        1        2
Si       2.31725181       0.00000000      17.40910000  F        0        1
Si      -1.15862590       2.00679893      21.01516667  F        0        1
Si       1.30182410       2.25482548      19.21213333  F        0        1
O        1.38326499       1.13103512      18.06143746  F        1        1
O        0.28787265       1.76346018      20.36282921  F        1        1
O        3.24976236       0.63242506      21.66750413  F        1        1
O        0.78931236       3.62919935      18.55979587  F        1        1
O        2.74832265       2.49816423      19.86447079  F        1        1
O       -1.07718501       3.13058929      22.16586254  F        1        1
Si       7.23815181       0.00000000      12.00000000  F        0        2
Si       3.76227409       2.00679893      15.60606667  F        0        2
Si       6.22272410       2.25482548      13.80303333  F        0        2
O        6.30416499       1.13103512      12.65233746  F        1        2
O        5.20877265       1.76346018      14.95372921  F        1        2
O        8.17066236       0.63242506      16.25840413  F        1        2
O        5.71021236       3.62919935      13.15069587  F        1        2
O        7.66922265       2.49816423      14.45537079  F        1        2
O        3.84371499       3.13058929      16.75676254  F        1        2
Si       7.23815181       0.00000000      17.40910000  F        0        1
Si       3.76227409       2.00679893      21.01516667  F        0        1
Si       6.22272410       2.25482548      19.21213333  F        0        1
O        6.30416499       1.13103512      18.06143746  F        1        1
O        5.20877265       1.76346018      20.36282921  F        1        1
O        8.17066236       0.63242506      21.66750413  F        1        1
O        5.71021236       3.62919935      18.55979587  F        1        1
O        7.66922265       2.49816423      19.86447079  F        1        1
O        3.84371499       3.13058929      22.16586254  F        1        1
Si       3.50601823       1.31961200      26.83392555  T        0        0
Cl       1.47160519       1.31961200      26.83392555  T        0        0
Cl       4.18415591       1.31961200      24.91586254  T        0        0
Cl       4.18415591       2.98070329      27.79295705  T        0        0
Cl       4.18415591      -0.34147929      27.79295705  T        0        0
41
Lattice="9.8418 0.0 0.0 -2.460449999999999 4.261624409482844 0.0 0.0 -0.0 34.16586254" Properties=species:S:1:pos:R:3:move_mask:L:1:spacegroup_kinds:I:1:tags:I:1 spacegroup="P 32 2 1" unit_cell=conventional surface=alpha_quartz_001 species=SiCl4 site=bridge_Si_O orientation=parallel height_A=2.25 substrate_atoms=36 calculation_kind="Rigid evaluated approach scan; not NEB" energy=-283.3718495696902 pbc="T T F"
Si       2.31725181       0.00000000      12.00000000  F        0        2
Si      -1.15862590       2.00679893      15.60606667  F        0        2
Si       1.30182410       2.25482548      13.80303333  F        0        2
O        1.38326499       1.13103512      12.65233746  F        1        2
O        0.28787265       1.76346018      14.95372921  F        1        2
O        3.24976236       0.63242506      16.25840413  F        1        2
O        0.78931236       3.62919935      13.15069587  F        1        2
O        2.74832265       2.49816423      14.45537079  F        1        2
O       -1.07718501       3.13058929      16.75676254  F        1        2
Si       2.31725181       0.00000000      17.40910000  F        0        1
Si      -1.15862590       2.00679893      21.01516667  F        0        1
Si       1.30182410       2.25482548      19.21213333  F        0        1
O        1.38326499       1.13103512      18.06143746  F        1        1
O        0.28787265       1.76346018      20.36282921  F        1        1
O        3.24976236       0.63242506      21.66750413  F        1        1
O        0.78931236       3.62919935      18.55979587  F        1        1
O        2.74832265       2.49816423      19.86447079  F        1        1
O       -1.07718501       3.13058929      22.16586254  F        1        1
Si       7.23815181       0.00000000      12.00000000  F        0        2
Si       3.76227409       2.00679893      15.60606667  F        0        2
Si       6.22272410       2.25482548      13.80303333  F        0        2
O        6.30416499       1.13103512      12.65233746  F        1        2
O        5.20877265       1.76346018      14.95372921  F        1        2
O        8.17066236       0.63242506      16.25840413  F        1        2
O        5.71021236       3.62919935      13.15069587  F        1        2
O        7.66922265       2.49816423      14.45537079  F        1        2
O        3.84371499       3.13058929      16.75676254  F        1        2
Si       7.23815181       0.00000000      17.40910000  F        0        1
Si       3.76227409       2.00679893      21.01516667  F        0        1
Si       6.22272410       2.25482548      19.21213333  F        0        1
O        6.30416499       1.13103512      18.06143746  F        1        1
O        5.20877265       1.76346018      20.36282921  F        1        1
O        8.17066236       0.63242506      21.66750413  F        1        1
O        5.71021236       3.62919935      18.55979587  F        1        1
O        7.66922265       2.49816423      19.86447079  F        1        1
O        3.84371499       3.13058929      22.16586254  F        1        1
Si       3.50601823       1.31961200      26.33392555  T        0        0
Cl       1.47160519       1.31961200      26.33392555  T        0        0
Cl       4.18415591       1.31961200      24.41586254  T        0        0
Cl       4.18415591       2.98070329      27.29295705  T        0        0
Cl       4.18415591      -0.34147929      27.29295705  T        0        0
41
Lattice="9.8418 0.0 0.0 -2.460449999999999 4.261624409482844 0.0 0.0 -0.0 34.16586254" Properties=species:S:1:pos:R:3:move_mask:L:1:spacegroup_kinds:I:1:tags:I:1 spacegroup="P 32 2 1" unit_cell=conventional surface=alpha_quartz_001 species=SiCl4 site=bridge_Si_O orientation=parallel height_A=1.9 substrate_atoms=36 calculation_kind="Rigid evaluated approach scan; not NEB" energy=-283.25317872540046 pbc="T T F"
Si       2.31725181       0.00000000      12.00000000  F        0        2
Si      -1.15862590       2.00679893      15.60606667  F        0        2
Si       1.30182410       2.25482548      13.80303333  F        0        2
O        1.38326499       1.13103512      12.65233746  F        1        2
O        0.28787265       1.76346018      14.95372921  F        1        2
O        3.24976236       0.63242506      16.25840413  F        1        2
O        0.78931236       3.62919935      13.15069587  F        1        2
O        2.74832265       2.49816423      14.45537079  F        1        2
O       -1.07718501       3.13058929      16.75676254  F        1        2
Si       2.31725181       0.00000000      17.40910000  F        0        1
Si      -1.15862590       2.00679893      21.01516667  F        0        1
Si       1.30182410       2.25482548      19.21213333  F        0        1
O        1.38326499       1.13103512      18.06143746  F        1        1
O        0.28787265       1.76346018      20.36282921  F        1        1
O        3.24976236       0.63242506      21.66750413  F        1        1
O        0.78931236       3.62919935      18.55979587  F        1        1
O        2.74832265       2.49816423      19.86447079  F        1        1
O       -1.07718501       3.13058929      22.16586254  F        1        1
Si       7.23815181       0.00000000      12.00000000  F        0        2
Si       3.76227409       2.00679893      15.60606667  F        0        2
Si       6.22272410       2.25482548      13.80303333  F        0        2
O        6.30416499       1.13103512      12.65233746  F        1        2
O        5.20877265       1.76346018      14.95372921  F        1        2
O        8.17066236       0.63242506      16.25840413  F        1        2
O        5.71021236       3.62919935      13.15069587  F        1        2
O        7.66922265       2.49816423      14.45537079  F        1        2
O        3.84371499       3.13058929      16.75676254  F        1        2
Si       7.23815181       0.00000000      17.40910000  F        0        1
Si       3.76227409       2.00679893      21.01516667  F        0        1
Si       6.22272410       2.25482548      19.21213333  F        0        1
O        6.30416499       1.13103512      18.06143746  F        1        1
O        5.20877265       1.76346018      20.36282921  F        1        1
O        8.17066236       0.63242506      21.66750413  F        1        1
O        5.71021236       3.62919935      18.55979587  F        1        1
O        7.66922265       2.49816423      19.86447079  F        1        1
O        3.84371499       3.13058929      22.16586254  F        1        1
Si       3.50601823       1.31961200      25.98392555  T        0        0
Cl       1.47160519       1.31961200      25.98392555  T        0        0
Cl       4.18415591       1.31961200      24.06586254  T        0        0
Cl       4.18415591       2.98070329      26.94295705  T        0        0
Cl       4.18415591      -0.34147929      26.94295705  T        0        0
41
Lattice="9.8418 0.0 0.0 -2.460449999999999 4.261624409482844 0.0 0.0 -0.0 34.16586254" Properties=species:S:1:pos:R:3:move_mask:L:1:spacegroup_kinds:I:1:tags:I:1 spacegroup="P 32 2 1" unit_cell=conventional surface=alpha_quartz_001 species=SiCl4 site=bridge_Si_O orientation=parallel height_A=1.6 substrate_atoms=36 calculation_kind="Rigid evaluated approach scan; not NEB" energy=-282.95343535753835 pbc="T T F"
Si       2.31725181       0.00000000      12.00000000  F        0        2
Si      -1.15862590       2.00679893      15.60606667  F        0        2
Si       1.30182410       2.25482548      13.80303333  F        0        2
O        1.38326499       1.13103512      12.65233746  F        1        2
O        0.28787265       1.76346018      14.95372921  F        1        2
O        3.24976236       0.63242506      16.25840413  F        1        2
O        0.78931236       3.62919935      13.15069587  F        1        2
O        2.74832265       2.49816423      14.45537079  F        1        2
O       -1.07718501       3.13058929      16.75676254  F        1        2
Si       2.31725181       0.00000000      17.40910000  F        0        1
Si      -1.15862590       2.00679893      21.01516667  F        0        1
Si       1.30182410       2.25482548      19.21213333  F        0        1
O        1.38326499       1.13103512      18.06143746  F        1        1
O        0.28787265       1.76346018      20.36282921  F        1        1
O        3.24976236       0.63242506      21.66750413  F        1        1
O        0.78931236       3.62919935      18.55979587  F        1        1
O        2.74832265       2.49816423      19.86447079  F        1        1
O       -1.07718501       3.13058929      22.16586254  F        1        1
Si       7.23815181       0.00000000      12.00000000  F        0        2
Si       3.76227409       2.00679893      15.60606667  F        0        2
Si       6.22272410       2.25482548      13.80303333  F        0        2
O        6.30416499       1.13103512      12.65233746  F        1        2
O        5.20877265       1.76346018      14.95372921  F        1        2
O        8.17066236       0.63242506      16.25840413  F        1        2
O        5.71021236       3.62919935      13.15069587  F        1        2
O        7.66922265       2.49816423      14.45537079  F        1        2
O        3.84371499       3.13058929      16.75676254  F        1        2
Si       7.23815181       0.00000000      17.40910000  F        0        1
Si       3.76227409       2.00679893      21.01516667  F        0        1
Si       6.22272410       2.25482548      19.21213333  F        0        1
O        6.30416499       1.13103512      18.06143746  F        1        1
O        5.20877265       1.76346018      20.36282921  F        1        1
O        8.17066236       0.63242506      21.66750413  F        1        1
O        5.71021236       3.62919935      18.55979587  F        1        1
O        7.66922265       2.49816423      19.86447079  F        1        1
O        3.84371499       3.13058929      22.16586254  F        1        1
Si       3.50601823       1.31961200      25.68392555  T        0        0
Cl       1.47160519       1.31961200      25.68392555  T        0        0
Cl       4.18415591       1.31961200      23.76586254  T        0        0
Cl       4.18415591       2.98070329      26.64295705  T        0        0
Cl       4.18415591      -0.34147929      26.64295705  T        0        0
41
Lattice="9.8418 0.0 0.0 -2.460449999999999 4.261624409482844 0.0 0.0 -0.0 34.16586254" Properties=species:S:1:pos:R:3:move_mask:L:1:spacegroup_kinds:I:1:tags:I:1 spacegroup="P 32 2 1" unit_cell=conventional surface=alpha_quartz_001 species=SiCl4 site=bridge_Si_O orientation=parallel height_A=1.3 substrate_atoms=36 calculation_kind="Rigid evaluated approach scan; not NEB" energy=-282.31291233165945 pbc="T T F"
Si       2.31725181       0.00000000      12.00000000  F        0        2
Si      -1.15862590       2.00679893      15.60606667  F        0        2
Si       1.30182410       2.25482548      13.80303333  F        0        2
O        1.38326499       1.13103512      12.65233746  F        1        2
O        0.28787265       1.76346018      14.95372921  F        1        2
O        3.24976236       0.63242506      16.25840413  F        1        2
O        0.78931236       3.62919935      13.15069587  F        1        2
O        2.74832265       2.49816423      14.45537079  F        1        2
O       -1.07718501       3.13058929      16.75676254  F        1        2
Si       2.31725181       0.00000000      17.40910000  F        0        1
Si      -1.15862590       2.00679893      21.01516667  F        0        1
Si       1.30182410       2.25482548      19.21213333  F        0        1
O        1.38326499       1.13103512      18.06143746  F        1        1
O        0.28787265       1.76346018      20.36282921  F        1        1
O        3.24976236       0.63242506      21.66750413  F        1        1
O        0.78931236       3.62919935      18.55979587  F        1        1
O        2.74832265       2.49816423      19.86447079  F        1        1
O       -1.07718501       3.13058929      22.16586254  F        1        1
Si       7.23815181       0.00000000      12.00000000  F        0        2
Si       3.76227409       2.00679893      15.60606667  F        0        2
Si       6.22272410       2.25482548      13.80303333  F        0        2
O        6.30416499       1.13103512      12.65233746  F        1        2
O        5.20877265       1.76346018      14.95372921  F        1        2
O        8.17066236       0.63242506      16.25840413  F        1        2
O        5.71021236       3.62919935      13.15069587  F        1        2
O        7.66922265       2.49816423      14.45537079  F        1        2
O        3.84371499       3.13058929      16.75676254  F        1        2
Si       7.23815181       0.00000000      17.40910000  F        0        1
Si       3.76227409       2.00679893      21.01516667  F        0        1
Si       6.22272410       2.25482548      19.21213333  F        0        1
O        6.30416499       1.13103512      18.06143746  F        1        1
O        5.20877265       1.76346018      20.36282921  F        1        1
O        8.17066236       0.63242506      21.66750413  F        1        1
O        5.71021236       3.62919935      18.55979587  F        1        1
O        7.66922265       2.49816423      19.86447079  F        1        1
O        3.84371499       3.13058929      22.16586254  F        1        1
Si       3.50601823       1.31961200      25.38392555  T        0        0
Cl       1.47160519       1.31961200      25.38392555  T        0        0
Cl       4.18415591       1.31961200      23.46586254  T        0        0
Cl       4.18415591       2.98070329      26.34295705  T        0        0
Cl       4.18415591      -0.34147929      26.34295705  T        0        0
