33
Lattice="7.6044 0.0 0.0 -3.802199999999998 6.585603580538386 0.0 0.0 -0.0 28.35945" Properties=species:S:1:pos:R:3:move_mask:L:1:spacegroup_kinds:I:1:tags:I:1:forces:R:3 spacegroup="P 63/m" unit_cell=conventional occupancy="_JSON {\"0\": {\"Si\": 1.0}, \"1\": {\"N\": 1.0}, \"2\": {\"N\": 1.0}}" energy=-234.9070767357814 pbc="T T F"
Si       5.18010587       1.14956320      12.00000000  F        0        2       1.71489303       1.25523272       1.30643693
Si      -1.37790587       5.43604038      13.45315000  F        0        2      -0.02154105       0.51170432      -1.66528205
Si       4.01879613       3.91132168      12.00000000  F        0        2      -1.93843305       0.85193348       1.33668290
Si      -0.21659613       2.67428190      13.45315000  F        0        2      -0.32039568      -0.27649392      -1.69335965
Si       2.20769800       1.52471870      12.00000000  F        0        2       0.20558825      -2.09028216       1.53286307
Si       1.59450200       5.06088488      13.45315000  F        0        2       0.41104611      -0.22370900      -1.67606728
N       -1.02370433       2.17482973      12.00000000  F        1        2      -0.63768537      -0.64190411       0.17236044
N        4.82590433       4.41077385      13.45315000  F        1        2       0.49418226       0.00213554      -0.19925190
N        2.43059437       4.61163476      12.00000000  F        1        2       0.85394262      -0.19301110       0.17480991
N        1.37160563       1.97396882      13.45315000  F        1        2      -0.20029347       0.37792077       0.02496434
N       -1.40689004       6.38474267      12.00000000  F        1        2      -0.26008572       0.82132287       0.14751035
N        5.20909004       0.20086091      13.45315000  F        1        2      -0.23374613      -0.38733951      -0.22018124
N        3.80216198       2.19517924      12.00000000  F        2        2       0.01731475      -0.00415879      -1.77339862
N        0.00003802       4.39042434      13.45315000  F        2        2      -0.01440559       0.02137119       0.60549474
Si       5.18010587       1.14956320      14.90630000  F        0        1       0.04074388      -0.52771434       1.34991599
Si      -1.37790587       5.43604038      16.35945000  F        0        1      -1.84683564      -1.30104733      -1.52802957
Si       4.01879613       3.91132168      14.90630000  F        0        1       0.40269486       0.31418117       1.31122432
Si      -0.21659613       2.67428190      16.35945000  F        0        1       1.92717826      -0.96194262      -1.37566467
Si       2.17918820       1.52678139      14.96202424  T        0        1       0.00174705      -0.00119906      -0.00453197
Si       1.59450200       5.06088488      16.35945000  F        0        1      -0.17431337       2.16285585      -1.32318664
N       -1.02370433       2.17482973      14.90630000  F        1        1      -0.41196213       0.04435989       0.42414790
N        4.82590433       4.41077385      16.35945000  F        1        1       0.65329298       0.73978658      -0.09913247
N        2.43059437       4.61163476      14.90630000  F        1        1       0.17929960      -0.42572003       0.51641504
N        1.37160563       1.97396882      16.35945000  F        1        1      -1.37441338       0.46349208       0.53593936
N       -1.40689004       6.38474267      14.90630000  F        1        1       0.22102710       0.33896789       0.55470320
N        5.20909004       0.20086091      16.35945000  F        1        1       0.27302271      -0.85609249      -0.15402514
N        3.79151604       2.19113258      14.82600793  T        2        1       0.00599394       0.00418117      -0.00079488
N        0.00003802       4.39042434      16.35945000  F        2        1       0.04315189      -0.02490863       1.71412688
F        3.44600976       2.85218352      19.19248340  T        0        0      -0.00625712       0.00269611       0.00158656
C        4.02925752       2.05004157      18.18161423  T        0        0      -0.00621320      -0.00710360      -0.00225909
H        3.18325653       1.59313873      17.66558936  T        0        0       0.00102752       0.00990074       0.00431073
H        4.55003300       2.77711045      17.54508368  T        0        0       0.00238098       0.00310322       0.00154950
H        4.68089443       1.33893188      18.69013461  T        0        0      -0.00194690      -0.00251891       0.00012303
