38
Lattice="11.518769465528859 0.0 0.0 0.0 7.679179643685906 0.0 0.0 0.0 30.7875" Properties=species:S:1:pos:R:3:move_mask:L:1:tags:I:1:forces:R:3 surface=Si100 species=H2 site=atop_Si orientation=upright height_A=6.5 substrate_atoms=36 calculation_kind="Rigid evaluated approach scan; not NEB" energy=-186.84483600269022 pbc="T T F"
Si       0.00000000       0.00000000      12.00000000  F        6      -0.00000004       0.00000000       0.24903484
Si       3.83958982       0.00000000      12.00000000  F        6      -0.00000000       0.00000000       0.24903482
Si       7.67917964       0.00000000      12.00000000  F        6       0.00000000       0.00000000       0.24903482
Si       0.00000000       3.83958982      12.00000000  F        6      -0.00000004      -0.00000000       0.24903484
Si       3.83958982       3.83958982      12.00000000  F        6      -0.00000000      -0.00000000       0.24903482
Si       7.67917964       3.83958982      12.00000000  F        6       0.00000000      -0.00000000       0.24903482
Si       1.91979491       0.00000000      13.35750000  F        5       0.00000000      -0.00000002      -0.52822352
Si       5.75938473       0.00000000      13.35750000  F        5       0.00000000      -0.00000002      -0.52822353
Si       9.59897455       0.00000000      13.35750000  F        5       0.00000003      -0.00000002      -0.52822354
Si       1.91979491       3.83958982      13.35750000  F        5       0.00000000       0.00000000      -0.52822354
Si       5.75938473       3.83958982      13.35750000  F        5       0.00000000       0.00000000      -0.52822354
Si       9.59897455       3.83958982      13.35750000  F        5       0.00000003       0.00000000      -0.52822356
Si       1.91979491       1.91979491      14.71500000  F        4      -0.00000000       0.00000000       0.14537709
Si       5.75938473       1.91979491      14.71500000  F        4       0.00000000       0.00000000       0.14537709
Si       9.59897455       1.91979491      14.71500000  F        4       0.00000004       0.00000000       0.14537711
Si       1.91979491       5.75938473      14.71500000  F        4      -0.00000000       0.00000002       0.14537707
Si       5.75938473       5.75938473      14.71500000  F        4       0.00000000       0.00000002       0.14537707
Si       9.59897455       5.75938473      14.71500000  F        4       0.00000004       0.00000002       0.14537709
Si       0.00000000       1.91979491      16.07250000  F        3      -0.00000004       0.00000000      -0.14537711
Si       3.83958982       1.91979491      16.07250000  F        3      -0.00000000       0.00000000      -0.14537709
Si       7.67917964       1.91979491      16.07250000  F        3       0.00000000       0.00000000      -0.14537709
Si       0.00000000       5.75938473      16.07250000  F        3      -0.00000004       0.00000002      -0.14537709
Si       3.83958982       5.75938473      16.07250000  F        3      -0.00000000       0.00000002      -0.14537707
Si       7.67917964       5.75938473      16.07250000  F        3       0.00000000       0.00000002      -0.14537707
Si       0.00000000       0.00000000      17.43000000  F        2      -0.00000003      -0.00000002       0.52822354
Si       3.83958982       0.00000000      17.43000000  F        2      -0.00000000      -0.00000002       0.52822353
Si       7.67917964       0.00000000      17.43000000  F        2      -0.00000000      -0.00000002       0.52822352
Si       0.00000000       3.83958982      17.43000000  F        2      -0.00000003       0.00000000       0.52822356
Si       3.83958982       3.83958982      17.43000000  F        2      -0.00000000       0.00000000       0.52822354
Si       7.67917964       3.83958982      17.43000000  F        2      -0.00000000       0.00000000       0.52822354
Si       1.91979491       0.00000000      18.78750000  F        1      -0.00000000       0.00000000      -0.24903482
Si       5.75938473       0.00000000      18.78750000  F        1       0.00000000       0.00000000      -0.24903482
Si       9.59897455       0.00000000      18.78750000  F        1       0.00000004       0.00000000      -0.24903484
Si       1.91979491       3.83958982      18.78750000  F        1      -0.00000000      -0.00000000      -0.24903482
Si       5.75938473       3.83958982      18.78750000  F        1       0.00000000      -0.00000000      -0.24903482
Si       9.59897455       3.83958982      18.78750000  F        1       0.00000004      -0.00000000      -0.24903484
H        5.75938473       3.83958982      25.28750000  T        0       0.00000000       0.00000000      -0.00400540
H        5.75938473       3.83958982      26.03830562  T        0       0.00000000       0.00000000       0.00400540
38
Lattice="11.518769465528859 0.0 0.0 0.0 7.679179643685906 0.0 0.0 0.0 30.7875" Properties=species:S:1:pos:R:3:move_mask:L:1:tags:I:1:forces:R:3 surface=Si100 species=H2 site=atop_Si orientation=upright height_A=5.0 substrate_atoms=36 calculation_kind="Rigid evaluated approach scan; not NEB" energy=-186.84483600269022 pbc="T T F"
Si       0.00000000       0.00000000      12.00000000  F        6      -0.00000004       0.00000000       0.24903484
Si       3.83958982       0.00000000      12.00000000  F        6      -0.00000000       0.00000000       0.24903482
Si       7.67917964       0.00000000      12.00000000  F        6       0.00000000       0.00000000       0.24903482
Si       0.00000000       3.83958982      12.00000000  F        6      -0.00000004      -0.00000000       0.24903484
Si       3.83958982       3.83958982      12.00000000  F        6      -0.00000000      -0.00000000       0.24903482
Si       7.67917964       3.83958982      12.00000000  F        6       0.00000000      -0.00000000       0.24903482
Si       1.91979491       0.00000000      13.35750000  F        5       0.00000000      -0.00000002      -0.52822352
Si       5.75938473       0.00000000      13.35750000  F        5       0.00000000      -0.00000002      -0.52822353
Si       9.59897455       0.00000000      13.35750000  F        5       0.00000003      -0.00000002      -0.52822354
Si       1.91979491       3.83958982      13.35750000  F        5       0.00000000       0.00000000      -0.52822354
Si       5.75938473       3.83958982      13.35750000  F        5       0.00000000       0.00000000      -0.52822354
Si       9.59897455       3.83958982      13.35750000  F        5       0.00000003       0.00000000      -0.52822356
Si       1.91979491       1.91979491      14.71500000  F        4      -0.00000000       0.00000000       0.14537709
Si       5.75938473       1.91979491      14.71500000  F        4       0.00000000       0.00000000       0.14537709
Si       9.59897455       1.91979491      14.71500000  F        4       0.00000004       0.00000000       0.14537711
Si       1.91979491       5.75938473      14.71500000  F        4      -0.00000000       0.00000002       0.14537707
Si       5.75938473       5.75938473      14.71500000  F        4       0.00000000       0.00000002       0.14537707
Si       9.59897455       5.75938473      14.71500000  F        4       0.00000004       0.00000002       0.14537709
Si       0.00000000       1.91979491      16.07250000  F        3      -0.00000004       0.00000000      -0.14537711
Si       3.83958982       1.91979491      16.07250000  F        3      -0.00000000       0.00000000      -0.14537709
Si       7.67917964       1.91979491      16.07250000  F        3       0.00000000       0.00000000      -0.14537709
Si       0.00000000       5.75938473      16.07250000  F        3      -0.00000004       0.00000002      -0.14537709
Si       3.83958982       5.75938473      16.07250000  F        3      -0.00000000       0.00000002      -0.14537707
Si       7.67917964       5.75938473      16.07250000  F        3       0.00000000       0.00000002      -0.14537707
Si       0.00000000       0.00000000      17.43000000  F        2      -0.00000003      -0.00000002       0.52822354
Si       3.83958982       0.00000000      17.43000000  F        2      -0.00000000      -0.00000002       0.52822353
Si       7.67917964       0.00000000      17.43000000  F        2      -0.00000000      -0.00000002       0.52822352
Si       0.00000000       3.83958982      17.43000000  F        2      -0.00000003       0.00000000       0.52822356
Si       3.83958982       3.83958982      17.43000000  F        2      -0.00000000       0.00000000       0.52822354
Si       7.67917964       3.83958982      17.43000000  F        2      -0.00000000       0.00000000       0.52822354
Si       1.91979491       0.00000000      18.78750000  F        1      -0.00000000       0.00000000      -0.24903482
Si       5.75938473       0.00000000      18.78750000  F        1       0.00000000       0.00000000      -0.24903482
Si       9.59897455       0.00000000      18.78750000  F        1       0.00000004       0.00000000      -0.24903484
Si       1.91979491       3.83958982      18.78750000  F        1      -0.00000000      -0.00000000      -0.24903482
Si       5.75938473       3.83958982      18.78750000  F        1       0.00000000      -0.00000000      -0.24903482
Si       9.59897455       3.83958982      18.78750000  F        1       0.00000004      -0.00000000      -0.24903484
H        5.75938473       3.83958982      23.78750000  T        0       0.00000000       0.00000000      -0.00400540
H        5.75938473       3.83958982      24.53830562  T        0       0.00000000       0.00000000       0.00400540
38
Lattice="11.518769465528859 0.0 0.0 0.0 7.679179643685906 0.0 0.0 0.0 30.7875" Properties=species:S:1:pos:R:3:move_mask:L:1:tags:I:1:forces:R:3 surface=Si100 species=H2 site=atop_Si orientation=upright height_A=4.0 substrate_atoms=36 calculation_kind="Rigid evaluated approach scan; not NEB" energy=-186.81487068035705 pbc="T T F"
Si       0.00000000       0.00000000      12.00000000  F        6      -0.00000004       0.00000000       0.24865538
Si       3.83958982       0.00000000      12.00000000  F        6       0.00042430       0.00000000       0.24890164
Si       7.67917964       0.00000000      12.00000000  F        6      -0.00042429       0.00000000       0.24890164
Si       0.00000000       3.83958982      12.00000000  F        6      -0.00000004      -0.00000000       0.24898154
Si       3.83958982       3.83958982      12.00000000  F        6       0.00038351      -0.00000000       0.24949461
Si       7.67917964       3.83958982      12.00000000  F        6      -0.00038351      -0.00000000       0.24949461
Si       1.91979491       0.00000000      13.35750000  F        5      -0.00083424      -0.00000002      -0.52848132
Si       5.75938473       0.00000000      13.35750000  F        5       0.00000000      -0.00000002      -0.52889900
Si       9.59897455       0.00000000      13.35750000  F        5       0.00083427      -0.00000002      -0.52848134
Si       1.91979491       3.83958982      13.35750000  F        5       0.00030797       0.00000000      -0.52787108
Si       5.75938473       3.83958982      13.35750000  F        5       0.00000000       0.00000000      -0.52784472
Si       9.59897455       3.83958982      13.35750000  F        5      -0.00030793       0.00000000      -0.52787110
Si       1.91979491       1.91979491      14.71500000  F        4       0.00081398       0.00036666       0.14473783
Si       5.75938473       1.91979491      14.71500000  F        4       0.00000000      -0.00246149       0.13762568
Si       9.59897455       1.91979491      14.71500000  F        4      -0.00081394       0.00036666       0.14473785
Si       1.91979491       5.75938473      14.71500000  F        4       0.00081398      -0.00036664       0.14473781
Si       5.75938473       5.75938473      14.71500000  F        4       0.00000000       0.00246151       0.13762566
Si       9.59897455       5.75938473      14.71500000  F        4      -0.00081394      -0.00036664       0.14473784
Si       0.00000000       1.91979491      16.07250000  F        3      -0.00000004      -0.00123308      -0.14660783
Si       3.83958982       1.91979491      16.07250000  F        3      -0.00719692      -0.00298602      -0.14878739
Si       7.67917964       1.91979491      16.07250000  F        3       0.00719692      -0.00298602      -0.14878739
Si       0.00000000       5.75938473      16.07250000  F        3      -0.00000004       0.00123310      -0.14660782
Si       3.83958982       5.75938473      16.07250000  F        3      -0.00719692       0.00298604      -0.14878738
Si       7.67917964       5.75938473      16.07250000  F        3       0.00719692       0.00298604      -0.14878737
Si       0.00000000       0.00000000      17.43000000  F        2      -0.00000003      -0.00000002       0.53153763
Si       3.83958982       0.00000000      17.43000000  F        2       0.00232784      -0.00000002       0.53439348
Si       7.67917964       0.00000000      17.43000000  F        2      -0.00232784      -0.00000002       0.53439347
Si       0.00000000       3.83958982      17.43000000  F        2      -0.00000003       0.00000000       0.54027001
Si       3.83958982       3.83958982      17.43000000  F        2       0.01636784       0.00000000       0.51521470
Si       7.67917964       3.83958982      17.43000000  F        2      -0.01636784       0.00000000       0.51521470
Si       1.91979491       0.00000000      18.78750000  F        1       0.00032151       0.00000000      -0.25111485
Si       5.75938473       0.00000000      18.78750000  F        1       0.00000000       0.00000000      -0.23865734
Si       9.59897455       0.00000000      18.78750000  F        1      -0.00032148       0.00000000      -0.25111486
Si       1.91979491       3.83958982      18.78750000  F        1      -0.00671060      -0.00000000      -0.25089122
Si       5.75938473       3.83958982      18.78750000  F        1       0.00000000      -0.00000000      -0.25962327
Si       9.59897455       3.83958982      18.78750000  F        1       0.00671063      -0.00000000      -0.25089124
H        5.75938473       3.83958982      22.78750000  T        0       0.00000000      -0.00000000       0.03321618
H        5.75938473       3.83958982      23.53830562  T        0      -0.00000000      -0.00000000       0.00723426
38
Lattice="11.518769465528859 0.0 0.0 0.0 7.679179643685906 0.0 0.0 0.0 30.7875" Properties=species:S:1:pos:R:3:move_mask:L:1:tags:I:1:forces:R:3 surface=Si100 species=H2 site=atop_Si orientation=upright height_A=3.25 substrate_atoms=36 calculation_kind="Rigid evaluated approach scan; not NEB" energy=-186.75536993665133 pbc="T T F"
Si       0.00000000       0.00000000      12.00000000  F        6      -0.00000004       0.00000000       0.24840321
Si       3.83958982       0.00000000      12.00000000  F        6       0.00083201       0.00000000       0.24954789
Si       7.67917964       0.00000000      12.00000000  F        6      -0.00083201       0.00000000       0.24954789
Si       0.00000000       3.83958982      12.00000000  F        6      -0.00000004      -0.00000000       0.24874003
Si       3.83958982       3.83958982      12.00000000  F        6       0.00049465      -0.00000000       0.24994306
Si       7.67917964       3.83958982      12.00000000  F        6      -0.00049464      -0.00000000       0.24994306
Si       1.91979491       0.00000000      13.35750000  F        5      -0.00110897      -0.00000002      -0.52806471
Si       5.75938473       0.00000000      13.35750000  F        5       0.00000000      -0.00000002      -0.53000126
Si       9.59897455       0.00000000      13.35750000  F        5       0.00110901      -0.00000002      -0.52806473
Si       1.91979491       3.83958982      13.35750000  F        5       0.00075163       0.00000000      -0.52721048
Si       5.75938473       3.83958982      13.35750000  F        5       0.00000000       0.00000000      -0.52881164
Si       9.59897455       3.83958982      13.35750000  F        5      -0.00075160       0.00000000      -0.52721051
Si       1.91979491       1.91979491      14.71500000  F        4       0.00275983      -0.00010307       0.14433648
Si       5.75938473       1.91979491      14.71500000  F        4       0.00000000      -0.01404509       0.11517581
Si       9.59897455       1.91979491      14.71500000  F        4      -0.00275979      -0.00010307       0.14433651
Si       1.91979491       5.75938473      14.71500000  F        4       0.00275983       0.00010309       0.14433647
Si       5.75938473       5.75938473      14.71500000  F        4       0.00000000       0.01404511       0.11517579
Si       9.59897455       5.75938473      14.71500000  F        4      -0.00275979       0.00010309       0.14433649
Si       0.00000000       1.91979491      16.07250000  F        3      -0.00000004      -0.00534428      -0.15031942
Si       3.83958982       1.91979491      16.07250000  F        3      -0.02188856      -0.00668573      -0.15066863
Si       7.67917964       1.91979491      16.07250000  F        3       0.02188856      -0.00668573      -0.15066862
Si       0.00000000       5.75938473      16.07250000  F        3      -0.00000004       0.00534430      -0.15031940
Si       3.83958982       5.75938473      16.07250000  F        3      -0.02188856       0.00668575      -0.15066861
Si       7.67917964       5.75938473      16.07250000  F        3       0.02188856       0.00668575      -0.15066861
Si       0.00000000       0.00000000      17.43000000  F        2      -0.00000003      -0.00000002       0.53315028
Si       3.83958982       0.00000000      17.43000000  F        2       0.01131622      -0.00000002       0.54527459
Si       7.67917964       0.00000000      17.43000000  F        2      -0.01131622      -0.00000002       0.54527458
Si       0.00000000       3.83958982      17.43000000  F        2      -0.00000003       0.00000000       0.55776050
Si       3.83958982       3.83958982      17.43000000  F        2       0.02087997       0.00000000       0.47905692
Si       7.67917964       3.83958982      17.43000000  F        2      -0.02087998       0.00000000       0.47905692
Si       1.91979491       0.00000000      18.78750000  F        1       0.00012642       0.00000000      -0.25207092
Si       5.75938473       0.00000000      18.78750000  F        1       0.00000000       0.00000000      -0.22650011
Si       9.59897455       0.00000000      18.78750000  F        1      -0.00012638       0.00000000      -0.25207094
Si       1.91979491       3.83958982      18.78750000  F        1       0.00171039      -0.00000000      -0.24993285
Si       5.75938473       3.83958982      18.78750000  F        1       0.00000000      -0.00000000      -0.18610007
Si       9.59897455       3.83958982      18.78750000  F        1      -0.00171035      -0.00000000      -0.24993286
H        5.75938473       3.83958982      22.03750000  T        0       0.00000000      -0.00000000       0.12895802
H        5.75938473       3.83958982      22.78830562  T        0       0.00000000      -0.00000000      -0.08307013
38
Lattice="11.518769465528859 0.0 0.0 0.0 7.679179643685906 0.0 0.0 0.0 30.7875" Properties=species:S:1:pos:R:3:move_mask:L:1:tags:I:1:forces:R:3 surface=Si100 species=H2 site=atop_Si orientation=upright height_A=2.75 substrate_atoms=36 calculation_kind="Rigid evaluated approach scan; not NEB" energy=-186.66480655194334 pbc="T T F"
Si       0.00000000       0.00000000      12.00000000  F        6      -0.00000004       0.00000000       0.24840922
Si       3.83958982       0.00000000      12.00000000  F        6       0.00085705       0.00000000       0.24933202
Si       7.67917964       0.00000000      12.00000000  F        6      -0.00085704       0.00000000       0.24933202
Si       0.00000000       3.83958982      12.00000000  F        6      -0.00000004      -0.00000000       0.24875769
Si       3.83958982       3.83958982      12.00000000  F        6       0.00087461      -0.00000000       0.25095922
Si       7.67917964       3.83958982      12.00000000  F        6      -0.00087461      -0.00000000       0.25095922
Si       1.91979491       0.00000000      13.35750000  F        5      -0.00087386      -0.00000002      -0.52772533
Si       5.75938473       0.00000000      13.35750000  F        5       0.00000000      -0.00000002      -0.53039254
Si       9.59897455       0.00000000      13.35750000  F        5       0.00087390      -0.00000002      -0.52772535
Si       1.91979491       3.83958982      13.35750000  F        5       0.00138679       0.00000000      -0.52707105
Si       5.75938473       3.83958982      13.35750000  F        5       0.00000000       0.00000000      -0.52465383
Si       9.59897455       3.83958982      13.35750000  F        5      -0.00138676       0.00000000      -0.52707107
Si       1.91979491       1.91979491      14.71500000  F        4      -0.00097583      -0.00012320       0.14101834
Si       5.75938473       1.91979491      14.71500000  F        4       0.00000000      -0.01409980       0.11580892
Si       9.59897455       1.91979491      14.71500000  F        4       0.00097587      -0.00012320       0.14101836
Si       1.91979491       5.75938473      14.71500000  F        4      -0.00097583       0.00012322       0.14101832
Si       5.75938473       5.75938473      14.71500000  F        4       0.00000000       0.01409982       0.11580891
Si       9.59897455       5.75938473      14.71500000  F        4       0.00097587       0.00012322       0.14101834
Si       0.00000000       1.91979491      16.07250000  F        3      -0.00000004      -0.00405888      -0.14941065
Si       3.83958982       1.91979491      16.07250000  F        3      -0.01492403      -0.01494442      -0.15072869
Si       7.67917964       1.91979491      16.07250000  F        3       0.01492403      -0.01494442      -0.15072869
Si       0.00000000       5.75938473      16.07250000  F        3      -0.00000004       0.00405890      -0.14941064
Si       3.83958982       5.75938473      16.07250000  F        3      -0.01492403       0.01494444      -0.15072868
Si       7.67917964       5.75938473      16.07250000  F        3       0.01492403       0.01494444      -0.15072868
Si       0.00000000       0.00000000      17.43000000  F        2      -0.00000003      -0.00000002       0.53306840
Si       3.83958982       0.00000000      17.43000000  F        2       0.02427033      -0.00000002       0.55761855
Si       7.67917964       0.00000000      17.43000000  F        2      -0.02427033      -0.00000002       0.55761854
Si       0.00000000       3.83958982      17.43000000  F        2      -0.00000003       0.00000000       0.55242801
Si       3.83958982       3.83958982      17.43000000  F        2      -0.05249419       0.00000000       0.39583663
Si       7.67917964       3.83958982      17.43000000  F        2       0.05249419       0.00000000       0.39583662
Si       1.91979491       0.00000000      18.78750000  F        1       0.00085474       0.00000000      -0.25270590
Si       5.75938473       0.00000000      18.78750000  F        1       0.00000000       0.00000000      -0.29800166
Si       9.59897455       0.00000000      18.78750000  F        1      -0.00085470       0.00000000      -0.25270592
Si       1.91979491       3.83958982      18.78750000  F        1       0.00178667      -0.00000000      -0.24504356
Si       5.75938473       3.83958982      18.78750000  F        1       0.00000000      -0.00000000      -0.28303990
Si       9.59897455       3.83958982      18.78750000  F        1      -0.00178663      -0.00000000      -0.24504358
H        5.75938473       3.83958982      21.53750000  T        0      -0.00000000       0.00000000       0.14242612
H        5.75938473       3.83958982      22.28830562  T        0      -0.00000000      -0.00000000       0.21464228
38
Lattice="11.518769465528859 0.0 0.0 0.0 7.679179643685906 0.0 0.0 0.0 30.7875" Properties=species:S:1:pos:R:3:move_mask:L:1:tags:I:1:forces:R:3 surface=Si100 species=H2 site=atop_Si orientation=upright height_A=2.25 substrate_atoms=36 calculation_kind="Rigid evaluated approach scan; not NEB" energy=-186.27840868542265 pbc="T T F"
Si       0.00000000       0.00000000      12.00000000  F        6      -0.00000004       0.00000000       0.25046161
Si       3.83958982       0.00000000      12.00000000  F        6       0.00097459       0.00000000       0.24944751
Si       7.67917964       0.00000000      12.00000000  F        6      -0.00097459       0.00000000       0.24944751
Si       0.00000000       3.83958982      12.00000000  F        6      -0.00000004      -0.00000000       0.24859329
Si       3.83958982       3.83958982      12.00000000  F        6       0.00230407      -0.00000000       0.25076154
Si       7.67917964       3.83958982      12.00000000  F        6      -0.00230406      -0.00000000       0.25076154
Si       1.91979491       0.00000000      13.35750000  F        5      -0.00135619      -0.00000002      -0.52938619
Si       5.75938473       0.00000000      13.35750000  F        5       0.00000000      -0.00000002      -0.52751554
Si       9.59897455       0.00000000      13.35750000  F        5       0.00135622      -0.00000002      -0.52938622
Si       1.91979491       3.83958982      13.35750000  F        5      -0.00140079       0.00000000      -0.53595938
Si       5.75938473       3.83958982      13.35750000  F        5       0.00000000       0.00000000      -0.50791002
Si       9.59897455       3.83958982      13.35750000  F        5       0.00140083       0.00000000      -0.53595940
Si       1.91979491       1.91979491      14.71500000  F        4      -0.00415163      -0.00262059       0.13676887
Si       5.75938473       1.91979491      14.71500000  F        4       0.00000000      -0.02439409       0.10686422
Si       9.59897455       1.91979491      14.71500000  F        4       0.00415166      -0.00262059       0.13676889
Si       1.91979491       5.75938473      14.71500000  F        4      -0.00415163       0.00262061       0.13676886
Si       5.75938473       5.75938473      14.71500000  F        4       0.00000000       0.02439411       0.10686421
Si       9.59897455       5.75938473      14.71500000  F        4       0.00415166       0.00262061       0.13676888
Si       0.00000000       1.91979491      16.07250000  F        3      -0.00000004      -0.00314537      -0.14471530
Si       3.83958982       1.91979491      16.07250000  F        3       0.00398483      -0.02318460      -0.14864444
Si       7.67917964       1.91979491      16.07250000  F        3      -0.00398483      -0.02318460      -0.14864444
Si       0.00000000       5.75938473      16.07250000  F        3      -0.00000004       0.00314539      -0.14471529
Si       3.83958982       5.75938473      16.07250000  F        3       0.00398483       0.02318463      -0.14864443
Si       7.67917964       5.75938473      16.07250000  F        3      -0.00398483       0.02318463      -0.14864442
Si       0.00000000       0.00000000      17.43000000  F        2      -0.00000003      -0.00000002       0.53489578
Si       3.83958982       0.00000000      17.43000000  F        2      -0.00497931      -0.00000002       0.54142003
Si       7.67917964       0.00000000      17.43000000  F        2       0.00497930      -0.00000002       0.54142002
Si       0.00000000       3.83958982      17.43000000  F        2      -0.00000003       0.00000000       0.55517512
Si       3.83958982       3.83958982      17.43000000  F        2      -0.19761921       0.00000000       0.26865421
Si       7.67917964       3.83958982      17.43000000  F        2       0.19761920       0.00000000       0.26865421
Si       1.91979491       0.00000000      18.78750000  F        1      -0.00215073       0.00000000      -0.25651161
Si       5.75938473       0.00000000      18.78750000  F        1       0.00000000       0.00000000      -0.33820714
Si       9.59897455       0.00000000      18.78750000  F        1       0.00215077       0.00000000      -0.25651163
Si       1.91979491       3.83958982      18.78750000  F        1      -0.02871137      -0.00000000      -0.25770537
Si       5.75938473       3.83958982      18.78750000  F        1       0.00000000      -0.00000000      -1.28025159
Si       9.59897455       3.83958982      18.78750000  F        1       0.02871141      -0.00000000      -0.25770539
H        5.75938473       3.83958982      21.03750000  T        0      -0.00000000      -0.00000000       1.02670929
H        5.75938473       3.83958982      21.78830562  T        0      -0.00000000       0.00000000       0.69981222
38
Lattice="11.518769465528859 0.0 0.0 0.0 7.679179643685906 0.0 0.0 0.0 30.7875" Properties=species:S:1:pos:R:3:move_mask:L:1:tags:I:1:forces:R:3 surface=Si100 species=H2 site=atop_Si orientation=upright height_A=1.9 substrate_atoms=36 calculation_kind="Rigid evaluated approach scan; not NEB" energy=-185.55667085653965 pbc="T T F"
Si       0.00000000       0.00000000      12.00000000  F        6      -0.00000004       0.00000000       0.25136746
Si       3.83958982       0.00000000      12.00000000  F        6       0.00089624       0.00000000       0.25068635
Si       7.67917964       0.00000000      12.00000000  F        6      -0.00089623       0.00000000       0.25068635
Si       0.00000000       3.83958982      12.00000000  F        6      -0.00000004      -0.00000000       0.24838711
Si       3.83958982       3.83958982      12.00000000  F        6       0.00311649      -0.00000000       0.25080582
Si       7.67917964       3.83958982      12.00000000  F        6      -0.00311649      -0.00000000       0.25080582
Si       1.91979491       0.00000000      13.35750000  F        5      -0.00086859      -0.00000002      -0.52960168
Si       5.75938473       0.00000000      13.35750000  F        5       0.00000000      -0.00000002      -0.53362868
Si       9.59897455       0.00000000      13.35750000  F        5       0.00086862      -0.00000002      -0.52960170
Si       1.91979491       3.83958982      13.35750000  F        5      -0.00307672       0.00000000      -0.54390949
Si       5.75938473       3.83958982      13.35750000  F        5       0.00000000       0.00000000      -0.49251567
Si       9.59897455       3.83958982      13.35750000  F        5       0.00307675       0.00000000      -0.54390951
Si       1.91979491       1.91979491      14.71500000  F        4      -0.00460262      -0.00486381       0.13731493
Si       5.75938473       1.91979491      14.71500000  F        4       0.00000000      -0.05810856       0.04912636
Si       9.59897455       1.91979491      14.71500000  F        4       0.00460266      -0.00486381       0.13731495
Si       1.91979491       5.75938473      14.71500000  F        4      -0.00460262       0.00486383       0.13731491
Si       5.75938473       5.75938473      14.71500000  F        4       0.00000000       0.05810859       0.04912634
Si       9.59897455       5.75938473      14.71500000  F        4       0.00460266       0.00486383       0.13731493
Si       0.00000000       1.91979491      16.07250000  F        3      -0.00000004      -0.00353447      -0.14169898
Si       3.83958982       1.91979491      16.07250000  F        3       0.00138478      -0.00601900      -0.12380973
Si       7.67917964       1.91979491      16.07250000  F        3      -0.00138477      -0.00601900      -0.12380972
Si       0.00000000       5.75938473      16.07250000  F        3      -0.00000004       0.00353449      -0.14169896
Si       3.83958982       5.75938473      16.07250000  F        3       0.00138478       0.00601903      -0.12380971
Si       7.67917964       5.75938473      16.07250000  F        3      -0.00138477       0.00601903      -0.12380971
Si       0.00000000       0.00000000      17.43000000  F        2      -0.00000003      -0.00000002       0.52941231
Si       3.83958982       0.00000000      17.43000000  F        2      -0.04076119      -0.00000002       0.51834030
Si       7.67917964       0.00000000      17.43000000  F        2       0.04076119      -0.00000002       0.51834030
Si       0.00000000       3.83958982      17.43000000  F        2      -0.00000003       0.00000000       0.57228871
Si       3.83958982       3.83958982      17.43000000  F        2      -0.44525808       0.00000000       0.21191733
Si       7.67917964       3.83958982      17.43000000  F        2       0.44525808       0.00000000       0.21191732
Si       1.91979491       0.00000000      18.78750000  F        1       0.00164204       0.00000000      -0.26269193
Si       5.75938473       0.00000000      18.78750000  F        1       0.00000000       0.00000000      -0.27867658
Si       9.59897455       0.00000000      18.78750000  F        1      -0.00164201       0.00000000      -0.26269194
Si       1.91979491       3.83958982      18.78750000  F        1      -0.02941035      -0.00000000      -0.27700693
Si       5.75938473       3.83958982      18.78750000  F        1       0.00000000      -0.00000000      -1.01150279
Si       9.59897455       3.83958982      18.78750000  F        1       0.02941038      -0.00000000      -0.27700695
H        5.75938473       3.83958982      20.68750000  T        0      -0.00000000      -0.00000000      -0.29788833
H        5.75938473       3.83958982      21.43830562  T        0      -0.00000000       0.00000000       1.90680139
38
Lattice="11.518769465528859 0.0 0.0 0.0 7.679179643685906 0.0 0.0 0.0 30.7875" Properties=species:S:1:pos:R:3:move_mask:L:1:tags:I:1:forces:R:3 surface=Si100 species=H2 site=atop_Si orientation=upright height_A=1.6 substrate_atoms=36 calculation_kind="Rigid evaluated approach scan; not NEB" energy=-185.1878611072488 pbc="T T F"
Si       0.00000000       0.00000000      12.00000000  F        6      -0.00000004       0.00000000       0.25174484
Si       3.83958982       0.00000000      12.00000000  F        6       0.00215005       0.00000000       0.25343241
Si       7.67917964       0.00000000      12.00000000  F        6      -0.00215005       0.00000000       0.25343241
Si       0.00000000       3.83958982      12.00000000  F        6      -0.00000004      -0.00000000       0.24847781
Si       3.83958982       3.83958982      12.00000000  F        6       0.00418839      -0.00000000       0.25144677
Si       7.67917964       3.83958982      12.00000000  F        6      -0.00418839      -0.00000000       0.25144677
Si       1.91979491       0.00000000      13.35750000  F        5      -0.00343704      -0.00000002      -0.52958025
Si       5.75938473       0.00000000      13.35750000  F        5       0.00000000      -0.00000002      -0.53716024
Si       9.59897455       0.00000000      13.35750000  F        5       0.00343707      -0.00000002      -0.52958027
Si       1.91979491       3.83958982      13.35750000  F        5      -0.00438086       0.00000000      -0.54462150
Si       5.75938473       3.83958982      13.35750000  F        5       0.00000000       0.00000000      -0.48518933
Si       9.59897455       3.83958982      13.35750000  F        5       0.00438090       0.00000000      -0.54462152
Si       1.91979491       1.91979491      14.71500000  F        4       0.00630321      -0.01521256       0.13971809
Si       5.75938473       1.91979491      14.71500000  F        4       0.00000000      -0.09078491       0.02614637
Si       9.59897455       1.91979491      14.71500000  F        4      -0.00630318      -0.01521256       0.13971811
Si       1.91979491       5.75938473      14.71500000  F        4       0.00630321       0.01521258       0.13971807
Si       5.75938473       5.75938473      14.71500000  F        4       0.00000000       0.09078493       0.02614636
Si       9.59897455       5.75938473      14.71500000  F        4      -0.00630318       0.01521258       0.13971810
Si       0.00000000       1.91979491      16.07250000  F        3      -0.00000004       0.00008769      -0.14266503
Si       3.83958982       1.91979491      16.07250000  F        3      -0.01617553      -0.02956536      -0.14022098
Si       7.67917964       1.91979491      16.07250000  F        3       0.01617553      -0.02956536      -0.14022098
Si       0.00000000       5.75938473      16.07250000  F        3      -0.00000004      -0.00008767      -0.14266502
Si       3.83958982       5.75938473      16.07250000  F        3      -0.01617553       0.02956539      -0.14022096
Si       7.67917964       5.75938473      16.07250000  F        3       0.01617553       0.02956539      -0.14022096
Si       0.00000000       0.00000000      17.43000000  F        2      -0.00000003      -0.00000002       0.51474252
Si       3.83958982       0.00000000      17.43000000  F        2      -0.09336257      -0.00000002       0.44901780
Si       7.67917964       0.00000000      17.43000000  F        2       0.09336257      -0.00000002       0.44901779
Si       0.00000000       3.83958982      17.43000000  F        2      -0.00000003       0.00000000       0.59767840
Si       3.83958982       3.83958982      17.43000000  F        2      -0.36536576       0.00000000       0.72170264
Si       7.67917964       3.83958982      17.43000000  F        2       0.36536576       0.00000000       0.72170263
Si       1.91979491       0.00000000      18.78750000  F        1       0.00872166       0.00000000      -0.25776374
Si       5.75938473       0.00000000      18.78750000  F        1       0.00000000       0.00000000      -0.14740222
Si       9.59897455       0.00000000      18.78750000  F        1      -0.00872162       0.00000000      -0.25776375
Si       1.91979491       3.83958982      18.78750000  F        1      -0.10019833      -0.00000000      -0.28908275
Si       5.75938473       3.83958982      18.78750000  F        1       0.00000000      -0.00000000      -1.59027159
Si       9.59897455       3.83958982      18.78750000  F        1       0.10019836      -0.00000000      -0.28908277
H        5.75938473       3.83958982      20.38750000  T        0      -0.00000000       0.00000000      -1.01339538
H        5.75938473       3.83958982      21.13830562  T        0      -0.00000000      -0.00000000       2.28672136
38
Lattice="11.518769465528859 0.0 0.0 0.0 7.679179643685906 0.0 0.0 0.0 30.7875" Properties=species:S:1:pos:R:3:move_mask:L:1:tags:I:1:forces:R:3 surface=Si100 species=H2 site=atop_Si orientation=upright height_A=1.3 substrate_atoms=36 calculation_kind="Rigid evaluated approach scan; not NEB" energy=-184.0286372668899 pbc="T T F"
Si       0.00000000       0.00000000      12.00000000  F        6      -0.00000004       0.00000000       0.25171015
Si       3.83958982       0.00000000      12.00000000  F        6       0.00345971       0.00000000       0.25352706
Si       7.67917964       0.00000000      12.00000000  F        6      -0.00345971       0.00000000       0.25352706
Si       0.00000000       3.83958982      12.00000000  F        6      -0.00000004      -0.00000000       0.24929931
Si       3.83958982       3.83958982      12.00000000  F        6       0.00448618      -0.00000000       0.25055368
Si       7.67917964       3.83958982      12.00000000  F        6      -0.00448617      -0.00000000       0.25055368
Si       1.91979491       0.00000000      13.35750000  F        5      -0.01043563      -0.00000002      -0.53407349
Si       5.75938473       0.00000000      13.35750000  F        5       0.00000000      -0.00000002      -0.54530846
Si       9.59897455       0.00000000      13.35750000  F        5       0.01043567      -0.00000002      -0.53407351
Si       1.91979491       3.83958982      13.35750000  F        5      -0.01213653       0.00000000      -0.55690920
Si       5.75938473       3.83958982      13.35750000  F        5       0.00000000       0.00000000      -0.48431884
Si       9.59897455       3.83958982      13.35750000  F        5       0.01213656       0.00000000      -0.55690923
Si       1.91979491       1.91979491      14.71500000  F        4       0.01954199      -0.02975762       0.14082797
Si       5.75938473       1.91979491      14.71500000  F        4       0.00000000      -0.05501283       0.11220733
Si       9.59897455       1.91979491      14.71500000  F        4      -0.01954196      -0.02975762       0.14082800
Si       1.91979491       5.75938473      14.71500000  F        4       0.01954199       0.02975765       0.14082796
Si       5.75938473       5.75938473      14.71500000  F        4       0.00000000       0.05501285       0.11220732
Si       9.59897455       5.75938473      14.71500000  F        4      -0.01954196       0.02975765       0.14082798
Si       0.00000000       1.91979491      16.07250000  F        3      -0.00000004      -0.01229340      -0.15993346
Si       3.83958982       1.91979491      16.07250000  F        3       0.03589998       0.03120249      -0.08240414
Si       7.67917964       1.91979491      16.07250000  F        3      -0.03589998       0.03120249      -0.08240414
Si       0.00000000       5.75938473      16.07250000  F        3      -0.00000004       0.01229342      -0.15993344
Si       3.83958982       5.75938473      16.07250000  F        3       0.03589998      -0.03120247      -0.08240413
Si       7.67917964       5.75938473      16.07250000  F        3      -0.03589998      -0.03120247      -0.08240413
Si       0.00000000       0.00000000      17.43000000  F        2      -0.00000003      -0.00000002       0.49972072
Si       3.83958982       0.00000000      17.43000000  F        2      -0.10219835      -0.00000002       0.43077257
Si       7.67917964       0.00000000      17.43000000  F        2       0.10219834      -0.00000002       0.43077257
Si       0.00000000       3.83958982      17.43000000  F        2      -0.00000003       0.00000000       0.64909376
Si       3.83958982       3.83958982      17.43000000  F        2      -0.45817072       0.00000000       0.94960633
Si       7.67917964       3.83958982      17.43000000  F        2       0.45817072       0.00000000       0.94960632
Si       1.91979491       0.00000000      18.78750000  F        1       0.01572692       0.00000000      -0.24726186
Si       5.75938473       0.00000000      18.78750000  F        1       0.00000000       0.00000000      -0.02972601
Si       9.59897455       0.00000000      18.78750000  F        1      -0.01572688       0.00000000      -0.24726188
Si       1.91979491       3.83958982      18.78750000  F        1      -0.09571219      -0.00000000      -0.26847486
Si       5.75938473       3.83958982      18.78750000  F        1       0.00000000       0.00000000     -10.55927714
Si       9.59897455       3.83958982      18.78750000  F        1       0.09571222      -0.00000000      -0.26847488
H        5.75938473       3.83958982      20.08750000  T        0      -0.00000000      -0.00000000       5.66402143
H        5.75938473       3.83958982      20.83830562  T        0      -0.00000000      -0.00000000       3.61106161
