40
Lattice="9.8418 0.0 0.0 -2.460449999999999 4.261624409482844 0.0 0.0 -0.0 34.16586254" Properties=species:S:1:pos:R:3:move_mask:L:1:spacegroup_kinds:I:1:tags:I:1:forces:R:3 surface=alpha_quartz_001 coadsorbate=HF start=1 calculation_kind="Local coadsorbate relaxation; not a reaction path" host_atoms=36 energy=-282.9564712465848 pbc="T T F"
Si       2.31725181       0.00000000      12.00000000  F        0        2      -0.13393216      -0.36596048      -1.70382470
Si      -1.15862590       2.00679893      15.60606667  F        0        2      -0.13356478       0.04821864       1.25633176
Si       1.30182410       2.25482548      13.80303333  F        0        2       0.03735097      -0.15721190       1.01381172
O        1.38326499       1.13103512      12.65233746  F        1        2      -0.50528086       0.21597799      -0.21730389
O        0.28787265       1.76346018      14.95372921  F        1        2       0.44908859      -0.24543668      -0.38390802
O        3.24976236       0.63242506      16.25840413  F        1        2      -0.24090279      -0.54276564       0.08735453
O        0.78931236       3.62919935      13.15069587  F        1        2       0.42517877       0.28451787       0.53757965
O        2.74832265       2.49816423      14.45537079  F        1        2       0.00632537       0.38497623      -0.73325743
O       -1.07718501       3.13058929      16.75676254  F        1        2       0.05370850       0.42955631       0.21777022
Si       2.31304207       0.01364189      17.46498788  T        0        1      -0.00090214       0.00013438      -0.00403558
Si      -1.19549155       1.75096613      21.12426914  T        0        1      -0.01017249       0.00255195       0.01528721
Si       1.30249155       2.27104205      19.31568676  T        0        1      -0.00841364      -0.00001600      -0.00155247
O        1.37558630       1.17089720      18.09445399  T        1        1      -0.00487043       0.00405494      -0.00357236
O        0.28358466       1.75738942      20.46065380  T        1        1      -0.00263390      -0.00161920       0.00003736
O        3.12615286       0.76245667      21.94712813  T        1        1       0.00724189      -0.00617508      -0.05531172
O        0.78269664       3.65251592      18.62496790  T        1        1      -0.00061504      -0.00036107       0.00088487
O        2.76337752       2.54725218      19.95260428  T        1        1       0.00315895       0.00145256       0.00505280
O       -1.28723433       2.29129873      22.66309812  T        1        1      -0.00429287      -0.00687487      -0.00954725
Si       7.23815181       0.00000000      12.00000000  F        0        2      -0.13331446      -0.36608688      -1.69896970
Si       3.76227409       2.00679893      15.60606667  F        0        2      -0.10737265       0.07912500       1.24248203
Si       6.22272410       2.25482548      13.80303333  F        0        2       0.02618610      -0.16595357       1.02997866
O        6.30416499       1.13103512      12.65233746  F        1        2      -0.50442036       0.21294504      -0.22347419
O        5.20877265       1.76346018      14.95372921  F        1        2       0.43555778      -0.24604752      -0.38696165
O        8.17066236       0.63242506      16.25840413  F        1        2      -0.16408772      -0.53162651       0.05841338
O        5.71021236       3.62919935      13.15069587  F        1        2       0.42530609       0.28832719       0.53051934
O        7.66922265       2.49816423      14.45537079  F        1        2       0.01984833       0.38758941      -0.73205117
O        3.84371499       3.13058929      16.75676254  F        1        2       0.07903420       0.29216660       0.14383582
Si       7.25089163      -0.00557042      17.46536184  T        0        1      -0.00102809      -0.00036075      -0.00513896
Si       3.74664858       2.02382382      21.15708467  T        0        1       0.01531748       0.04702782       0.03087434
Si       6.20805230       2.22731740      19.31106199  T        0        1       0.00037651      -0.00147008      -0.00436167
O        6.30154583       1.14273549      18.08654857  T        1        1      -0.00393955       0.00038610      -0.00194011
O        5.16431331       1.70032213      20.42495398  T        1        1      -0.01297038       0.00319639       0.00394526
O        8.19606449       0.24648843      21.64686069  T        1        1      -0.00313526      -0.02316171      -0.00718697
O        5.74138852       3.62795662      18.61395015  T        1        1      -0.00099658      -0.00140745       0.00254001
O        7.66314817       2.42236673      20.00544379  T        1        1      -0.00364081       0.00207378      -0.00406495
O        3.88699926       3.05498481      22.43594214  T        1        1       0.00295670      -0.00641676      -0.04546713
F        2.73696146       0.25644968      24.20314000  T        0        0      -0.02296142      -0.03040908       0.10718350
H        2.97073065       0.56228599      23.11515645  T        0        0       0.00923260       0.01457732      -0.06462242
F        3.90472486       1.25408864      25.98229598  T        0        0       0.00836373       0.00950788       0.00608589
H        3.38414738       0.81931152      25.17858387  T        0        0      -0.00078416      -0.00900218      -0.00341604
40
Lattice="9.8418 0.0 0.0 -2.460449999999999 4.261624409482844 0.0 0.0 -0.0 34.16586254" Properties=species:S:1:pos:R:3:move_mask:L:1:spacegroup_kinds:I:1:tags:I:1:forces:R:3 surface=alpha_quartz_001 coadsorbate=HF start=1 calculation_kind="Local coadsorbate relaxation; not a reaction path" host_atoms=36 energy=-282.95679924981715 pbc="T T F"
Si       2.31725181       0.00000000      12.00000000  F        0        2      -0.13392284      -0.36597837      -1.70384362
Si      -1.15862590       2.00679893      15.60606667  F        0        2      -0.13342356       0.04839023       1.25643867
Si       1.30182410       2.25482548      13.80303333  F        0        2       0.03737053      -0.15721327       1.01394800
O        1.38326499       1.13103512      12.65233746  F        1        2      -0.50531282       0.21598732      -0.21731973
O        0.28787265       1.76346018      14.95372921  F        1        2       0.44907014      -0.24543720      -0.38400047
O        3.24976236       0.63242506      16.25840413  F        1        2      -0.24051172      -0.54241129       0.08660694
O        0.78931236       3.62919935      13.15069587  F        1        2       0.42520098       0.28451569       0.53757306
O        2.74832265       2.49816423      14.45537079  F        1        2       0.00626746       0.38496629      -0.73335176
O       -1.07718501       3.13058929      16.75676254  F        1        2       0.05322044       0.42889647       0.21710899
Si       2.31302919       0.01364381      17.46493022  T        0        1      -0.00098415       0.00155303       0.00026068
Si      -1.19563687       1.75100259      21.12448752  T        0        1      -0.00626967      -0.00083840       0.00113931
Si       1.30237135       2.27104182      19.31566458  T        0        1       0.00000198       0.00102336       0.00303314
O        1.37551672       1.17095512      18.09440296  T        1        1      -0.00351827       0.00168682      -0.00526101
O        0.28354703       1.75736628      20.46065433  T        1        1      -0.00925276      -0.00296021       0.00325072
O        3.12625631       0.76236845      21.94633797  T        1        1       0.00080701      -0.01461866      -0.02374839
O        0.78268785       3.65251076      18.62498054  T        1        1      -0.00279849       0.00177072      -0.00162140
O        2.76342265       2.54727293      19.95267646  T        1        1      -0.00189340       0.00006912       0.00346548
O       -1.28729566       2.29120051      22.66296174  T        1        1      -0.00565298      -0.00525173      -0.00106010
Si       7.23815181       0.00000000      12.00000000  F        0        2      -0.13331440      -0.36611435      -1.69899980
Si       3.76227409       2.00679893      15.60606667  F        0        2      -0.10745746       0.07905985       1.24264008
Si       6.22272410       2.25482548      13.80303333  F        0        2       0.02614034      -0.16598841       1.03008584
O        6.30416499       1.13103512      12.65233746  F        1        2      -0.50445023       0.21296491      -0.22348351
O        5.20877265       1.76346018      14.95372921  F        1        2       0.43561379      -0.24602413      -0.38705691
O        8.17066236       0.63242506      16.25840413  F        1        2      -0.16370786      -0.53129525       0.05769685
O        5.71021236       3.62919935      13.15069587  F        1        2       0.42534359       0.28832881       0.53053040
O        7.66922265       2.49816423      14.45537079  F        1        2       0.01980554       0.38756948      -0.73211352
O        3.84371499       3.13058929      16.75676254  F        1        2       0.07858634       0.29150091       0.14299219
Si       7.25087694      -0.00557557      17.46528843  T        0        1      -0.00052025      -0.00036505      -0.00068969
Si       3.74686741       2.02449565      21.15752573  T        0        1       0.00813214       0.02939165       0.00151163
Si       6.20805768       2.22729640      19.31099968  T        0        1      -0.00525554      -0.00318118       0.00050009
O        6.30148955       1.14274100      18.08652086  T        1        1      -0.00287034      -0.00133915      -0.00338154
O        5.16412802       1.70036780      20.42501034  T        1        1      -0.00400146       0.00448058      -0.00210049
O        8.19601970       0.24615755      21.64675802  T        1        1      -0.00251738      -0.01885988      -0.00695836
O        5.74137428       3.62793651      18.61398643  T        1        1      -0.00273918       0.00077495      -0.00024960
O        7.66309616       2.42239636      20.00538572  T        1        1      -0.00065675      -0.00050986      -0.00027122
O        3.88704150       3.05489315      22.43529261  T        1        1       0.00646576       0.01471875      -0.01969534
F        2.73663344       0.25601526      24.20467119  T        0        0      -0.01420561      -0.01967692       0.07375913
H        2.97086254       0.56249424      23.11423328  T        0        0       0.00753733       0.01158071      -0.06031647
F        3.90484434       1.25422446      25.98238292  T        0        0       0.01160485       0.01207607       0.00846273
H        3.38413618       0.81918292      25.17853506  T        0        0      -0.00593108      -0.01324240      -0.00548100
40
Lattice="9.8418 0.0 0.0 -2.460449999999999 4.261624409482844 0.0 0.0 -0.0 34.16586254" Properties=species:S:1:pos:R:3:move_mask:L:1:spacegroup_kinds:I:1:tags:I:1:forces:R:3 surface=alpha_quartz_001 coadsorbate=HF start=1 calculation_kind="Local coadsorbate relaxation; not a reaction path" host_atoms=36 energy=-282.95721639812876 pbc="T T F"
Si       2.31725181       0.00000000      12.00000000  F        0        2      -0.13390152      -0.36596255      -1.70367519
Si      -1.15862590       2.00679893      15.60606667  F        0        2      -0.13317611       0.04878108       1.25718465
Si       1.30182410       2.25482548      13.80303333  F        0        2       0.03733199      -0.15724064       1.01431105
O        1.38326499       1.13103512      12.65233746  F        1        2      -0.50527003       0.21590919      -0.21744701
O        0.28787265       1.76346018      14.95372921  F        1        2       0.44917033      -0.24544212      -0.38434723
O        3.24976236       0.63242506      16.25840413  F        1        2      -0.24010286      -0.54187380       0.08584717
O        0.78931236       3.62919935      13.15069587  F        1        2       0.42513572       0.28457608       0.53741378
O        2.74832265       2.49816423      14.45537079  F        1        2       0.00621197       0.38500058      -0.73354545
O       -1.07718501       3.13058929      16.75676254  F        1        2       0.05288820       0.42854970       0.21651907
Si       2.31298238       0.01370695      17.46490706  T        0        1      -0.00232607       0.00176907      -0.00005201
Si      -1.19597187       1.75099034      21.12466022  T        0        1      -0.00668445      -0.01137150      -0.00640743
Si       1.30230143       2.27108255      19.31577279  T        0        1      -0.00280780      -0.00012041       0.00523703
O        1.37533571       1.17105622      18.09416315  T        1        1      -0.00312780       0.00481891      -0.00036096
O        0.28315563       1.75723460      20.46078445  T        1        1      -0.00273332      -0.00213037      -0.00257869
O        3.12634879       0.76173331      21.94492941  T        1        1      -0.00111832      -0.00955721       0.02503930
O        0.78257098       3.65257846      18.62492316  T        1        1      -0.00076343      -0.00173148       0.00200245
O        2.76337333       2.54728778      19.95285689  T        1        1      -0.00941783       0.00057853      -0.00236116
O       -1.28755712       2.29093360      22.66283996  T        1        1      -0.00832331      -0.00605566       0.00627856
Si       7.23815181       0.00000000      12.00000000  F        0        2      -0.13330260      -0.36611118      -1.69887083
Si       3.76227409       2.00679893      15.60606667  F        0        2      -0.10768429       0.07875514       1.24297532
Si       6.22272410       2.25482548      13.80303333  F        0        2       0.02620320      -0.16600855       1.03038510
O        6.30416499       1.13103512      12.65233746  F        1        2      -0.50443586       0.21290456      -0.22359439
O        5.20877265       1.76346018      14.95372921  F        1        2       0.43569632      -0.24594932      -0.38725239
O        8.17066236       0.63242506      16.25840413  F        1        2      -0.16351971      -0.53109435       0.05707789
O        5.71021236       3.62919935      13.15069587  F        1        2       0.42528930       0.28838188       0.53040204
O        7.66922265       2.49816423      14.45537079  F        1        2       0.01964095       0.38753679      -0.73239124
O        3.84371499       3.13058929      16.75676254  F        1        2       0.07775404       0.29015075       0.14165846
Si       7.25084761      -0.00559315      17.46521813  T        0        1      -0.00022783       0.00036012       0.00081207
Si       3.74731959       2.02606062      21.15784299  T        0        1      -0.01148042      -0.01804394      -0.01076225
Si       6.20785095       2.22715713      19.31098336  T        0        1      -0.00184230      -0.00010170      -0.00248975
O        6.30134215       1.14269074      18.08636968  T        1        1      -0.00297766       0.00027478      -0.00128673
O        5.16386031       1.70057331      20.42495929  T        1        1       0.00387184       0.00183420      -0.00588596
O        8.19589309       0.24521171      21.64642036  T        1        1      -0.00084135      -0.00639919      -0.00743198
O        5.74125661       3.62795574      18.61399760  T        1        1      -0.00176150      -0.00131188       0.00051986
O        7.66303964       2.42239326      20.00534107  T        1        1      -0.00515069      -0.00345467      -0.00024355
O        3.88732430       3.05542751      22.43412781  T        1        1       0.01263865       0.04488288       0.01330394
F        2.73587512       0.25497650      24.20850840  T        0        0       0.00777833       0.00613719       0.00307573
H        2.97124035       0.56307798      23.11128700  T        0        0       0.00462231       0.00563288      -0.04891814
F        3.90537734       1.25478580      25.98277150  T        0        0       0.01290294       0.01252161       0.00529241
H        3.38389282       0.81857921      25.17828777  T        0        0      -0.01415902      -0.01939541      -0.00543355
40
Lattice="9.8418 0.0 0.0 -2.460449999999999 4.261624409482844 0.0 0.0 -0.0 34.16586254" Properties=species:S:1:pos:R:3:move_mask:L:1:spacegroup_kinds:I:1:tags:I:1:forces:R:3 surface=alpha_quartz_001 coadsorbate=HF start=1 calculation_kind="Local coadsorbate relaxation; not a reaction path" host_atoms=36 energy=-282.95736412687296 pbc="T T F"
Si       2.31725181       0.00000000      12.00000000  F        0        2      -0.13389527      -0.36596638      -1.70366877
Si      -1.15862590       2.00679893      15.60606667  F        0        2      -0.13302265       0.04889832       1.25709294
Si       1.30182410       2.25482548      13.80303333  F        0        2       0.03734573      -0.15722221       1.01429011
O        1.38326499       1.13103512      12.65233746  F        1        2      -0.50527385       0.21590392      -0.21744501
O        0.28787265       1.76346018      14.95372921  F        1        2       0.44910505      -0.24545258      -0.38434124
O        3.24976236       0.63242506      16.25840413  F        1        2      -0.24014553      -0.54181893       0.08581893
O        0.78931236       3.62919935      13.15069587  F        1        2       0.42513139       0.28458108       0.53741769
O        2.74832265       2.49816423      14.45537079  F        1        2       0.00622504       0.38499057      -0.73352054
O       -1.07718501       3.13058929      16.75676254  F        1        2       0.05246475       0.42845511       0.21631121
Si       2.31292500       0.01375315      17.46487692  T        0        1      -0.00198601       0.00237563       0.00327872
Si      -1.19622515       1.75079795      21.12467340  T        0        1      -0.00378714      -0.01058916      -0.00821428
Si       1.30218529       2.27108899      19.31588104  T        0        1      -0.00434179      -0.00034283       0.00253277
O        1.37521135       1.17118911      18.09408393  T        1        1      -0.00121105       0.00254160      -0.00077662
O        0.28300687       1.75715831      20.46076597  T        1        1      -0.00657443      -0.00330499       0.00003883
O        3.12639190       0.76138811      21.94474773  T        1        1      -0.00050899      -0.00556422       0.03462357
O        0.78252855       3.65255953      18.62495233  T        1        1      -0.00293263       0.00053229       0.00019460
O        2.76321190       2.54731011      19.95288321  T        1        1      -0.00677549      -0.00074398       0.00052819
O       -1.28778891       2.29072603      22.66286983  T        1        1      -0.00908352      -0.00766783       0.00518524
Si       7.23815181       0.00000000      12.00000000  F        0        2      -0.13330506      -0.36611727      -1.69888142
Si       3.76227409       2.00679893      15.60606667  F        0        2      -0.10772054       0.07882024       1.24289334
Si       6.22272410       2.25482548      13.80303333  F        0        2       0.02619151      -0.16601953       1.03035489
O        6.30416499       1.13103512      12.65233746  F        1        2      -0.50444387       0.21290865      -0.22359015
O        5.20877265       1.76346018      14.95372921  F        1        2       0.43566840      -0.24594615      -0.38723176
O        8.17066236       0.63242506      16.25840413  F        1        2      -0.16345865      -0.53102849       0.05705714
O        5.71021236       3.62919935      13.15069587  F        1        2       0.42530006       0.28838494       0.53041831
O        7.66922265       2.49816423      14.45537079  F        1        2       0.01965692       0.38751224      -0.73234863
O        3.84371499       3.13058929      16.75676254  F        1        2       0.07749379       0.28971436       0.14119843
Si       7.25083106      -0.00559258      17.46518687  T        0        1      -0.00038819       0.00074660       0.00212811
Si       3.74730118       2.02635213      21.15790217  T        0        1      -0.01431737      -0.02425451      -0.00324936
Si       6.20777580       2.22711671      19.31090876  T        0        1      -0.00168563       0.00055321      -0.00322427
O        6.30123328       1.14268728      18.08630251  T        1        1      -0.00195903      -0.00092411      -0.00220321
O        5.16379501       1.70066952      20.42486592  T        1        1      -0.00006099       0.00027040      -0.00282160
O        8.19583202       0.24475501      21.64617097  T        1        1      -0.00120062      -0.00521243      -0.00655543
O        5.74119370       3.62792773      18.61402462  T        1        1      -0.00245268       0.00042330      -0.00111261
O        7.66291279       2.42234274      20.00530271  T        1        1      -0.00347642      -0.00469024       0.00127150
O        3.88763046       3.05631270      22.43384570  T        1        1       0.01395283       0.04551545       0.01044809
F        2.73571542       0.25468252      24.21002783  T        0        0       0.01612594       0.01512073      -0.01649354
H        2.97145993       0.56339190      23.10938680  T        0        0       0.00466509       0.00455469      -0.04292256
F        3.90577422       1.25518873      25.98298656  T        0        0       0.00885813       0.00857915      -0.00150472
H        3.38358071       0.81804628      25.17811640  T        0        0      -0.01417727      -0.01851668      -0.00297690
40
Lattice="9.8418 0.0 0.0 -2.460449999999999 4.261624409482844 0.0 0.0 -0.0 34.16586254" Properties=species:S:1:pos:R:3:move_mask:L:1:spacegroup_kinds:I:1:tags:I:1:forces:R:3 surface=alpha_quartz_001 coadsorbate=HF start=1 calculation_kind="Local coadsorbate relaxation; not a reaction path" host_atoms=36 energy=-282.9577366289242 pbc="T T F"
Si       2.31725181       0.00000000      12.00000000  F        0        2      -0.13387812      -0.36594492      -1.70355467
Si      -1.15862590       2.00679893      15.60606667  F        0        2      -0.13258828       0.04932782       1.25679855
Si       1.30182410       2.25482548      13.80303333  F        0        2       0.03743319      -0.15715193       1.01426275
O        1.38326499       1.13103512      12.65233746  F        1        2      -0.50523758       0.21584513      -0.21747696
O        0.28787265       1.76346018      14.95372921  F        1        2       0.44895152      -0.24549695      -0.38432084
O        3.24976236       0.63242506      16.25840413  F        1        2      -0.24141114      -0.54232570       0.08750979
O        0.78931236       3.62919935      13.15069587  F        1        2       0.42505593       0.28461536       0.53736130
O        2.74832265       2.49816423      14.45537079  F        1        2       0.00623539       0.38499654      -0.73352188
O       -1.07718501       3.13058929      16.75676254  F        1        2       0.05198043       0.42952173       0.21698225
Si       2.31272955       0.01394157      17.46492119  T        0        1      -0.00125096       0.00244486       0.00382288
Si      -1.19696727       1.75006352      21.12455634  T        0        1      -0.00101864      -0.00568300      -0.00344738
Si       1.30169049       2.27108948      19.31615450  T        0        1      -0.00610906      -0.00013741      -0.00165360
O        1.37487521       1.17157439      18.09384356  T        1        1       0.00142184      -0.00118603      -0.00010858
O        0.28238924       1.75685188      20.46076094  T        1        1      -0.00854238      -0.00523637       0.00151658
O        3.12654599       0.76043368      21.94506610  T        1        1       0.00159024       0.00448613       0.03919941
O        0.78230576       3.65256082      18.62500789  T        1        1      -0.00601614       0.00328114      -0.00027756
O        2.76269817       2.54733216      19.95304319  T        1        1      -0.00239057      -0.00745192       0.01091990
O       -1.28864642       2.28993318      22.66300064  T        1        1      -0.01061090      -0.01319380      -0.00215039
Si       7.23815181       0.00000000      12.00000000  F        0        2      -0.13331071      -0.36610053      -1.69882039
Si       3.76227409       2.00679893      15.60606667  F        0        2      -0.10785436       0.07895867       1.24272966
Si       6.22272410       2.25482548      13.80303333  F        0        2       0.02614414      -0.16604961       1.03027723
O        6.30416499       1.13103512      12.65233746  F        1        2      -0.50441500       0.21286997      -0.22362241
O        5.20877265       1.76346018      14.95372921  F        1        2       0.43562934      -0.24593714      -0.38720434
O        8.17066236       0.63242506      16.25840413  F        1        2      -0.16367175      -0.53107782       0.05773233
O        5.71021236       3.62919935      13.15069587  F        1        2       0.42527254       0.28842209       0.53039777
O        7.66922265       2.49816423      14.45537079  F        1        2       0.01972820       0.38746034      -0.73223092
O        3.84371499       3.13058929      16.75676254  F        1        2       0.07712911       0.28901292       0.14043081
Si       7.25077016      -0.00556573      17.46515535  T        0        1      -0.00134820       0.00065784       0.00026874
Si       3.74690630       2.02657954      21.15831054  T        0        1      -0.01354167      -0.02187206       0.02289749
Si       6.20755899       2.22703888      19.31058987  T        0        1      -0.00575083      -0.00014527       0.00017663
O        6.30090465       1.14263769      18.08605204  T        1        1      -0.00076743      -0.00123101      -0.00276326
O        5.16347701       1.70090221      20.42464312  T        1        1      -0.01175877      -0.00268787       0.00492145
O        8.19562371       0.24337073      21.64534979  T        1        1      -0.00300157      -0.00570953      -0.00366763
O        5.74095642       3.62788869      18.61405119  T        1        1      -0.00167499       0.00334141      -0.00295741
O        7.66250712       2.42208280      20.00524040  T        1        1      -0.00132611      -0.00652276       0.00225269
O        3.88880472       3.05969469      22.43309506  T        1        1       0.01629480       0.03667003      -0.01171988
F        2.73577201       0.25434689      24.21362419  T        0        0       0.03328701       0.03209050      -0.04596562
H        2.97218492       0.56435860      23.10325452  T        0        0       0.00760833       0.00483144      -0.02532888
F        3.90696813       1.25639908      25.98338629  T        0        0      -0.00510400      -0.00505366      -0.02095634
H        3.38242284       0.81619261      25.17763897  T        0        0      -0.01118284      -0.01263865       0.00129070
40
Lattice="9.8418 0.0 0.0 -2.460449999999999 4.261624409482844 0.0 0.0 -0.0 34.16586254" Properties=species:S:1:pos:R:3:move_mask:L:1:spacegroup_kinds:I:1:tags:I:1:forces:R:3 surface=alpha_quartz_001 coadsorbate=HF start=1 calculation_kind="Local coadsorbate relaxation; not a reaction path" host_atoms=36 energy=-282.95810649910993 pbc="T T F"
Si       2.31725181       0.00000000      12.00000000  F        0        2      -0.13386173      -0.36591926      -1.70341858
Si      -1.15862590       2.00679893      15.60606667  F        0        2      -0.13215919       0.04985044       1.25656807
Si       1.30182410       2.25482548      13.80303333  F        0        2       0.03751067      -0.15708528       1.01426189
O        1.38326499       1.13103512      12.65233746  F        1        2      -0.50519232       0.21578010      -0.21752027
O        0.28787265       1.76346018      14.95372921  F        1        2       0.44883452      -0.24555151      -0.38432933
O        3.24976236       0.63242506      16.25840413  F        1        2      -0.24306954      -0.54298864       0.08979187
O        0.78931236       3.62919935      13.15069587  F        1        2       0.42497223       0.28465477       0.53729260
O        2.74832265       2.49816423      14.45537079  F        1        2       0.00624485       0.38500967      -0.73353547
O       -1.07718501       3.13058929      16.75676254  F        1        2       0.05166653       0.43109083       0.21793525
Si       2.31248702       0.01418756      17.46499431  T        0        1      -0.00036905       0.00158492       0.00225688
Si      -1.19783629       1.74914900      21.12442389  T        0        1       0.00106682       0.00025234       0.00021629
Si       1.30101786       2.27108832      19.31643247  T        0        1      -0.00348604       0.00045409      -0.00312475
O        1.37452032       1.17199372      18.09359702  T        1        1       0.00288586      -0.00393647       0.00057314
O        0.28160281       1.75641875      20.46074286  T        1        1      -0.00967977      -0.00708347       0.00207146
O        3.12675830       0.75949664      21.94611425  T        1        1       0.00317284       0.01175015       0.02373024
O        0.78195971       3.65260292      18.62509621  T        1        1      -0.00804822       0.00475897       0.00045880
O        2.76206961       2.54718935      19.95345162  T        1        1      -0.00034506      -0.01679523       0.02373139
O       -1.28980231       2.28878333      22.66307136  T        1        1      -0.01188038      -0.01753206      -0.00705303
Si       7.23815181       0.00000000      12.00000000  F        0        2      -0.13331116      -0.36607976      -1.69873412
Si       3.76227409       2.00679893      15.60606667  F        0        2      -0.10798289       0.07906936       1.24249260
Si       6.22272410       2.25482548      13.80303333  F        0        2       0.02612206      -0.16606738       1.03021300
O        6.30416499       1.13103512      12.65233746  F        1        2      -0.50438137       0.21281490      -0.22367261
O        5.20877265       1.76346018      14.95372921  F        1        2       0.43555405      -0.24592600      -0.38717349
O        8.17066236       0.63242506      16.25840413  F        1        2      -0.16386358      -0.53095052       0.05813917
O        5.71021236       3.62919935      13.15069587  F        1        2       0.42522511       0.28847029       0.53035477
O        7.66922265       2.49816423      14.45537079  F        1        2       0.01978464       0.38741339      -0.73214900
O        3.84371499       3.13058929      16.75676254  F        1        2       0.07628634       0.28776452       0.13919053
Si       7.25067241      -0.00552802      17.46509123  T        0        1      -0.00206541       0.00084366      -0.00155834
Si       3.74622788       2.02645152      21.15929319  T        0        1      -0.00702437      -0.00719621       0.03835369
Si       6.20719295       2.22694411      19.31026120  T        0        1      -0.01249332      -0.00231030       0.00665041
O        6.30051825       1.14257914      18.08573651  T        1        1      -0.00049325      -0.00007293      -0.00195881
O        5.16287667       1.70110333      20.42450219  T        1        1      -0.02244777      -0.00475620       0.01159819
O        8.19533046       0.24172546      21.64437635  T        1        1      -0.00517096      -0.00910866      -0.00051934
O        5.74068068       3.62789833      18.61403937  T        1        1       0.00009098       0.00446217      -0.00335300
O        7.66201135       2.42167277      20.00519497  T        1        1      -0.00145419      -0.00817953       0.00195325
O        3.89042169       3.06410035      22.43195323  T        1        1       0.01848577       0.02701376      -0.03488725
F        2.73650189       0.25461368      24.21671321  T        0        0       0.04296227       0.03985373      -0.05238651
H        2.97315004       0.56553182      23.09602932  T        0        0       0.01350025       0.00817119      -0.00604506
F        3.90815162       1.25760191      25.98338029  T        0        0      -0.01810635      -0.01824453      -0.03505290
H        3.38093878       0.81391983      25.17713281  T        0        0      -0.00747986      -0.00527933      -0.00136160
40
Lattice="9.8418 0.0 0.0 -2.460449999999999 4.261624409482844 0.0 0.0 -0.0 34.16586254" Properties=species:S:1:pos:R:3:move_mask:L:1:spacegroup_kinds:I:1:tags:I:1:forces:R:3 surface=alpha_quartz_001 coadsorbate=HF start=1 calculation_kind="Local coadsorbate relaxation; not a reaction path" host_atoms=36 energy=-282.9586662916393 pbc="T T F"
Si       2.31725181       0.00000000      12.00000000  F        0        2      -0.13383882      -0.36588072      -1.70319692
Si      -1.15862590       2.00679893      15.60606667  F        0        2      -0.13154214       0.05081466       1.25645263
Si       1.30182410       2.25482548      13.80303333  F        0        2       0.03756878      -0.15700887       1.01430154
O        1.38326499       1.13103512      12.65233746  F        1        2      -0.50511678       0.21568238      -0.21759828
O        0.28787265       1.76346018      14.95372921  F        1        2       0.44873841      -0.24565361      -0.38442411
O        3.24976236       0.63242506      16.25840413  F        1        2      -0.24566553      -0.54398544       0.09346496
O        0.78931236       3.62919935      13.15069587  F        1        2       0.42485144       0.28471792       0.53718296
O        2.74832265       2.49816423      14.45537079  F        1        2       0.00627440       0.38502953      -0.73354335
O       -1.07718501       3.13058929      16.75676254  F        1        2       0.05127910       0.43370346       0.21927703
Si       2.31206956       0.01461829      17.46510496  T        0        1       0.00071189      -0.00065239      -0.00156467
Si      -1.19930264       1.74761656      21.12420875  T        0        1       0.00095453       0.00591032       0.00449539
Si       1.29987674       2.27110262      19.31688794  T        0        1       0.00271979       0.00060912      -0.00159423
O        1.37396184       1.17264216      18.09321218  T        1        1       0.00381420      -0.00531955       0.00264335
O        0.28013291       1.75554847      20.46071032  T        1        1      -0.00745752      -0.00882969      -0.00058830
O        3.12716836       0.75813805      21.94818199  T        1        1       0.00444953       0.01806279      -0.01924137
O        0.78123535       3.65273857      18.62529399  T        1        1      -0.00812085       0.00354738       0.00410086
O        2.76094588       2.54654971      19.95466514  T        1        1      -0.00423042      -0.02997177       0.03917874
O       -1.29199736       2.28648856      22.66307224  T        1        1      -0.01349311      -0.02198623      -0.00971037
Si       7.23815181       0.00000000      12.00000000  F        0        2      -0.13330201      -0.36604991      -1.69857482
Si       3.76227409       2.00679893      15.60606667  F        0        2      -0.10813138       0.07917186       1.24197182
Si       6.22272410       2.25482548      13.80303333  F        0        2       0.02616339      -0.16606532       1.03016492
O        6.30416499       1.13103512      12.65233746  F        1        2      -0.50433590       0.21271315      -0.22377356
O        5.20877265       1.76346018      14.95372921  F        1        2       0.43535485      -0.24590108      -0.38710963
O        8.17066236       0.63242506      16.25840413  F        1        2      -0.16415142      -0.53043092       0.05823403
O        5.71021236       3.62919935      13.15069587  F        1        2       0.42512894       0.28855639       0.53025714
O        7.66922265       2.49816423      14.45537079  F        1        2       0.01981487       0.38734436      -0.73212026
O        3.84371499       3.13058929      16.75676254  F        1        2       0.07417253       0.28504049       0.13662691
Si       7.25046594      -0.00544736      17.46493320  T        0        1      -0.00245452       0.00198236      -0.00227831
Si       3.74499566       2.02619614      21.16160650  T        0        1       0.00560718       0.02021802       0.04452777
Si       6.20626467       2.22671289      19.30990742  T        0        1      -0.02298635      -0.00617535       0.01695844
O        6.29984154       1.14251139      18.08519252  T        1        1      -0.00136814       0.00293491       0.00156748
O        5.16142508       1.70135236      20.42448213  T        1        1      -0.02997825      -0.00748139       0.01629384
O        8.19472450       0.23874836      21.64273409  T        1        1      -0.00755240      -0.01371756       0.00299887
O        5.74024324       3.62797758      18.61397622  T        1        1       0.00296195       0.00300880      -0.00172238
O        7.66110353       2.42081121      20.00513437  T        1        1      -0.00596987      -0.01086782       0.00040542
O        3.89353863       3.07210048      22.42931311  T        1        1       0.02223508       0.01981626      -0.05953225
F        2.73858045       0.25582980      24.22098808  T        0        0       0.04678942       0.03939462      -0.03921847
H        2.97509620       0.56771041      23.08381375  T        0        0       0.02524956       0.01574037       0.02435657
F        3.90976066       1.25923240      25.98268134  T        0        0      -0.03283699      -0.03424815      -0.04467459
H        3.37828669       0.81000500      25.17616147  T        0        0      -0.00230747       0.00622663      -0.01499479
40
Lattice="9.8418 0.0 0.0 -2.460449999999999 4.261624409482844 0.0 0.0 -0.0 34.16586254" Properties=species:S:1:pos:R:3:move_mask:L:1:spacegroup_kinds:I:1:tags:I:1:forces:R:3 surface=alpha_quartz_001 coadsorbate=HF start=1 calculation_kind="Local coadsorbate relaxation; not a reaction path" host_atoms=36 energy=-282.9593544249844 pbc="T T F"
Si       2.31725181       0.00000000      12.00000000  F        0        2      -0.13380836      -0.36584102      -1.70290639
Si      -1.15862590       2.00679893      15.60606667  F        0        2      -0.13085523       0.05213340       1.25667476
Si       1.30182410       2.25482548      13.80303333  F        0        2       0.03757300      -0.15694815       1.01443849
O        1.38326499       1.13103512      12.65233746  F        1        2      -0.50502666       0.21556185      -0.21771897
O        0.28787265       1.76346018      14.95372921  F        1        2       0.44871657      -0.24578883      -0.38467049
O        3.24976236       0.63242506      16.25840413  F        1        2      -0.24855213      -0.54515242       0.09766855
O        0.78931236       3.62919935      13.15069587  F        1        2       0.42471722       0.28480173       0.53703457
O        2.74832265       2.49816423      14.45537079  F        1        2       0.00629536       0.38502370      -0.73357475
O       -1.07718501       3.13058929      16.75676254  F        1        2       0.05065110       0.43659144       0.22025942
Si       2.31152348       0.01516806      17.46519512  T        0        1       0.00214552      -0.00366266      -0.00374133
Si      -1.20126549       1.74564514      21.12395587  T        0        1      -0.00109585       0.00775309       0.00594161
Si       1.29847777       2.27113193      19.31753335  T        0        1       0.00794865      -0.00116359       0.00168302
O        1.37327454       1.17343445      18.09276574  T        1        1       0.00488616      -0.00495571       0.00528990
O        0.27808092       1.75423197      20.46061039  T        1        1      -0.00497327      -0.01023304      -0.00480019
O        3.12776354       0.75660046      21.95043955  T        1        1       0.00441541       0.01891579      -0.08204868
O        0.78015019       3.65294502      18.62566966  T        1        1      -0.00577633      -0.00043977       0.00910234
O        2.75926550       2.54511449      19.95699298  T        1        1      -0.01421267      -0.03950121       0.04896087
O       -1.29517752       2.28304274      22.66297002  T        1        1      -0.01496903      -0.02468425      -0.00725769
Si       7.23815181       0.00000000      12.00000000  F        0        2      -0.13327879      -0.36602124      -1.69833271
Si       3.76227409       2.00679893      15.60606667  F        0        2      -0.10817359       0.07940765       1.24134006
Si       6.22272410       2.25482548      13.80303333  F        0        2       0.02628671      -0.16604326       1.03026544
O        6.30416499       1.13103512      12.65233746  F        1        2      -0.50428863       0.21256599      -0.22394353
O        5.20877265       1.76346018      14.95372921  F        1        2       0.43504461      -0.24586569      -0.38708126
O        8.17066236       0.63242506      16.25840413  F        1        2      -0.16473818      -0.52947630       0.05812769
O        5.71021236       3.62919935      13.15069587  F        1        2       0.42498985       0.28868303       0.53008006
O        7.66922265       2.49816423      14.45537079  F        1        2       0.01977122       0.38726355      -0.73223685
O        3.84371499       3.13058929      16.75676254  F        1        2       0.07103993       0.28141290       0.13315994
Si       7.25015263      -0.00529511      17.46470226  T        0        1      -0.00233032       0.00418474       0.00038166
Si       3.74347749       2.02625193      21.16523262  T        0        1       0.02060075       0.05136295       0.03374007
Si       6.20455513       2.22626996      19.30980072  T        0        1      -0.03119302      -0.00952546       0.02451015
O        6.29889995       1.14249793      18.08452761  T        1        1      -0.00325151       0.00584846       0.00723814
O        5.15904217       1.70155159      20.42468718  T        1        1      -0.02825973      -0.01115236       0.01605420
O        8.19378370       0.23454420      21.64059819  T        1        1      -0.00877006      -0.01704640       0.00501488
O        5.73972557       3.62810491      18.61388300  T        1        1       0.00475613      -0.00126296       0.00195857
O        7.65973227       2.41944795      20.00505177  T        1        1      -0.01408595      -0.01478585      -0.00029019
O        3.89812927       3.08327216      22.42485749  T        1        1       0.02725251       0.02344304      -0.07197840
F        2.74215961       0.25810953      24.22606150  T        0        0       0.03855476       0.02577665      -0.00912565
H        2.97819922       0.57093126      23.06808124  T        0        0       0.04028773       0.02493377       0.05924749
F        3.91132905       1.26078823      25.98102705  T        0        0      -0.04308598      -0.04695591      -0.04229210
H        3.37469159       0.80491019      25.17445819  T        0        0       0.00479210       0.02084232      -0.03617271
40
Lattice="9.8418 0.0 0.0 -2.460449999999999 4.261624409482844 0.0 0.0 -0.0 34.16586254" Properties=species:S:1:pos:R:3:move_mask:L:1:spacegroup_kinds:I:1:tags:I:1:forces:R:3 surface=alpha_quartz_001 coadsorbate=HF start=1 calculation_kind="Local coadsorbate relaxation; not a reaction path" host_atoms=36 energy=-282.9603491412027 pbc="T T F"
Si       2.31725181       0.00000000      12.00000000  F        0        2      -0.13375764      -0.36578705      -1.70244229
Si      -1.15862590       2.00679893      15.60606667  F        0        2      -0.12999044       0.05407415       1.25740394
Si       1.30182410       2.25482548      13.80303333  F        0        2       0.03754781      -0.15689349       1.01479593
O        1.38326499       1.13103512      12.65233746  F        1        2      -0.50489794       0.21537184      -0.21794231
O        0.28787265       1.76346018      14.95372921  F        1        2       0.44878626      -0.24597696      -0.38517893
O        3.24976236       0.63242506      16.25840413  F        1        2      -0.25224947      -0.54703491       0.10336015
O        0.78931236       3.62919935      13.15069587  F        1        2       0.42452542       0.28493423       0.53677112
O        2.74832265       2.49816423      14.45537079  F        1        2       0.00624906       0.38496692      -0.73373258
O       -1.07718501       3.13058929      16.75676254  F        1        2       0.04976474       0.44013692       0.22097784
Si       2.31078464       0.01588680      17.46529385  T        0        1       0.00452247      -0.00763486      -0.00350199
Si      -1.20408862       1.74291081      21.12360415  T        0        1      -0.00603604       0.00451547       0.00584232
Si       1.29665428       2.27113827      19.31852451  T        0        1       0.00873870      -0.00634473       0.00668228
O        1.37239597       1.17447710      18.09222929  T        1        1       0.00661455      -0.00298567       0.00822550
O        0.27502725       1.75215261      20.46037474  T        1        1      -0.00315752      -0.01135600      -0.01078852
O        3.12865274       0.75468131      21.95217473  T        1        1       0.00375694       0.01276782      -0.16851864
O        0.77849949       3.65321714      18.62638006  T        1        1      -0.00055737      -0.00774478       0.01514145
O        2.75650897       2.54234162      19.96118281  T        1        1      -0.03070542      -0.03973400       0.04760218
O       -1.30001651       2.27766924      22.66277783  T        1        1      -0.01613597      -0.02560476       0.00047872
Si       7.23815181       0.00000000      12.00000000  F        0        2      -0.13323597      -0.36598237      -1.69789996
Si       3.76227409       2.00679893      15.60606667  F        0        2      -0.10803792       0.08001249       1.24081473
Si       6.22272410       2.25482548      13.80303333  F        0        2       0.02648710      -0.16601790       1.03069666
O        6.30416499       1.13103512      12.65233746  F        1        2      -0.50421063       0.21232147      -0.22426243
O        5.20877265       1.76346018      14.95372921  F        1        2       0.43464702      -0.24581311      -0.38720594
O        8.17066236       0.63242506      16.25840413  F        1        2      -0.16642503      -0.52820808       0.05894422
O        5.71021236       3.62919935      13.15069587  F        1        2       0.42476624       0.28889623       0.52972911
O        7.66922265       2.49816423      14.45537079  F        1        2       0.01962404       0.38716495      -0.73259441
O        3.84371499       3.13058929      16.75676254  F        1        2       0.06712817       0.27753144       0.12909670
Si       7.24966788      -0.00498777      17.46443524  T        0        1      -0.00195500       0.00686817       0.00612468
Si       3.74165334       2.02718198      21.17076301  T        0        1       0.03704946       0.08487549       0.00637437
Si       6.20151687       2.22545676      19.31010736  T        0        1      -0.03362239      -0.01157273       0.02631273
O        6.29749065       1.14257888      18.08372594  T        1        1      -0.00625186       0.00715936       0.01466942
O        5.15523421       1.70161835      20.42520797  T        1        1      -0.01345757      -0.01610573       0.00880755
O        8.19228820       0.22826246      21.63762744  T        1        1      -0.00837040      -0.01880238       0.00454657
O        5.73905646       3.62825060      18.61378836  T        1        1       0.00395770      -0.00807128       0.00804159
O        7.65748737       2.41719082      20.00495745  T        1        1      -0.02555926      -0.02008457       0.00120796
O        3.90524452       3.09992142      22.41739553  T        1        1       0.03380504       0.04165690      -0.06948076
F        2.74798213       0.26183875      24.23300993  T        0        0       0.00999297      -0.00824381       0.03144068
H        2.98341325       0.57599740      23.04679131  T        0        0       0.05714167       0.03309023       0.09914919
F        3.91280774       1.26216142      25.97796496  T        0        0      -0.04701008      -0.05464409      -0.02471440
H        3.36962405       0.79802027      25.17126805  T        0        0       0.02051856       0.04429915      -0.05497443
40
Lattice="9.8418 0.0 0.0 -2.460449999999999 4.261624409482844 0.0 0.0 -0.0 34.16586254" Properties=species:S:1:pos:R:3:move_mask:L:1:spacegroup_kinds:I:1:tags:I:1:forces:R:3 surface=alpha_quartz_001 coadsorbate=HF start=1 calculation_kind="Local coadsorbate relaxation; not a reaction path" host_atoms=36 energy=-282.9618552349401 pbc="T T F"
Si       2.31725181       0.00000000      12.00000000  F        0        2      -0.13368822      -0.36572316      -1.70182928
Si      -1.15862590       2.00679893      15.60606667  F        0        2      -0.12923175       0.05616891       1.25881237
Si       1.30182410       2.25482548      13.80303333  F        0        2       0.03752547      -0.15687328       1.01551458
O        1.38326499       1.13103512      12.65233746  F        1        2      -0.50474899       0.21511794      -0.21828841
O        0.28787265       1.76346018      14.95372921  F        1        2       0.44901172      -0.24614860      -0.38597876
O        3.24976236       0.63242506      16.25840413  F        1        2      -0.25575844      -0.54962294       0.10934663
O        0.78931236       3.62919935      13.15069587  F        1        2       0.42429298       0.28510645       0.53636204
O        2.74832265       2.49816423      14.45537079  F        1        2       0.00602712       0.38484541      -0.73418399
O       -1.07718501       3.13058929      16.75676254  F        1        2       0.04913373       0.44323193       0.22116413
Si       2.31011345       0.01650779      17.46540848  T        0        1       0.00750300      -0.01122610      -0.00017877
Si      -1.20704042       1.74016470      21.12324986  T        0        1      -0.01342941      -0.00527179       0.00327723
Si       1.29494434       2.27102627      19.31964666  T        0        1       0.00166943      -0.01406247       0.01290968
O        1.37168029       1.17541587      18.09183407  T        1        1       0.00823127       0.00026809       0.00960721
O        0.27167746       1.74971961      20.45998045  T        1        1      -0.00455240      -0.01203305      -0.01637354
O        3.12962458       0.75305131      21.95133738  T        1        1      -0.00034422      -0.00617416      -0.22349264
O        0.77669110       3.65342135      18.62737361  T        1        1       0.00647869      -0.01671847       0.01926113
O        2.75307067       2.53858203      19.96659596  T        1        1      -0.04726243      -0.02143099       0.02622130
O       -1.30541446       2.27149927      22.66257177  T        1        1      -0.01622378      -0.02288918       0.01345765
Si       7.23815181       0.00000000      12.00000000  F        0        2      -0.13317806      -0.36593515      -1.69727482
Si       3.76227409       2.00679893      15.60606667  F        0        2      -0.10767645       0.08105135       1.24118554
Si       6.22272410       2.25482548      13.80303333  F        0        2       0.02667975      -0.16602643       1.03165878
O        6.30416499       1.13103512      12.65233746  F        1        2      -0.50409139       0.21199676      -0.22473937
O        5.20877265       1.76346018      14.95372921  F        1        2       0.43441499      -0.24574519      -0.38769552
O        8.17066236       0.63242506      16.25840413  F        1        2      -0.16973880      -0.52733712       0.06192765
O        5.71021236       3.62919935      13.15069587  F        1        2       0.42448253       0.28918106       0.52917764
O        7.66922265       2.49816423      14.45537079  F        1        2       0.01934376       0.38709701      -0.73328373
O        3.84371499       3.13058929      16.75676254  F        1        2       0.06437000       0.27590321       0.12652163
Si       7.24911461      -0.00453320      17.46430322  T        0        1      -0.00149462       0.00806252       0.01254534
Si       3.74031981       2.02943951      21.17678924  T        0        1       0.04629936       0.10320427      -0.03377558
Si       6.19761810       2.22438008      19.31100340  T        0        1      -0.02392505      -0.01018366       0.01629383
O        6.29593977       1.14277087      18.08314874  T        1        1      -0.00955181       0.00445740       0.02021878
O        5.15091460       1.70132256      20.42599246  T        1        1       0.01478461      -0.01963879      -0.00669605
O        8.19055198       0.22144405      21.63467234  T        1        1      -0.00542232      -0.01794778       0.00019039
O        5.73842495       3.62832062      18.61377981  T        1        1      -0.00115779      -0.01498450       0.01492262
O        7.65472049       2.41438294      20.00494931  T        1        1      -0.03527464      -0.02424900       0.00597108
O        3.91340109       3.11822920      22.40828637  T        1        1       0.03973326       0.07473710      -0.04469533
F        2.75469697       0.26606080      24.23966936  T        0        0      -0.03988309      -0.05892400       0.04203766
H        2.98995339       0.58184635      23.02693042  T        0        0       0.06677954       0.03420461       0.11993715
F        3.91323674       1.26233056      25.97396896  T        0        0      -0.03477187      -0.04612416       0.01277692
H        3.36473347       0.79175306      25.16698888  T        0        0       0.04464432       0.07063594      -0.05281314
40
Lattice="9.8418 0.0 0.0 -2.460449999999999 4.261624409482844 0.0 0.0 -0.0 34.16586254" Properties=species:S:1:pos:R:3:move_mask:L:1:spacegroup_kinds:I:1:tags:I:1:forces:R:3 surface=alpha_quartz_001 coadsorbate=HF start=1 calculation_kind="Local coadsorbate relaxation; not a reaction path" host_atoms=36 energy=-282.9646367626752 pbc="T T F"
Si       2.31725181       0.00000000      12.00000000  F        0        2      -0.13358663      -0.36564517      -1.70097450
Si      -1.15862590       2.00679893      15.60606667  F        0        2      -0.12877727       0.05830469       1.26148938
Si       1.30182410       2.25482548      13.80303333  F        0        2       0.03752601      -0.15692700       1.01696573
O        1.38326499       1.13103512      12.65233746  F        1        2      -0.50457667       0.21475780      -0.21886019
O        0.28787265       1.76346018      14.95372921  F        1        2       0.44954308      -0.24624128      -0.38729613
O        3.24976236       0.63242506      16.25840413  F        1        2      -0.25846793      -0.55360953       0.11552985
O        0.78931236       3.62919935      13.15069587  F        1        2       0.42400347       0.28534103       0.53567974
O        2.74832265       2.49816423      14.45537079  F        1        2       0.00542236       0.38460653      -0.73527289
O       -1.07718501       3.13058929      16.75676254  F        1        2       0.04936632       0.44497599       0.22052735
Si       2.30972216       0.01679886      17.46557513  T        0        1       0.01111421      -0.01297932       0.00856259
Si      -1.20987673       1.73770469      21.12293379  T        0        1      -0.02464228      -0.02620972      -0.00481154
Si       1.29360034       2.27060178      19.32091684  T        0        1      -0.01865728      -0.02371115       0.02023114
O        1.37146212       1.17598818      18.09182546  T        1        1       0.00926973       0.00463943       0.00714194
O        0.26813811       1.74684989      20.45925676  T        1        1      -0.01404160      -0.01298391      -0.01893018
O        3.13057242       0.75216010      21.94532977  T        1        1      -0.01843294      -0.05343061      -0.13464206
O        0.77484137       3.65338819      18.62885703  T        1        1       0.01495100      -0.02648478       0.01781581
O        2.74858549       2.53345124      19.97365093  T        1        1      -0.05687811       0.03001201      -0.02931531
O       -1.31125038       2.26449143      22.66244864  T        1        1      -0.01427900      -0.01312978       0.03483669
Si       7.23815181       0.00000000      12.00000000  F        0        2      -0.13309752      -0.36587762      -1.69632946
Si       3.76227409       2.00679893      15.60606667  F        0        2      -0.10695136       0.08286367       1.24368127
Si       6.22272410       2.25482548      13.80303333  F        0        2       0.02679026      -0.16612199       1.03365310
O        6.30416499       1.13103512      12.65233746  F        1        2      -0.50389964       0.21155001      -0.22548882
O        5.20877265       1.76346018      14.95372921  F        1        2       0.43464664      -0.24564772      -0.38897405
O        8.17066236       0.63242506      16.25840413  F        1        2      -0.17623970      -0.52763422       0.06955059
O        5.71021236       3.62919935      13.15069587  F        1        2       0.42411819       0.28957684       0.52827368
O        7.66922265       2.49816423      14.45537079  F        1        2       0.01881244       0.38711094      -0.73460719
O        3.84371499       3.13058929      16.75676254  F        1        2       0.06449354       0.27923457       0.12755052
Si       7.24848582      -0.00383737      17.46449741  T        0        1      -0.00062883       0.00552812       0.01859690
Si       3.74019227       2.03411067      21.18287680  T        0        1       0.03757143       0.08398286      -0.09252921
Si       6.19256127       2.22292890      19.31291091  T        0        1       0.00817351      -0.00235759      -0.01633187
O        6.29429635       1.14312580      18.08316450  T        1        1      -0.01255258      -0.00657690       0.01967735
O        5.14630460       1.70023402      20.42713708  T        1        1       0.06027557      -0.01923042      -0.03433993
O        8.18857282       0.21451786      21.63216299  T        1        1       0.00256172      -0.01306068      -0.01021809
O        5.73791171       3.62819510      18.61399950  T        1        1      -0.01435492      -0.01978114       0.02136372
O        7.65118812       2.41074653      20.00519976  T        1        1      -0.03794272      -0.02461907       0.01647471
O        3.92270711       3.13779156      22.39713037  T        1        1       0.04408355       0.13026147       0.01738412
F        2.76208654       0.27051852      24.24368879  T        0        0      -0.10701274      -0.11742453      -0.02813090
H        2.99843333       0.58845499      23.01332089  T        0        0       0.06692409       0.02821477       0.06908827
F        3.91140128       1.25991434      25.96874835  T        0        0       0.01203283      -0.00189426       0.09006295
H        3.36123073       0.78804487      25.16128857  T        0        0       0.06333975       0.08061764      -0.03708513
40
Lattice="9.8418 0.0 0.0 -2.460449999999999 4.261624409482844 0.0 0.0 -0.0 34.16586254" Properties=species:S:1:pos:R:3:move_mask:L:1:spacegroup_kinds:I:1:tags:I:1:forces:R:3 surface=alpha_quartz_001 coadsorbate=HF start=1 calculation_kind="Local coadsorbate relaxation; not a reaction path" host_atoms=36 energy=-282.967047581733 pbc="T T F"
Si       2.31725181       0.00000000      12.00000000  F        0        2      -0.13350324      -0.36558053      -1.70036285
Si      -1.15862590       2.00679893      15.60606667  F        0        2      -0.12833708       0.05950597       1.26292000
Si       1.30182410       2.25482548      13.80303333  F        0        2       0.03767730      -0.15693603       1.01808968
O        1.38326499       1.13103512      12.65233746  F        1        2      -0.50446697       0.21448050      -0.21928219
O        0.28787265       1.76346018      14.95372921  F        1        2       0.44977042      -0.24623053      -0.38810368
O        3.24976236       0.63242506      16.25840413  F        1        2      -0.25992009      -0.55781276       0.12059459
O        0.78931236       3.62919935      13.15069587  F        1        2       0.42378501       0.28550078       0.53514549
O        2.74832265       2.49816423      14.45537079  F        1        2       0.00486822       0.38439069      -0.73622812
O       -1.07718501       3.13058929      16.75676254  F        1        2       0.05050955       0.44548815       0.22103273
Si       2.30983467       0.01660878      17.46582198  T        0        1       0.01313062      -0.00999058       0.01726300
Si      -1.21150824       1.73632235      21.12278403  T        0        1      -0.02762365      -0.03560351      -0.00364970
Si       1.29278022       2.26992106      19.32181812  T        0        1      -0.03671019      -0.02729283       0.01410748
O        1.37175389       1.17610472      18.09209792  T        1        1       0.01131221       0.00004189       0.00078725
O        0.26607345       1.74503875      20.45852643  T        1        1      -0.03284906      -0.01705185      -0.00953159
O        3.13071668       0.75136345      21.93904113  T        1        1      -0.01301562      -0.04778153      -0.01599733
O        0.77409209       3.65293141      18.63002094  T        1        1       0.01175341      -0.02318920       0.00659843
O        2.74526325       2.53077312      19.97746556  T        1        1      -0.03517551       0.06994854      -0.05939083
O       -1.31449187       2.26047258      22.66283839  T        1        1      -0.01162632      -0.00821701       0.03838606
Si       7.23815181       0.00000000      12.00000000  F        0        2      -0.13306879      -0.36583198      -1.69569599
Si       3.76227409       2.00679893      15.60606667  F        0        2      -0.10660882       0.08442173       1.24662904
Si       6.22272410       2.25482548      13.80303333  F        0        2       0.02660893      -0.16629209       1.03515246
O        6.30416499       1.13103512      12.65233746  F        1        2      -0.50373552       0.21127728      -0.22599403
O        5.20877265       1.76346018      14.95372921  F        1        2       0.43524662      -0.24559001      -0.39013329
O        8.17066236       0.63242506      16.25840413  F        1        2      -0.18294079      -0.52994269       0.07981518
O        5.71021236       3.62919935      13.15069587  F        1        2       0.42393105       0.28983004       0.52766735
O        7.66922265       2.49816423      14.45537079  F        1        2       0.01851563       0.38714425      -0.73543338
O        3.84371499       3.13058929      16.75676254  F        1        2       0.06793961       0.28572433       0.13152047
Si       7.24812583      -0.00332810      17.46496452  T        0        1      -0.00040428      -0.00100128       0.01492850
Si       3.74115853       2.03855836      21.18491341  T        0        1       0.01026754       0.02923600      -0.08854891
Si       6.18973072       2.22203905      19.31402617  T        0        1       0.03430818       0.00417949      -0.04237535
O        6.29330159       1.14324595      18.08368947  T        1        1      -0.01077879      -0.02064549       0.00751286
O        5.14462189       1.69903841      20.42747560  T        1        1       0.06577687      -0.01585655      -0.03992494
O        8.18752933       0.21092800      21.63104325  T        1        1       0.00754327      -0.01440468      -0.01582603
O        5.73750218       3.62781691      18.61448459  T        1        1      -0.02642779      -0.01187735       0.01772070
O        7.64864955       2.40825103      20.00570048  T        1        1      -0.02344298      -0.01902517       0.02560729
O        3.92839148       3.14957773      22.39077710  T        1        1       0.04161702       0.14590035       0.04128068
F        2.76471564       0.27141605      24.24311235  T        0        0      -0.11848151      -0.12158451      -0.08885048
H        3.00441073       0.59240676      23.01050243  T        0        0       0.05622644       0.01767410      -0.00581940
F        3.90956549       1.25746437      25.96680522  T        0        0       0.03938068       0.02791385       0.12244583
H        3.36104563       0.78854915      25.15738312  T        0        0       0.05894843       0.06508020      -0.02405697
40
Lattice="9.8418 0.0 0.0 -2.460449999999999 4.261624409482844 0.0 0.0 -0.0 34.16586254" Properties=species:S:1:pos:R:3:move_mask:L:1:spacegroup_kinds:I:1:tags:I:1:forces:R:3 surface=alpha_quartz_001 coadsorbate=HF start=1 calculation_kind="Local coadsorbate relaxation; not a reaction path" host_atoms=36 energy=-282.970419076281 pbc="T T F"
Si       2.31725181       0.00000000      12.00000000  F        0        2      -0.13327567      -0.36533489      -1.69856850
Si      -1.15862590       2.00679893      15.60606667  F        0        2      -0.12581036       0.06395811       1.26453792
Si       1.30182410       2.25482548      13.80303333  F        0        2       0.03825360      -0.15676755       1.02038697
O        1.38326499       1.13103512      12.65233746  F        1        2      -0.50405526       0.21364950      -0.22032953
O        0.28787265       1.76346018      14.95372921  F        1        2       0.44983066      -0.24640621      -0.38973066
O        3.24976236       0.63242506      16.25840413  F        1        2      -0.26801438      -0.57019127       0.14025328
O        0.78931236       3.62919935      13.15069587  F        1        2       0.42302142       0.28597735       0.53378088
O        2.74832265       2.49816423      14.45537079  F        1        2       0.00385887       0.38392459      -0.73804890
O       -1.07718501       3.13058929      16.75676254  F        1        2       0.05347760       0.45239506       0.22645656
Si       2.30960095       0.01676586      17.46677699  T        0        1       0.01680267      -0.00683098       0.02204444
Si      -1.21801199       1.73031762      21.12227517  T        0        1      -0.03083834      -0.04660745       0.02229112
Si       1.28849508       2.26805209      19.32467956  T        0        1      -0.06076282      -0.03526213       0.00109338
O        1.37161998       1.17737577      18.09199284  T        1        1       0.01558966      -0.01379144      -0.00792685
O        0.25842367       1.73927674      20.45682433  T        1        1      -0.06106258      -0.02668480       0.00341398
O        3.13178643       0.74701012      21.92793328  T        1        1       0.05081113       0.05070962      -0.02749787
O        0.77133727       3.65187119      18.63293250  T        1        1       0.00052367      -0.01544045      -0.01409534
O        2.73584526       2.52489871      19.98718228  T        1        1       0.01562335       0.12883522      -0.08357805
O       -1.32545431       2.24762649      22.66411463  T        1        1      -0.00858725      -0.01041587       0.03151963
Si       7.23815181       0.00000000      12.00000000  F        0        2      -0.13301440      -0.36565094      -1.69405300
Si       3.76227409       2.00679893      15.60606667  F        0        2      -0.10645786       0.08779703       1.25162325
Si       6.22272410       2.25482548      13.80303333  F        0        2       0.02620053      -0.16667035       1.03789997
O        6.30416499       1.13103512      12.65233746  F        1        2      -0.50325566       0.21050819      -0.22721851
O        5.20877265       1.76346018      14.95372921  F        1        2       0.43626409      -0.24540960      -0.39226169
O        8.17066236       0.63242506      16.25840413  F        1        2      -0.19950356      -0.53600752       0.10623343
O        5.71021236       3.62919935      13.15069587  F        1        2       0.42334843       0.29052628       0.52626561
O        7.66922265       2.49816423      14.45537079  F        1        2       0.01809557       0.38703862      -0.73674413
O        3.84371499       3.13058929      16.75676254  F        1        2       0.07282799       0.29557152       0.13554625
Si       7.24697840      -0.00213780      17.46584148  T        0        1      -0.00122256      -0.01517715      -0.00461722
Si       3.74148050       2.04871437      21.19246132  T        0        1      -0.02573617      -0.03367056      -0.03191739
Si       6.18246073       2.21971458      19.31524855  T        0        1       0.06519343       0.00875428      -0.06840516
O        6.28981695       1.14302495      18.08394694  T        1        1      -0.00747745      -0.04249783      -0.01758886
O        5.13913363       1.69662835      20.42774792  T        1        1       0.04404336      -0.00679380      -0.03380382
O        8.18430373       0.19754236      21.62559574  T        1        1       0.01418790      -0.02441935      -0.02459011
O        5.73543472       3.62701478      18.61568530  T        1        1      -0.04299756       0.00594890       0.00973861
O        7.64129761       2.40111199      20.00707501  T        1        1       0.00435872      -0.00494662       0.03674286
O        3.94668212       3.19063794      22.37228964  T        1        1       0.02437466       0.11561172       0.01152166
F        2.77212861       0.27343296      24.24884983  T        0        0      -0.17186116      -0.16471145      -0.15165479
H        3.02176506       0.60514636      22.98318824  T        0        0       0.02546420      -0.02217597      -0.04164647
F        3.90876030       1.25520380      25.96320557  T        0        0       0.04375681       0.04002447       0.12201482
H        3.35701815       0.78397370      25.14652964  T        0        0       0.11802473       0.10063373       0.10091223
40
Lattice="9.8418 0.0 0.0 -2.460449999999999 4.261624409482844 0.0 0.0 -0.0 34.16586254" Properties=species:S:1:pos:R:3:move_mask:L:1:spacegroup_kinds:I:1:tags:I:1:forces:R:3 surface=alpha_quartz_001 coadsorbate=HF start=1 calculation_kind="Local coadsorbate relaxation; not a reaction path" host_atoms=36 energy=-282.9735249311908 pbc="T T F"
Si       2.31725181       0.00000000      12.00000000  F        0        2      -0.13313527      -0.36514086      -1.69744296
Si      -1.15862590       2.00679893      15.60606667  F        0        2      -0.12434081       0.06575176       1.26581937
Si       1.30182410       2.25482548      13.80303333  F        0        2       0.03878826      -0.15675051       1.02252967
O        1.38326499       1.13103512      12.65233746  F        1        2      -0.50379127       0.21309394      -0.22110341
O        0.28787265       1.76346018      14.95372921  F        1        2       0.45008212      -0.24625685      -0.39088949
O        3.24976236       0.63242506      16.25840413  F        1        2      -0.27038178      -0.57910746       0.15177229
O        0.78931236       3.62919935      13.15069587  F        1        2       0.42252677       0.28626675       0.53271671
O        2.74832265       2.49816423      14.45537079  F        1        2       0.00294344       0.38374332      -0.73977811
O       -1.07718501       3.13058929      16.75676254  F        1        2       0.05933267       0.45511567       0.23263670
Si       2.31071765       0.01579551      17.46782726  T        0        1       0.01049224       0.00040022       0.00254003
Si      -1.22030741       1.72808588      21.12276346  T        0        1      -0.03276304      -0.03797889       0.04758690
Si       1.28615496       2.26582599      19.32577383  T        0        1      -0.04665218      -0.01970099      -0.00588561
O        1.37297893       1.17679310      18.09249672  T        1        1       0.00787063      -0.02286811      -0.01017461
O        0.25494136       1.73668702      20.45574830  T        1        1      -0.06323986      -0.03340561       0.01152061
O        3.13225836       0.74667119      21.91691511  T        1        1       0.07207119       0.08789307       0.21774463
O        0.77124410       3.65031129      18.63420463  T        1        1      -0.01432462      -0.00613957      -0.02799739
O        2.73192220       2.52603351      19.98823843  T        1        1       0.06847166       0.14808417      -0.07792567
O       -1.32838547       2.24377463      22.66600500  T        1        1      -0.00563125      -0.01412398       0.01089970
Si       7.23815181       0.00000000      12.00000000  F        0        2      -0.13302406      -0.36553397      -1.69316343
Si       3.76227409       2.00679893      15.60606667  F        0        2      -0.10755128       0.08842731       1.25747484
Si       6.22272410       2.25482548      13.80303333  F        0        2       0.02550805      -0.16709262       1.03985762
O        6.30416499       1.13103512      12.65233746  F        1        2      -0.50292529       0.21014485      -0.22791849
O        5.20877265       1.76346018      14.95372921  F        1        2       0.43803764      -0.24515806      -0.39424353
O        8.17066236       0.63242506      16.25840413  F        1        2      -0.21072339      -0.54390086       0.12759872
O        5.71021236       3.62919935      13.15069587  F        1        2       0.42311557       0.29085362       0.52545044
O        7.66922265       2.49816423      14.45537079  F        1        2       0.01771435       0.38707585      -0.73776053
O        3.84371499       3.13058929      16.75676254  F        1        2       0.07951092       0.30308315       0.13968796
Si       7.24663146      -0.00183414      17.46682297  T        0        1      -0.00067162      -0.03074166      -0.03957215
Si       3.74370060       2.05535692      21.19096653  T        0        1      -0.05006010      -0.08393846       0.01512142
Si       6.18163718       2.21901962      19.31455997  T        0        1       0.06136466       0.00582549      -0.06388414
O        6.28862406       1.14194396      18.08492758  T        1        1      -0.00295096      -0.04564603      -0.04559106
O        5.14035136       1.69434443      20.42669733  T        1        1      -0.01304639       0.01715995      -0.01313816
O        8.18384023       0.19420084      21.62456289  T        1        1       0.01359064      -0.04678774      -0.01896785
O        5.73379785       3.62624944      18.61702229  T        1        1      -0.03934063       0.02390952      -0.00284411
O        7.63817164       2.39801027      20.00904091  T        1        1       0.03961218       0.01804742       0.03139274
O        3.95310198       3.20515686      22.36680290  T        1        1       0.00721927       0.05885676      -0.03165874
F        2.76768267       0.26738233      24.24087472  T        0        0      -0.04035040      -0.03285258      -0.15470803
H        3.03002280       0.60881863      22.98761335  T        0        0      -0.01753621      -0.05218655      -0.17754345
F        3.90694662       1.25222706      25.96662897  T        0        0       0.03725208       0.04645442       0.06999439
H        3.36237395       0.79102916      25.14309682  T        0        0       0.03693608       0.00512411       0.06984621
40
Lattice="9.8418 0.0 0.0 -2.460449999999999 4.261624409482844 0.0 0.0 -0.0 34.16586254" Properties=species:S:1:pos:R:3:move_mask:L:1:spacegroup_kinds:I:1:tags:I:1:forces:R:3 surface=alpha_quartz_001 coadsorbate=HF start=1 calculation_kind="Local coadsorbate relaxation; not a reaction path" host_atoms=36 energy=-282.9769488951059 pbc="T T F"
Si       2.31725181       0.00000000      12.00000000  F        0        2      -0.13307517      -0.36507115      -1.69698426
Si      -1.15862590       2.00679893      15.60606667  F        0        2      -0.12266606       0.06817446       1.26577617
Si       1.30182410       2.25482548      13.80303333  F        0        2       0.03887078      -0.15670575       1.02301767
O        1.38326499       1.13103512      12.65233746  F        1        2      -0.50366271       0.21288253      -0.22134334
O        0.28787265       1.76346018      14.95372921  F        1        2       0.44998706      -0.24642452      -0.39131424
O        3.24976236       0.63242506      16.25840413  F        1        2      -0.27248619      -0.58185493       0.15802359
O        0.78931236       3.62919935      13.15069587  F        1        2       0.42232128       0.28639666       0.53242187
O        2.74832265       2.49816423      14.45537079  F        1        2       0.00303678       0.38374311      -0.73977578
O       -1.07718501       3.13058929      16.75676254  F        1        2       0.05980019       0.45804955       0.23448314
Si       2.31067720       0.01598468      17.46824021  T        0        1       0.00609821      -0.00196011      -0.00932309
Si      -1.22363710       1.72480970      21.12338033  T        0        1      -0.02651297      -0.03131627       0.04841993
Si       1.28340333       2.26480362      19.32683890  T        0        1      -0.01693340      -0.01199879       0.00262052
O        1.37274209       1.17723337      18.09203811  T        1        1       0.00383175      -0.02196004      -0.00243050
O        0.25099725       1.73414688      20.45536466  T        1        1      -0.04564105      -0.03334331       0.00363405
O        3.13410157       0.74594260      21.91568841  T        1        1       0.08812870       0.11633442       0.08043577
O        0.77007876       3.64979007      18.63468323  T        1        1      -0.01716586      -0.01040082      -0.02383999
O        2.72963546       2.52712340      19.98963241  T        1        1       0.05852546       0.12548676      -0.05466385
O       -1.33254438       2.23901295      22.66680374  T        1        1      -0.00847836      -0.02149185       0.01145128
Si       7.23815181       0.00000000      12.00000000  F        0        2      -0.13301619      -0.36552305      -1.69295710
Si       3.76227409       2.00679893      15.60606667  F        0        2      -0.10869129       0.08734992       1.25702035
Si       6.22272410       2.25482548      13.80303333  F        0        2       0.02556176      -0.16712977       1.03978021
O        6.30416499       1.13103512      12.65233746  F        1        2      -0.50289560       0.21001299      -0.22809402
O        5.20877265       1.76346018      14.95372921  F        1        2       0.43798469      -0.24493332      -0.39424586
O        8.17066236       0.63242506      16.25840413  F        1        2      -0.21190096      -0.54520058       0.13022861
O        5.71021236       3.62919935      13.15069587  F        1        2       0.42299974       0.29098716       0.52533635
O        7.66922265       2.49816423      14.45537079  F        1        2       0.01756634       0.38684751      -0.73784486
O        3.84371499       3.13058929      16.75676254  F        1        2       0.07382721       0.29303892       0.12996773
Si       7.24621850      -0.00196159      17.46645023  T        0        1       0.00110147      -0.02689198      -0.04208294
Si       3.74270806       2.05755784      21.19363385  T        0        1      -0.02644852      -0.02644614       0.01115447
Si       6.18053340       2.21838918      19.31333047  T        0        1       0.03290296      -0.00355125      -0.03289098
O        6.28716763       1.14100479      18.08405599  T        1        1      -0.00390579      -0.02965967      -0.04253938
O        5.13856389       1.69411348      20.42613772  T        1        1      -0.02500408       0.02792539      -0.01299081
O        8.18296078       0.18808684      21.62169636  T        1        1       0.01213335      -0.05451326      -0.01466691
O        5.73219855       3.62628541      18.61745876  T        1        1      -0.02547284       0.01832753      -0.00352663
O        7.63613118       2.39593142      20.00995422  T        1        1       0.03219762       0.02109368       0.01940132
O        3.95975199       3.22176688      22.36018718  T        1        1      -0.00609475       0.01273470      -0.07548556
F        2.76785200       0.26571283      24.24411658  T        0        0      -0.02332188      -0.02149339      -0.09388113
H        3.03564713       0.61265008      22.97081472  T        0        0      -0.02835559      -0.06708643      -0.08897899
F        3.90873839       1.25372250      25.96770301  T        0        0       0.00735356       0.01884631       0.02248247
H        3.36146280       0.78864965      25.14136229  T        0        0       0.04750034       0.01672482       0.10420471
40
Lattice="9.8418 0.0 0.0 -2.460449999999999 4.261624409482844 0.0 0.0 -0.0 34.16586254" Properties=species:S:1:pos:R:3:move_mask:L:1:spacegroup_kinds:I:1:tags:I:1:forces:R:3 surface=alpha_quartz_001 coadsorbate=HF start=1 calculation_kind="Local coadsorbate relaxation; not a reaction path" host_atoms=36 energy=-282.97986734127113 pbc="T T F"
Si       2.31725181       0.00000000      12.00000000  F        0        2      -0.13305246      -0.36512032      -1.69702729
Si      -1.15862590       2.00679893      15.60606667  F        0        2      -0.12082763       0.07109779       1.26636545
Si       1.30182410       2.25482548      13.80303333  F        0        2       0.03863742      -0.15679369       1.02328518
O        1.38326499       1.13103512      12.65233746  F        1        2      -0.50369800       0.21292288      -0.22136289
O        0.28787265       1.76346018      14.95372921  F        1        2       0.45001273      -0.24665217      -0.39174500
O        3.24976236       0.63242506      16.25840413  F        1        2      -0.27002378      -0.58029907       0.15725191
O        0.78931236       3.62919935      13.15069587  F        1        2       0.42239858       0.28640215       0.53248835
O        2.74832265       2.49816423      14.45537079  F        1        2       0.00354033       0.38390688      -0.73913915
O       -1.07718501       3.13058929      16.75676254  F        1        2       0.05712924       0.45583844       0.23058831
Si       2.31089949       0.01598203      17.46834206  T        0        1      -0.00460408      -0.00497878      -0.01888851
Si      -1.22714890       1.72118712      21.12524261  T        0        1      -0.01242502      -0.01599030       0.02234876
Si       1.28065658       2.26350557      19.32789797  T        0        1       0.03194393       0.00565305       0.01465614
O        1.37262719       1.17706710      18.09156217  T        1        1      -0.00302515      -0.01218429       0.01659748
O        0.24671279       1.73135819      20.45509617  T        1        1      -0.00212700      -0.02746858      -0.01147176
O        3.13793276       0.74804365      21.91583275  T        1        1       0.07399366       0.09585250      -0.10024988
O        0.76898016       3.64883792      18.63434912  T        1        1      -0.01644750      -0.02224646      -0.00882962
O        2.72940769       2.53255764      19.98801345  T        1        1       0.01845335       0.06631767      -0.01425639
O       -1.33569734       2.23521145      22.66814787  T        1        1      -0.01356056      -0.03100322       0.02005352
Si       7.23815181       0.00000000      12.00000000  F        0        2      -0.13300898      -0.36566431      -1.69339825
Si       3.76227409       2.00679893      15.60606667  F        0        2      -0.11099965       0.08331463       1.25473612
Si       6.22272410       2.25482548      13.80303333  F        0        2       0.02590085      -0.16706745       1.03883526
O        6.30416499       1.13103512      12.65233746  F        1        2      -0.50316075       0.21016441      -0.22790259
O        5.20877265       1.76346018      14.95372921  F        1        2       0.43751951      -0.24447019      -0.39367562
O        8.17066236       0.63242506      16.25840413  F        1        2      -0.20456255      -0.54386696       0.11966859
O        5.71021236       3.62919935      13.15069587  F        1        2       0.42312789       0.29091706       0.52574429
O        7.66922265       2.49816423      14.45537079  F        1        2       0.01720508       0.38638479      -0.73787645
O        3.84371499       3.13058929      16.75676254  F        1        2       0.05824983       0.26528721       0.10591180
Si       7.24598865      -0.00286682      17.46507719  T        0        1       0.00545100      -0.00755508      -0.02057762
Si       3.74152244       2.05910289      21.19444811  T        0        1       0.01813839       0.07738838      -0.03297360
Si       6.18123953       2.21790078      19.31095408  T        0        1      -0.01305615      -0.01321907       0.01042814
O        6.28588382       1.13930464      18.08223143  T        1        1      -0.00441159       0.00853383      -0.02411761
O        5.13751665       1.69484326      20.42473806  T        1        1      -0.02729326       0.03849954      -0.01977252
O        8.18283218       0.18193312      21.61894297  T        1        1       0.00693689      -0.06301104      -0.00341827
O        5.73006775       3.62664665      18.61788439  T        1        1       0.00474066      -0.00234891      -0.00350737
O        7.63542600       2.39510694      20.01129539  T        1        1       0.00562317       0.01610402      -0.00257734
O        3.96430514       3.23478828      22.35407220  T        1        1      -0.01480716      -0.02213402      -0.10651554
F        2.76503433       0.26162083      24.24536549  T        0        0       0.04522602       0.03292756       0.01641268
H        3.03897534       0.61346714      22.95528765  T        0        0      -0.04067564      -0.07545185       0.07123253
F        3.91117998       1.25622393      25.97093441  T        0        0      -0.02646854      -0.01592154      -0.03296872
H        3.36286068       0.78790133      25.14336478  T        0        0       0.01400693      -0.00406550       0.07564748
40
Lattice="9.8418 0.0 0.0 -2.460449999999999 4.261624409482844 0.0 0.0 -0.0 34.16586254" Properties=species:S:1:pos:R:3:move_mask:L:1:spacegroup_kinds:I:1:tags:I:1:forces:R:3 surface=alpha_quartz_001 coadsorbate=HF start=1 calculation_kind="Local coadsorbate relaxation; not a reaction path" host_atoms=36 energy=-282.981185833988 pbc="T T F"
Si       2.31725181       0.00000000      12.00000000  F        0        2      -0.13303992      -0.36518069      -1.69713269
Si      -1.15862590       2.00679893      15.60606667  F        0        2      -0.12051092       0.07218184       1.26718974
Si       1.30182410       2.25482548      13.80303333  F        0        2       0.03858072      -0.15684370       1.02353065
O        1.38326499       1.13103512      12.65233746  F        1        2      -0.50378490       0.21298936      -0.22137557
O        0.28787265       1.76346018      14.95372921  F        1        2       0.45013292      -0.24671927      -0.39196070
O        3.24976236       0.63242506      16.25840413  F        1        2      -0.26789846      -0.57933979       0.15518883
O        0.78931236       3.62919935      13.15069587  F        1        2       0.42250005       0.28637036       0.53253573
O        2.74832265       2.49816423      14.45537079  F        1        2       0.00354756       0.38391312      -0.73909888
O       -1.07718501       3.13058929      16.75676254  F        1        2       0.05424330       0.45161205       0.22562109
Si       2.31108988       0.01574695      17.46821375  T        0        1      -0.00785857      -0.00371129      -0.01273098
Si      -1.22830997       1.71993712      21.12613114  T        0        1      -0.00639051      -0.01729419       0.00882980
Si       1.28027264       2.26298959      19.32843114  T        0        1       0.03290471       0.00956848       0.01341887
O        1.37282539       1.17662671      18.09180251  T        1        1      -0.00279532      -0.00810432       0.02211882
O        0.24527823       1.72999027      20.45476378  T        1        1       0.01094674      -0.02327826      -0.01241657
O        3.13997355       0.75016583      21.91408014  T        1        1       0.05210798       0.06142597      -0.05692952
O        0.76850204       3.64807594      18.63422311  T        1        1      -0.01564841      -0.02386898      -0.00603117
O        2.72940890       2.53526496      19.98730967  T        1        1       0.00516963       0.05409040      -0.01208106
O       -1.33677157       2.23360031      22.66902277  T        1        1      -0.01342736      -0.03382424       0.02059310
Si       7.23815181       0.00000000      12.00000000  F        0        2      -0.13300265      -0.36575539      -1.69359881
Si       3.76227409       2.00679893      15.60606667  F        0        2      -0.11166655       0.08194647       1.25466373
Si       6.22272410       2.25482548      13.80303333  F        0        2       0.02595984      -0.16710682       1.03881445
O        6.30416499       1.13103512      12.65233746  F        1        2      -0.50329723       0.21024752      -0.22785619
O        5.20877265       1.76346018      14.95372921  F        1        2       0.43749745      -0.24426819      -0.39380507
O        8.17066236       0.63242506      16.25840413  F        1        2      -0.20052745      -0.54274380       0.11405279
O        5.71021236       3.62919935      13.15069587  F        1        2       0.42323209       0.29089355       0.52587599
O        7.66922265       2.49816423      14.45537079  F        1        2       0.01698852       0.38618742      -0.73811835
O        3.84371499       3.13058929      16.75676254  F        1        2       0.05246579       0.25475762       0.09679900
Si       7.24599382      -0.00322726      17.46451541  T        0        1       0.00583046       0.00115838      -0.00523220
Si       3.74174889       2.06106522      21.19366854  T        0        1       0.02272651       0.09129352      -0.05226821
Si       6.18129512       2.21754144      19.31040853  T        0        1      -0.01368070      -0.00966810       0.00900661
O        6.28545821       1.13881529      18.08153445  T        1        1      -0.00194712       0.01817698      -0.01761987
O        5.13712135       1.69528487      20.42399017  T        1        1      -0.01849134       0.03801796      -0.02656020
O        8.18293464       0.17943167      21.61831769  T        1        1       0.00943076      -0.05501155      -0.00341995
O        5.72941718       3.62666325      18.61807732  T        1        1       0.01200401      -0.00798364      -0.00558631
O        7.63516958       2.39487580      20.01190923  T        1        1      -0.00290900       0.01089277      -0.00588342
O        3.96567678       3.23866655      22.35073174  T        1        1      -0.01550599      -0.01326717      -0.09115310
F        2.76463496       0.26066160      24.24352046  T        0        0       0.07056238       0.05472374       0.02816490
H        3.03993515       0.61264538      22.95430735  T        0        0      -0.04154915      -0.06823804       0.06139558
F        3.91096709       1.25604898      25.97176102  T        0        0      -0.02175884      -0.01243532      -0.02786923
H        3.36419404       0.78881865      25.14444278  T        0        0      -0.01114100      -0.02580475       0.04092837
40
Lattice="9.8418 0.0 0.0 -2.460449999999999 4.261624409482844 0.0 0.0 -0.0 34.16586254" Properties=species:S:1:pos:R:3:move_mask:L:1:spacegroup_kinds:I:1:tags:I:1:forces:R:3 surface=alpha_quartz_001 coadsorbate=HF start=1 calculation_kind="Local coadsorbate relaxation; not a reaction path" host_atoms=36 energy=-282.98441342185095 pbc="T T F"
Si       2.31725181       0.00000000      12.00000000  F        0        2      -0.13290275      -0.36531226      -1.69679078
Si      -1.15862590       2.00679893      15.60606667  F        0        2      -0.11914987       0.07765184       1.27050919
Si       1.30182410       2.25482548      13.80303333  F        0        2       0.03891423      -0.15682867       1.02515746
O        1.38326499       1.13103512      12.65233746  F        1        2      -0.50397613       0.21290328      -0.22184912
O        0.28787265       1.76346018      14.95372921  F        1        2       0.45056074      -0.24705811      -0.39298188
O        3.24976236       0.63242506      16.25840413  F        1        2      -0.26540237      -0.58066664       0.15645491
O        0.78931236       3.62919935      13.15069587  F        1        2       0.42252090       0.28643284       0.53216435
O        2.74832265       2.49816423      14.45537079  F        1        2       0.00292878       0.38372227      -0.73985212
O       -1.07718501       3.13058929      16.75676254  F        1        2       0.04078918       0.43634787       0.20540293
Si       2.31135505       0.01501212      17.46794681  T        0        1      -0.01440479       0.00306702       0.01610438
Si      -1.23503991       1.71252252      21.12919014  T        0        1       0.01789434      -0.03682128      -0.03428435
Si       1.27792603       2.26079038      19.33164579  T        0        1       0.00289564       0.01191039      -0.00444573
O        1.37337080       1.17535867      18.09320170  T        1        1       0.00500012       0.00160820       0.03601077
O        0.23752328       1.72229197      20.45273428  T        1        1       0.04111399      -0.00695924      -0.00379367
O        3.14903395       0.75760843      21.90426414  T        1        1       0.00181639      -0.00174424       0.03149371
O        0.76515968       3.64445131      18.63459314  T        1        1      -0.01304844      -0.02245782      -0.00160937
O        2.72610213       2.54413734      19.98820758  T        1        1      -0.03001313       0.03478972      -0.02099416
O       -1.34526113       2.22183378      22.67304062  T        1        1      -0.00900396      -0.04906543       0.01128009
Si       7.23815181       0.00000000      12.00000000  F        0        2      -0.13295106      -0.36598920      -1.69353490
Si       3.76227409       2.00679893      15.60606667  F        0        2      -0.11340302       0.07912814       1.25654401
Si       6.22272410       2.25482548      13.80303333  F        0        2       0.02591474      -0.16746911       1.04002494
O        6.30416499       1.13103512      12.65233746  F        1        2      -0.50353860       0.21016041      -0.22826532
O        5.20877265       1.76346018      14.95372921  F        1        2       0.43786412      -0.24351100      -0.39536555
O        8.17066236       0.63242506      16.25840413  F        1        2      -0.18979457      -0.53943219       0.10106257
O        5.71021236       3.62919935      13.15069587  F        1        2       0.42331646       0.29116597       0.52568802
O        7.66922265       2.49816423      14.45537079  F        1        2       0.01618543       0.38540369      -0.73949438
O        3.84371499       3.13058929      16.75676254  F        1        2       0.03493131       0.22281325       0.06765458
Si       7.24571044      -0.00396211      17.46282795  T        0        1       0.00260176       0.02602164       0.04206499
Si       3.74279030       2.07365401      21.19276705  T        0        1       0.01705351       0.07952213      -0.09302878
Si       6.17848332       2.21522980      19.30894842  T        0        1       0.01087260       0.01343766      -0.01877144
O        6.28262702       1.13751238      18.07852220  T        1        1       0.01090306       0.03756288      -0.00051418
O        5.13290056       1.69707426      20.42070170  T        1        1       0.01242676       0.02862312      -0.04793325
O        8.18237721       0.16391537      21.61373582  T        1        1       0.04100506       0.00923227      -0.02071965
O        5.72665766       3.62630081      18.61888834  T        1        1       0.02730765      -0.01510261      -0.01744662
O        7.63144959       2.39159446      20.01443961  T        1        1      -0.01718876      -0.01412574      -0.00081115
O        3.97715602       3.26823409      22.32941357  T        1        1      -0.04082610       0.00776508      -0.01501688
F        2.76871413       0.26024536      24.23977979  T        0        0       0.09833212       0.07473531       0.03357022
H        3.04859589       0.61275554      22.93998079  T        0        0      -0.04541084      -0.04431666       0.05428780
F        3.90961421       1.25459571      25.97240401  T        0        0       0.00594521       0.00959058       0.01784418
H        3.36646611       0.78875277      25.14530456  T        0        0      -0.05807973      -0.06673536      -0.03581582
40
Lattice="9.8418 0.0 0.0 -2.460449999999999 4.261624409482844 0.0 0.0 -0.0 34.16586254" Properties=species:S:1:pos:R:3:move_mask:L:1:spacegroup_kinds:I:1:tags:I:1:forces:R:3 surface=alpha_quartz_001 coadsorbate=HF start=1 calculation_kind="Local coadsorbate relaxation; not a reaction path" host_atoms=36 energy=-282.9856604532701 pbc="T T F"
Si       2.31725181       0.00000000      12.00000000  F        0        2      -0.13293430      -0.36540920      -1.69720617
Si      -1.15862590       2.00679893      15.60606667  F        0        2      -0.12091747       0.07666468       1.27142592
Si       1.30182410       2.25482548      13.80303333  F        0        2       0.03928687      -0.15671105       1.02501729
O        1.38326499       1.13103512      12.65233746  F        1        2      -0.50419047       0.21312737      -0.22171429
O        0.28787265       1.76346018      14.95372921  F        1        2       0.45084225      -0.24702698      -0.39258990
O        3.24976236       0.63242506      16.25840413  F        1        2      -0.26591896      -0.57836322       0.15358829
O        0.78931236       3.62919935      13.15069587  F        1        2       0.42269580       0.28627611       0.53237280
O        2.74832265       2.49816423      14.45537079  F        1        2       0.00243840       0.38377328      -0.74033342
O       -1.07718501       3.13058929      16.75676254  F        1        2       0.03252750       0.42830292       0.19490744
Si       2.31115501       0.01477311      17.46750429  T        0        1      -0.01035229       0.00614158       0.02679553
Si      -1.23422906       1.71198207      21.12982749  T        0        1       0.03015109      -0.01941399      -0.05206920
Si       1.27947053       2.26126979      19.33154775  T        0        1      -0.01774351       0.00916605      -0.01102367
O        1.37360053       1.17442056      18.09451505  T        1        1       0.01157950       0.00079127       0.03008725
O        0.23906941       1.72187987      20.45257896  T        1        1       0.03759727       0.00227869       0.00979983
O        3.15188482       0.76231305      21.90629851  T        1        1      -0.03528211      -0.04857756       0.08574768
O        0.76479214       3.64322849      18.63351357  T        1        1      -0.01090720      -0.01107246       0.00103332
O        2.72840579       2.54983077      19.98457255  T        1        1      -0.05047019       0.01460691      -0.02407542
O       -1.34387049       2.22209868      22.67402915  T        1        1      -0.00354419      -0.05130437      -0.00489361
Si       7.23815181       0.00000000      12.00000000  F        0        2      -0.13295507      -0.36604851      -1.69375720
Si       3.76227409       2.00679893      15.60606667  F        0        2      -0.11296475       0.07937200       1.25773163
Si       6.22272410       2.25482548      13.80303333  F        0        2       0.02564165      -0.16765311       1.04038230
O        6.30416499       1.13103512      12.65233746  F        1        2      -0.50360889       0.21025485      -0.22819944
O        5.20877265       1.76346018      14.95372921  F        1        2       0.43810709      -0.24353921      -0.39601994
O        8.17066236       0.63242506      16.25840413  F        1        2      -0.18115217      -0.53547549       0.08939476
O        5.71021236       3.62919935      13.15069587  F        1        2       0.42346048       0.29113033       0.52576182
O        7.66922265       2.49816423      14.45537079  F        1        2       0.01624905       0.38541914      -0.73987145
O        3.84371499       3.13058929      16.75676254  F        1        2       0.03423674       0.22034496       0.06588644
Si       7.24617341      -0.00422064      17.46249831  T        0        1      -0.00226425       0.02743899       0.04832475
Si       3.74336619       2.07537332      21.18789591  T        0        1      -0.00049732       0.03056256      -0.08228457
Si       6.18024841       2.21551327      19.30807030  T        0        1       0.02379615       0.02506513      -0.02753874
O        6.28330891       1.13810230      18.07730726  T        1        1       0.01632773       0.03484368       0.00753953
O        5.13343246       1.69943358      20.41876304  T        1        1       0.03173535       0.00879739      -0.05424694
O        8.18415237       0.16406012      21.61421112  T        1        1       0.03327827       0.00945980      -0.01822061
O        5.72731885       3.62622091      18.61826789  T        1        1       0.02847450      -0.00723430      -0.02112921
O        7.63294143       2.39329317      20.01449573  T        1        1      -0.01567320      -0.03315994       0.00911120
O        3.97268813       3.26090954      22.32882775  T        1        1      -0.01879532       0.07442795       0.04162023
F        2.77044727       0.26218479      24.23685069  T        0        0       0.08320750       0.05380615       0.02043887
H        3.04316899       0.60636529      22.94798226  T        0        0      -0.01732266       0.00451219       0.00531362
F        3.90911568       1.25482252      25.97329863  T        0        0       0.01405173       0.01188774       0.04696334
H        3.36715662       0.78871665      25.14937559  T        0        0      -0.05819060      -0.05746235      -0.08407006
40
Lattice="9.8418 0.0 0.0 -2.460449999999999 4.261624409482844 0.0 0.0 -0.0 34.16586254" Properties=species:S:1:pos:R:3:move_mask:L:1:spacegroup_kinds:I:1:tags:I:1:forces:R:3 surface=alpha_quartz_001 coadsorbate=HF start=1 calculation_kind="Local coadsorbate relaxation; not a reaction path" host_atoms=36 energy=-282.98694938178465 pbc="T T F"
Si       2.31725181       0.00000000      12.00000000  F        0        2      -0.13287796      -0.36530357      -1.69659467
Si      -1.15862590       2.00679893      15.60606667  F        0        2      -0.12174660       0.07702163       1.27189167
Si       1.30182410       2.25482548      13.80303333  F        0        2       0.03996235      -0.15648465       1.02572850
O        1.38326499       1.13103512      12.65233746  F        1        2      -0.50407455       0.21286142      -0.22210175
O        0.28787265       1.76346018      14.95372921  F        1        2       0.45114704      -0.24701842      -0.39264501
O        3.24976236       0.63242506      16.25840413  F        1        2      -0.27279072      -0.58317283       0.16393898
O        0.78931236       3.62919935      13.15069587  F        1        2       0.42236660       0.28639760       0.53184275
O        2.74832265       2.49816423      14.45537079  F        1        2       0.00164978       0.38369309      -0.74145961
O       -1.07718501       3.13058929      16.75676254  F        1        2       0.02908610       0.42858870       0.19267344
Si       2.31083515       0.01476601      17.46785840  T        0        1      -0.00533943       0.00627470       0.01633871
Si      -1.23568341       1.70910205      21.12968285  T        0        1       0.03407691      -0.01493209      -0.03856548
Si       1.27852005       2.26096237      19.33228260  T        0        1      -0.03180256       0.00402887      -0.01548944
O        1.37385895       1.17416724      18.09567010  T        1        1       0.01187362      -0.00371120       0.02101001
O        0.23767121       1.71952289      20.45208727  T        1        1       0.03200490       0.00633064       0.01838505
O        3.15436912       0.76423299      21.90428628  T        1        1      -0.02797145      -0.01973790       0.06077845
O        0.76336598       3.64191142      18.63366862  T        1        1      -0.01244484       0.00055366      -0.00051739
O        2.72636974       2.55244773      19.98487556  T        1        1      -0.03776233       0.01552287      -0.02147499
O       -1.34682064       2.21704813      22.67503250  T        1        1       0.00203221      -0.05468587      -0.02190933
Si       7.23815181       0.00000000      12.00000000  F        0        2      -0.13293014      -0.36592090      -1.69300857
Si       3.76227409       2.00679893      15.60606667  F        0        2      -0.11240235       0.08132799       1.26043362
Si       6.22272410       2.25482548      13.80303333  F        0        2       0.02530131      -0.16789782       1.04170517
O        6.30416499       1.13103512      12.65233746  F        1        2      -0.50332478       0.20988332      -0.22873354
O        5.20877265       1.76346018      14.95372921  F        1        2       0.43876314      -0.24357865      -0.39724891
O        8.17066236       0.63242506      16.25840413  F        1        2      -0.18317481      -0.53607306       0.09446675
O        5.71021236       3.62919935      13.15069587  F        1        2       0.42316221       0.29144523       0.52508595
O        7.66922265       2.49816423      14.45537079  F        1        2       0.01625925       0.38553653      -0.74060483
O        3.84371499       3.13058929      16.75676254  F        1        2       0.03895691       0.22784153       0.07136051
Si       7.24603924      -0.00378201      17.46294937  T        0        1      -0.00600317       0.01640755       0.02270205
Si       3.74355971       2.07997935      21.18661671  T        0        1      -0.00975670      -0.00403120      -0.04443228
Si       6.17951195       2.21526026      19.30728463  T        0        1       0.03231141       0.03006779      -0.02627557
O        6.28275190       1.13867730      18.07644113  T        1        1       0.01962742       0.02486176       0.00138090
O        5.13215166       1.70040923      20.41681647  T        1        1       0.01751622       0.00382773      -0.04512698
O        8.18473770       0.15940624      21.61222372  T        1        1       0.04008192       0.01641519      -0.02463831
O        5.72725175       3.62593871      18.61796012  T        1        1       0.02726285       0.00931944      -0.02389723
O        7.63139135       2.39162567      20.01523644  T        1        1      -0.00147626      -0.03528474       0.01317299
O        3.97569018       3.27123560      22.32225232  T        1        1      -0.03032781       0.06030766       0.04384744
F        2.77454306       0.26419986      24.23710127  T        0        0       0.05084632       0.02136600       0.00646971
H        3.04513277       0.60626900      22.94333303  T        0        0      -0.00947432       0.02048168       0.00067270
F        3.90883486       1.25455935      25.97341460  T        0        0       0.00717492       0.00456678       0.04747360
H        3.36605397       0.78667163      25.14841478  T        0        0      -0.02578261      -0.02709646      -0.05663505
40
Lattice="9.8418 0.0 0.0 -2.460449999999999 4.261624409482844 0.0 0.0 -0.0 34.16586254" Properties=species:S:1:pos:R:3:move_mask:L:1:spacegroup_kinds:I:1:tags:I:1:forces:R:3 surface=alpha_quartz_001 coadsorbate=HF start=1 calculation_kind="Local coadsorbate relaxation; not a reaction path" host_atoms=36 energy=-282.9882262143577 pbc="T T F"
Si       2.31725181       0.00000000      12.00000000  F        0        2      -0.13285687      -0.36514745      -1.69593397
Si      -1.15862590       2.00679893      15.60606667  F        0        2      -0.12401611       0.07595232       1.27182496
Si       1.30182410       2.25482548      13.80303333  F        0        2       0.04074483      -0.15619423       1.02621742
O        1.38326499       1.13103512      12.65233746  F        1        2      -0.50389760       0.21259233      -0.22248273
O        0.28787265       1.76346018      14.95372921  F        1        2       0.45180920      -0.24690973      -0.39236174
O        3.24976236       0.63242506      16.25840413  F        1        2      -0.28390416      -0.58976155       0.17994271
O        0.78931236       3.62919935      13.15069587  F        1        2       0.42198441       0.28650334       0.53127866
O        2.74832265       2.49816423      14.45537079  F        1        2       0.00077000       0.38365526      -0.74266717
O       -1.07718501       3.13058929      16.75676254  F        1        2       0.02599342       0.43213617       0.19245233
Si       2.31030109       0.01492096      17.46845566  T        0        1       0.00159757       0.00317938      -0.01203158
Si      -1.23626652       1.70552731      21.12875239  T        0        1       0.03274976      -0.00229069      -0.00994609
Si       1.27678092       2.26080972      19.33262333  T        0        1      -0.02616273       0.00159626      -0.01375224
O        1.37439496       1.17372746      18.09756505  T        1        1       0.00436215      -0.00991465       0.00158421
O        0.23725690       1.71716270      20.45203530  T        1        1       0.02316614       0.00954758       0.02596914
O        3.15690414       0.76681832      21.90327398  T        1        1      -0.01389245       0.02471507       0.00289764
O        0.76143688       3.64044816      18.63369073  T        1        1      -0.01435817       0.01613741      -0.00072097
O        2.72361424       2.55627431      19.98430877  T        1        1      -0.00918508       0.00942623      -0.00435251
O       -1.34977714       2.21016859      22.67549038  T        1        1       0.00982150      -0.05050366      -0.03375214
Si       7.23815181       0.00000000      12.00000000  F        0        2      -0.13288010      -0.36570746      -1.69202410
Si       3.76227409       2.00679893      15.60606667  F        0        2      -0.11119765       0.08443036       1.26309239
Si       6.22272410       2.25482548      13.80303333  F        0        2       0.02508528      -0.16805821       1.04320536
O        6.30416499       1.13103512      12.65233746  F        1        2      -0.50292793       0.20938218      -0.22936232
O        5.20877265       1.76346018      14.95372921  F        1        2       0.43931168      -0.24382970      -0.39841661
O        8.17066236       0.63242506      16.25840413  F        1        2      -0.18656295      -0.53625515       0.10046077
O        5.71021236       3.62919935      13.15069587  F        1        2       0.42269085       0.29181522       0.52419016
O        7.66922265       2.49816423      14.45537079  F        1        2       0.01635658       0.38597905      -0.74161230
O        3.84371499       3.13058929      16.75676254  F        1        2       0.04710822       0.24286108       0.08389850
Si       7.24577169      -0.00298712      17.46373994  T        0        1      -0.00620072      -0.00356555      -0.02566919
Si       3.74344888       2.08471838      21.18405021  T        0        1      -0.01401593      -0.02376573       0.01770002
Si       6.17977654       2.21583085      19.30570657  T        0        1       0.02525623       0.02716266      -0.00916265
O        6.28275048       1.14001240      18.07532268  T        1        1       0.02059411       0.00952529      -0.01059396
O        5.13102429       1.70189959      20.41344440  T        1        1      -0.01578102       0.00370836      -0.02439750
O        8.18668437       0.15489208      21.60938775  T        1        1       0.03846029       0.00019753      -0.02778318
O        5.72801378       3.62596988      18.61689939  T        1        1       0.02689530       0.03411514      -0.02375034
O        7.62995367       2.38917073      20.01630730  T        1        1       0.02174032      -0.02730100       0.00900431
O        3.97740070       3.28267375      22.31607855  T        1        1      -0.04259116       0.01813246       0.01485444
F        2.78036100       0.26704581      24.23763369  T        0        0      -0.00013823      -0.02861732      -0.01320856
H        3.04621435       0.60593169      22.93909324  T        0        0       0.00392882       0.04239536       0.00021061
F        3.90863141       1.25443125      25.97459110  T        0        0      -0.01522460      -0.01683413       0.02882451
H        3.36441759       0.78376532      25.14698170  T        0        0       0.03536675       0.02951016       0.00637375
40
Lattice="9.8418 0.0 0.0 -2.460449999999999 4.261624409482844 0.0 0.0 -0.0 34.16586254" Properties=species:S:1:pos:R:3:move_mask:L:1:spacegroup_kinds:I:1:tags:I:1:forces:R:3 surface=alpha_quartz_001 coadsorbate=HF start=1 calculation_kind="Local coadsorbate relaxation; not a reaction path" host_atoms=36 energy=-282.98880153849416 pbc="T T F"
Si       2.31725181       0.00000000      12.00000000  F        0        2      -0.13290177      -0.36516483      -1.69610415
Si      -1.15862590       2.00679893      15.60606667  F        0        2      -0.12557626       0.07480748       1.27144554
Si       1.30182410       2.25482548      13.80303333  F        0        2       0.04073134      -0.15617258       1.02585128
O        1.38326499       1.13103512      12.65233746  F        1        2      -0.50393477       0.21270852      -0.22238144
O        0.28787265       1.76346018      14.95372921  F        1        2       0.45223131      -0.24684458      -0.39197746
O        3.24976236       0.63242506      16.25840413  F        1        2      -0.28631758      -0.59065161       0.18348607
O        0.78931236       3.62919935      13.15069587  F        1        2       0.42208013       0.28642201       0.53142376
O        2.74832265       2.49816423      14.45537079  F        1        2       0.00076866       0.38364604      -0.74249036
O       -1.07718501       3.13058929      16.75676254  F        1        2       0.02403848       0.43205494       0.19051587
Si       2.31014726       0.01495986      17.46849180  T        0        1       0.00187008       0.00149543      -0.02097513
Si      -1.23580343       1.70406939      21.12824564  T        0        1       0.02820312      -0.00039347      -0.00017473
Si       1.27581784       2.26077810      19.33250858  T        0        1      -0.00967688       0.00441667      -0.01049345
O        1.37477275       1.17325932      18.09852300  T        1        1      -0.00297447      -0.00848999      -0.00724358
O        0.23772197       1.71638736      20.45240840  T        1        1       0.02412696       0.01068993       0.02435876
O        3.15780535       0.76858821      21.90316710  T        1        1      -0.01281262       0.03262986      -0.00748275
O        0.76048113       3.63994972      18.63360375  T        1        1      -0.01360826       0.01875833       0.00055826
O        2.72254418       2.55863783      19.98346369  T        1        1       0.00284291       0.00132778       0.00673825
O       -1.35051049       2.20675890      22.67528682  T        1        1       0.01231204      -0.04247072      -0.02541796
Si       7.23815181       0.00000000      12.00000000  F        0        2      -0.13284630      -0.36569743      -1.69200382
Si       3.76227409       2.00679893      15.60606667  F        0        2      -0.11058234       0.08512918       1.26245652
Si       6.22272410       2.25482548      13.80303333  F        0        2       0.02533683      -0.16794410       1.04322815
O        6.30416499       1.13103512      12.65233746  F        1        2      -0.50294274       0.20934282      -0.22936104
O        5.20877265       1.76346018      14.95372921  F        1        2       0.43896564      -0.24399085      -0.39823711
O        8.17066236       0.63242506      16.25840413  F        1        2      -0.18474391      -0.53396385       0.09591316
O        5.71021236       3.62919935      13.15069587  F        1        2       0.42261067       0.29182559       0.52412761
O        7.66922265       2.49816423      14.45537079  F        1        2       0.01635680       0.38622313      -0.74195065
O        3.84371499       3.13058929      16.75676254  F        1        2       0.04738339       0.24527262       0.08686447
Si       7.24562443      -0.00273474      17.46368698  T        0        1      -0.00225852      -0.00716473      -0.03568570
Si       3.74333592       2.08646360      21.18245918  T        0        1      -0.01391003      -0.01790640       0.03632838
Si       6.18060959       2.21657862      19.30477202  T        0        1       0.01381896       0.02142155      -0.00090749
O        6.28319741       1.14075450      18.07467018  T        1        1       0.01918309       0.00678411      -0.01345106
O        5.13063948       1.70271053      20.41140778  T        1        1      -0.02902709       0.00809756      -0.01560486
O        8.18831887       0.15330253      21.60795019  T        1        1       0.03292475      -0.01511157      -0.02679176
O        5.72883732       3.62649676      18.61606000  T        1        1       0.02904022       0.03823732      -0.02104448
O        7.62987838       2.38790092      20.01693724  T        1        1       0.02671196      -0.01857940      -0.00020170
O        3.97683098       3.28661670      22.31415593  T        1        1      -0.04312153      -0.00199808      -0.00370590
F        2.78255014       0.26763570      24.23677930  T        0        0      -0.00946670      -0.03742030      -0.01498796
H        3.04618829       0.60582237      22.93903894  T        0        0       0.00943893       0.05153579      -0.00544021
F        3.90819649       1.25403582      25.97594942  T        0        0      -0.02253206      -0.02327681       0.02036276
H        3.36467175       0.78348394      25.14676483  T        0        0       0.04825753       0.04041466       0.02045593
40
Lattice="9.8418 0.0 0.0 -2.460449999999999 4.261624409482844 0.0 0.0 -0.0 34.16586254" Properties=species:S:1:pos:R:3:move_mask:L:1:spacegroup_kinds:I:1:tags:I:1:forces:R:3 surface=alpha_quartz_001 coadsorbate=HF start=1 calculation_kind="Local coadsorbate relaxation; not a reaction path" host_atoms=36 energy=-282.990119981029 pbc="T T F"
Si       2.31725181       0.00000000      12.00000000  F        0        2      -0.13307369      -0.36536340      -1.69720156
Si      -1.15862590       2.00679893      15.60606667  F        0        2      -0.12965392       0.07166499       1.27008089
Si       1.30182410       2.25482548      13.80303333  F        0        2       0.04011873      -0.15629380       1.02416170
O        1.38326499       1.13103512      12.65233746  F        1        2      -0.50422776       0.21333566      -0.22175173
O        0.28787265       1.76346018      14.95372921  F        1        2       0.45329548      -0.24671685      -0.39078559
O        3.24976236       0.63242506      16.25840413  F        1        2      -0.28699598      -0.58933293       0.18495191
O        0.78931236       3.62919935      13.15069587  F        1        2       0.42272670       0.28604955       0.53237761
O        2.74832265       2.49816423      14.45537079  F        1        2       0.00134984       0.38356248      -0.74095588
O       -1.07718501       3.13058929      16.75676254  F        1        2       0.01723853       0.42733233       0.18096676
Si       2.30983941       0.01502116      17.46806495  T        0        1      -0.00214301      -0.00093446      -0.02653874
Si      -1.23413170       1.70028402      21.12702092  T        0        1       0.01226600      -0.00670748       0.01392454
Si       1.27342087       2.26077992      19.33209848  T        0        1       0.03622086       0.01270926      -0.00300205
O        1.37561100       1.17188256      18.10069761  T        1        1      -0.02210207       0.00307574      -0.02511146
O        0.23937565       1.71457466      20.45382391  T        1        1       0.03045023       0.01337589       0.01406006
O        3.15965626       0.77365920      21.90265239  T        1        1      -0.01508627       0.03743158      -0.02071761
O        0.75776600       3.63905141      18.63348380  T        1        1      -0.00754855       0.01615773       0.00495468
O        2.71983828       2.56455119      19.98167762  T        1        1       0.02558606      -0.01792778       0.02789482
O       -1.35215999       2.19713120      22.67450786  T        1        1       0.01604392      -0.01826458       0.01051124
Si       7.23815181       0.00000000      12.00000000  F        0        2      -0.13274684      -0.36583521      -1.69260842
Si       3.76227409       2.00679893      15.60606667  F        0        2      -0.10890903       0.08576846       1.25803001
Si       6.22272410       2.25482548      13.80303333  F        0        2       0.02645624      -0.16742709       1.04236215
O        6.30416499       1.13103512      12.65233746  F        1        2      -0.50330529       0.20953112      -0.22895819
O        5.20877265       1.76346018      14.95372921  F        1        2       0.43719761      -0.24439880      -0.39682623
O        8.17066236       0.63242506      16.25840413  F        1        2      -0.17367295      -0.52343424       0.07118303
O        5.71021236       3.62919935      13.15069587  F        1        2       0.42264474       0.29164362       0.52450936
O        7.66922265       2.49816423      14.45537079  F        1        2       0.01625666       0.38675038      -0.74253566
O        3.84371499       3.13058929      16.75676254  F        1        2       0.04271524       0.24344990       0.08901515
Si       7.24527168      -0.00224610      17.46275744  T        0        1       0.01057382      -0.00598697      -0.03232521
Si       3.74285837       2.09096359      21.17917087  T        0        1      -0.01065683       0.00737079       0.05324290
Si       6.18278323       2.21883644      19.30247926  T        0        1      -0.01617265       0.00416710       0.01264596
O        6.28470940       1.14274837      18.07274423  T        1        1       0.01268651       0.00611328      -0.01422507
O        5.12895505       1.70493397      20.40590323  T        1        1      -0.04812238       0.02368710       0.00014820
O        8.19310104       0.14853389      21.60370461  T        1        1       0.01933052      -0.04792302      -0.02490417
O        5.73158804       3.62869210      18.61354904  T        1        1       0.03474952       0.03362085      -0.01076611
O        7.63020287       2.38424741      20.01845654  T        1        1       0.02808800       0.00443526      -0.02606431
O        3.97471096       3.29700559      22.30882027  T        1        1      -0.03936702      -0.04212804      -0.03955674
F        2.78777040       0.26808034      24.23373755  T        0        0      -0.01492763      -0.04020394      -0.00871418
H        3.04679767       0.60705212      22.93889065  T        0        0       0.01796543       0.06449589      -0.01254949
F        3.90640488       1.25227912      25.97998563  T        0        0      -0.02898198      -0.02770206       0.00943732
H        3.36666464       0.78403618      25.14638442  T        0        0       0.05373320       0.04085173       0.03164012
40
Lattice="9.8418 0.0 0.0 -2.460449999999999 4.261624409482844 0.0 0.0 -0.0 34.16586254" Properties=species:S:1:pos:R:3:move_mask:L:1:spacegroup_kinds:I:1:tags:I:1:forces:R:3 surface=alpha_quartz_001 coadsorbate=HF start=1 calculation_kind="Local coadsorbate relaxation; not a reaction path" host_atoms=36 energy=-282.99121850396506 pbc="T T F"
Si       2.31725181       0.00000000      12.00000000  F        0        2      -0.13324049      -0.36562284      -1.69845540
Si      -1.15862590       2.00679893      15.60606667  F        0        2      -0.13299534       0.06887443       1.26884235
Si       1.30182410       2.25482548      13.80303333  F        0        2       0.03929355      -0.15649102       1.02243302
O        1.38326499       1.13103512      12.65233746  F        1        2      -0.50459122       0.21402424      -0.22105451
O        0.28787265       1.76346018      14.95372921  F        1        2       0.45410866      -0.24662620      -0.38976860
O        3.24976236       0.63242506      16.25840413  F        1        2      -0.28414451      -0.58602384       0.18106083
O        0.78931236       3.62919935      13.15069587  F        1        2       0.42347940       0.28566823       0.53346520
O        2.74832265       2.49816423      14.45537079  F        1        2       0.00207741       0.38342977      -0.73918351
O       -1.07718501       3.13058929      16.75676254  F        1        2       0.00965049       0.41953608       0.16905932
Si       2.30951645       0.01508872      17.46729867  T        0        1      -0.00727678      -0.00047272      -0.01549188
Si      -1.23233104       1.69685904      21.12599219  T        0        1      -0.00234703      -0.01704015       0.01742978
Si       1.27196887       2.26104049      19.33164503  T        0        1       0.06279417       0.01609501       0.00172819
O        1.37594322       1.17077850      18.10210320  T        1        1      -0.03392493       0.01765672      -0.03584895
O        0.24144963       1.71330552      20.45539923  T        1        1       0.03168767       0.01564202       0.00360596
O        3.16062897       0.77838814      21.90202467  T        1        1      -0.01929062       0.03167112      -0.02401539
O        0.75523962       3.63864464      18.63353749  T        1        1       0.00086305       0.00915342       0.00801175
O        2.71771137       2.56900828      19.98084637  T        1        1       0.03583753      -0.02653496       0.03116389
O       -1.35333220       2.18823103      22.67397189  T        1        1       0.01731186       0.00000823       0.04043702
Si       7.23815181       0.00000000      12.00000000  F        0        2      -0.13265504      -0.36604369      -1.69343416
Si       3.76227409       2.00679893      15.60606667  F        0        2      -0.10718524       0.08589144       1.25292840
Si       6.22272410       2.25482548      13.80303333  F        0        2       0.02759759      -0.16692460       1.04131194
O        6.30416499       1.13103512      12.65233746  F        1        2      -0.50377946       0.20982568      -0.22845214
O        5.20877265       1.76346018      14.95372921  F        1        2       0.43528375      -0.24473134      -0.39530673
O        8.17066236       0.63242506      16.25840413  F        1        2      -0.15891484      -0.51029360       0.03980840
O        5.71021236       3.62919935      13.15069587  F        1        2       0.42280448       0.29140945       0.52508288
O        7.66922265       2.49816423      14.45537079  F        1        2       0.01611964       0.38710530      -0.74287040
O        3.84371499       3.13058929      16.75676254  F        1        2       0.03786587       0.23969995       0.09006541
Si       7.24514382      -0.00183668      17.46150357  T        0        1       0.01943179      -0.00045193      -0.01010978
Si       3.74223428       2.09502633      21.17728000  T        0        1      -0.00608401       0.02387469       0.04265865
Si       6.18428962       2.22093703      19.30075542  T        0        1      -0.03234022      -0.00927514       0.01649786
O        6.28631011       1.14468098      18.07089005  T        1        1       0.00453344       0.00696579      -0.00976895
O        5.12661037       1.70722813      20.40106534  T        1        1      -0.04688319       0.03623698       0.00693818
O        8.19767368       0.14352537      21.59945926  T        1        1       0.00990087      -0.06345736      -0.02469706
O        5.73474306       3.63126901      18.61110554  T        1        1       0.03602713       0.01917134      -0.00000072
O        7.63094156       2.38094173      20.01930073  T        1        1       0.02215219       0.01849200      -0.04132836
O        3.97223552       3.30576268      22.30362562  T        1        1      -0.03030701      -0.05597077      -0.04921489
F        2.79226534       0.26781504      24.23094698  T        0        0      -0.01032039      -0.03143471       0.00058518
H        3.04794652       0.60978636      22.93838522  T        0        0       0.02088656       0.06505374      -0.01144168
F        3.90426958       1.25014405      25.98376518  T        0        0      -0.02401539      -0.02162821       0.01048019
H        3.36924241       0.78519695      25.14608190  T        0        0       0.04058862       0.02353743       0.02684873
40
Lattice="9.8418 0.0 0.0 -2.460449999999999 4.261624409482844 0.0 0.0 -0.0 34.16586254" Properties=species:S:1:pos:R:3:move_mask:L:1:spacegroup_kinds:I:1:tags:I:1:forces:R:3 surface=alpha_quartz_001 coadsorbate=HF start=1 calculation_kind="Local coadsorbate relaxation; not a reaction path" host_atoms=36 energy=-282.99261912515226 pbc="T T F"
Si       2.31725181       0.00000000      12.00000000  F        0        2      -0.13342226      -0.36595374      -1.69986540
Si      -1.15862590       2.00679893      15.60606667  F        0        2      -0.13679095       0.06536879       1.26787905
Si       1.30182410       2.25482548      13.80303333  F        0        2       0.03822208      -0.15676179       1.02069562
O        1.38326499       1.13103512      12.65233746  F        1        2      -0.50503240       0.21480390      -0.22032188
O        0.28787265       1.76346018      14.95372921  F        1        2       0.45503563      -0.24648046      -0.38887486
O        3.24976236       0.63242506      16.25840413  F        1        2      -0.27974864      -0.58145988       0.17446770
O        0.78931236       3.62919935      13.15069587  F        1        2       0.42436519       0.28527247       0.53466639
O        2.74832265       2.49816423      14.45537079  F        1        2       0.00283997       0.38325324      -0.73723465
O       -1.07718501       3.13058929      16.75676254  F        1        2      -0.00137584       0.40722645       0.15161529
Si       2.30889366       0.01525816      17.46613107  T        0        1      -0.01252477       0.00289776       0.00929773
Si      -1.22987097       1.69193800      21.12472544  T        0        1      -0.01774430      -0.02832693       0.01516416
Si       1.27115156       2.26173666      19.33100278  T        0        1       0.06937656       0.01381253       0.00573296
O        1.37567281       1.16978019      18.10314250  T        1        1      -0.03961395       0.03725643      -0.04386828
O        0.24485655       1.71204203      20.45771439  T        1        1       0.02222364       0.01831749      -0.00725608
O        3.16113629       0.78488070      21.90088512  T        1        1      -0.02499167       0.01807166      -0.02261555
O        0.75186517       3.63844228      18.63382526  T        1        1       0.01316479       0.00016425       0.01006828
O        2.71536333       2.57394699      19.98059220  T        1        1       0.03781261      -0.02566939       0.01481411
O       -1.35460163       2.17614462      22.67391844  T        1        1       0.01741933       0.01392039       0.06145359
Si       7.23815181       0.00000000      12.00000000  F        0        2      -0.13252878      -0.36630578      -1.69431733
Si       3.76227409       2.00679893      15.60606667  F        0        2      -0.10466628       0.08597546       1.24686810
Si       6.22272410       2.25482548      13.80303333  F        0        2       0.02894734      -0.16640836       1.04047898
O        6.30416499       1.13103512      12.65233746  F        1        2      -0.50434708       0.21011878      -0.22797108
O        5.20877265       1.76346018      14.95372921  F        1        2       0.43302930      -0.24506002      -0.39385086
O        8.17066236       0.63242506      16.25840413  F        1        2      -0.13607589      -0.49019734      -0.00732258
O        5.71021236       3.62919935      13.15069587  F        1        2       0.42297156       0.29120537       0.52565064
O        7.66922265       2.49816423      14.45537079  F        1        2       0.01587547       0.38747213      -0.74339277
O        3.84371499       3.13058929      16.75676254  F        1        2       0.03571840       0.23853404       0.09545798
Si       7.24532508      -0.00121181      17.45981259  T        0        1       0.02377893       0.00556573       0.02625996
Si       3.74119969       2.10073530      21.17579843  T        0        1       0.00122976       0.03050832       0.01013307
Si       6.18557690       2.22361887      19.29882078  T        0        1      -0.03425633      -0.02121534       0.01461037
O        6.28856343       1.14746466      18.06829803  T        1        1      -0.00788677       0.00533522       0.00012593
O        5.12250481       1.71095967      20.39475687  T        1        1      -0.02588359       0.04585547       0.01011293
O        8.20401709       0.13559319      21.59311457  T        1        1       0.00152006      -0.06366147      -0.02571647
O        5.73978929       3.63514878      18.60777856  T        1        1       0.03070949      -0.00508063       0.01368857
O        7.63233397       2.37666506      20.01959416  T        1        1       0.01143008       0.02433567      -0.04506734
O        3.96845877       3.31693211      22.29597396  T        1        1      -0.01264846      -0.04768968      -0.03497896
F        2.79827574       0.26690782      24.22774127  T        0        0       0.00204340      -0.01176940       0.01303556
H        3.05020696       0.61536452      22.93676040  T        0        0       0.02024028       0.05403240      -0.00259259
F        3.90102492       1.24690085      25.98908007  T        0        0      -0.01061873      -0.00788384       0.01812231
H        3.37319777       0.78690359      25.14569119  T        0        0       0.01220284      -0.00937992       0.01484741
40
Lattice="9.8418 0.0 0.0 -2.460449999999999 4.261624409482844 0.0 0.0 -0.0 34.16586254" Properties=species:S:1:pos:R:3:move_mask:L:1:spacegroup_kinds:I:1:tags:I:1:forces:R:3 surface=alpha_quartz_001 coadsorbate=HF start=1 calculation_kind="Local coadsorbate relaxation; not a reaction path" host_atoms=36 energy=-282.9936743439763 pbc="T T F"
Si       2.31725181       0.00000000      12.00000000  F        0        2      -0.13346862      -0.36607697      -1.70010440
Si      -1.15862590       2.00679893      15.60606667  F        0        2      -0.13877775       0.06300645       1.26864372
Si       1.30182410       2.25482548      13.80303333  F        0        2       0.03771609      -0.15690463       1.02075476
O        1.38326499       1.13103512      12.65233746  F        1        2      -0.50514941       0.21497915      -0.22030195
O        0.28787265       1.76346018      14.95372921  F        1        2       0.45566199      -0.24627097      -0.38909555
O        3.24976236       0.63242506      16.25840413  F        1        2      -0.27917763      -0.58003995       0.17275903
O        0.78931236       3.62919935      13.15069587  F        1        2       0.42461051       0.28525005       0.53481669
O        2.74832265       2.49816423      14.45537079  F        1        2       0.00286239       0.38322872      -0.73693489
O       -1.07718501       3.13058929      16.75676254  F        1        2      -0.00898145       0.39926051       0.14024586
Si       2.30815505       0.01553660      17.46545668  T        0        1      -0.01237644       0.00700135       0.02655178
Si      -1.22823994       1.68772736      21.12393972  T        0        1      -0.02185093      -0.02840442       0.00975885
Si       1.27165246       2.26255614      19.33054805  T        0        1       0.04326735       0.00639730       0.00658135
O        1.37464899       1.16982882      18.10291109  T        1        1      -0.03233487       0.04692078      -0.04355447
O        0.24781681       1.71157113      20.45952684  T        1        1       0.00365061       0.01923715      -0.01021230
O        3.16076153       0.78986098      21.89968585  T        1        1      -0.02742327       0.00711214      -0.01924334
O        0.74951689       3.63852561      18.63424597  T        1        1       0.02000188      -0.00110087       0.00929058
O        2.71423845       2.57682855      19.98084892  T        1        1       0.02971308      -0.01484977      -0.01400715
O       -1.35523768       2.16706970      22.67476964  T        1        1       0.01644602       0.01121995       0.05085428
Si       7.23815181       0.00000000      12.00000000  F        0        2      -0.13242348      -0.36637521      -1.69424308
Si       3.76227409       2.00679893      15.60606667  F        0        2      -0.10279272       0.08602649       1.24484356
Si       6.22272410       2.25482548      13.80303333  F        0        2       0.02955189      -0.16631771       1.04119251
O        6.30416499       1.13103512      12.65233746  F        1        2      -0.50448935       0.21001084      -0.22812955
O        5.20877265       1.76346018      14.95372921  F        1        2       0.43221531      -0.24509787      -0.39402759
O        8.17066236       0.63242506      16.25840413  F        1        2      -0.11938112      -0.47528169      -0.04099396
O        5.71021236       3.62919935      13.15069587  F        1        2       0.42285211       0.29132343       0.52544102
O        7.66922265       2.49816423      14.45537079  F        1        2       0.01558286       0.38770411      -0.74419893
O        3.84371499       3.13058929      16.75676254  F        1        2       0.04188832       0.24572584       0.10677982
Si       7.24585960      -0.00064741      17.45897732  T        0        1       0.01801981       0.00462342       0.04478135
Si       3.74030593       2.10531190      21.17532240  T        0        1       0.00630097       0.02012548      -0.01967598
Si       6.18591035       2.22533474      19.29766737  T        0        1      -0.01538153      -0.02230613       0.00911896
O        6.29015462       1.14966965      18.06632737  T        1        1      -0.01671630      -0.00155737       0.00930916
O        5.11875529       1.71463662      20.39023721  T        1        1       0.00321093       0.04189077       0.01073422
O        8.20890178       0.12834828      21.58760631  T        1        1      -0.00116551      -0.04469630      -0.02623660
O        5.74428362       3.63815186      18.60542949  T        1        1       0.01923220      -0.02109458       0.02065966
O        7.63370243       2.37371747      20.01895844  T        1        1       0.00501713       0.01461855      -0.02927483
O        3.96536814       3.32481975      22.28971225  T        1        1       0.00410725      -0.02066470      -0.00396097
F        2.80285887       0.26587020      24.22633288  T        0        0       0.01422855       0.00663995       0.01951437
H        3.05250628       0.62121232      22.93440392  T        0        0       0.01646457       0.03676595       0.00887185
F        3.89848404       1.24439519      25.99346462  T        0        0       0.00030117       0.00192643       0.02317118
H        3.37628032       0.78776314      25.14553629  T        0        0      -0.01101260      -0.03395567       0.00952098
40
Lattice="9.8418 0.0 0.0 -2.460449999999999 4.261624409482844 0.0 0.0 -0.0 34.16586254" Properties=species:S:1:pos:R:3:move_mask:L:1:spacegroup_kinds:I:1:tags:I:1:forces:R:3 surface=alpha_quartz_001 coadsorbate=HF start=1 calculation_kind="Local coadsorbate relaxation; not a reaction path" host_atoms=36 energy=-282.99442872717896 pbc="T T F"
Si       2.31725181       0.00000000      12.00000000  F        0        2      -0.13338069      -0.36595895      -1.69909500
Si      -1.15862590       2.00679893      15.60606667  F        0        2      -0.13908965       0.06173277       1.27115117
Si       1.30182410       2.25482548      13.80303333  F        0        2       0.03780265      -0.15690944       1.02264216
O        1.38326499       1.13103512      12.65233746  F        1        2      -0.50489137       0.21451630      -0.22101654
O        0.28787265       1.76346018      14.95372921  F        1        2       0.45610056      -0.24597401      -0.39041876
O        3.24976236       0.63242506      16.25840413  F        1        2      -0.28349452      -0.58234778       0.17776681
O        0.78931236       3.62919935      13.15069587  F        1        2       0.42416622       0.28561117       0.53385405
O        2.74832265       2.49816423      14.45537079  F        1        2       0.00219814       0.38341993      -0.73827538
O       -1.07718501       3.13058929      16.75676254  F        1        2      -0.01148945       0.39844808       0.13778247
Si       2.30740404       0.01593351      17.46548760  T        0        1      -0.00753674       0.00983812       0.02679346
Si      -1.22760261       1.68452311      21.12366449  T        0        1      -0.01580822      -0.01845070       0.00514400
Si       1.27278166       2.26326863      19.33034206  T        0        1       0.00280676      -0.00058499       0.00432748
O        1.37320302       1.17091346      18.10163282  T        1        1      -0.01717751       0.04398798      -0.03698839
O        0.24974967       1.71180173      20.46064318  T        1        1      -0.01451940       0.01781148      -0.00736901
O        3.15980556       0.79306358      21.89856509  T        1        1      -0.02595712       0.00317396      -0.01648219
O        0.74839297       3.63878770      18.63468774  T        1        1       0.01854674       0.00634716       0.00686987
O        2.71425961       2.57811600      19.98084225  T        1        1       0.01800252      -0.00274053      -0.04051870
O       -1.35525941       2.16145825      22.67615383  T        1        1       0.01477381      -0.00233021       0.02042694
Si       7.23815181       0.00000000      12.00000000  F        0        2      -0.13233830      -0.36622357      -1.69315111
Si       3.76227409       2.00679893      15.60606667  F        0        2      -0.10193349       0.08581319       1.24697331
Si       6.22272410       2.25482548      13.80303333  F        0        2       0.02945059      -0.16660542       1.04337364
O        6.30416499       1.13103512      12.65233746  F        1        2      -0.50417117       0.20948356      -0.22892758
O        5.20877265       1.76346018      14.95372921  F        1        2       0.43286521      -0.24484374      -0.39570723
O        8.17066236       0.63242506      16.25840413  F        1        2      -0.11266421      -0.46867329      -0.05451689
O        5.71021236       3.62919935      13.15069587  F        1        2       0.42240362       0.29175169       0.52441629
O        7.66922265       2.49816423      14.45537079  F        1        2       0.01522884       0.38787197      -0.74536385
O        3.84371499       3.13058929      16.75676254  F        1        2       0.05444964       0.25931354       0.12190907
Si       7.24655334      -0.00026545      17.45916657  T        0        1       0.00688033      -0.00211407       0.03784942
Si       3.73972300       2.10837230      21.17517718  T        0        1       0.00719494       0.00476713      -0.03283685
Si       6.18581506       2.22602142      19.29715397  T        0        1       0.01134166      -0.01536855       0.00414942
O        6.29084910       1.15099340      18.06518608  T        1        1      -0.01937310      -0.01250014       0.01502395
O        5.11620052       1.71790078      20.38769418  T        1        1       0.02766521       0.02680444       0.01318790
O        8.21201240       0.12266514      21.58336422  T        1        1      -0.00066029      -0.01896754      -0.02466626
O        5.74761531       3.63982219      18.60428829  T        1        1       0.00569661      -0.02366223       0.01941088
O        7.63485617       2.37212009      20.01787941  T        1        1       0.00424297      -0.00272235      -0.00446350
O        3.96338608       3.32936730      22.28567637  T        1        1       0.01559038       0.00644529       0.02438443
F        2.80587832       0.26507725      24.22672785  T        0        0       0.02185629       0.01779548       0.01834370
H        3.05438667       0.62616868      22.93188434  T        0        0       0.01210706       0.02034213       0.01742861
F        3.89700946       1.24299057      25.99672967  T        0        0       0.00397320       0.00326457       0.02126698
H        3.37800138       0.78741656      25.14581753  T        0        0      -0.02085874      -0.04156242       0.01532121
40
Lattice="9.8418 0.0 0.0 -2.460449999999999 4.261624409482844 0.0 0.0 -0.0 34.16586254" Properties=species:S:1:pos:R:3:move_mask:L:1:spacegroup_kinds:I:1:tags:I:1:forces:R:3 surface=alpha_quartz_001 coadsorbate=HF start=1 calculation_kind="Local coadsorbate relaxation; not a reaction path" host_atoms=36 energy=-282.994991567296 pbc="T T F"
Si       2.31725181       0.00000000      12.00000000  F        0        2      -0.13322667      -0.36570286      -1.69743768
Si      -1.15862590       2.00679893      15.60606667  F        0        2      -0.13848453       0.06105195       1.27449757
Si       1.30182410       2.25482548      13.80303333  F        0        2       0.03816549      -0.15684980       1.02544409
O        1.38326499       1.13103512      12.65233746  F        1        2      -0.50441451       0.21371942      -0.22209460
O        0.28787265       1.76346018      14.95372921  F        1        2       0.45648180      -0.24562206      -0.39230474
O        3.24976236       0.63242506      16.25840413  F        1        2      -0.29021615      -0.58645771       0.18628248
O        0.78931236       3.62919935      13.15069587  F        1        2       0.42335717       0.28617081       0.53231741
O        2.74832265       2.49816423      14.45537079  F        1        2       0.00128777       0.38376600      -0.74035356
O       -1.07718501       3.13058929      16.75676254  F        1        2      -0.00983884       0.40352686       0.14231492
Si       2.30674994       0.01642329      17.46599326  T        0        1      -0.00160016       0.01065065       0.01321725
Si      -1.22760093       1.68223066      21.12373065  T        0        1      -0.00514780      -0.00583744       0.00303037
Si       1.27369082       2.26377298      19.33029600  T        0        1      -0.02925345      -0.00240794      -0.00069201
O        1.37178186       1.17262391      18.09983611  T        1        1      -0.00194236       0.03244185      -0.02778251
O        0.25064741       1.71245365      20.46121395  T        1        1      -0.02350403       0.01446632      -0.00354163
O        3.15862439       0.79504539      21.89761174  T        1        1      -0.02223049       0.00539366      -0.01305930
O        0.74814484       3.63920601      18.63506728  T        1        1       0.01025311       0.01793427       0.00455798
O        2.71496170       2.57874525      19.97997521  T        1        1       0.00852308       0.00321336      -0.05364487
O       -1.35482939       2.15824373      22.67747245  T        1        1       0.01253523      -0.01690646      -0.00911534
Si       7.23815181       0.00000000      12.00000000  F        0        2      -0.13226707      -0.36595212      -1.69156205
Si       3.76227409       2.00679893      15.60606667  F        0        2      -0.10195290       0.08515336       1.25111142
Si       6.22272410       2.25482548      13.80303333  F        0        2       0.02903459      -0.16703997       1.04612408
O        6.30416499       1.13103512      12.65233746  F        1        2      -0.50361928       0.20876408      -0.23000787
O        5.20877265       1.76346018      14.95372921  F        1        2       0.43423401      -0.24443555      -0.39794975
O        8.17066236       0.63242506      16.25840413  F        1        2      -0.11406484      -0.46886161      -0.05245980
O        5.71021236       3.62919935      13.15069587  F        1        2       0.42178803       0.29230223       0.52301004
O        7.66922265       2.49816423      14.45537079  F        1        2       0.01483144       0.38803552      -0.74669781
O        3.84371499       3.13058929      16.75676254  F        1        2       0.06803290       0.27328701       0.13615701
Si       7.24717971      -0.00014259      17.45996610  T        0        1      -0.00287693      -0.00966679       0.01514791
Si       3.73944077       2.11019926      21.17474299  T        0        1       0.00471889      -0.00335793      -0.02843966
Si       6.18597216       2.22607013      19.29695532  T        0        1       0.03020964      -0.00639967       0.00162524
O        6.29084427       1.15146712      18.06474539  T        1        1      -0.01636048      -0.02338335       0.01728616
O        5.11509079       1.72059997      20.38658293  T        1        1       0.03998964       0.00835624       0.01925289
O        8.21383419       0.11866489      21.58020129  T        1        1      -0.00014645       0.00130547      -0.02068787
O        5.74979181       3.64040102      18.60402634  T        1        1      -0.00534491      -0.01653363       0.01239624
O        7.63581844       2.37129832      20.01695553  T        1        1       0.00623259      -0.01715023       0.01575640
O        3.96233531       3.33166435      22.28375647  T        1        1       0.02086785       0.01961045       0.03604053
F        2.80787292       0.26472292      24.22810275  T        0        0       0.02370128       0.02051034       0.01136377
H        3.05565809       0.62975777      22.92993123  T        0        0       0.00920517       0.00951605       0.01860022
F        3.89637064       1.24242208      25.99917686  T        0        0       0.00139092      -0.00240153       0.01493036
H        3.37860333       0.78614627      25.14667035  T        0        0      -0.01834874      -0.03420924       0.02736669
40
Lattice="9.8418 0.0 0.0 -2.460449999999999 4.261624409482844 0.0 0.0 -0.0 34.16586254" Properties=species:S:1:pos:R:3:move_mask:L:1:spacegroup_kinds:I:1:tags:I:1:forces:R:3 surface=alpha_quartz_001 coadsorbate=HF start=1 calculation_kind="Local coadsorbate relaxation; not a reaction path" host_atoms=36 energy=-282.99559250197683 pbc="T T F"
Si       2.31725181       0.00000000      12.00000000  F        0        2      -0.13303696      -0.36537294      -1.69537623
Si      -1.15862590       2.00679893      15.60606667  F        0        2      -0.13753770       0.06026539       1.27861728
Si       1.30182410       2.25482548      13.80303333  F        0        2       0.03854563      -0.15679238       1.02893168
O        1.38326499       1.13103512      12.65233746  F        1        2      -0.50379067       0.21271990      -0.22341953
O        0.28787265       1.76346018      14.95372921  F        1        2       0.45698653      -0.24516834      -0.39470698
O        3.24976236       0.63242506      16.25840413  F        1        2      -0.29778436      -0.59101236       0.19589374
O        0.78931236       3.62919935      13.15069587  F        1        2       0.42234402       0.28687786       0.53040547
O        2.74832265       2.49816423      14.45537079  F        1        2       0.00031410       0.38425267      -0.74277665
O       -1.07718501       3.13058929      16.75676254  F        1        2      -0.00575597       0.41277496       0.15114813
Si       2.30603554       0.01714096      17.46671189  T        0        1       0.00352292       0.01004549      -0.00841119
Si      -1.22773746       1.67975502      21.12395313  T        0        1       0.00813427       0.00606034       0.00183513
Si       1.27410302       2.26428781      19.33022844  T        0        1      -0.04880105       0.00179269      -0.00934091
O        1.37024977       1.17504851      18.09740809  T        1        1       0.01204643       0.01537351      -0.01604301
O        0.25113255       1.71343171      20.46168743  T        1        1      -0.02272721       0.00906146      -0.00157452
O        3.15706861       0.79729604      21.89650422  T        1        1      -0.01680724       0.01183501      -0.00662834
O        0.74810941       3.63999188      18.63550004  T        1        1      -0.00362745       0.03100828       0.00298070
O        2.71604602       2.57968349      19.97777290  T        1        1       0.00099962       0.00219545      -0.05427983
O       -1.35404432       2.15475684      22.67872090  T        1        1       0.00913881      -0.02949443      -0.03127521
Si       7.23815181       0.00000000      12.00000000  F        0        2      -0.13218350      -0.36561457      -1.68963738
Si       3.76227409       2.00679893      15.60606667  F        0        2      -0.10244494       0.08385718       1.25597591
Si       6.22272410       2.25482548      13.80303333  F        0        2       0.02858943      -0.16752649       1.04929154
O        6.30416499       1.13103512      12.65233746  F        1        2      -0.50295178       0.20791060      -0.23128704
O        5.20877265       1.76346018      14.95372921  F        1        2       0.43587447      -0.24391442      -0.40044154
O        8.17066236       0.63242506      16.25840413  F        1        2      -0.11933858      -0.47203775      -0.04385875
O        5.71021236       3.62919935      13.15069587  F        1        2       0.42103826       0.29293287       0.52132496
O        7.66922265       2.49816423      14.45537079  F        1        2       0.01430360       0.38826135      -0.74832986
O        3.84371499       3.13058929      16.75676254  F        1        2       0.08190880       0.28622911       0.14974430
Si       7.24780119      -0.00025274      17.46102939  T        0        1      -0.00981679      -0.01558790      -0.01432405
Si       3.73924470       2.11207579      21.17361780  T        0        1       0.00050643      -0.00286234      -0.01349939
Si       6.18684475       2.22597270      19.29671795  T        0        1       0.03737944       0.00211969       0.00076495
O        6.29050056       1.15142277      18.06460706  T        1        1      -0.00923605      -0.03314678       0.01860172
O        5.11483378       1.72363368      20.38585642  T        1        1       0.04309017      -0.01151948       0.02965800
O        8.21569213       0.11456383      21.57656768  T        1        1      -0.00118955       0.01661704      -0.01373307
O        5.75187903       3.64063108      18.60402263  T        1        1      -0.01438683      -0.00563841       0.00150331
O        7.63700675       2.37026674      20.01628875  T        1        1       0.00791831      -0.02615921       0.02902365
O        3.96152899       3.33394191      22.28252542  T        1        1       0.02289019       0.01962298       0.03200816
F        2.81026349       0.26470769      24.22993148  T        0        0       0.02162021       0.01795524       0.00029599
H        3.05689421       0.63336791      22.92823188  T        0        0       0.00736083       0.00178925       0.01216897
F        3.89585381       1.24193179      26.00207954  T        0        0      -0.00397830      -0.01213941       0.00845697
H        3.37885674       0.78407259      25.14842242  T        0        0      -0.00911754      -0.01757110       0.04031292
40
Lattice="9.8418 0.0 0.0 -2.460449999999999 4.261624409482844 0.0 0.0 -0.0 34.16586254" Properties=species:S:1:pos:R:3:move_mask:L:1:spacegroup_kinds:I:1:tags:I:1:forces:R:3 surface=alpha_quartz_001 coadsorbate=HF start=1 calculation_kind="Local coadsorbate relaxation; not a reaction path" host_atoms=36 energy=-282.99627842967044 pbc="T T F"
Si       2.31725181       0.00000000      12.00000000  F        0        2      -0.13285898      -0.36506765      -1.69340879
Si      -1.15862590       2.00679893      15.60606667  F        0        2      -0.13660542       0.05910226       1.28275598
Si       1.30182410       2.25482548      13.80303333  F        0        2       0.03869845      -0.15678599       1.03241367
O        1.38326499       1.13103512      12.65233746  F        1        2      -0.50316748       0.21176091      -0.22469857
O        0.28787265       1.76346018      14.95372921  F        1        2       0.45760777      -0.24465919      -0.39725631
O        3.24976236       0.63242506      16.25840413  F        1        2      -0.30338884      -0.59405619       0.20249165
O        0.78931236       3.62919935      13.15069587  F        1        2       0.42139404       0.28759374       0.52855808
O        2.74832265       2.49816423      14.45537079  F        1        2      -0.00042940       0.38479402      -0.74488022
O       -1.07718501       3.13058929      16.75676254  F        1        2      -0.00070007       0.42418046       0.16172984
Si       2.30522566       0.01816193      17.46731533  T        0        1       0.00517920       0.00840628      -0.03012148
Si      -1.22764563       1.67665183      21.12421535  T        0        1       0.02123205       0.01325888      -0.00028063
Si       1.27368630       2.26499415      19.32992767  T        0        1      -0.04860326       0.01198577      -0.02098844
O        1.36870669       1.17810846      18.09439646  T        1        1       0.02113613      -0.00277445      -0.00308127
O        0.25149666       1.71462914      20.46222102  T        1        1      -0.01061009       0.00202835      -0.00409888
O        3.15506623       0.80062366      21.89512838  T        1        1      -0.01011977       0.02131294       0.00323190
O        0.74781283       3.64141797      18.63606710  T        1        1      -0.02055564       0.04088065       0.00285294
O        2.71725847       2.58130078      19.97394984  T        1        1      -0.00367649      -0.00604185      -0.04151627
O       -1.35299861       2.14954088      22.67973683  T        1        1       0.00452102      -0.03602641      -0.03747403
Si       7.23815181       0.00000000      12.00000000  F        0        2      -0.13208866      -0.36530512      -1.68781541
Si       3.76227409       2.00679893      15.60606667  F        0        2      -0.10311063       0.08199242       1.25984674
Si       6.22272410       2.25482548      13.80303333  F        0        2       0.02836160      -0.16793933       1.05221824
O        6.30416499       1.13103512      12.65233746  F        1        2      -0.50236478       0.20711615      -0.23249369
O        5.20877265       1.76346018      14.95372921  F        1        2       0.43723433      -0.24339153      -0.40252305
O        8.17066236       0.63242506      16.25840413  F        1        2      -0.12527238      -0.47536606      -0.03539386
O        5.71021236       3.62919935      13.15069587  F        1        2       0.42031684       0.29350178       0.51972525
O        7.66922265       2.49816423      14.45537079  F        1        2       0.01367162       0.38854184      -0.75004272
O        3.84371499       3.13058929      16.75676254  F        1        2       0.09319915       0.29430238       0.15990796
Si       7.24838438      -0.00063508      17.46195804  T        0        1      -0.01179015      -0.01672086      -0.03896271
Si       3.73902022       2.11471755      21.17165990  T        0        1      -0.00364701       0.00538134       0.00430844
Si       6.18868148       2.22600424      19.29629243  T        0        1       0.02777741       0.00685682       0.00175724
O        6.29002626       1.15085222      18.06469505  T        1        1       0.00024981      -0.03835450       0.02040587
O        5.11529409       1.72719044      20.38523839  T        1        1       0.03728286      -0.02819096       0.04242173
O        8.21816055       0.10968448      21.57179301  T        1        1      -0.00425134       0.02494271      -0.00402995
O        5.75425674       3.64088793      18.60389555  T        1        1      -0.01977672       0.00263861      -0.01077759
O        7.63857843       2.36842377      20.01608251  T        1        1       0.00665714      -0.02584705       0.03087706
O        3.96081313       3.33736996      22.28124282  T        1        1       0.02240055       0.00736881       0.01332285
F        2.81383509       0.26507842      24.23166972  T        0        0       0.01642782       0.01170203      -0.01185205
H        3.05844245       0.63759152      22.92673883  T        0        0       0.00618119      -0.00353970      -0.00133046
F        3.89502177       1.24097104      26.00601669  T        0        0      -0.00860109      -0.02236921       0.00782677
H        3.37917082       0.78139704      25.15133804  T        0        0       0.00208923       0.00278690       0.04637421
40
Lattice="9.8418 0.0 0.0 -2.460449999999999 4.261624409482844 0.0 0.0 -0.0 34.16586254" Properties=species:S:1:pos:R:3:move_mask:L:1:spacegroup_kinds:I:1:tags:I:1:forces:R:3 surface=alpha_quartz_001 coadsorbate=HF start=1 calculation_kind="Local coadsorbate relaxation; not a reaction path" host_atoms=36 energy=-282.99703733561194 pbc="T T F"
Si       2.31725181       0.00000000      12.00000000  F        0        2      -0.13275096      -0.36490903      -1.69221032
Si      -1.15862590       2.00679893      15.60606667  F        0        2      -0.13596319       0.05760427       1.28559437
Si       1.30182410       2.25482548      13.80303333  F        0        2       0.03845913      -0.15684244       1.03484041
O        1.38326499       1.13103512      12.65233746  F        1        2      -0.50275634       0.21116474      -0.22551499
O        0.28787265       1.76346018      14.95372921  F        1        2       0.45816869      -0.24422241      -0.39928897
O        3.24976236       0.63242506      16.25840413  F        1        2      -0.30393189      -0.59363707       0.20153833
O        0.78931236       3.62919935      13.15069587  F        1        2       0.42084185       0.28810988       0.52738555
O        2.74832265       2.49816423      14.45537079  F        1        2      -0.00065382       0.38523090      -0.74590120
O       -1.07718501       3.13058929      16.75676254  F        1        2       0.00340471       0.43467737       0.17069688
Si       2.30432614       0.01948116      17.46741905  T        0        1       0.00144236       0.00634098      -0.04185622
Si      -1.22699022       1.67287778      21.12437275  T        0        1       0.03046328       0.01355072      -0.00491475
Si       1.27234690       2.26610236      19.32913020  T        0        1      -0.02677413       0.02487307      -0.03233136
O        1.36735916       1.18148872      18.09107016  T        1        1       0.02149541      -0.01575261       0.00811089
O        0.25202394       1.71586562      20.46278065  T        1        1       0.01028204      -0.00521217      -0.01202478
O        3.15265852       0.80539881      21.89353597  T        1        1      -0.00317119       0.03120967       0.01472123
O        0.74682052       3.64370329      18.63683798  T        1        1      -0.03560110       0.04220802       0.00444709
O        2.71831064       2.58343063      19.96875436  T        1        1      -0.00456763      -0.01798425      -0.01873987
O       -1.35186822       2.14196296      22.68039779  T        1        1      -0.00050010      -0.03383471      -0.02409810
Si       7.23815181       0.00000000      12.00000000  F        0        2      -0.13200562      -0.36514063      -1.68670694
Si       3.76227409       2.00679893      15.60606667  F        0        2      -0.10356553       0.08010578       1.26089866
Si       6.22272410       2.25482548      13.80303333  F        0        2       0.02850991      -0.16815976       1.05396776
O        6.30416499       1.13103512      12.65233746  F        1        2      -0.50209190       0.20665402      -0.23324586
O        5.20877265       1.76346018      14.95372921  F        1        2       0.43774975      -0.24304607      -0.40340299
O        8.17066236       0.63242506      16.25840413  F        1        2      -0.12866454      -0.47599063      -0.03316831
O        5.71021236       3.62919935      13.15069587  F        1        2       0.41987395       0.29381548       0.51873754
O        7.66922265       2.49816423      14.45537079  F        1        2       0.01308343       0.38881130      -0.75134915
O        3.84371499       3.13058929      16.75676254  F        1        2       0.09869376       0.29390744       0.16338713
Si       7.24887637      -0.00127134      17.46233944  T        0        1      -0.00806702      -0.01129206      -0.04658312
Si       3.73869108       2.11847992      21.16907452  T        0        1      -0.00563215       0.01615760       0.01551272
Si       6.19128677       2.22630021      19.29570138  T        0        1       0.00250092       0.00505270       0.00503784
O        6.28962831       1.14970111      18.06508512  T        1        1       0.00898870      -0.03569332       0.02321583
O        5.11634276       1.73098778      20.38487097  T        1        1       0.02473308      -0.03649684       0.05254435
O        8.22134086       0.10399284      21.56584785  T        1        1      -0.00836196       0.02520850       0.00671648
O        5.75695521       3.64135846      18.60333545  T        1        1      -0.01998291       0.00194015      -0.02070543
O        7.64046138       2.36551549      20.01644083  T        1        1       0.00111082      -0.01467200       0.01989444
O        3.96028541       3.34241278      22.27934626  T        1        1       0.01983578      -0.01112693      -0.01323261
F        2.81889026       0.26586865      24.23271866  T        0        0       0.00958994       0.00399033      -0.02019554
H        3.06054431       0.64260621      22.92539854  T        0        0       0.00486899      -0.00727796      -0.01812021
F        3.89359371       1.23909461      26.01113281  T        0        0      -0.00935618      -0.02905037       0.01789723
H        3.37980674       0.77854684      25.15535052  T        0        0       0.01030167       0.01972835       0.03844602
40
Lattice="9.8418 0.0 0.0 -2.460449999999999 4.261624409482844 0.0 0.0 -0.0 34.16586254" Properties=species:S:1:pos:R:3:move_mask:L:1:spacegroup_kinds:I:1:tags:I:1:forces:R:3 surface=alpha_quartz_001 coadsorbate=HF start=1 calculation_kind="Local coadsorbate relaxation; not a reaction path" host_atoms=36 energy=-282.9978389298598 pbc="T T F"
Si       2.31725181       0.00000000      12.00000000  F        0        2      -0.13274926      -0.36497398      -1.69225637
Si      -1.15862590       2.00679893      15.60606667  F        0        2      -0.13573203       0.05607635       1.28591275
Si       1.30182410       2.25482548      13.80303333  F        0        2       0.03788535      -0.15691026       1.03536012
O        1.38326499       1.13103512      12.65233746  F        1        2      -0.50272073       0.21115350      -0.22555876
O        0.28787265       1.76346018      14.95372921  F        1        2       0.45840116      -0.24400405      -0.40016227
O        3.24976236       0.63242506      16.25840413  F        1        2      -0.29817790      -0.58918141       0.19115210
O        0.78931236       3.62919935      13.15069587  F        1        2       0.42089674       0.28825865       0.52732950
O        2.74832265       2.49816423      14.45537079  F        1        2      -0.00029038       0.38540597      -0.74546546
O       -1.07718501       3.13058929      16.75676254  F        1        2       0.00476249       0.44133024       0.17516141
Si       2.30333758       0.02099966      17.46679153  T        0        1      -0.00694067       0.00454219      -0.03694925
Si      -1.22559205       1.66877248      21.12426836  T        0        1       0.03292210       0.00886459      -0.01186901
Si       1.27044003       2.26778001      19.32763271  T        0        1       0.00787180       0.03420843      -0.03817773
O        1.36636397       1.18474748      18.08783862  T        1        1       0.01206342      -0.01849740       0.01378235
O        0.25298751       1.71693257      20.46314734  T        1        1       0.03169345      -0.01069823      -0.02291700
O        3.15002737       0.81144106      21.89193725  T        1        1       0.00233617       0.03745710       0.02410409
O        0.74488660       3.64683509      18.63784558  T        1        1      -0.04324471       0.03254261       0.00712731
O        2.71900393       2.58544762      19.96302505  T        1        1      -0.00137931      -0.02650254       0.00514149
O       -1.35086549       2.13247385      22.68077587  T        1        1      -0.00426722      -0.02416300       0.00159970
Si       7.23815181       0.00000000      12.00000000  F        0        2      -0.13196815      -0.36519078      -1.68673790
Si       3.76227409       2.00679893      15.60606667  F        0        2      -0.10344876       0.07913473       1.25834430
Si       6.22272410       2.25482548      13.80303333  F        0        2       0.02898150      -0.16815875       1.05389363
O        6.30416499       1.13103512      12.65233746  F        1        2      -0.50226151       0.20671475      -0.23327881
O        5.20877265       1.76346018      14.95372921  F        1        2       0.43719774      -0.24304202      -0.40266203
O        8.17066236       0.63242506      16.25840413  F        1        2      -0.12771384      -0.47218109      -0.03988217
O        5.71021236       3.62919935      13.15069587  F        1        2       0.41990355       0.29374878       0.51874068
O        7.66922265       2.49816423      14.45537079  F        1        2       0.01275754       0.38898611      -0.75174758
O        3.84371499       3.13058929      16.75676254  F        1        2       0.09725745       0.28482092       0.15916557
Si       7.24926005      -0.00203436      17.46199608  T        0        1      -0.00077736      -0.00113751      -0.03219987
Si       3.73824807       2.12320667      21.16634466  T        0        1      -0.00415297       0.02195540       0.01420061
Si       6.19397124       2.22678324      19.29515064  T        0        1      -0.02773339      -0.00320502       0.01056589
O        6.28946488       1.14800759      18.06593172  T        1        1       0.01356075      -0.02506190       0.02610030
O        5.11775676       1.73444651      20.38515726  T        1        1       0.01013355      -0.03445048       0.05431046
O        8.22486344       0.09802092      21.55935716  T        1        1      -0.01126375       0.01939112       0.01555120
O        5.75972048       3.64194794      18.60219786  T        1        1      -0.01534569      -0.01003382      -0.02474199
O        7.64236395       2.36181523      20.01722244  T        1        1      -0.00697560       0.00379927       0.00118885
O        3.96016609       3.34865235      22.27654627  T        1        1       0.01571671      -0.02562308      -0.03621574
F        2.82509328       0.26701395      24.23271705  T        0        0       0.00327756      -0.00244029      -0.02009636
H        3.06322478       0.64813936      22.92406692  T        0        0       0.00255671      -0.01040163      -0.03163969
F        3.89156666       1.23614936      26.01718156  T        0        0      -0.00594498      -0.03031100       0.03763198
H        3.38081714       0.77605013      25.15993338  T        0        0       0.01291250       0.02777751       0.01619367
40
Lattice="9.8418 0.0 0.0 -2.460449999999999 4.261624409482844 0.0 0.0 -0.0 34.16586254" Properties=species:S:1:pos:R:3:move_mask:L:1:spacegroup_kinds:I:1:tags:I:1:forces:R:3 surface=alpha_quartz_001 coadsorbate=HF start=1 calculation_kind="Local coadsorbate relaxation; not a reaction path" host_atoms=36 energy=-282.9987407974102 pbc="T T F"
Si       2.31725181       0.00000000      12.00000000  F        0        2      -0.13283884      -0.36524097      -1.69345894
Si      -1.15862590       2.00679893      15.60606667  F        0        2      -0.13581877       0.05466165       1.28347707
Si       1.30182410       2.25482548      13.80303333  F        0        2       0.03720977      -0.15689722       1.03400929
O        1.38326499       1.13103512      12.65233746  F        1        2      -0.50305170       0.21167419      -0.22486930
O        0.28787265       1.76346018      14.95372921  F        1        2       0.45814667      -0.24404068      -0.39979552
O        3.24976236       0.63242506      16.25840413  F        1        2      -0.28750632      -0.58174491       0.17295084
O        0.78931236       3.62919935      13.15069587  F        1        2       0.42147712       0.28805568       0.52831404
O        2.74832265       2.49816423      14.45537079  F        1        2       0.00043681       0.38529168      -0.74390344
O       -1.07718501       3.13058929      16.75676254  F        1        2       0.00275722       0.44389468       0.17494671
Si       2.30208714       0.02277042      17.46545573  T        0        1      -0.01713194       0.00334549      -0.01675250
Si      -1.22333298       1.66432581      21.12377532  T        0        1       0.02864894       0.00388487      -0.01927688
Si       1.26843553       2.27027744      19.32522158  T        0        1       0.04281027       0.03528967      -0.03500748
O        1.36554169       1.18799369      18.08460174  T        1        1      -0.00491311      -0.01092571       0.01225029
O        0.25469134       1.71782526      20.46306971  T        1        1       0.04556030      -0.01375241      -0.03280366
O        3.14707985       0.81895238      21.89039056  T        1        1       0.00522413       0.03693912       0.02892587
O        0.74181549       3.65091414      18.63920308  T        1        1      -0.04147476       0.01355363       0.00989335
O        2.71946511       2.58694518      19.95703081  T        1        1       0.00529865      -0.02577818       0.02244101
O       -1.34999265       2.12110217      22.68119690  T        1        1      -0.00547658      -0.01085536       0.02627575
Si       7.23815181       0.00000000      12.00000000  F        0        2      -0.13199316      -0.36542485      -1.68780756
Si       3.76227409       2.00679893      15.60606667  F        0        2      -0.10260481       0.07982238       1.25290861
Si       6.22272410       2.25482548      13.80303333  F        0        2       0.02956055      -0.16803920       1.05216823
O        6.30416499       1.13103512      12.65233746  F        1        2      -0.50280310       0.20725728      -0.23266758
O        5.20877265       1.76346018      14.95372921  F        1        2       0.43585949      -0.24342097      -0.40054891
O        8.17066236       0.63242506      16.25840413  F        1        2      -0.12314101      -0.46394882      -0.05362983
O        5.71021236       3.62919935      13.15069587  F        1        2       0.42039534       0.29334434       0.51965932
O        7.66922265       2.49816423      14.45537079  F        1        2       0.01281500       0.38905165      -0.75112535
O        3.84371499       3.13058929      16.75676254  F        1        2       0.09105900       0.27032012       0.14945447
Si       7.24963369      -0.00282806      17.46111310  T        0        1       0.00660617       0.00951643      -0.00136934
Si       3.73770566       2.12892937      21.16358156  T        0        1       0.00034444       0.01816976       0.00245633
Si       6.19623610       2.22724386      19.29486789  T        0        1      -0.05063088      -0.01537159       0.01794936
O        6.28955423       1.14572753      18.06747087  T        1        1       0.01281592      -0.00943630       0.02748437
O        5.11944385       1.73750158      20.38649934  T        1        1      -0.00297058      -0.02518775       0.04514941
O        8.22859780       0.09173551      21.55240259  T        1        1      -0.01094045       0.01194007       0.02071663
O        5.76256357       3.64236029      18.60041484  T        1        1      -0.00795166      -0.03044529      -0.02207170
O        7.64418749       2.35755178      20.01816863  T        1        1      -0.01391322       0.02404169      -0.01723133
O        3.96058886       3.35585246      22.27253305  T        1        1       0.01024769      -0.02852300      -0.04826030
F        2.83244179       0.26848055      24.23178814  T        0        0      -0.00101238      -0.00601923      -0.00992365
H        3.06660001       0.65433536      22.92236694  T        0        0      -0.00139994      -0.01392372      -0.03766560
F        3.88894436       1.23195356      26.02458345  T        0        0      -0.00140437      -0.02846000       0.06097366
H        3.38220807       0.77396597      25.16490230  T        0        0       0.01170411       0.02738178      -0.01423575
40
Lattice="9.8418 0.0 0.0 -2.460449999999999 4.261624409482844 0.0 0.0 -0.0 34.16586254" Properties=species:S:1:pos:R:3:move_mask:L:1:spacegroup_kinds:I:1:tags:I:1:forces:R:3 surface=alpha_quartz_001 coadsorbate=HF start=1 calculation_kind="Local coadsorbate relaxation; not a reaction path" host_atoms=36 energy=-282.9998004013565 pbc="T T F"
Si       2.31725181       0.00000000      12.00000000  F        0        2      -0.13297548      -0.36562923      -1.69538698
Si      -1.15862590       2.00679893      15.60606667  F        0        2      -0.13608610       0.05334970       1.27873601
Si       1.30182410       2.25482548      13.80303333  F        0        2       0.03674368      -0.15669890       1.03136883
O        1.38326499       1.13103512      12.65233746  F        1        2      -0.50363204       0.21251049      -0.22369876
O        0.28787265       1.76346018      14.95372921  F        1        2       0.45735877      -0.24429254      -0.39846230
O        3.24976236       0.63242506      16.25840413  F        1        2      -0.27504245      -0.57343597       0.15101609
O        0.78931236       3.62919935      13.15069587  F        1        2       0.42233050       0.28762739       0.52994884
O        2.74832265       2.49816423      14.45537079  F        1        2       0.00115195       0.38494738      -0.74194615
O       -1.07718501       3.13058929      16.75676254  F        1        2      -0.00258199       0.44369442       0.17139002
Si       2.30030991       0.02492005      17.46360181  T        0        1      -0.02499210       0.00283649       0.01209389
Si      -1.22012142       1.65940798      21.12277283  T        0        1       0.01912755       0.00293077      -0.02422284
Si       1.26681822       2.27383812      19.32172030  T        0        1       0.06559781       0.02543368      -0.02091522
O        1.36452429       1.19161196      18.08100893  T        1        1      -0.02529572       0.00406950       0.00315640
O        0.25740632       1.71859826      20.46226233  T        1        1       0.04540161      -0.01442269      -0.03716106
O        3.14362468       0.82832767      21.88889610  T        1        1       0.00433983       0.02725658       0.02728549
O        0.73742725       3.65603801      18.64105915  T        1        1      -0.03042648      -0.01062832       0.01169628
O        2.72000618       2.58778582      19.95067075  T        1        1       0.01439102      -0.01252995       0.02766143
O       -1.34914277       2.10763901      22.68201597  T        1        1      -0.00303248       0.00218188       0.03614667
Si       7.23815181       0.00000000      12.00000000  F        0        2      -0.13208179      -0.36575267      -1.68949126
Si       3.76227409       2.00679893      15.60606667  F        0        2      -0.10105001       0.08271700       1.24618179
Si       6.22272410       2.25482548      13.80303333  F        0        2       0.02997984      -0.16795821       1.04945290
O        6.30416499       1.13103512      12.65233746  F        1        2      -0.50353034       0.20809785      -0.23169165
O        5.20877265       1.76346018      14.95372921  F        1        2       0.43428551      -0.24414667      -0.39767861
O        8.17066236       0.63242506      16.25840413  F        1        2      -0.11739817      -0.45260344      -0.06945020
O        5.71021236       3.62919935      13.15069587  F        1        2       0.42120520       0.29274393       0.52113673
O        7.66922265       2.49816423      14.45537079  F        1        2       0.01329355       0.38904777      -0.74964613
O        3.84371499       3.13058929      16.75676254  F        1        2       0.08364414       0.25521843       0.13783524
Si       7.25012779      -0.00359582      17.46008130  T        0        1       0.01083259       0.01550794       0.03433816
Si       3.73711276       2.13573905      21.16064358  T        0        1       0.00627716       0.00366371      -0.01266866
Si       6.19777038       2.22738478      19.29510868  T        0        1      -0.05524479      -0.02771245       0.02603008
O        6.28983461       1.14277075      18.06997982  T        1        1       0.00735373       0.00647261       0.02557578
O        5.12140781       1.74029601      20.38924003  T        1        1      -0.01250915      -0.01418580       0.02502629
O        8.23256321       0.08488455      21.54481909  T        1        1      -0.00583368       0.00788835       0.02099627
O        5.76559052       3.64211734      18.59795900  T        1        1      -0.00047730      -0.05304300      -0.01334040
O        7.64594453       2.35295429      20.01902914  T        1        1      -0.01538126       0.04041313      -0.02741390
O        3.96163642       3.36397263      22.26698971  T        1        1       0.00339402      -0.01560295      -0.04623551
F        2.84108722       0.27024266      24.23032709  T        0        0      -0.00182604      -0.00546224       0.00999811
H        3.07077308       0.66142324      22.91984238  T        0        0      -0.00721978      -0.01820130      -0.03358331
F        3.88570809       1.22625701      26.03418016  T        0        0      -0.00035390      -0.02785500       0.07868915
H        3.38401788       0.77217329      25.17023262  T        0        0       0.01026261       0.02155230      -0.04276749
40
Lattice="9.8418 0.0 0.0 -2.460449999999999 4.261624409482844 0.0 0.0 -0.0 34.16586254" Properties=species:S:1:pos:R:3:move_mask:L:1:spacegroup_kinds:I:1:tags:I:1:forces:R:3 surface=alpha_quartz_001 coadsorbate=HF start=1 calculation_kind="Local coadsorbate relaxation; not a reaction path" host_atoms=36 energy=-283.00095488277884 pbc="T T F"
Si       2.31725181       0.00000000      12.00000000  F        0        2      -0.13308252      -0.36597642      -1.69715380
Si      -1.15862590       2.00679893      15.60606667  F        0        2      -0.13638687       0.05213058       1.27338182
Si       1.30182410       2.25482548      13.80303333  F        0        2       0.03681307      -0.15626413       1.02873261
O        1.38326499       1.13103512      12.65233746  F        1        2      -0.50419707       0.21324444      -0.22258456
O        0.28787265       1.76346018      14.95372921  F        1        2       0.45624057      -0.24461953      -0.39691190
O        3.24976236       0.63242506      16.25840413  F        1        2      -0.26633843      -0.56783537       0.13349242
O        0.78931236       3.62919935      13.15069587  F        1        2       0.42300675       0.28722955       0.53144134
O        2.74832265       2.49816423      14.45537079  F        1        2       0.00136362       0.38454290      -0.74074079
O       -1.07718501       3.13058929      16.75676254  F        1        2      -0.01002450       0.44322919       0.16720540
Si       2.29792035       0.02736883      17.46174481  T        0        1      -0.02529002       0.00284193       0.03642195
Si      -1.21625207       1.65443077      21.12127101  T        0        1       0.00780789       0.00811330      -0.02376569
Si       1.26617082       2.27821579      19.31745831  T        0        1       0.06457761       0.00595360       0.00156054
O        1.36293738       1.19573417      18.07695790  T        1        1      -0.04133526       0.01979625      -0.01115736
O        0.26098976       1.71922566      20.46055346  T        1        1       0.02889334      -0.01325685      -0.03183826
O        3.13980649       0.83894213      21.88758929  T        1        1      -0.00114638       0.00853433       0.01805771
O        0.73207692       3.66165852      18.64335901  T        1        1      -0.01343825      -0.03164399       0.01145785
O        2.72099981       2.58806351      19.94425852  T        1        1       0.02327544       0.01114305       0.01835313
O       -1.34821723       2.09325067      22.68334408  T        1        1       0.00332784       0.01149967       0.02188559
Si       7.23815181       0.00000000      12.00000000  F        0        2      -0.13220470      -0.36601264      -1.69095279
Si       3.76227409       2.00679893      15.60606667  F        0        2      -0.09916634       0.08768011       1.24093463
Si       6.22272410       2.25482548      13.80303333  F        0        2       0.02998654      -0.16807719       1.04704452
O        6.30416499       1.13103512      12.65233746  F        1        2      -0.50411276       0.20886060      -0.23087598
O        5.20877265       1.76346018      14.95372921  F        1        2       0.43330165      -0.24502932      -0.39517493
O        8.17066236       0.63242506      16.25840413  F        1        2      -0.11484024      -0.44189848      -0.07863174
O        5.71021236       3.62919935      13.15069587  F        1        2       0.42199378       0.29221768       0.52245216
O        7.66922265       2.49816423      14.45537079  F        1        2       0.01405036       0.38905729      -0.74791701
O        3.84371499       3.13058929      16.75676254  F        1        2       0.07943608       0.24592449       0.12924069
Si       7.25080345      -0.00426903      17.45950298  T        0        1       0.00987494       0.01190686       0.05692329
Si       3.73661392       2.14294294      21.15756299  T        0        1       0.01068935      -0.01707172      -0.02014201
Si       6.19836417       2.22685065      19.29611505  T        0        1      -0.03496034      -0.03478581       0.03155115
O        6.29016403       1.13935484      18.07343792  T        1        1       0.00018744       0.01545760       0.01919275
O        5.12349337       1.74272752      20.39326119  T        1        1      -0.01685458      -0.00871564      -0.00118592
O        8.23647923       0.07794587      21.53715249  T        1        1       0.00394722       0.01111565       0.01588629
O        5.76860121       3.64064720      18.59512141  T        1        1       0.00366656      -0.06710540      -0.00131061
O        7.64756828       2.34876758      20.01955380  T        1        1      -0.00812302       0.04698810      -0.02310133
O        3.96319664       3.37229896      22.26026209  T        1        1      -0.00423278       0.01145127      -0.03199423
F        2.85031436       0.27210486      24.22910937  T        0        0       0.00185668      -0.00005601       0.03429436
H        3.07530296       0.66878955      22.91636796  T        0        0      -0.01390308      -0.02233038      -0.01894468
F        3.88212750       1.21934395      26.04594719  T        0        0      -0.00666325      -0.03245426       0.07978994
H        3.38615826       0.77068738      25.17541623  T        0        0       0.01200366       0.01421470      -0.05491657
40
Lattice="9.8418 0.0 0.0 -2.460449999999999 4.261624409482844 0.0 0.0 -0.0 34.16586254" Properties=species:S:1:pos:R:3:move_mask:L:1:spacegroup_kinds:I:1:tags:I:1:forces:R:3 surface=alpha_quartz_001 coadsorbate=HF start=1 calculation_kind="Local coadsorbate relaxation; not a reaction path" host_atoms=36 energy=-283.0020605183558 pbc="T T F"
Si       2.31725181       0.00000000      12.00000000  F        0        2      -0.13308475      -0.36610221      -1.69774098
Si      -1.15862590       2.00679893      15.60606667  F        0        2      -0.13658026       0.05102359       1.27015116
Si       1.30182410       2.25482548      13.80303333  F        0        2       0.03745915      -0.15570001       1.02772366
O        1.38326499       1.13103512      12.65233746  F        1        2      -0.50441934       0.21341767      -0.22216950
O        0.28787265       1.76346018      14.95372921  F        1        2       0.45530814      -0.24479935      -0.39624722
O        3.24976236       0.63242506      16.25840413  F        1        2      -0.26636117      -0.56795927       0.12860254
O        0.78931236       3.62919935      13.15069587  F        1        2       0.42305782       0.28716156       0.53188628
O        2.74832265       2.49816423      14.45537079  F        1        2       0.00078860       0.38431636      -0.74125137
O       -1.07718501       3.13058929      16.75676254  F        1        2      -0.01686447       0.44541849       0.16565951
Si       2.29523937       0.02975639      17.46056067  T        0        1      -0.01599530       0.00272274       0.04266085
Si      -1.21249007       1.65032757      21.11953361  T        0        1      -0.00041632       0.01676268      -0.01772325
Si       1.26674346       2.28248048      19.31342743  T        0        1       0.03977532      -0.01532691       0.02281279
O        1.36066257       1.20002835      18.07275668  T        1        1      -0.04471135       0.02758298      -0.02446049
O        0.26467686       1.71962730      20.45819402  T        1        1       0.00414687      -0.01152525      -0.01730263
O        3.13614538       0.84888033      21.88667046  T        1        1      -0.01000601      -0.01399812       0.00407983
O        0.72683836       3.66655808      18.64573050  T        1        1       0.00218341      -0.04006850       0.00885162
O        2.72267332       2.58825491      19.93847643  T        1        1       0.02813666       0.03492832       0.00021214
O       -1.34714091       2.08053966      22.68479922  T        1        1       0.01167152       0.01664355      -0.00977214
Si       7.23815181       0.00000000      12.00000000  F        0        2      -0.13229906      -0.36604548      -1.69127430
Si       3.76227409       2.00679893      15.60606667  F        0        2      -0.09770020       0.09330865       1.23979030
Si       6.22272410       2.25482548      13.80303333  F        0        2       0.02957802      -0.16844051       1.04638389
O        6.30416499       1.13103512      12.65233746  F        1        2      -0.50422933       0.20911963      -0.23077867
O        5.20877265       1.76346018      14.95372921  F        1        2       0.43355312      -0.24573618      -0.39419790
O        8.17066236       0.63242506      16.25840413  F        1        2      -0.11937681      -0.43683240      -0.07337893
O        5.71021236       3.62919935      13.15069587  F        1        2       0.42233779       0.29205407       0.52279403
O        7.66922265       2.49816423      14.45537079  F        1        2       0.01469027       0.38916252      -0.74690591
O        3.84371499       3.13058929      16.75676254  F        1        2       0.08099373       0.24618863       0.12706374
Si       7.25158472      -0.00484511      17.45985703  T        0        1       0.00544310      -0.00103942       0.05229538
Si       3.73638469       2.14907803      21.15464812  T        0        1       0.01056685      -0.03347817      -0.01164473
Si       6.19827138       2.22550412      19.29785697  T        0        1       0.00242345      -0.03269493       0.03033269
O        6.29037361       1.13605647      18.07726507  T        1        1      -0.00351063       0.01215558       0.00966443
O        5.12537709       1.74447166      20.39763980  T        1        1      -0.01622067      -0.01355247      -0.02330561
O        8.23985863       0.07215736      21.53060273  T        1        1       0.01489952       0.01990489       0.00732739
O        5.77111239       3.63776648      18.59254946  T        1        1       0.00244635      -0.06318231       0.00901024
O        7.64899329       2.34599773      20.01967956  T        1        1       0.00569733       0.04227667      -0.00646854
O        3.96480883       3.37953977      22.25361488  T        1        1      -0.01114778       0.04145454      -0.01484917
F        2.85855861       0.27376229      24.22902031  T        0        0       0.00859998       0.00847449       0.05136002
H        3.07915902       0.67497743      22.91256576  T        0        0      -0.01925325      -0.02423742       0.00079587
F        3.87873205       1.21221862      26.05834254  T        0        0      -0.01866986      -0.04159032       0.06164879
H        3.38838208       0.76962589      25.17964601  T        0        0       0.01708957       0.00823161      -0.04163583
40
Lattice="9.8418 0.0 0.0 -2.460449999999999 4.261624409482844 0.0 0.0 -0.0 34.16586254" Properties=species:S:1:pos:R:3:move_mask:L:1:spacegroup_kinds:I:1:tags:I:1:forces:R:3 surface=alpha_quartz_001 coadsorbate=HF start=1 calculation_kind="Local coadsorbate relaxation; not a reaction path" host_atoms=36 energy=-283.00311431419954 pbc="T T F"
Si       2.31725181       0.00000000      12.00000000  F        0        2      -0.13297250      -0.36597096      -1.69687869
Si      -1.15862590       2.00679893      15.60606667  F        0        2      -0.13660409       0.04997617       1.27056133
Si       1.30182410       2.25482548      13.80303333  F        0        2       0.03835544      -0.15518229       1.02896268
O        1.38326499       1.13103512      12.65233746  F        1        2      -0.50418875       0.21292152      -0.22265720
O        0.28787265       1.76346018      14.95372921  F        1        2       0.45496427      -0.24470327      -0.39708601
O        3.24976236       0.63242506      16.25840413  F        1        2      -0.27460093      -0.57327426       0.13659444
O        0.78931236       3.62919935      13.15069587  F        1        2       0.42242595       0.28752756       0.53103617
O        2.74832265       2.49816423      14.45537079  F        1        2      -0.00039136       0.38437000      -0.74342709
O       -1.07718501       3.13058929      16.75676254  F        1        2      -0.02137286       0.45156088       0.16785228
Si       2.29257810       0.03192419      17.46022606  T        0        1      -0.00073553       0.00156842       0.02957207
Si      -1.20917699       1.64737004      21.11775928  T        0        1      -0.00335665       0.02366828      -0.00830310
Si       1.26815469       2.28602752      19.31023240  T        0        1       0.00496939      -0.03014157       0.03390695
O        1.35776499       1.20433854      18.06847572  T        1        1      -0.03372484       0.02410117      -0.03145516
O        0.26794619       1.71977488      20.45560002  T        1        1      -0.01614715      -0.01027607       0.00141122
O        3.13276687       0.85726074      21.88609409  T        1        1      -0.01964865      -0.03445487      -0.00893143
O        0.72226585       3.67020928      18.64795008  T        1        1       0.01122560      -0.03410001       0.00458079
O        2.72506087       2.58906676      19.93320214  T        1        1       0.02696363       0.04824001      -0.01612545
O       -1.34578380       2.07031657      22.68587004  T        1        1       0.01949597       0.02108137      -0.04112039
Si       7.23815181       0.00000000      12.00000000  F        0        2      -0.13232057      -0.36583683      -1.69024719
Si       3.76227409       2.00679893      15.60606667  F        0        2      -0.09709149       0.09822454       1.24277444
Si       6.22272410       2.25482548      13.80303333  F        0        2       0.02904670      -0.16894687       1.04782122
O        6.30416499       1.13103512      12.65233746  F        1        2      -0.50386195       0.20877149      -0.23152121
O        5.20877265       1.76346018      14.95372921  F        1        2       0.43492149      -0.24609136      -0.39488416
O        8.17066236       0.63242506      16.25840413  F        1        2      -0.13083184      -0.43891619      -0.05420822
O        5.71021236       3.62919935      13.15069587  F        1        2       0.42210091       0.29230612       0.52195626
O        7.66922265       2.49816423      14.45537079  F        1        2       0.01486717       0.38937375      -0.74714807
O        3.84371499       3.13058929      16.75676254  F        1        2       0.08651582       0.25276132       0.12948195
Si       7.25240149      -0.00549941      17.46105727  T        0        1       0.00174064      -0.01736439       0.02404713
Si       3.73644110       2.15366919      21.15198721  T        0        1       0.00558637      -0.03824153       0.00986839
Si       6.19823351       2.22350276      19.30008536  T        0        1       0.03917226      -0.02302084       0.02105887
O        6.29045291       1.13307288      18.08098872  T        1        1      -0.00041492      -0.00143231      -0.00003799
O        5.12695398       1.74546553      20.40152543  T        1        1      -0.01322463      -0.02628936      -0.03470545
O        8.24283417       0.06790191      21.52534561  T        1        1       0.02292505       0.02812077      -0.00165051
O        5.77303244       3.63374309      18.59053497  T        1        1      -0.00252385      -0.04191229       0.01469278
O        7.65042637       2.34479427      20.01965556  T        1        1       0.01978514       0.03128523       0.01281641
O        3.96603594       3.38570149      22.24765111  T        1        1      -0.01638253       0.06294329      -0.00452127
F        2.86546813       0.27522323      24.23032745  T        0        0       0.01565626       0.01743704       0.05303656
H        3.08184450       0.67944018      22.90910834  T        0        0      -0.02205484      -0.02232149       0.01738666
F        3.87554520       1.20519499      26.07054391  T        0        0      -0.03018655      -0.05048475       0.03384636
H        3.39070406       0.76892967      25.18298665  T        0        0       0.02191839       0.00272255      -0.00835639
40
Lattice="9.8418 0.0 0.0 -2.460449999999999 4.261624409482844 0.0 0.0 -0.0 34.16586254" Properties=species:S:1:pos:R:3:move_mask:L:1:spacegroup_kinds:I:1:tags:I:1:forces:R:3 surface=alpha_quartz_001 coadsorbate=HF start=1 calculation_kind="Local coadsorbate relaxation; not a reaction path" host_atoms=36 energy=-283.00425008163455 pbc="T T F"
Si       2.31725181       0.00000000      12.00000000  F        0        2      -0.13277443      -0.36565403      -1.69485433
Si      -1.15862590       2.00679893      15.60606667  F        0        2      -0.13645008       0.04885139       1.27468989
Si       1.30182410       2.25482548      13.80303333  F        0        2       0.03914064      -0.15481248       1.03224316
O        1.38326499       1.13103512      12.65233746  F        1        2      -0.50357625       0.21189190      -0.22390879
O        0.28787265       1.76346018      14.95372921  F        1        2       0.45532505      -0.24431667      -0.39954000
O        3.24976236       0.63242506      16.25840413  F        1        2      -0.28759419      -0.58153725       0.15279983
O        0.78931236       3.62919935      13.15069587  F        1        2       0.42129377       0.28828645       0.52912597
O        2.74832265       2.49816423      14.45537079  F        1        2      -0.00186352       0.38466894      -0.74674061
O       -1.07718501       3.13058929      16.75676254  F        1        2      -0.02383829       0.46155407       0.17278443
Si       2.28986436       0.03410862      17.46045589  T        0        1       0.01576334      -0.00136166       0.00408973
Si      -1.20590173       1.64489496      21.11583943  T        0        1      -0.00182681       0.02524672       0.00275981
Si       1.26989812       2.28904453      19.30766300  T        0        1      -0.02623525      -0.03452536       0.03155576
O        1.35413765       1.20907652      18.06358865  T        1        1      -0.01077939       0.01114801      -0.03002671
O        0.27102902       1.71963116      20.45293508  T        1        1      -0.02434589      -0.00963606       0.01981636
O        3.12914801       0.86507177      21.88556854  T        1        1      -0.02803009      -0.04951535      -0.01798669
O        0.71783720       3.67308564      18.65020091  T        1        1       0.01336097      -0.01785102      -0.00043508
O        2.72823378       2.59122898      19.92738446  T        1        1       0.01914706       0.04565307      -0.02296850
O       -1.34392644       2.06076603      22.68629353  T        1        1       0.02577717       0.02907690      -0.05916421
Si       7.23815181       0.00000000      12.00000000  F        0        2      -0.13225814      -0.36546345      -1.68815652
Si       3.76227409       2.00679893      15.60606667  F        0        2      -0.09732675       0.10206442       1.24834843
Si       6.22272410       2.25482548      13.80303333  F        0        2       0.02871257      -0.16949078       1.05093618
O        6.30416499       1.13103512      12.65233746  F        1        2      -0.50318135       0.20794950      -0.23293992
O        5.20877265       1.76346018      14.95372921  F        1        2       0.43694622      -0.24612789      -0.39668454
O        8.17066236       0.63242506      16.25840413  F        1        2      -0.14657585      -0.44641602      -0.02651119
O        5.71021236       3.62919935      13.15069587  F        1        2       0.42138638       0.29286645       0.52016888
O        7.66922265       2.49816423      14.45537079  F        1        2       0.01442579       0.38964897      -0.74867059
O        3.84371499       3.13058929      16.75676254  F        1        2       0.09265706       0.25951715       0.13210079
Si       7.25333599      -0.00652947      17.46273930  T        0        1       0.00180777      -0.03125856      -0.01541554
Si       3.73665254       2.15764466      21.14929705  T        0        1      -0.00255122      -0.03085937       0.03507018
Si       6.19900779       2.22095730      19.30266432  T        0        1       0.06139619      -0.00963350       0.00505074
O        6.29058814       1.12999094      18.08470162  T        1        1       0.00992856      -0.01974818      -0.00749048
O        5.12832489       1.74593531      20.40469952  T        1        1      -0.01027314      -0.04112769      -0.03504705
O        8.24629385       0.06425342      21.52017111  T        1        1       0.02606633       0.03115725      -0.00936618
O        5.77481632       3.62872285      18.58879060  T        1        1      -0.00808824      -0.00952019       0.01618139
O        7.65232177       2.34454753      20.01982593  T        1        1       0.02904924       0.01936610       0.02668494
O        3.96671307       3.39262646      22.24144075  T        1        1      -0.01986608       0.07101741      -0.00542418
F        2.87245749       0.27688641      24.23288914  T        0        0       0.02138267       0.02553977       0.03817325
H        3.08371530       0.68298853      22.90593187  T        0        0      -0.02252784      -0.01608436       0.02632977
F        3.87187911       1.19722533      26.08383895  T        0        0      -0.03611130      -0.05508416       0.00693307
H        3.39356817       0.76831904      25.18642096  T        0        0       0.02250731      -0.00548044       0.03548855
40
Lattice="9.8418 0.0 0.0 -2.460449999999999 4.261624409482844 0.0 0.0 -0.0 34.16586254" Properties=species:S:1:pos:R:3:move_mask:L:1:spacegroup_kinds:I:1:tags:I:1:forces:R:3 surface=alpha_quartz_001 coadsorbate=HF start=1 calculation_kind="Local coadsorbate relaxation; not a reaction path" host_atoms=36 energy=-283.00554372666096 pbc="T T F"
Si       2.31725181       0.00000000      12.00000000  F        0        2      -0.13253606      -0.36526909      -1.69221191
Si      -1.15862590       2.00679893      15.60606667  F        0        2      -0.13610314       0.04757642       1.28190956
Si       1.30182410       2.25482548      13.80303333  F        0        2       0.03945876      -0.15466681       1.03695255
O        1.38326499       1.13103512      12.65233746  F        1        2      -0.50274168       0.21058357      -0.22562433
O        0.28787265       1.76346018      14.95372921  F        1        2       0.45635012      -0.24368724      -0.40342302
O        3.24976236       0.63242506      16.25840413  F        1        2      -0.30069853      -0.59000639       0.17085673
O        0.78931236       3.62919935      13.15069587  F        1        2       0.41995947       0.28931389       0.52661939
O        2.74832265       2.49816423      14.45537079  F        1        2      -0.00325091       0.38511780      -0.75042754
O       -1.07718501       3.13058929      16.75676254  F        1        2      -0.02527106       0.47404266       0.17833753
Si       2.28703208       0.03652805      17.46082441  T        0        1       0.02844778      -0.00624708      -0.02368640
Si      -1.20214308       1.64214091      21.11363974  T        0        1       0.00241471       0.01995351       0.01274313
Si       1.27150138       2.29183471      19.30534865  T        0        1      -0.04236118      -0.02688030       0.01584088
O        1.34981069       1.21455935      18.05764448  T        1        1       0.01982447      -0.00699636      -0.01924790
O        0.27436460       1.71911519      20.45040888  T        1        1      -0.01654728      -0.00903527       0.03310223
O        3.12470195       0.87337625      21.88478872  T        1        1      -0.03259669      -0.05529036      -0.02156145
O        0.71289473       3.67577406      18.65268711  T        1        1       0.01045214       0.00220637      -0.00515452
O        2.73211948       2.59526104      19.92016998  T        1        1       0.00443580       0.02461544      -0.01556568
O       -1.34136450       2.04997330      22.68588575  T        1        1       0.02990238       0.04360484      -0.05459197
Si       7.23815181       0.00000000      12.00000000  F        0        2      -0.13211784      -0.36504449      -1.68553322
Si       3.76227409       2.00679893      15.60606667  F        0        2      -0.09825973       0.10465395       1.25437907
Si       6.22272410       2.25482548      13.80303333  F        0        2       0.02886142      -0.16996240       1.05494399
O        6.30416499       1.13103512      12.65233746  F        1        2      -0.50243749       0.20689816      -0.23472142
O        5.20877265       1.76346018      14.95372921  F        1        2       0.43904553      -0.24593882      -0.39881279
O        8.17066236       0.63242506      16.25840413  F        1        2      -0.16223247      -0.45628388       0.00151127
O        5.71021236       3.62919935      13.15069587  F        1        2       0.42041241       0.29355551       0.51788061
O        7.66922265       2.49816423      14.45537079  F        1        2       0.01332211       0.38989752      -0.75121879
O        3.84371499       3.13058929      16.75676254  F        1        2       0.09601063       0.25997467       0.13020992
Si       7.25453340      -0.00821967      17.46440195  T        0        1       0.00711935      -0.03725356      -0.05024700
Si       3.73681699       2.16207128      21.14641007  T        0        1      -0.01084767      -0.01476494       0.05176173
Si       6.20117270       2.21801889      19.30540308  T        0        1       0.05858497       0.00291286      -0.01395803
O        6.29112371       1.12636169      18.08852062  T        1        1       0.02564577      -0.03547044      -0.01015233
O        5.12947103       1.74604125      20.40697781  T        1        1      -0.00875759      -0.05068549      -0.02628884
O        8.25118170       0.06015655      21.51376722  T        1        1       0.02303149       0.02576128      -0.01430294
O        5.77699564       3.62300212      18.58695296  T        1        1      -0.01072436       0.02459760       0.01504463
O        7.65509755       2.34459307      20.02048496  T        1        1       0.02899363       0.01041053       0.02923595
O        3.96667110       3.40239454      22.23373097  T        1        1      -0.02110972       0.06338133      -0.01845965
F        2.88118081       0.27928641      24.23635381  T        0        0       0.02411756       0.03130374       0.00953888
H        3.08520487       0.68662297      22.90284128  T        0        0      -0.02104834      -0.00577207       0.02477974
F        3.86698395       1.18711242      26.09960912  T        0        0      -0.03237485      -0.05210597      -0.00918012
H        3.39738296       0.76741863      25.19105279  T        0        0       0.01562609      -0.01900074       0.07872207
40
Lattice="9.8418 0.0 0.0 -2.460449999999999 4.261624409482844 0.0 0.0 -0.0 34.16586254" Properties=species:S:1:pos:R:3:move_mask:L:1:spacegroup_kinds:I:1:tags:I:1:forces:R:3 surface=alpha_quartz_001 coadsorbate=HF start=1 calculation_kind="Local coadsorbate relaxation; not a reaction path" host_atoms=36 energy=-283.00692392586785 pbc="T T F"
Si       2.31725181       0.00000000      12.00000000  F        0        2      -0.13233656      -0.36499556      -1.68995822
Si      -1.15862590       2.00679893      15.60606667  F        0        2      -0.13551793       0.04639934       1.29001963
Si       1.30182410       2.25482548      13.80303333  F        0        2       0.03905101      -0.15478294       1.04157621
O        1.38326499       1.13103512      12.65233746  F        1        2      -0.50200355       0.20947443      -0.22718507
O        0.28787265       1.76346018      14.95372921  F        1        2       0.45766171      -0.24300390      -0.40773517
O        3.24976236       0.63242506      16.25840413  F        1        2      -0.30764075      -0.59526055       0.18215994
O        0.78931236       3.62919935      13.15069587  F        1        2       0.41892733       0.29029088       0.52442302
O        2.74832265       2.49816423      14.45537079  F        1        2      -0.00403603       0.38552576      -0.75321327
O       -1.07718501       3.13058929      16.75676254  F        1        2      -0.02669579       0.48511944       0.18141147
Si       2.28447632       0.03894309      17.46086418  T        0        1       0.03206907      -0.01189936      -0.04012482
Si      -1.19796184       1.63912086      21.11135149  T        0        1       0.00659832       0.00977899       0.01694328
Si       1.27252356       2.29431381      19.30319415  T        0        1      -0.03619679      -0.01029641      -0.00721540
O        1.34561500       1.22012939      18.05124472  T        1        1       0.04869397      -0.02251877      -0.00134267
O        0.27799373       1.71823252      20.44852302  T        1        1       0.00474604      -0.00737493       0.03577921
O        3.11951114       0.88154220      21.88371378  T        1        1      -0.03024039      -0.04797640      -0.01963137
O        0.70765292       3.67839695      18.65520838  T        1        1       0.00627689       0.01692620      -0.00843061
O        2.73602123       2.60050687      19.91229411  T        1        1      -0.01432527      -0.01001117       0.00487028
O       -1.33820673       2.03859891      22.68460709  T        1        1       0.03114664       0.06309873      -0.02487268
Si       7.23815181       0.00000000      12.00000000  F        0        2      -0.13194725      -0.36476250      -1.68337579
Si       3.76227409       2.00679893      15.60606667  F        0        2      -0.09961883       0.10566193       1.25802861
Si       6.22272410       2.25482548      13.80303333  F        0        2       0.02959894      -0.17022708       1.05833009
O        6.30416499       1.13103512      12.65233746  F        1        2      -0.50198449       0.20605861      -0.23623339
O        5.20877265       1.76346018      14.95372921  F        1        2       0.44044534      -0.24566761      -0.40018365
O        8.17066236       0.63242506      16.25840413  F        1        2      -0.17131292      -0.46434633       0.01865646
O        5.71021236       3.62919935      13.15069587  F        1        2       0.41959743       0.29406882       0.51596367
O        7.66922265       2.49816423      14.45537079  F        1        2       0.01181872       0.38995255      -0.75390760
O        3.84371499       3.13058929      16.75676254  F        1        2       0.09374065       0.24927153       0.12041965
Si       7.25601559      -0.01055181      17.46537133  T        0        1       0.01621745      -0.03098051      -0.06195781
Si       3.73672224       2.16689868      21.14382063  T        0        1      -0.01508111       0.00246903       0.04691718
Si       6.20456449       2.21514684      19.30781955  T        0        1       0.02879858       0.00938756      -0.02847616
O        6.29241323       1.12227147      18.09212286  T        1        1       0.04064421      -0.03964497      -0.00622051
O        5.13016716       1.74559675      20.40810803  T        1        1      -0.00869129      -0.04717309      -0.01337802
O        8.25735044       0.05569728      21.50627045  T        1        1       0.01401437       0.01114672      -0.01477456
O        5.77957578       3.61761149      18.58506303  T        1        1      -0.00726253       0.04659167       0.01332653
O        7.65858602       2.34461912      20.02167536  T        1        1       0.01697440       0.00654088       0.01835097
O        3.96581188       3.41491691      22.22460806  T        1        1      -0.01941039       0.04156841      -0.03848798
F        2.89164338       0.28269275      24.23985749  T        0        0       0.02154165       0.03168537      -0.02338234
H        3.08631170       0.69051186      22.90013388  T        0        0      -0.01802525       0.00650622       0.01275385
F        3.86101911       1.17527067      26.11658681  T        0        0      -0.01723963      -0.03989336      -0.00402276
H        3.40174721       0.76592805      25.19720077  T        0        0       0.00100402      -0.03670766       0.10417980
40
Lattice="9.8418 0.0 0.0 -2.460449999999999 4.261624409482844 0.0 0.0 -0.0 34.16586254" Properties=species:S:1:pos:R:3:move_mask:L:1:spacegroup_kinds:I:1:tags:I:1:forces:R:3 surface=alpha_quartz_001 coadsorbate=HF start=1 calculation_kind="Local coadsorbate relaxation; not a reaction path" host_atoms=36 energy=-283.00831338129626 pbc="T T F"
Si       2.31725181       0.00000000      12.00000000  F        0        2      -0.13224114      -0.36497015      -1.68902245
Si      -1.15862590       2.00679893      15.60606667  F        0        2      -0.13463997       0.04569943       1.29601869
Si       1.30182410       2.25482548      13.80303333  F        0        2       0.03805261      -0.15506698       1.04442030
O        1.38326499       1.13103512      12.65233746  F        1        2      -0.50167455       0.20899920      -0.22796674
O        0.28787265       1.76346018      14.95372921  F        1        2       0.45861712      -0.24251579      -0.41104599
O        3.24976236       0.63242506      16.25840413  F        1        2      -0.30436355      -0.59540568       0.18069960
O        0.78931236       3.62919935      13.15069587  F        1        2       0.41860401       0.29086594       0.52340144
O        2.74832265       2.49816423      14.45537079  F        1        2      -0.00394648       0.38570280      -0.75412348
O       -1.07718501       3.13058929      16.75676254  F        1        2      -0.02872535       0.49066057       0.18008738
Si       2.28274181       0.04084707      17.46031727  T        0        1       0.02555163      -0.01614066      -0.03688640
Si      -1.19387254       1.63661687      21.10933808  T        0        1       0.00799993       0.00036268       0.01357355
Si       1.27291827       2.29625400      19.30122958  T        0        1      -0.01316121       0.00662210      -0.02662955
O        1.34272946       1.22465384      18.04563365  T        1        1       0.06559059      -0.02832034       0.01758831
O        0.28168314       1.71720975      20.44764404  T        1        1       0.02804886      -0.00395375       0.02676354
O        3.11417902       0.88785406      21.88262064  T        1        1      -0.02010091      -0.02855224      -0.01479296
O        0.70303011       3.68076222      18.65732202  T        1        1       0.00523887       0.01960522      -0.00981698
O        2.73905493       2.60515877      19.90559847  T        1        1      -0.03087437      -0.04459302       0.02850806
O       -1.33472321       2.02950052      22.68280132  T        1        1       0.02971097       0.08084233       0.01776344
Si       7.23815181       0.00000000      12.00000000  F        0        2      -0.13182596      -0.36474992      -1.68259988
Si       3.76227409       2.00679893      15.60606667  F        0        2      -0.10107005       0.10514969       1.25755841
Si       6.22272410       2.25482548      13.80303333  F        0        2       0.03064924      -0.17025834       1.05966640
O        6.30416499       1.13103512      12.65233746  F        1        2      -0.50205832       0.20583184      -0.23687235
O        5.20877265       1.76346018      14.95372921  F        1        2       0.44072569      -0.24546496      -0.40005291
O        8.17066236       0.63242506      16.25840413  F        1        2      -0.16965595      -0.46767191       0.01855516
O        5.71021236       3.62919935      13.15069587  F        1        2       0.41935019       0.29414551       0.51524372
O        7.66922265       2.49816423      14.45537079  F        1        2       0.01046919       0.38967788      -0.75555290
O        3.84371499       3.13058929      16.75676254  F        1        2       0.08637272       0.22871195       0.10392459
Si       7.25770037      -0.01315714      17.46529477  T        0        1       0.02433574      -0.01409025      -0.04302462
Si       3.73628952       2.17100938      21.14224535  T        0        1      -0.01320338       0.01201946       0.01840654
Si       6.20817102       2.21278515      19.30951391  T        0        1      -0.01377064       0.00782232      -0.03171965
O        6.29458830       1.11820966      18.09514399  T        1        1       0.04733309      -0.02829131       0.00262074
O        5.13028825       1.74426871      20.40827776  T        1        1      -0.00851302      -0.02915547      -0.00287698
O        8.26352868       0.05201776      21.49917964  T        1        1       0.00200735      -0.00816500      -0.01041704
O        5.78206911       3.61361577      18.58352579  T        1        1       0.00222622       0.04754108       0.01226412
O        7.66206942       2.34480755      20.02306779  T        1        1      -0.00375153       0.00586674      -0.00021972
O        3.96426190       3.42755537      22.21552919  T        1        1      -0.01481273       0.01398831      -0.05537179
F        2.90215875       0.28689930      24.24245680  T        0        0       0.01308059       0.02473213      -0.04713956
H        3.08669024       0.69407494      22.89836475  T        0        0      -0.01395093       0.01727159      -0.00477101
F        3.85505684       1.16349718      26.13189390  T        0        0       0.00528755      -0.02169043       0.02472052
H        3.40560087       0.76371986      25.20431476  T        0        0      -0.01691213      -0.05306260       0.09911847
40
Lattice="9.8418 0.0 0.0 -2.460449999999999 4.261624409482844 0.0 0.0 -0.0 34.16586254" Properties=species:S:1:pos:R:3:move_mask:L:1:spacegroup_kinds:I:1:tags:I:1:forces:R:3 surface=alpha_quartz_001 coadsorbate=HF start=1 calculation_kind="Local coadsorbate relaxation; not a reaction path" host_atoms=36 energy=-283.00977152242535 pbc="T T F"
Si       2.31725181       0.00000000      12.00000000  F        0        2      -0.13224576      -0.36519275      -1.68955394
Si      -1.15862590       2.00679893      15.60606667  F        0        2      -0.13342645       0.04551121       1.29832274
Si       1.30182410       2.25482548      13.80303333  F        0        2       0.03690317      -0.15533474       1.04496442
O        1.38326499       1.13103512      12.65233746  F        1        2      -0.50183023       0.20921122      -0.22782074
O        0.28787265       1.76346018      14.95372921  F        1        2       0.45876434      -0.24232143      -0.41267410
O        3.24976236       0.63242506      16.25840413  F        1        2      -0.29156127      -0.59140400       0.16670148
O        0.78931236       3.62919935      13.15069587  F        1        2       0.41897999       0.29094233       0.52370703
O        2.74832265       2.49816423      14.45537079  F        1        2      -0.00320207       0.38559372      -0.75328717
O       -1.07718501       3.13058929      16.75676254  F        1        2      -0.03158887       0.48988271       0.17506579
Si       2.28188960       0.04207340      17.45921998  T        0        1       0.01263048      -0.01730482      -0.01671810
Si      -1.19005134       1.63510212      21.10768996  T        0        1       0.00536417      -0.00380410       0.00692002
Si       1.27303916       2.29779352      19.29922986  T        0        1       0.01325324       0.01602541      -0.03422127
O        1.34161312       1.22789584      18.04121567  T        1        1       0.06676538      -0.02333469       0.03227573
O        0.28550995       1.71628967      20.44759990  T        1        1       0.04035231       0.00090984       0.01043519
O        3.10887103       0.89182907      21.88163005  T        1        1      -0.00400546      -0.00176068      -0.01066577
O        0.69942639       3.68294222      18.65891520  T        1        1       0.00977397       0.00993388      -0.00978681
O        2.74097897       2.60787126      19.90092498  T        1        1      -0.04029491      -0.06673902       0.04410111
O       -1.33085826       2.02430042      22.68102215  T        1        1       0.02691656       0.08990163       0.05297562
Si       7.23815181       0.00000000      12.00000000  F        0        2      -0.13180688      -0.36499223      -1.68333482
Si       3.76227409       2.00679893      15.60606667  F        0        2      -0.10243382       0.10377867       1.25351412
Si       6.22272410       2.25482548      13.80303333  F        0        2       0.03155397      -0.17019917       1.05871654
O        6.30416499       1.13103512      12.65233746  F        1        2      -0.50260885       0.20628286      -0.23654396
O        5.20877265       1.76346018      14.95372921  F        1        2       0.44018177      -0.24540303      -0.39852941
O        8.17066236       0.63242506      16.25840413  F        1        2      -0.15825480      -0.46642639       0.00420558
O        5.71021236       3.62919935      13.15069587  F        1        2       0.41977788       0.29376038       0.51586687
O        7.66922265       2.49816423      14.45537079  F        1        2       0.00969922       0.38906294      -0.75555095
O        3.84371499       3.13058929      16.75676254  F        1        2       0.07781734       0.20420129       0.08525008
Si       7.25964325      -0.01577028      17.46443035  T        0        1       0.02646810       0.00663726      -0.00208551
Si       3.73557030       2.17377392      21.14173709  T        0        1      -0.00636734       0.01000134      -0.02374215
Si       6.21109737       2.21084610      19.31058968  T        0        1      -0.04961618       0.00118629      -0.02220671
O        6.29763621       1.11428976      18.09781876  T        1        1       0.04197060      -0.00476903       0.01213959
O        5.12998720       1.74196616      20.40813946  T        1        1      -0.00698433      -0.00217763       0.00160612
O        8.26887872       0.04963769      21.49328338  T        1        1      -0.00864457      -0.02325394      -0.00236742
O        5.78424240       3.61103181      18.58259171  T        1        1       0.01478941       0.02982121       0.01119844
O        7.66505567       2.34541895      20.02430504  T        1        1      -0.02560742       0.00343738      -0.01643986
O        3.96230722       3.43855163      22.20709114  T        1        1      -0.00856387      -0.01057678      -0.06226785
F        2.91175125       0.29167490      24.24392302  T        0        0       0.00140450       0.01221165      -0.05195517
H        3.08626070       0.69719383      22.89740807  T        0        0      -0.00932560       0.02387960      -0.02087202
F        3.84978988       1.15253137      26.14505529  T        0        0       0.02687089      -0.00513531       0.06563258
H        3.40833669       0.76057285      25.21217290  T        0        0      -0.03186862      -0.06204307       0.06702468
40
Lattice="9.8418 0.0 0.0 -2.460449999999999 4.261624409482844 0.0 0.0 -0.0 34.16586254" Properties=species:S:1:pos:R:3:move_mask:L:1:spacegroup_kinds:I:1:tags:I:1:forces:R:3 surface=alpha_quartz_001 coadsorbate=HF start=1 calculation_kind="Local coadsorbate relaxation; not a reaction path" host_atoms=36 energy=-283.0114184489717 pbc="T T F"
Si       2.31725181       0.00000000      12.00000000  F        0        2      -0.13229758      -0.36557043      -1.69110135
Si      -1.15862590       2.00679893      15.60606667  F        0        2      -0.13190748       0.04544722       1.29700957
Si       1.30182410       2.25482548      13.80303333  F        0        2       0.03607370      -0.15541415       1.04374343
O        1.38326499       1.13103512      12.65233746  F        1        2      -0.50235245       0.20987635      -0.22699123
O        0.28787265       1.76346018      14.95372921  F        1        2       0.45797743      -0.24234927      -0.41277466
O        3.24976236       0.63242506      16.25840413  F        1        2      -0.27253062      -0.58575781       0.14409978
O        0.78931236       3.62919935      13.15069587  F        1        2       0.41975948       0.29064270       0.52493121
O        2.74832265       2.49816423      14.45537079  F        1        2      -0.00228047       0.38525530      -0.75155937
O       -1.07718501       3.13058929      16.75676254  F        1        2      -0.03507356       0.48477990       0.16877065
Si       2.28164032       0.04275402      17.45778231  T        0        1      -0.00111053      -0.01480837       0.01115013
Si      -1.18627298       1.63479609      21.10629369  T        0        1      -0.00081613      -0.00081085       0.00226057
Si       1.27340976       2.29927409      19.29682136  T        0        1       0.03005627       0.01387018      -0.02670996
O        1.34213736       1.23039901      18.03757840  T        1        1       0.05386224      -0.01152185       0.04024103
O        0.28981460       1.71562955      20.44789034  T        1        1       0.03308154       0.00653066      -0.00749571
O        3.10323287       0.89403500      21.88070983  T        1        1       0.01503272       0.02628342      -0.00840011
O        0.69675196       3.68518175      18.66014853  T        1        1       0.01975118      -0.00779917      -0.00947578
O        2.74216854       2.60808952      19.89797566  T        1        1      -0.04087139      -0.07022158       0.04404490
O       -1.32606956       2.02349547      22.67964964  T        1        1       0.02394663       0.08589109       0.06475138
Si       7.23815181       0.00000000      12.00000000  F        0        2      -0.13190199      -0.36537942      -1.68510828
Si       3.76227409       2.00679893      15.60606667  F        0        2      -0.10374721       0.10235771       1.24783951
Si       6.22272410       2.25482548      13.80303333  F        0        2       0.03190015      -0.17025974       1.05618157
O        6.30416499       1.13103512      12.65233746  F        1        2      -0.50340779       0.20722236      -0.23554712
O        5.20877265       1.76346018      14.95372921  F        1        2       0.43951374      -0.24547033      -0.39626826
O        8.17066236       0.63242506      16.25840413  F        1        2      -0.14138330      -0.46339668      -0.01544640
O        5.71021236       3.62919935      13.15069587  F        1        2       0.42074236       0.29305394       0.51744430
O        7.66922265       2.49816423      14.45537079  F        1        2       0.00967500       0.38818605      -0.75393561
O        3.84371499       3.13058929      16.75676254  F        1        2       0.07302538       0.18230810       0.06928210
Si       7.26205310      -0.01840730      17.46339812  T        0        1       0.01915097       0.02402652       0.04394850
Si       3.73467937       2.17501983      21.14178892  T        0        1       0.00290070      -0.00191828      -0.06519940
Si       6.21295811       2.20879745      19.31154589  T        0        1      -0.06410842      -0.00509307      -0.00264771
O        6.30158401       1.11018019      18.10085176  T        1        1       0.02473223       0.02418293       0.01796366
O        5.12960342       1.73862581      20.40847716  T        1        1      -0.00375066       0.02597250      -0.00016408
O        8.27325666       0.04863596      21.48857519  T        1        1      -0.01473583      -0.02644094       0.00827161
O        5.78614267       3.60899202      18.58234809  T        1        1       0.02702931       0.00250471       0.00819787
O        7.66745371       2.34678864      20.02521243  T        1        1      -0.04097715      -0.00598078      -0.02135264
O        3.96013272       3.44745102      22.19884471  T        1        1      -0.00184675      -0.02679829      -0.05656031
F        2.92047890       0.29705338      24.24474289  T        0        0      -0.00957291      -0.00232518      -0.03310707
H        3.08497082       0.70005088      22.89675821  T        0        0      -0.00390922       0.02620040      -0.03154117
F        3.84529298       1.14169144      26.15799298  T        0        0       0.03849497       0.00137876       0.09910927
H        3.40988502       0.75606642      25.22126157  T        0        0      -0.03812455      -0.05865459       0.02214518
40
Lattice="9.8418 0.0 0.0 -2.460449999999999 4.261624409482844 0.0 0.0 -0.0 34.16586254" Properties=species:S:1:pos:R:3:move_mask:L:1:spacegroup_kinds:I:1:tags:I:1:forces:R:3 surface=alpha_quartz_001 coadsorbate=HF start=1 calculation_kind="Local coadsorbate relaxation; not a reaction path" host_atoms=36 energy=-283.01319319689895 pbc="T T F"
Si       2.31725181       0.00000000      12.00000000  F        0        2      -0.13233097      -0.36592890      -1.69283323
Si      -1.15862590       2.00679893      15.60606667  F        0        2      -0.13043751       0.04503376       1.29322523
Si       1.30182410       2.25482548      13.80303333  F        0        2       0.03602411      -0.15521057       1.04176598
O        1.38326499       1.13103512      12.65233746  F        1        2      -0.50298496       0.21060250      -0.22594887
O        0.28787265       1.76346018      14.95372921  F        1        2       0.45648967      -0.24244983      -0.41176964
O        3.24976236       0.63242506      16.25840413  F        1        2      -0.25326571      -0.58177934       0.12063107
O        0.78931236       3.62919935      13.15069587  F        1        2       0.42049303       0.29017915       0.52635417
O        2.74832265       2.49816423      14.45537079  F        1        2      -0.00172824       0.38483561      -0.75005985
O       -1.07718501       3.13058929      16.75676254  F        1        2      -0.03750715       0.47846744       0.16505011
Si       2.28200618       0.04272614      17.45656206  T        0        1      -0.00897163      -0.00929016       0.03223491
Si      -1.18314692       1.63662203      21.10541380  T        0        1      -0.00761963       0.00808472       0.00269711
Si       1.27444647       2.30035544      19.29439357  T        0        1       0.02735008       0.00023043      -0.00622945
O        1.34428858       1.23204247      18.03510324  T        1        1       0.03121490      -0.00044126       0.03976476
O        0.29386183       1.71538297      20.44805511  T        1        1       0.00513026       0.01135758      -0.02077634
O        3.09795860       0.89373427      21.88009634  T        1        1       0.03141389       0.04661829      -0.01067967
O        0.69581358       3.68689588      18.66079364  T        1        1       0.03104390      -0.02461139      -0.01008371
O        2.74283714       2.60524976      19.89720348  T        1        1      -0.03236478      -0.05333075       0.02482732
O       -1.32033836       2.02929369      22.67885224  T        1        1       0.02083547       0.06675502       0.04689692
Si       7.23815181       0.00000000      12.00000000  F        0        2      -0.13208563      -0.36572957      -1.68705270
Si       3.76227409       2.00679893      15.60606667  F        0        2      -0.10510417       0.10130382       1.24358908
Si       6.22272410       2.25482548      13.80303333  F        0        2       0.03135694      -0.17057950       1.05335512
O        6.30416499       1.13103512      12.65233746  F        1        2      -0.50408285       0.20825954      -0.23439934
O        5.20877265       1.76346018      14.95372921  F        1        2       0.43949300      -0.24555406      -0.39436896
O        8.17066236       0.63242506      16.25840413  F        1        2      -0.12663484      -0.46370442      -0.02679125
O        5.71021236       3.62919935      13.15069587  F        1        2       0.42188221       0.29230054       0.51922527
O        7.66922265       2.49816423      14.45537079  F        1        2       0.01040429       0.38726680      -0.75125490
O        3.84371499       3.13058929      16.75676254  F        1        2       0.07655154       0.17138911       0.06210742
Si       7.26472144      -0.02080127      17.46300340  T        0        1       0.00218605       0.03149060       0.07127930
Si       3.73391352       2.17361053      21.14213304  T        0        1       0.01079867      -0.01555119      -0.08743169
Si       6.21327237       2.20633828      19.31280343  T        0        1      -0.04853574      -0.00511856       0.01947672
O        6.30590299       1.10626498      18.10434826  T        1        1      -0.00001486       0.04779680       0.01607309
O        5.12945479       1.73417709      20.40976976  T        1        1       0.00152434       0.04462624      -0.00615469
O        8.27557280       0.05018147      21.48648602  T        1        1      -0.01386015      -0.01442292       0.01977499
O        5.78719814       3.60682500      18.58319127  T        1        1       0.03460923      -0.02043830       0.00105895
O        7.66874587       2.34947817      20.02564624  T        1        1      -0.04337207      -0.02390088      -0.00994045
O        3.95812899       3.45196115      22.19192466  T        1        1       0.00333718      -0.03065384      -0.03901422
F        2.92647589       0.30232756      24.24577812  T        0        0      -0.01717759      -0.01596066       0.00526573
H        3.08240429       0.70163014      22.89618353  T        0        0       0.00296657       0.02522124      -0.03161594
F        3.84245801       1.13195251      26.17014820  T        0        0       0.03341012      -0.00834949       0.10721845
H        3.40978568       0.75040904      25.23069796  T        0        0      -0.03043697      -0.03881359      -0.01546676
40
Lattice="9.8418 0.0 0.0 -2.460449999999999 4.261624409482844 0.0 0.0 -0.0 34.16586254" Properties=species:S:1:pos:R:3:move_mask:L:1:spacegroup_kinds:I:1:tags:I:1:forces:R:3 surface=alpha_quartz_001 coadsorbate=HF start=1 calculation_kind="Local coadsorbate relaxation; not a reaction path" host_atoms=36 energy=-283.01479078416486 pbc="T T F"
Si       2.31725181       0.00000000      12.00000000  F        0        2      -0.13228287      -0.36605750      -1.69357103
Si      -1.15862590       2.00679893      15.60606667  F        0        2      -0.12981402       0.04357982       1.28981063
Si       1.30182410       2.25482548      13.80303333  F        0        2       0.03683447      -0.15479394       1.04074224
O        1.38326499       1.13103512      12.65233746  F        1        2      -0.50332907       0.21086227      -0.22543157
O        0.28787265       1.76346018      14.95372921  F        1        2       0.45516045      -0.24237049      -0.41080516
O        3.24976236       0.63242506      16.25840413  F        1        2      -0.24206740      -0.58236747       0.10686278
O        0.78931236       3.62919935      13.15069587  F        1        2       0.42064729       0.28991917       0.52694012
O        2.74832265       2.49816423      14.45537079  F        1        2      -0.00200285       0.38458202      -0.74999441
O       -1.07718501       3.13058929      16.75676254  F        1        2      -0.03747529       0.47577133       0.16713150
Si       2.28262673       0.04222332      17.45612560  T        0        1      -0.00627261      -0.00343440       0.03239707
Si      -1.18131781       1.63979876      21.10525904  T        0        1      -0.01124473       0.01494597       0.01115034
Si       1.27590723       2.30078050      19.29257781  T        0        1       0.00567424      -0.01630055       0.01520127
O        1.34710218       1.23304949      18.03386093  T        1        1       0.00883326       0.00030915       0.03218916
O        0.29648234       1.71549527      20.44767637  T        1        1      -0.02966017       0.01325279      -0.02396094
O        3.09424083       0.89222309      21.87952440  T        1        1       0.03832991       0.04997773      -0.01284804
O        0.69658847       3.68763028      18.66083202  T        1        1       0.03670511      -0.03051124      -0.01185468
O        2.74319850       2.60085369      19.89767070  T        1        1      -0.01864416      -0.02557719      -0.00489409
O       -1.31470073       2.03926558      22.67879256  T        1        1       0.01758515       0.03856160       0.00806353
Si       7.23815181       0.00000000      12.00000000  F        0        2      -0.13225151      -0.36582720      -1.68788659
Si       3.76227409       2.00679893      15.60606667  F        0        2      -0.10627644       0.10098054       1.24361933
Si       6.22272410       2.25482548      13.80303333  F        0        2       0.03013813      -0.17112630       1.05217261
O        6.30416499       1.13103512      12.65233746  F        1        2      -0.50422447       0.20878887      -0.23389191
O        5.20877265       1.76346018      14.95372921  F        1        2       0.44054828      -0.24553174      -0.39401192
O        8.17066236       0.63242506      16.25840413  F        1        2      -0.12265603      -0.47061404      -0.01898086
O        5.71021236       3.62919935      13.15069587  F        1        2       0.42256775       0.29191588       0.52005122
O        7.66922265       2.49816423      14.45537079  F        1        2       0.01141359       0.38672799      -0.74902923
O        3.84371499       3.13058929      16.75676254  F        1        2       0.08920755       0.17638970       0.06742121
Si       7.26700278      -0.02250690      17.46382811  T        0        1      -0.01657936       0.02633521       0.06076320
Si       3.73359955       2.17054840      21.14181424  T        0        1       0.01288812      -0.02001289      -0.07529425
Si       6.21243123       2.20375736      19.31442238  T        0        1      -0.01141879       0.00421590       0.03146590
O        6.30938428       1.10335399      18.10775615  T        1        1      -0.02071686       0.05379437       0.00579405
O        5.12973493       1.73005958      20.41163708  T        1        1       0.00633568       0.04411233      -0.01106676
O        8.27585368       0.05320470      21.48684496  T        1        1      -0.00572901       0.01150437       0.02906092
O        5.78752992       3.60429936      18.58471836  T        1        1       0.03318491      -0.02382554      -0.01038518
O        7.66878165       2.35250922      20.02582706  T        1        1      -0.03136910      -0.04320021       0.01284115
O        3.95690024       3.45253227      22.18668458  T        1        1       0.00471456      -0.02486125      -0.01768836
F        2.92897272       0.30610125      24.24777134  T        0        0      -0.01592528      -0.02038216       0.04765991
H        3.07948632       0.70204889      22.89491003  T        0        0       0.00984522       0.02306428      -0.02225786
F        3.84153705       1.12435206      26.18101401  T        0        0       0.01103155      -0.03308104       0.07689257
H        3.40857834       0.74479400      25.23881236  T        0        0      -0.01170519      -0.00971613      -0.02437789
40
Lattice="9.8418 0.0 0.0 -2.460449999999999 4.261624409482844 0.0 0.0 -0.0 34.16586254" Properties=species:S:1:pos:R:3:move_mask:L:1:spacegroup_kinds:I:1:tags:I:1:forces:R:3 surface=alpha_quartz_001 coadsorbate=HF start=1 calculation_kind="Local coadsorbate relaxation; not a reaction path" host_atoms=36 energy=-283.0160367251351 pbc="T T F"
Si       2.31725181       0.00000000      12.00000000  F        0        2      -0.13218335      -0.36592597      -1.69308031
Si      -1.15862590       2.00679893      15.60606667  F        0        2      -0.13048248       0.04120565       1.28893095
Si       1.30182410       2.25482548      13.80303333  F        0        2       0.03791972      -0.15445527       1.04119052
O        1.38326499       1.13103512      12.65233746  F        1        2      -0.50325058       0.21058517      -0.22563944
O        0.28787265       1.76346018      14.95372921  F        1        2       0.45477033      -0.24203917      -0.41056044
O        3.24976236       0.63242506      16.25840413  F        1        2      -0.24027729      -0.58604567       0.10477399
O        0.78931236       3.62919935      13.15069587  F        1        2       0.42023095       0.28996820       0.52649199
O        2.74832265       2.49816423      14.45537079  F        1        2      -0.00281884       0.38458198      -0.75116747
O       -1.07718501       3.13058929      16.75676254  F        1        2      -0.03404710       0.47747447       0.17409332
Si       2.28356767       0.04128200      17.45658351  T        0        1       0.00312518      -0.00070645       0.01423114
Si      -1.18121176       1.64394523      21.10601529  T        0        1      -0.00951982       0.01660122       0.01998059
Si       1.27721620       2.30005066      19.29216719  T        0        1      -0.01959923      -0.02598676       0.02477915
O        1.34987003       1.23288363      18.03430878  T        1        1      -0.00689053      -0.01030013       0.02174657
O        0.29671297       1.71594756      20.44698480  T        1        1      -0.05112513       0.01166810      -0.01980064
O        3.09306100       0.88938048      21.87938566  T        1        1       0.03450918       0.03702986      -0.01369301
O        0.69922006       3.68685089      18.66004515  T        1        1       0.03262411      -0.02298192      -0.01418923
O        2.74328234       2.59639184      19.89900599  T        1        1      -0.00393395      -0.00194673      -0.02869899
O       -1.31021266       2.05170459      22.67886215  T        1        1       0.01301587       0.01368284      -0.02156236
Si       7.23815181       0.00000000      12.00000000  F        0        2      -0.13231561      -0.36565950      -1.68733621
Si       3.76227409       2.00679893      15.60606667  F        0        2      -0.10704306       0.10088782       1.24759474
Si       6.22272410       2.25482548      13.80303333  F        0        2       0.02895696      -0.17160207       1.05308731
O        6.30416499       1.13103512      12.65233746  F        1        2      -0.50384442       0.20863772      -0.23419021
O        5.20877265       1.76346018      14.95372921  F        1        2       0.44209975      -0.24536249      -0.39517686
O        8.17066236       0.63242506      16.25840413  F        1        2      -0.13005927      -0.48261702       0.00415950
O        5.71021236       3.62919935      13.15069587  F        1        2       0.42254134       0.29199913       0.51962032
O        7.66922265       2.49816423      14.45537079  F        1        2       0.01212267       0.38674938      -0.74829901
O        3.84371499       3.13058929      16.75676254  F        1        2       0.10443164       0.19208085       0.08088415
Si       7.26818964      -0.02320754      17.46549864  T        0        1      -0.02728048       0.01534219       0.02183222
Si       3.73382673       2.16617243      21.14096746  T        0        1       0.00812854      -0.01137542      -0.03873146
Si       6.21126631       2.20188838      19.31603148  T        0        1       0.02302685       0.01763674       0.02574529
O        6.31121592       1.10236472      18.10999023  T        1        1      -0.02939594       0.04162512      -0.00786368
O        5.13035478       1.72703785      20.41314579  T        1        1       0.00901100       0.02792663      -0.01066989
O        8.27424601       0.05785598      21.49001570  T        1        1       0.00269883       0.03163266       0.03615998
O        5.78708497       3.60211359      18.58645923  T        1        1       0.02411329      -0.00793265      -0.02205316
O        7.66774650       2.35516834      20.02605884  T        1        1      -0.01372372      -0.05242729       0.03235354
O        3.95623695       3.44863655      22.18476416  T        1        1       0.00423442      -0.01234863      -0.00116767
F        2.92719308       0.30750754      24.25097826  T        0        0      -0.01024555      -0.01703750       0.06987700
H        3.07644177       0.70080240      22.89371155  T        0        0       0.01646542       0.02208029      -0.00921493
F        3.84251098       1.12023836      26.18773428  T        0        0      -0.01381217      -0.05857229       0.03416983
H        3.40673534       0.74077776      25.24381741  T        0        0       0.00782246       0.01592692      -0.00860711
40
Lattice="9.8418 0.0 0.0 -2.460449999999999 4.261624409482844 0.0 0.0 -0.0 34.16586254" Properties=species:S:1:pos:R:3:move_mask:L:1:spacegroup_kinds:I:1:tags:I:1:forces:R:3 surface=alpha_quartz_001 coadsorbate=HF start=1 calculation_kind="Local coadsorbate relaxation; not a reaction path" host_atoms=36 energy=-283.01706011591745 pbc="T T F"
Si       2.31725181       0.00000000      12.00000000  F        0        2      -0.13205513      -0.36568170      -1.69173916
Si      -1.15862590       2.00679893      15.60606667  F        0        2      -0.13217227       0.03768241       1.29082908
Si       1.30182410       2.25482548      13.80303333  F        0        2       0.03868743      -0.15428671       1.04316220
O        1.38326499       1.13103512      12.65233746  F        1        2      -0.50286895       0.20993203      -0.22645168
O        0.28787265       1.76346018      14.95372921  F        1        2       0.45539746      -0.24142428      -0.41166950
O        3.24976236       0.63242506      16.25840413  F        1        2      -0.24260375      -0.59012628       0.10755118
O        0.78931236       3.62919935      13.15069587  F        1        2       0.41948557       0.29036326       0.52526123
O        2.74832265       2.49816423      14.45537079  F        1        2      -0.00382609       0.38472895      -0.75303698
O       -1.07718501       3.13058929      16.75676254  F        1        2      -0.03088866       0.48297688       0.18154952
Si       2.28378326       0.04105549      17.45710366  T        0        1       0.01214141      -0.00124425      -0.00847211
Si      -1.18077145       1.64554578      21.10677499  T        0        1      -0.00612791       0.00806501       0.02987015
Si       1.27765998       2.29965559      19.29169586  T        0        1      -0.03470375      -0.02485001       0.01983687
O        1.35125425       1.23367171      18.03387523  T        1        1      -0.01563561      -0.02705851       0.01311793
O        0.29646762       1.71612502      20.44581696  T        1        1      -0.05253119       0.00835256      -0.01374837
O        3.09221053       0.89071185      21.87814000  T        1        1       0.02620460       0.02003681      -0.00955546
O        0.70049026       3.68649878      18.65963156  T        1        1       0.02347788      -0.01144661      -0.01579913
O        2.74357910       2.59462988      19.89743874  T        1        1       0.00698731       0.00896503      -0.03768452
O       -1.30632859       2.05749938      22.67911085  T        1        1       0.00836059      -0.00125757      -0.03327927
Si       7.23815181       0.00000000      12.00000000  F        0        2      -0.13224807      -0.36536232      -1.68575858
Si       3.76227409       2.00679893      15.60606667  F        0        2      -0.10722312       0.10149417       1.25253549
Si       6.22272410       2.25482548      13.80303333  F        0        2       0.02843267      -0.17193693       1.05558211
O        6.30416499       1.13103512      12.65233746  F        1        2      -0.50325643       0.20800203      -0.23516401
O        5.20877265       1.76346018      14.95372921  F        1        2       0.44355311      -0.24521776      -0.39687221
O        8.17066236       0.63242506      16.25840413  F        1        2      -0.14195165      -0.49331312       0.02880646
O        5.71021236       3.62919935      13.15069587  F        1        2       0.42197652       0.29240237       0.51822582
O        7.66922265       2.49816423      14.45537079  F        1        2       0.01214799       0.38718660      -0.74920696
O        3.84371499       3.13058929      16.75676254  F        1        2       0.11758550       0.20712341       0.09425451
Si       7.26895237      -0.02375357      17.46728934  T        0        1      -0.02741021       0.00551065      -0.02165818
Si       3.73412820       2.16535335      21.13826648  T        0        1       0.00147980       0.00597114       0.00417446
Si       6.21140875       2.20051159      19.31758856  T        0        1       0.03786572       0.02929260       0.00780321
O        6.31225710       1.10165327      18.11194623  T        1        1      -0.02664731       0.02162243      -0.01982501
O        5.13100759       1.72622717      20.41381952  T        1        1       0.00672937       0.00900523      -0.00550487
O        8.27475878       0.05896495      21.49046917  T        1        1       0.01021283       0.04753581       0.04214997
O        5.78818215       3.59982398      18.58675160  T        1        1       0.01243962       0.01594080      -0.03073230
O        7.66719903       2.35525605      20.02716785  T        1        1       0.00137269      -0.04815311       0.03990576
O        3.95603997       3.45010181      22.17976490  T        1        1       0.00121937      -0.01059014       0.00892883
F        2.92801748       0.30823990      24.25539840  T        0        0       0.00453348       0.00020928       0.07825279
H        3.07563905       0.70223817      22.89021138  T        0        0       0.01991970       0.02065295       0.00522115
F        3.84206307       1.11383791      26.19818311  T        0        0      -0.03553306      -0.07612817      -0.02107307
H        3.40651828       0.73727172      25.24924025  T        0        0       0.01747256       0.02502507       0.02021265
40
Lattice="9.8418 0.0 0.0 -2.460449999999999 4.261624409482844 0.0 0.0 -0.0 34.16586254" Properties=species:S:1:pos:R:3:move_mask:L:1:spacegroup_kinds:I:1:tags:I:1:forces:R:3 surface=alpha_quartz_001 coadsorbate=HF start=1 calculation_kind="Local coadsorbate relaxation; not a reaction path" host_atoms=36 energy=-283.01798769455525 pbc="T T F"
Si       2.31725181       0.00000000      12.00000000  F        0        2      -0.13203412      -0.36540484      -1.69072269
Si      -1.15862590       2.00679893      15.60606667  F        0        2      -0.13502914       0.03423118       1.29328796
Si       1.30182410       2.25482548      13.80303333  F        0        2       0.03909662      -0.15451013       1.04420523
O        1.38326499       1.13103512      12.65233746  F        1        2      -0.50250432       0.20949834      -0.22702892
O        0.28787265       1.76346018      14.95372921  F        1        2       0.45671284      -0.24085813      -0.41196328
O        3.24976236       0.63242506      16.25840413  F        1        2      -0.24335863      -0.59067849       0.10832232
O        0.78931236       3.62919935      13.15069587  F        1        2       0.41900578       0.29051244       0.52442778
O        2.74832265       2.49816423      14.45537079  F        1        2      -0.00436790       0.38486709      -0.75398336
O       -1.07718501       3.13058929      16.75676254  F        1        2      -0.02228091       0.48414573       0.18942955
Si       2.28622693       0.03884666      17.45826220  T        0        1       0.01674492      -0.00456402      -0.03024789
Si      -1.18299535       1.65234975      21.10944863  T        0        1       0.00188327       0.00557575       0.02888800
Si       1.27792773       2.29624301      19.29383127  T        0        1      -0.03268350      -0.01732476       0.00351046
O        1.35465740       1.22985434      18.03802052  T        1        1      -0.02944247      -0.04334236       0.00111141
O        0.29274135       1.71730906      20.44536973  T        1        1      -0.03754711       0.00178724      -0.00849387
O        3.09499214       0.88381270      21.87942278  T        1        1       0.01005428      -0.01155794       0.00591646
O        0.70703791       3.68279852      18.65673819  T        1        1       0.00621314       0.00602483      -0.01636881
O        2.74296076       2.58982973      19.90044736  T        1        1       0.02028062       0.01635805      -0.03936261
O       -1.30268954       2.07674015      22.67822892  T        1        1      -0.00103314      -0.01199945      -0.01255602
Si       7.23815181       0.00000000      12.00000000  F        0        2      -0.13215694      -0.36507042      -1.68443556
Si       3.76227409       2.00679893      15.60606667  F        0        2      -0.10713242       0.10040894       1.25815420
Si       6.22272410       2.25482548      13.80303333  F        0        2       0.02823459      -0.17182239       1.05781058
O        6.30416499       1.13103512      12.65233746  F        1        2      -0.50268133       0.20736801      -0.23586163
O        5.20877265       1.76346018      14.95372921  F        1        2       0.44424102      -0.24497060      -0.39868476
O        8.17066236       0.63242506      16.25840413  F        1        2      -0.15526442      -0.50522028       0.05241614
O        5.71021236       3.62919935      13.15069587  F        1        2       0.42130401       0.29277898       0.51697472
O        7.66922265       2.49816423      14.45537079  F        1        2       0.01211586       0.38787538      -0.75041023
O        3.84371499       3.13058929      16.75676254  F        1        2       0.12578450       0.22536904       0.10946130
Si       7.26821911      -0.02295850      17.46884912  T        0        1      -0.01963723      -0.00100530      -0.06207837
Si       3.73491274       2.15788534      21.13752842  T        0        1      -0.00827149       0.02316190       0.04294201
Si       6.21082499       2.20092088      19.31852446  T        0        1       0.03526973       0.03269302      -0.02188305
O        6.31219150       1.10421354      18.11139970  T        1        1      -0.01955626      -0.00346765      -0.02980642
O        5.13186447       1.72391665      20.41356107  T        1        1       0.00786278      -0.01075421       0.00024170
O        8.27063120       0.06884514      21.49987580  T        1        1       0.00762924       0.02671938       0.05294745
O        5.78674586       3.59974971      18.58835835  T        1        1      -0.00161106       0.03965767      -0.03400638
O        7.66482487       2.35723833      20.02827988  T        1        1       0.01044490      -0.02611345       0.03228971
O        3.95461578       3.43746581      22.18430074  T        1        1       0.00525869       0.01821855       0.02041393
F        2.91947680       0.30683191      24.26125164  T        0        0       0.00329574       0.00586349       0.04357366
H        3.07119033       0.69783759      22.89146216  T        0        0       0.02887888       0.02342099       0.00537106
F        3.84522261       1.11353641      26.19676084  T        0        0      -0.03646720      -0.07859149      -0.01772948
H        3.40366222       0.73586918      25.25052072  T        0        0       0.02274816       0.03071990       0.03392775
40
Lattice="9.8418 0.0 0.0 -2.460449999999999 4.261624409482844 0.0 0.0 -0.0 34.16586254" Properties=species:S:1:pos:R:3:move_mask:L:1:spacegroup_kinds:I:1:tags:I:1:forces:R:3 surface=alpha_quartz_001 coadsorbate=HF start=1 calculation_kind="Local coadsorbate relaxation; not a reaction path" host_atoms=36 energy=-283.01895539955774 pbc="T T F"
Si       2.31725181       0.00000000      12.00000000  F        0        2      -0.13199230      -0.36529952      -1.68970271
Si      -1.15862590       2.00679893      15.60606667  F        0        2      -0.13757539       0.02995804       1.29682843
Si       1.30182410       2.25482548      13.80303333  F        0        2       0.03870061      -0.15476989       1.04637414
O        1.38326499       1.13103512      12.65233746  F        1        2      -0.50216192       0.20902275      -0.22782375
O        0.28787265       1.76346018      14.95372921  F        1        2       0.45831621      -0.24013266      -0.41404893
O        3.24976236       0.63242506      16.25840413  F        1        2      -0.24036051      -0.58887977       0.10341803
O        0.78931236       3.62919935      13.15069587  F        1        2       0.41859690       0.29098752       0.52341810
O        2.74832265       2.49816423      14.45537079  F        1        2      -0.00475656       0.38493025      -0.75492042
O       -1.07718501       3.13058929      16.75676254  F        1        2      -0.02270025       0.48664892       0.18955107
Si       2.28568245       0.03956658      17.45792766  T        0        1       0.01305872      -0.00728422      -0.03485729
Si      -1.18104299       1.64993338      21.11026120  T        0        1       0.00292242      -0.01041453       0.02904175
Si       1.27666735       2.29653615      19.29251953  T        0        1      -0.01456096      -0.00389183      -0.01749816
O        1.35411428       1.23134627      18.03609367  T        1        1      -0.03527732      -0.05384342      -0.00321554
O        0.29273258       1.71696626      20.44381675  T        1        1      -0.01077970      -0.00205328      -0.00615041
O        3.09360360       0.89136577      21.87668374  T        1        1       0.00345667      -0.01803157       0.00514522
O        0.70578778       3.68361902      18.65677714  T        1        1      -0.00253089       0.00986051      -0.01475551
O        2.74347364       2.59181470      19.89421468  T        1        1       0.02261417       0.00710151      -0.02396807
O       -1.29886492       2.07237052      22.67849060  T        1        1      -0.00567898      -0.00819128       0.01519488
Si       7.23815181       0.00000000      12.00000000  F        0        2      -0.13196194      -0.36490668      -1.68298594
Si       3.76227409       2.00679893      15.60606667  F        0        2      -0.10635472       0.10147175       1.25964160
Si       6.22272410       2.25482548      13.80303333  F        0        2       0.02913467      -0.17171839       1.06020879
O        6.30416499       1.13103512      12.65233746  F        1        2      -0.50244742       0.20674934      -0.23685435
O        5.20877265       1.76346018      14.95372921  F        1        2       0.44429419      -0.24508872      -0.39929112
O        8.17066236       0.63242506      16.25840413  F        1        2      -0.16035979      -0.50455571       0.05529045
O        5.71021236       3.62919935      13.15069587  F        1        2       0.42063434       0.29314623       0.51558711
O        7.66922265       2.49816423      14.45537079  F        1        2       0.01125044       0.38851846      -0.75252119
O        3.84371499       3.13058929      16.75676254  F        1        2       0.12822891       0.22667154       0.11242278
Si       7.26869165      -0.02360878      17.46940434  T        0        1      -0.00611357      -0.00090751      -0.07151145
Si       3.73483544       2.16304362      21.13293277  T        0        1      -0.00844415       0.03715849       0.06188307
Si       6.21334283       2.20075198      19.31940154  T        0        1       0.00973099       0.02966111      -0.04264113
O        6.31305373       1.10335490      18.11283580  T        1        1      -0.00830111      -0.01718541      -0.03274990
O        5.13216121       1.72561749      20.41259512  T        1        1      -0.00013238      -0.01275592       0.00547002
O        8.27552255       0.06481422      21.49613148  T        1        1       0.00945497       0.02280269       0.06013546
O        5.79081435       3.59830465      18.58576961  T        1        1      -0.00963111       0.05097133      -0.03050817
O        7.66550220       2.35323244      20.03115491  T        1        1       0.00963598      -0.00032116       0.01392744
O        3.95434614       3.44905121      22.17332943  T        1        1       0.00089173       0.00370884       0.02840322
F        2.92664881       0.30836377      24.26757908  T        0        0       0.02059824       0.03366048       0.02970759
H        3.07384610       0.70452187      22.88490440  T        0        0       0.02758936       0.01767995       0.02625767
F        3.84114861       1.10050494      26.21427808  T        0        0      -0.03669599      -0.06798960      -0.05360477
H        3.40610148       0.73221862      25.25881863  T        0        0       0.00970745       0.00751136       0.05170194
40
Lattice="9.8418 0.0 0.0 -2.460449999999999 4.261624409482844 0.0 0.0 -0.0 34.16586254" Properties=species:S:1:pos:R:3:move_mask:L:1:spacegroup_kinds:I:1:tags:I:1:forces:R:3 surface=alpha_quartz_001 coadsorbate=HF start=1 calculation_kind="Local coadsorbate relaxation; not a reaction path" host_atoms=36 energy=-283.0198953984737 pbc="T T F"
Si       2.31725181       0.00000000      12.00000000  F        0        2      -0.13212123      -0.36544129      -1.69048469
Si      -1.15862590       2.00679893      15.60606667  F        0        2      -0.13872074       0.02910716       1.29676568
Si       1.30182410       2.25482548      13.80303333  F        0        2       0.03789454      -0.15519613       1.04541959
O        1.38326499       1.13103512      12.65233746  F        1        2      -0.50234917       0.20942347      -0.22744237
O        0.28787265       1.76346018      14.95372921  F        1        2       0.45895807      -0.24011689      -0.41376985
O        3.24976236       0.63242506      16.25840413  F        1        2      -0.23255159      -0.58186578       0.09226767
O        0.78931236       3.62919935      13.15069587  F        1        2       0.41910781       0.29078129       0.52410905
O        2.74832265       2.49816423      14.45537079  F        1        2      -0.00411171       0.38478656      -0.75357316
O       -1.07718501       3.13058929      16.75676254  F        1        2      -0.02338718       0.47850478       0.18299469
Si       2.28657295       0.03889855      17.45744976  T        0        1       0.00150871      -0.00729448      -0.01955366
Si      -1.18095537       1.65054533      21.11170748  T        0        1       0.00109500      -0.00933712       0.01963069
Si       1.27570369       2.29537278      19.29265786  T        0        1       0.01126414       0.00305817      -0.02772196
O        1.35428567       1.22899291      18.03743905  T        1        1      -0.04110701      -0.04644662      -0.00490987
O        0.29145745       1.71726214      20.44362052  T        1        1       0.00866914      -0.00380561      -0.00715783
O        3.09457482       0.89145077      21.87663321  T        1        1       0.00044952      -0.02263749       0.02798159
O        0.70729742       3.68273157      18.65548282  T        1        1      -0.00452664       0.00504760      -0.01175387
O        2.74324793       2.59165193      19.89306877  T        1        1       0.02088976      -0.00105897      -0.01015542
O       -1.29747203       2.07497961      22.67850652  T        1        1      -0.00826356      -0.00136110       0.04264888
Si       7.23815181       0.00000000      12.00000000  F        0        2      -0.13190776      -0.36505853      -1.68359302
Si       3.76227409       2.00679893      15.60606667  F        0        2      -0.10558902       0.10087662       1.25724651
Si       6.22272410       2.25482548      13.80303333  F        0        2       0.03001693      -0.17128204       1.05948124
O        6.30416499       1.13103512      12.65233746  F        1        2      -0.50279768       0.20695291      -0.23650134
O        5.20877265       1.76346018      14.95372921  F        1        2       0.44302979      -0.24527502      -0.39839459
O        8.17066236       0.63242506      16.25840413  F        1        2      -0.15364160      -0.49589848       0.03652146
O        5.71021236       3.62919935      13.15069587  F        1        2       0.42073025       0.29298652       0.51601738
O        7.66922265       2.49816423      14.45537079  F        1        2       0.01092060       0.38869944      -0.75282548
O        3.84371499       3.13058929      16.75676254  F        1        2       0.12094818       0.22043832       0.10771113
Si       7.26813036      -0.02312497      17.46838639  T        0        1       0.00267213       0.00452751      -0.04503142
Si       3.73479839       2.16350502      21.13227603  T        0        1      -0.00369569       0.02932853       0.04520145
Si       6.21435559       2.20232093      19.31860484  T        0        1      -0.01588619       0.01541091      -0.04484507
O        6.31301332       1.10457189      18.11162521  T        1        1      -0.00496472      -0.01361008      -0.02740124
O        5.13216886       1.72605606      20.41120694  T        1        1      -0.00211759      -0.00017205       0.00269536
O        8.27638017       0.06645047      21.49885547  T        1        1       0.00360202      -0.00099277       0.06452731
O        5.79200860       3.59998763      18.58437822  T        1        1      -0.00956127       0.03855751      -0.01889647
O        7.66519478       2.35163420      20.03265601  T        1        1      -0.00120240       0.01983203      -0.00610676
O        3.95331093       3.44892927      22.17285019  T        1        1       0.00358064       0.01144950       0.03468267
F        2.92689073       0.30883452      24.27038134  T        0        0       0.01556976       0.03753468      -0.00225448
H        3.07416681       0.70588158      22.88531157  T        0        0       0.02822934       0.01733855       0.01052022
F        3.84002075       1.09605393      26.21640843  T        0        0      -0.01378487      -0.04351523      -0.01190350
H        3.40633143       0.73174566      25.26117985  T        0        0      -0.00684872      -0.01427639       0.02785346
40
Lattice="9.8418 0.0 0.0 -2.460449999999999 4.261624409482844 0.0 0.0 -0.0 34.16586254" Properties=species:S:1:pos:R:3:move_mask:L:1:spacegroup_kinds:I:1:tags:I:1:forces:R:3 surface=alpha_quartz_001 coadsorbate=HF start=1 calculation_kind="Local coadsorbate relaxation; not a reaction path" host_atoms=36 energy=-283.02104851759765 pbc="T T F"
Si       2.31725181       0.00000000      12.00000000  F        0        2      -0.13236358      -0.36578741      -1.69248118
Si      -1.15862590       2.00679893      15.60606667  F        0        2      -0.13931608       0.02911891       1.29410651
Si       1.30182410       2.25482548      13.80303333  F        0        2       0.03670050      -0.15578474       1.04259709
O        1.38326499       1.13103512      12.65233746  F        1        2      -0.50290244       0.21038547      -0.22633534
O        0.28787265       1.76346018      14.95372921  F        1        2       0.45907042      -0.24039993      -0.41232330
O        3.24976236       0.63242506      16.25840413  F        1        2      -0.21816514      -0.56917375       0.07165547
O        0.78931236       3.62919935      13.15069587  F        1        2       0.42022531       0.29021117       0.52589788
O        2.74832265       2.49816423      14.45537079  F        1        2      -0.00281530       0.38448906      -0.75071316
O       -1.07718501       3.13058929      16.75676254  F        1        2      -0.02745079       0.45880846       0.16803868
Si       2.28798414       0.03765029      17.45637753  T        0        1      -0.01675500      -0.00421566       0.01123677
Si      -1.18067850       1.65202507      21.11425871  T        0        1      -0.00522980       0.00029469       0.00116857
Si       1.27473773       2.29361849      19.29211699  T        0        1       0.04105107       0.00464057      -0.02871910
O        1.35394534       1.22448150      18.03937065  T        1        1      -0.04810401      -0.02526293      -0.00602380
O        0.28987917       1.71770099      20.44305870  T        1        1       0.02416241      -0.00408371      -0.00593030
O        3.09568711       0.89056053      21.87721798  T        1        1       0.00393372      -0.01044065       0.01995715
O        0.70976908       3.68150704      18.65326360  T        1        1      -0.00139760      -0.00738871      -0.00698900
O        2.74318486       2.59009339      19.89176683  T        1        1       0.01626085      -0.01009052       0.00798777
O       -1.29499158       2.08053829      22.67934483  T        1        1      -0.01032153       0.00365796       0.06328769
Si       7.23815181       0.00000000      12.00000000  F        0        2      -0.13191394      -0.36543970      -1.68547388
Si       3.76227409       2.00679893      15.60606667  F        0        2      -0.10466466       0.09955642       1.25147817
Si       6.22272410       2.25482548      13.80303333  F        0        2       0.03116223      -0.17064101       1.05682013
O        6.30416499       1.13103512      12.65233746  F        1        2      -0.50361073       0.20768063      -0.23538867
O        5.20877265       1.76346018      14.95372921  F        1        2       0.44083992      -0.24563223      -0.39621628
O        8.17066236       0.63242506      16.25840413  F        1        2      -0.13643555      -0.47758254      -0.00303422
O        5.71021236       3.62919935      13.15069587  F        1        2       0.42131538       0.29248795       0.51755907
O        7.66922265       2.49816423      14.45537079  F        1        2       0.01083738       0.38864861      -0.75199676
O        3.84371499       3.13058929      16.75676254  F        1        2       0.10780045       0.20705571       0.09680742
Si       7.26748570      -0.02236870      17.46617964  T        0        1       0.00917386       0.01144695       0.01051221
Si       3.73457263       2.16379230      21.13260524  T        0        1       0.00725386       0.01353219       0.00849480
Si       6.21505667       2.20465685      19.31689469  T        0        1      -0.04038948      -0.00770997      -0.03226680
O        6.31313811       1.10602850      18.10964517  T        1        1      -0.00687593       0.00144855      -0.01653216
O        5.13198988       1.72613591      20.40954193  T        1        1      -0.00325095       0.02557764      -0.00611409
O        8.27745917       0.06952736      21.50488065  T        1        1      -0.00145686      -0.02711776       0.06672561
O        5.79362508       3.60299333      18.58209848  T        1        1      -0.00670869       0.00767130       0.00327433
O        7.66440674       2.34996358      20.03473962  T        1        1      -0.01715811       0.03756362      -0.02668023
O        3.95198928       3.44920094      22.17249895  T        1        1       0.00423902       0.01756339       0.04313345
F        2.92776258       0.31096503      24.27500782  T        0        0       0.00009758       0.03349158      -0.04532625
H        3.07513826       0.70862266      22.88533418  T        0        0       0.02669989       0.00806782       0.01644480
F        3.83809290       1.08746652      26.22053677  T        0        0       0.02245646      -0.00598442       0.06175540
H        3.40601221       0.72984558      25.26579037  T        0        0      -0.02599411      -0.04066303      -0.01039443
40
Lattice="9.8418 0.0 0.0 -2.460449999999999 4.261624409482844 0.0 0.0 -0.0 34.16586254" Properties=species:S:1:pos:R:3:move_mask:L:1:spacegroup_kinds:I:1:tags:I:1:forces:R:3 surface=alpha_quartz_001 coadsorbate=HF start=1 calculation_kind="Local coadsorbate relaxation; not a reaction path" host_atoms=36 energy=-283.02190363749133 pbc="T T F"
Si       2.31725181       0.00000000      12.00000000  F        0        2      -0.13251432      -0.36600756      -1.69386170
Si      -1.15862590       2.00679893      15.60606667  F        0        2      -0.13951926       0.02859019       1.29159325
Si       1.30182410       2.25482548      13.80303333  F        0        2       0.03622745      -0.15605668       1.04059616
O        1.38326499       1.13103512      12.65233746  F        1        2      -0.50329812       0.21101563      -0.22555166
O        0.28787265       1.76346018      14.95372921  F        1        2       0.45877534      -0.24056034      -0.41117346
O        3.24976236       0.63242506      16.25840413  F        1        2      -0.21011328      -0.56096592       0.05864775
O        0.78931236       3.62919935      13.15069587  F        1        2       0.42090603       0.28981696       0.52709396
O        2.74832265       2.49816423      14.45537079  F        1        2      -0.00221980       0.38438251      -0.74920617
O       -1.07718501       3.13058929      16.75676254  F        1        2      -0.03225535       0.44161594       0.15624240
Si       2.28868327       0.03677204      17.45558200  T        0        1      -0.02339523       0.00006789       0.02716292
Si      -1.17941678       1.65406908      21.11622649  T        0        1      -0.01014357       0.01261050      -0.00767614
Si       1.27525574       2.29274407      19.29050591  T        0        1       0.04349861       0.00073947      -0.01721739
O        1.35285350       1.22116449      18.03999700  T        1        1      -0.04833006      -0.00920977      -0.00767607
O        0.29002095       1.71853806      20.44199880  T        1        1       0.02091877      -0.00270852       0.00145807
O        3.09538624       0.89083579      21.87806491  T        1        1       0.00560310      -0.01261049       0.06121547
O        0.71171214       3.68101875      18.65153695  T        1        1       0.00296784      -0.01387866      -0.00481279
O        2.74447126       2.58818411      19.88940690  T        1        1       0.01228016      -0.01179091       0.01307258
O       -1.29118085       2.08637398      22.68084103  T        1        1      -0.00947678       0.00217198       0.05151264
Si       7.23815181       0.00000000      12.00000000  F        0        2      -0.13196108      -0.36567441      -1.68679056
Si       3.76227409       2.00679893      15.60606667  F        0        2      -0.10410457       0.09897126       1.24838312
Si       6.22272410       2.25482548      13.80303333  F        0        2       0.03152099      -0.17040198       1.05503488
O        6.30416499       1.13103512      12.65233746  F        1        2      -0.50410527       0.20821543      -0.23463129
O        5.20877265       1.76346018      14.95372921  F        1        2       0.43988306      -0.24591322      -0.39499487
O        8.17066236       0.63242506      16.25840413  F        1        2      -0.12469668      -0.46489812      -0.02839882
O        5.71021236       3.62919935      13.15069587  F        1        2       0.42180449       0.29213488       0.51865149
O        7.66922265       2.49816423      14.45537079  F        1        2       0.01107476       0.38861882      -0.75098027
O        3.84371499       3.13058929      16.75676254  F        1        2       0.10285627       0.20185522       0.09244514
Si       7.26750933      -0.02202047      17.46495716  T        0        1       0.00818984       0.00933175       0.04000698
Si       3.73466671       2.16371618      21.13205236  T        0        1       0.01138611      -0.00672657      -0.00512272
Si       6.21549430       2.20583565      19.31583967  T        0        1      -0.03815256      -0.01899639      -0.01842857
O        6.31365630       1.10639849      18.10901120  T        1        1      -0.01000795       0.00987559      -0.01161865
O        5.13269677       1.72608036      20.40917509  T        1        1      -0.00611775       0.03935445      -0.01150388
O        8.27882295       0.07294459      21.51096470  T        1        1      -0.00483788      -0.03631561       0.06530024
O        5.79523989       3.60438612      18.58028013  T        1        1      -0.00732466      -0.01023956       0.01880235
O        7.66410507       2.34980362      20.03615132  T        1        1      -0.01919269       0.03873923      -0.02821314
O        3.94998104       3.44754299      22.17280257  T        1        1       0.00901747       0.03153229       0.05295698
F        2.92930759       0.31402717      24.27782903  T        0        0      -0.00466685       0.03564984      -0.06100414
H        3.07538834       0.71083585      22.88820124  T        0        0       0.02806096       0.01064447      -0.02270413
F        3.83594548       1.07772242      26.22833406  T        0        0       0.03607896       0.01091397       0.08678145
H        3.40591425       0.72744649      25.27159538  T        0        0      -0.03461650      -0.05389357      -0.03539142
40
Lattice="9.8418 0.0 0.0 -2.460449999999999 4.261624409482844 0.0 0.0 -0.0 34.16586254" Properties=species:S:1:pos:R:3:move_mask:L:1:spacegroup_kinds:I:1:tags:I:1:forces:R:3 surface=alpha_quartz_001 coadsorbate=HF start=1 calculation_kind="Local coadsorbate relaxation; not a reaction path" host_atoms=36 energy=-283.02337876732133 pbc="T T F"
Si       2.31725181       0.00000000      12.00000000  F        0        2      -0.13273161      -0.36623834      -1.69575399
Si      -1.15862590       2.00679893      15.60606667  F        0        2      -0.13903381       0.02884838       1.28679805
Si       1.30182410       2.25482548      13.80303333  F        0        2       0.03585403      -0.15648356       1.03714434
O        1.38326499       1.13103512      12.65233746  F        1        2      -0.50382056       0.21186656      -0.22438841
O        0.28787265       1.76346018      14.95372921  F        1        2       0.45796351      -0.24091089      -0.40879397
O        3.24976236       0.63242506      16.25840413  F        1        2      -0.20313953      -0.54933950       0.04627691
O        0.78931236       3.62919935      13.15069587  F        1        2       0.42178689       0.28919035       0.52886436
O        2.74832265       2.49816423      14.45537079  F        1        2      -0.00126613       0.38438601      -0.74681454
O       -1.07718501       3.13058929      16.75676254  F        1        2      -0.04059612       0.40675470       0.13536047
Si       2.29057244       0.03420795      17.45493166  T        0        1      -0.02675490       0.00822946       0.04099287
Si      -1.17985578       1.66023612      21.12110638  T        0        1      -0.01556485       0.02032884      -0.01978573
Si       1.27646938       2.28924509      19.28873390  T        0        1       0.03092922      -0.00855897       0.01064333
O        1.35048394       1.21289880      18.04256695  T        1        1      -0.03975619       0.01887965      -0.00628225
O        0.28736571       1.71931492      20.43957743  T        1        1       0.00853863       0.00070284       0.02083459
O        3.09715190       0.88673151      21.88010988  T        1        1       0.01563096       0.01214312       0.01959348
O        0.71751895       3.67810124      18.64739104  T        1        1       0.00765494      -0.01903203      -0.00060311
O        2.74614165       2.58198852      19.88854714  T        1        1       0.00204607      -0.01237318       0.02218603
O       -1.28555092       2.10341661      22.68436496  T        1        1      -0.00911345      -0.01104615       0.01004144
Si       7.23815181       0.00000000      12.00000000  F        0        2      -0.13206665      -0.36597124      -1.68873831
Si       3.76227409       2.00679893      15.60606667  F        0        2      -0.10396620       0.09647870       1.24436827
Si       6.22272410       2.25482548      13.80303333  F        0        2       0.03177796      -0.17002068       1.05207417
O        6.30416499       1.13103512      12.65233746  F        1        2      -0.50471054       0.20893786      -0.23345742
O        5.20877265       1.76346018      14.95372921  F        1        2       0.43866204      -0.24611514      -0.39343704
O        8.17066236       0.63242506      16.25840413  F        1        2      -0.10905586      -0.44795960      -0.06169757
O        5.71021236       3.62919935      13.15069587  F        1        2       0.42246562       0.29169357       0.52033867
O        7.66922265       2.49816423      14.45537079  F        1        2       0.01176143       0.38850076      -0.74883672
O        3.84371499       3.13058929      16.75676254  F        1        2       0.09513483       0.19648262       0.08717911
Si       7.26703406      -0.02093369      17.46320034  T        0        1       0.00345355       0.00222365       0.07286330
Si       3.73515899       2.16095371      21.13396318  T        0        1       0.01907330      -0.00463970      -0.02038230
Si       6.21401852       2.20735357      19.31364285  T        0        1      -0.01965492      -0.03172876       0.01307878
O        6.31331174       1.10776030      18.10677659  T        1        1      -0.01505292       0.02281090      -0.00213016
O        5.13314701       1.72483157      20.40880740  T        1        1      -0.00697203       0.05680438      -0.01867639
O        8.27815561       0.08125193      21.52780230  T        1        1       0.00499715      -0.01860930       0.04956580
O        5.79577357       3.60688527      18.57843310  T        1        1      -0.00922505      -0.03512577       0.04442420
O        7.66117903       2.35114625      20.03863765  T        1        1      -0.01615653       0.02822369      -0.02068132
O        3.94928689       3.44525289      22.17507762  T        1        1      -0.00159139       0.01887181       0.04819470
F        2.92827099       0.32000087      24.28473448  T        0        0      -0.02136430       0.02530228      -0.08438943
H        3.07712832       0.71380298      22.88892063  T        0        0       0.02236171      -0.00662691       0.00592669
F        3.83430069       1.06097605      26.24005003  T        0        0       0.04783047       0.02647867       0.11371834
H        3.40331606       0.72145131      25.28038731  T        0        0      -0.02632874      -0.05335906      -0.03561924
40
Lattice="9.8418 0.0 0.0 -2.460449999999999 4.261624409482844 0.0 0.0 -0.0 34.16586254" Properties=species:S:1:pos:R:3:move_mask:L:1:spacegroup_kinds:I:1:tags:I:1:forces:R:3 surface=alpha_quartz_001 coadsorbate=HF start=1 calculation_kind="Local coadsorbate relaxation; not a reaction path" host_atoms=36 energy=-283.0245708586427 pbc="T T F"
Si       2.31725181       0.00000000      12.00000000  F        0        2      -0.13277673      -0.36617165      -1.69593348
Si      -1.15862590       2.00679893      15.60606667  F        0        2      -0.13884751       0.02757654       1.28582471
Si       1.30182410       2.25482548      13.80303333  F        0        2       0.03610712      -0.15659494       1.03637481
O        1.38326499       1.13103512      12.65233746  F        1        2      -0.50380866       0.21189239      -0.22423812
O        0.28787265       1.76346018      14.95372921  F        1        2       0.45762076      -0.24079718      -0.40824156
O        3.24976236       0.63242506      16.25840413  F        1        2      -0.20826668      -0.54590842       0.04941274
O        0.78931236       3.62919935      13.15069587  F        1        2       0.42174560       0.28911457       0.52903980
O        2.74832265       2.49816423      14.45537079  F        1        2      -0.00134802       0.38476321      -0.74686306
O       -1.07718501       3.13058929      16.75676254  F        1        2      -0.04649866       0.38613324       0.12465727
Si       2.29104296       0.03287121      17.45496904  T        0        1      -0.01546376       0.01289260       0.03105364
Si      -1.17904181       1.66569168      21.12412675  T        0        1      -0.01473537       0.02152465      -0.02129447
Si       1.27894929       2.28737511      19.28662060  T        0        1      -0.00420358      -0.01290586       0.03595962
O        1.34714892       1.20812681      18.04295116  T        1        1      -0.01936983       0.02935725      -0.00246671
O        0.28714208       1.72060705      20.43752738  T        1        1      -0.00830539       0.00528957       0.03801947
O        3.09719995       0.88554967      21.88255541  T        1        1       0.01993125       0.01119341       0.05224215
O        0.72146767       3.67656418      18.64469812  T        1        1       0.00863872      -0.01395393       0.00113485
O        2.74934882       2.57753642      19.88602403  T        1        1      -0.00874022      -0.01153009       0.02141350
O       -1.27968291       2.11588712      22.68718185  T        1        1      -0.00724138      -0.01834102      -0.03419197
Si       7.23815181       0.00000000      12.00000000  F        0        2      -0.13211897      -0.36592572      -1.68892961
Si       3.76227409       2.00679893      15.60606667  F        0        2      -0.10407444       0.09527630       1.24513214
Si       6.22272410       2.25482548      13.80303333  F        0        2       0.03142540      -0.17008071       1.05180418
O        6.30416499       1.13103512      12.65233746  F        1        2      -0.50463435       0.20897119      -0.23333613
O        5.20877265       1.76346018      14.95372921  F        1        2       0.43906999      -0.24610277      -0.39373227
O        8.17066236       0.63242506      16.25840413  F        1        2      -0.10883297      -0.44577383      -0.06309443
O        5.71021236       3.62919935      13.15069587  F        1        2       0.42252010       0.29169096       0.52051223
O        7.66922265       2.49816423      14.45537079  F        1        2       0.01222784       0.38866048      -0.74800729
O        3.84371499       3.13058929      16.75676254  F        1        2       0.09826108       0.20203860       0.09169569
Si       7.26720994      -0.02065207      17.46336340  T        0        1      -0.00163966      -0.00858719       0.05984634
Si       3.73611251       2.15868706      21.13408554  T        0        1       0.01234162      -0.00762357      -0.00205641
Si       6.21339469       2.20726447      19.31289215  T        0        1       0.01143675      -0.02564072       0.02911197
O        6.31311623       1.10792564      18.10634305  T        1        1      -0.01291358       0.01944826      -0.00022134
O        5.13471270       1.72460916      20.40966317  T        1        1      -0.01168624       0.05114044      -0.01298444
O        8.27846920       0.08851530      21.54128735  T        1        1       0.00837462       0.00348501       0.03248629
O        5.79618813       3.60678216      18.57777956  T        1        1      -0.01602710      -0.03116596       0.05250294
O        7.65987287       2.35379438      20.03995771  T        1        1      -0.00008842       0.00745570      -0.00175169
O        3.94733664       3.44029500      22.17885737  T        1        1      -0.00102726       0.01999960       0.04134824
F        2.92802357       0.32576871      24.28704325  T        0        0      -0.01493014       0.02836117      -0.05801347
H        3.07762734       0.71509421      22.89416121  T        0        0       0.02268702      -0.00133586      -0.03580891
F        3.83271149       1.04676893      26.25356754  T        0        0       0.02696337       0.01238523       0.06586890
H        3.40199716       0.71664544      25.28844660  T        0        0      -0.01177229      -0.04021093      -0.02427615
40
Lattice="9.8418 0.0 0.0 -2.460449999999999 4.261624409482844 0.0 0.0 -0.0 34.16586254" Properties=species:S:1:pos:R:3:move_mask:L:1:spacegroup_kinds:I:1:tags:I:1:forces:R:3 surface=alpha_quartz_001 coadsorbate=HF start=1 calculation_kind="Local coadsorbate relaxation; not a reaction path" host_atoms=36 energy=-283.02542311599666 pbc="T T F"
Si       2.31725181       0.00000000      12.00000000  F        0        2      -0.13272237      -0.36589738      -1.69491693
Si      -1.15862590       2.00679893      15.60606667  F        0        2      -0.13860021       0.02734716       1.28769315
Si       1.30182410       2.25482548      13.80303333  F        0        2       0.03645724      -0.15665606       1.03715920
O        1.38326499       1.13103512      12.65233746  F        1        2      -0.50341507       0.21139958      -0.22476648
O        0.28787265       1.76346018      14.95372921  F        1        2       0.45789911      -0.24057166      -0.40865830
O        3.24976236       0.63242506      16.25840413  F        1        2      -0.22101214      -0.54839679       0.06526031
O        0.78931236       3.62919935      13.15069587  F        1        2       0.42118728       0.28935704       0.52825396
O        2.74832265       2.49816423      14.45537079  F        1        2      -0.00164018       0.38521823      -0.74767408
O       -1.07718501       3.13058929      16.75676254  F        1        2      -0.04729598       0.37906655       0.12299742
Si       2.29142680       0.03184805      17.45588133  T        0        1      -0.00184945       0.01206425       0.01048673
Si      -1.18071749       1.66976355      21.12599328  T        0        1      -0.00933075       0.00478023      -0.01478438
Si       1.28013670       2.28508182      19.28714683  T        0        1      -0.03055275      -0.00863233       0.04313875
O        1.34474859       1.20477925      18.04415725  T        1        1       0.00274570       0.02683569       0.00460137
O        0.28505738       1.72082689      20.43699850  T        1        1      -0.01152719       0.00825566       0.04404883
O        3.09934325       0.88246419      21.88428259  T        1        1       0.02407197       0.01898084       0.01852576
O        0.72476365       3.67428507      18.64289160  T        1        1       0.00309500      -0.00417448       0.00307110
O        2.75032999       2.57403264      19.88745286  T        1        1      -0.01739909      -0.00933511       0.02082909
O       -1.27850542       2.12448835      22.68844590  T        1        1      -0.00763846      -0.01847760      -0.05066821
Si       7.23815181       0.00000000      12.00000000  F        0        2      -0.13209711      -0.36568171      -1.68795812
Si       3.76227409       2.00679893      15.60606667  F        0        2      -0.10440226       0.09395264       1.24788135
Si       6.22272410       2.25482548      13.80303333  F        0        2       0.03109774      -0.17014194       1.05302583
O        6.30416499       1.13103512      12.65233746  F        1        2      -0.50414379       0.20847571      -0.23384353
O        5.20877265       1.76346018      14.95372921  F        1        2       0.43977177      -0.24578873      -0.39498673
O        8.17066236       0.63242506      16.25840413  F        1        2      -0.11909768      -0.45512728      -0.04357080
O        5.71021236       3.62919935      13.15069587  F        1        2       0.42203760       0.29203443       0.51971226
O        7.66922265       2.49816423      14.45537079  F        1        2       0.01229217       0.38886468      -0.74838297
O        3.84371499       3.13058929      16.75676254  F        1        2       0.10297854       0.21064045       0.09941094
Si       7.26678821      -0.02025588      17.46437785  T        0        1      -0.00191418      -0.01289331       0.02495936
Si       3.73704287       2.15640014      21.13623761  T        0        1       0.00445256       0.01795777       0.01540210
Si       6.21198105       2.20667711      19.31262847  T        0        1       0.02805701      -0.01187729       0.03026375
O        6.31171698       1.10891286      18.10512224  T        1        1      -0.00524298       0.00942942       0.00153943
O        5.13478701       1.72481600      20.40995421  T        1        1      -0.01076101       0.03530430      -0.00036611
O        8.27678377       0.09351543      21.55192330  T        1        1       0.01567593       0.02886943       0.01263764
O        5.79437700       3.60654906      18.57925228  T        1        1      -0.02142108      -0.01364242       0.04731828
O        7.65788373       2.35614802      20.04038597  T        1        1       0.01216107      -0.00791175       0.00878998
O        3.94813837       3.43782168      22.18331857  T        1        1      -0.01077872      -0.00275762       0.01828544
F        2.92506136       0.32912469      24.28699215  T        0        0      -0.01347843       0.01930467      -0.02889201
H        3.07913962       0.71435984      22.89560539  T        0        0       0.01783574      -0.00605193      -0.01529703
F        3.83358703       1.04165609      26.25737217  T        0        0       0.00337762      -0.00982933       0.02079676
H        3.40003277       0.71378135      25.29004544  T        0        0       0.01112681      -0.01429402       0.00867689
40
Lattice="9.8418 0.0 0.0 -2.460449999999999 4.261624409482844 0.0 0.0 -0.0 34.16586254" Properties=species:S:1:pos:R:3:move_mask:L:1:spacegroup_kinds:I:1:tags:I:1:forces:R:3 surface=alpha_quartz_001 coadsorbate=HF start=1 calculation_kind="Local coadsorbate relaxation; not a reaction path" host_atoms=36 energy=-283.0259633528494 pbc="T T F"
Si       2.31725181       0.00000000      12.00000000  F        0        2      -0.13265099      -0.36564075      -1.69372261
Si      -1.15862590       2.00679893      15.60606667  F        0        2      -0.13884262       0.02690267       1.29112933
Si       1.30182410       2.25482548      13.80303333  F        0        2       0.03653547      -0.15671087       1.03862406
O        1.38326499       1.13103512      12.65233746  F        1        2      -0.50296900       0.21084483      -0.22545814
O        0.28787265       1.76346018      14.95372921  F        1        2       0.45865892      -0.24024617      -0.40979178
O        3.24976236       0.63242506      16.25840413  F        1        2      -0.23157358      -0.55159544       0.07886609
O        0.78931236       3.62919935      13.15069587  F        1        2       0.42060962       0.28970281       0.52726162
O        2.74832265       2.49816423      14.45537079  F        1        2      -0.00195448       0.38554570      -0.74859576
O       -1.07718501       3.13058929      16.75676254  F        1        2      -0.04557705       0.38262049       0.12625780
Si       2.29130020       0.03176528      17.45665835  T        0        1       0.00605425       0.00792088      -0.00426938
Si      -1.18178210       1.67103222      21.12629174  T        0        1      -0.00353676      -0.00955786      -0.00655127
Si       1.28013619       2.28400195      19.28831940  T        0        1      -0.03605677       0.00046344       0.03338426
O        1.34334736       1.20407412      18.04468506  T        1        1       0.01661922       0.01741907       0.00978202
O        0.28410073       1.72091011      20.43780616  T        1        1      -0.00451162       0.00881473       0.03909187
O        3.10097561       0.88205496      21.88517474  T        1        1       0.02463783       0.01838624       0.00049917
O        0.72590448       3.67314705      18.64236485  T        1        1      -0.00427159       0.00347684       0.00500492
O        2.75027599       2.57278082      19.88862058  T        1        1      -0.02131879      -0.00620905       0.02009181
O       -1.27880188       2.12625001      22.68824107  T        1        1      -0.00907579      -0.00791120      -0.03689463
Si       7.23815181       0.00000000      12.00000000  F        0        2      -0.13202735      -0.36543047      -1.68670635
Si       3.76227409       2.00679893      15.60606667  F        0        2      -0.10423550       0.09358723       1.25036324
Si       6.22272410       2.25482548      13.80303333  F        0        2       0.03102020      -0.17020205       1.05478798
O        6.30416499       1.13103512      12.65233746  F        1        2      -0.50365113       0.20789244      -0.23453154
O        5.20877265       1.76346018      14.95372921  F        1        2       0.44026789      -0.24552817      -0.39623216
O        8.17066236       0.63242506      16.25840413  F        1        2      -0.13024268      -0.46669892      -0.02195079
O        5.71021236       3.62919935      13.15069587  F        1        2       0.42145938       0.29240790       0.51863469
O        7.66922265       2.49816423      14.45537079  F        1        2       0.01199096       0.38906926      -0.74952467
O        3.84371499       3.13058929      16.75676254  F        1        2       0.10859594       0.21792138       0.10717974
Si       7.26658490      -0.02027319      17.46555162  T        0        1       0.00096678      -0.01079177      -0.00564230
Si       3.73761682       2.15646774      21.13744930  T        0        1      -0.00441651       0.03102680       0.02466141
Si       6.21177992       2.20609762      19.31298445  T        0        1       0.02465300       0.00015353       0.01823280
O        6.31080898       1.10965664      18.10444460  T        1        1       0.00372941      -0.00144230       0.00312368
O        5.13440604       1.72618990      20.40979697  T        1        1      -0.00689698       0.01897207       0.01230656
O        8.27660236       0.09537265      21.55646773  T        1        1       0.01424534       0.03059490       0.00221614
O        5.79313474       3.60617292      18.58101308  T        1        1      -0.02481661       0.00489324       0.03518592
O        7.65721641       2.35693782      20.04052084  T        1        1       0.01763531      -0.01092527       0.00730107
O        3.94848905       3.43775265      22.18563272  T        1        1      -0.01427302      -0.01292717       0.00633358
F        2.92397342       0.33123435      24.28504615  T        0        0      -0.00728449       0.01385231       0.00614007
H        3.08070485       0.71397003      22.89648400  T        0        0       0.01495583      -0.00603318      -0.00398013
F        3.83400471       1.03972397      26.25917465  T        0        0      -0.01511804      -0.02869684      -0.01689685
H        3.39948369       0.71235175      25.29024370  T        0        0       0.02266598       0.00407871       0.02428855
40
Lattice="9.8418 0.0 0.0 -2.460449999999999 4.261624409482844 0.0 0.0 -0.0 34.16586254" Properties=species:S:1:pos:R:3:move_mask:L:1:spacegroup_kinds:I:1:tags:I:1:forces:R:3 surface=alpha_quartz_001 coadsorbate=HF start=1 calculation_kind="Local coadsorbate relaxation; not a reaction path" host_atoms=36 energy=-283.0264172482672 pbc="T T F"
Si       2.31725181       0.00000000      12.00000000  F        0        2      -0.13262944      -0.36547127      -1.69300304
Si      -1.15862590       2.00679893      15.60606667  F        0        2      -0.13912909       0.02708865       1.29407131
Si       1.30182410       2.25482548      13.80303333  F        0        2       0.03635619      -0.15684205       1.03945305
O        1.38326499       1.13103512      12.65233746  F        1        2      -0.50266419       0.21052773      -0.22587888
O        0.28787265       1.76346018      14.95372921  F        1        2       0.45945794      -0.24004781      -0.41055714
O        3.24976236       0.63242506      16.25840413  F        1        2      -0.23848766      -0.55282475       0.08796289
O        0.78931236       3.62919935      13.15069587  F        1        2       0.42030781       0.28989634       0.52670146
O        2.74832265       2.49816423      14.45537079  F        1        2      -0.00198127       0.38570568      -0.74879949
O       -1.07718501       3.13058929      16.75676254  F        1        2      -0.04301835       0.38672338       0.12906094
Si       2.29150208       0.03160376      17.45726712  T        0        1       0.00723198       0.00354305      -0.01031444
Si      -1.18301364       1.67178768      21.12657584  T        0        1       0.00034501      -0.01925300       0.00374754
Si       1.27923763       2.28278175      19.29011166  T        0        1      -0.02617131       0.00977984       0.01587503
O        1.34276507       1.20314845      18.04599208  T        1        1       0.02328668       0.00921892       0.01256601
O        0.28293667       1.72099189      20.43945911  T        1        1       0.00713548       0.00778952       0.02905083
O        3.10333943       0.88176419      21.88576396  T        1        1       0.02292002       0.01351911      -0.00843325
O        0.72705500       3.67183963      18.64178723  T        1        1      -0.01198865       0.00786478       0.00786056
O        2.74913909       2.57145055      19.89063554  T        1        1      -0.02116500       0.00117364       0.01878257
O       -1.27960143       2.12774281      22.68761564  T        1        1      -0.01151099       0.00571828      -0.01108663
Si       7.23815181       0.00000000      12.00000000  F        0        2      -0.13196724      -0.36527288      -1.68590270
Si       3.76227409       2.00679893      15.60606667  F        0        2      -0.10370122       0.09327114       1.25141884
Si       6.22272410       2.25482548      13.80303333  F        0        2       0.03111764      -0.17015529       1.05591779
O        6.30416499       1.13103512      12.65233746  F        1        2      -0.50334317       0.20749504      -0.23493833
O        5.20877265       1.76346018      14.95372921  F        1        2       0.44022974      -0.24535226      -0.39697188
O        8.17066236       0.63242506      16.25840413  F        1        2      -0.13764455      -0.47628676      -0.00699987
O        5.71021236       3.62919935      13.15069587  F        1        2       0.42104858       0.29264921       0.51793412
O        7.66922265       2.49816423      14.45537079  F        1        2       0.01166521       0.38914337      -0.75050762
O        3.84371499       3.13058929      16.75676254  F        1        2       0.11292665       0.22327902       0.11381043
Si       7.26630571      -0.02019582      17.46634617  T        0        1       0.00380154      -0.00501149      -0.02262307
Si       3.73799232       2.15736283      21.13893308  T        0        1      -0.00914770       0.03474840       0.02017687
Si       6.21180555       2.20601468      19.31325479  T        0        1       0.00974830       0.00744680       0.00399271
O        6.31012604       1.11085673      18.10342440  T        1        1       0.01086457      -0.00866752       0.00628659
O        5.13356156       1.72798516      20.40919010  T        1        1      -0.00006749       0.00759022       0.02161863
O        8.27673216       0.09717851      21.56074524  T        1        1       0.00919797       0.01799570      -0.00433589
O        5.79180945       3.60664174      18.58305654  T        1        1      -0.02557426       0.01629012       0.02251278
O        7.65658999       2.35691426      20.04085880  T        1        1       0.01759133      -0.00564685      -0.00254316
O        3.94861563       3.43839540      22.18746699  T        1        1      -0.01632976      -0.01473143       0.00294576
F        2.92298443       0.33339010      24.28324449  T        0        0      -0.00391680       0.00721382       0.03128035
H        3.08274131       0.71389120      22.89703674  T        0        0       0.01162281      -0.00706663       0.00561637
F        3.83412451       1.03751635      26.25988472  T        0        0      -0.02158598      -0.03813085      -0.02981919
H        3.39919807       0.71108881      25.29033868  T        0        0       0.02516863       0.01508910       0.02407116
40
Lattice="9.8418 0.0 0.0 -2.460449999999999 4.261624409482844 0.0 0.0 -0.0 34.16586254" Properties=species:S:1:pos:R:3:move_mask:L:1:spacegroup_kinds:I:1:tags:I:1:forces:R:3 surface=alpha_quartz_001 coadsorbate=HF start=1 calculation_kind="Local coadsorbate relaxation; not a reaction path" host_atoms=36 energy=-283.02684014856203 pbc="T T F"
Si       2.31725181       0.00000000      12.00000000  F        0        2      -0.13266685      -0.36542183      -1.69297208
Si      -1.15862590       2.00679893      15.60606667  F        0        2      -0.13921150       0.02795131       1.29573844
Si       1.30182410       2.25482548      13.80303333  F        0        2       0.03600805      -0.15699521       1.03931457
O        1.38326499       1.13103512      12.65233746  F        1        2      -0.50257165       0.21053181      -0.22588675
O        0.28787265       1.76346018      14.95372921  F        1        2       0.46000845      -0.24003988      -0.41070080
O        3.24976236       0.63242506      16.25840413  F        1        2      -0.24142583      -0.55162851       0.09153731
O        0.78931236       3.62919935      13.15069587  F        1        2       0.42034367       0.28987822       0.52674507
O        2.74832265       2.49816423      14.45537079  F        1        2      -0.00172500       0.38571923      -0.74824152
O       -1.07718501       3.13058929      16.75676254  F        1        2      -0.04096394       0.38897958       0.12992280
Si       2.29188494       0.03140201      17.45757032  T        0        1       0.00319799      -0.00018998      -0.00837016
Si      -1.18376480       1.67241723      21.12716996  T        0        1       0.00168811      -0.01908135       0.01099378
Si       1.27793145       2.28169204      19.29175426  T        0        1      -0.00811803       0.01583477      -0.00180693
O        1.34259743       1.20193535      18.04763724  T        1        1       0.02371613       0.00459575       0.01235776
O        0.28218024       1.72134755      20.44154489  T        1        1       0.01773645       0.00595379       0.01746877
O        3.10589174       0.88216350      21.88647961  T        1        1       0.01967207       0.00615665      -0.01183957
O        0.72815363       3.67067333      18.64108383  T        1        1      -0.01795407       0.00899734       0.01123297
O        2.74763826       2.56983442      19.89244223  T        1        1      -0.01734285       0.01174854       0.01699900
O       -1.27971075       2.13004683      22.68703807  T        1        1      -0.01433337       0.01949977       0.01712772
Si       7.23815181       0.00000000      12.00000000  F        0        2      -0.13194815      -0.36524060      -1.68579756
Si       3.76227409       2.00679893      15.60606667  F        0        2      -0.10295854       0.09306520       1.25072367
Si       6.22272410       2.25482548      13.80303333  F        0        2       0.03127713      -0.17005119       1.05601848
O        6.30416499       1.13103512      12.65233746  F        1        2      -0.50328760       0.20740863      -0.23492450
O        5.20877265       1.76346018      14.95372921  F        1        2       0.43974494      -0.24531477      -0.39698899
O        8.17066236       0.63242506      16.25840413  F        1        2      -0.13986101      -0.48237692      -0.00097583
O        5.71021236       3.62919935      13.15069587  F        1        2       0.42094298       0.29267620       0.51784210
O        7.66922265       2.49816423      14.45537079  F        1        2       0.01147429       0.38902300      -0.75091572
O        3.84371499       3.13058929      16.75676254  F        1        2       0.11597240       0.22623168       0.11837828
Si       7.26617305      -0.02014791      17.46666585  T        0        1       0.00462362       0.00225091      -0.02356798
Si       3.73816502       2.15908036      21.14024656  T        0        1      -0.00987594       0.02498974       0.00734197
Si       6.21211733       2.20629519      19.31346942  T        0        1      -0.00790212       0.01029235      -0.00689440
O        6.30998864       1.11203425      18.10253546  T        1        1       0.01387220      -0.01031024       0.01040569
O        5.13274859       1.73007728      20.40869857  T        1        1       0.00808099       0.00189013       0.02579380
O        8.27764774       0.09944124      21.56554483  T        1        1       0.00046045      -0.00597567      -0.00735878
O        5.79068504       3.60764493      18.58503846  T        1        1      -0.02318063       0.01873161       0.01128397
O        7.65627269       2.35646425      20.04146919  T        1        1       0.01372912       0.00237969      -0.01517800
O        3.94790870       3.43940962      22.18867660  T        1        1      -0.01530797      -0.00564823       0.00958903
F        2.92283982       0.33639947      24.28274078  T        0        0      -0.00184608       0.00176009       0.04657218
H        3.08510483       0.71459570      22.89757280  T        0        0       0.00881299      -0.00798863       0.01340387
F        3.83332241       1.03225776      26.26267729  T        0        0      -0.01710558      -0.03732304      -0.02487389
H        3.39935354       0.70926467      25.29214991  T        0        0       0.01822467       0.01704005       0.01050223
40
Lattice="9.8418 0.0 0.0 -2.460449999999999 4.261624409482844 0.0 0.0 -0.0 34.16586254" Properties=species:S:1:pos:R:3:move_mask:L:1:spacegroup_kinds:I:1:tags:I:1:forces:R:3 surface=alpha_quartz_001 coadsorbate=HF start=1 calculation_kind="Local coadsorbate relaxation; not a reaction path" host_atoms=36 energy=-283.0272141198033 pbc="T T F"
Si       2.31725181       0.00000000      12.00000000  F        0        2      -0.13274380      -0.36548101      -1.69359752
Si      -1.15862590       2.00679893      15.60606667  F        0        2      -0.13877184       0.02979150       1.29531024
Si       1.30182410       2.25482548      13.80303333  F        0        2       0.03575570      -0.15705907       1.03813130
O        1.38326499       1.13103512      12.65233746  F        1        2      -0.50270643       0.21083547      -0.22546500
O        0.28787265       1.76346018      14.95372921  F        1        2       0.45997393      -0.24029662      -0.40994574
O        3.24976236       0.63242506      16.25840413  F        1        2      -0.24180451      -0.54953659       0.09178076
O        0.78931236       3.62919935      13.15069587  F        1        2       0.42066075       0.28963267       0.52737074
O        2.74832265       2.49816423      14.45537079  F        1        2      -0.00130048       0.38561582      -0.74714070
O       -1.07718501       3.13058929      16.75676254  F        1        2      -0.03979407       0.38899552       0.12929368
Si       2.29239767       0.03108389      17.45767308  T        0        1      -0.00265909      -0.00209560      -0.00258106
Si      -1.18428063       1.67318909      21.12814316  T        0        1       0.00050796      -0.01044890       0.01513126
Si       1.27668035       2.28082853      19.29305719  T        0        1       0.00854192       0.01650023      -0.01173855
O        1.34289457       1.20049904      18.04951899  T        1        1       0.01917783       0.00415669       0.00930173
O        0.28175580       1.72190552      20.44367516  T        1        1       0.02141228       0.00373510       0.00858448
O        3.10854668       0.88241441      21.88725302  T        1        1       0.01513513      -0.00323032      -0.00440175
O        0.72915987       3.66967842      18.64039814  T        1        1      -0.02067553       0.00788533       0.01382906
O        2.74605565       2.56816908      19.89425737  T        1        1      -0.01017090       0.02355504       0.01387546
O       -1.27950800       2.13373866      22.68691575  T        1        1      -0.01646541       0.02689584       0.03266704
Si       7.23815181       0.00000000      12.00000000  F        0        2      -0.13199675      -0.36532599      -1.68643337
Si       3.76227409       2.00679893      15.60606667  F        0        2      -0.10238403       0.09291126       1.24876691
Si       6.22272410       2.25482548      13.80303333  F        0        2       0.03126615      -0.16995866       1.05495111
O        6.30416499       1.13103512      12.65233746  F        1        2      -0.50345263       0.20766014      -0.23446163
O        5.20877265       1.76346018      14.95372921  F        1        2       0.43909198      -0.24538978      -0.39636218
O        8.17066236       0.63242506      16.25840413  F        1        2      -0.13754154      -0.48482063      -0.00238302
O        5.71021236       3.62919935      13.15069587  F        1        2       0.42118664       0.29248648       0.51842296
O        7.66922265       2.49816423      14.45537079  F        1        2       0.01160655       0.38869234      -0.75042956
O        3.84371499       3.13058929      16.75676254  F        1        2       0.11760246       0.22752736       0.12054475
Si       7.26611628      -0.02001839      17.46653562  T        0        1       0.00176709       0.00778818      -0.01238487
Si       3.73818641       2.16080723      21.14144824  T        0        1      -0.00599845       0.00858371      -0.00566023
Si       6.21225312       2.20682694      19.31352891  T        0        1      -0.01825787       0.00996121      -0.00953406
O        6.31021905       1.11301039      18.10192366  T        1        1       0.01114823      -0.00592150       0.01332966
O        5.13227539       1.73192702      20.40873323  T        1        1       0.01441089       0.00169510       0.02434062
O        8.27850636       0.10196326      21.57070561  T        1        1      -0.00745022      -0.02703465      -0.00864435
O        5.78936848       3.60896662      18.58691035  T        1        1      -0.01720738       0.01307889       0.00285531
O        7.65613940       2.35613801      20.04193196  T        1        1       0.00898222       0.00722686      -0.02342049
O        3.94674730       3.43989836      22.19007799  T        1        1      -0.01301397       0.00778552       0.01932695
F        2.92262712       0.33948955      24.28372571  T        0        0      -0.00256883      -0.00232647       0.04336508
H        3.08735643       0.71531163      22.89828411  T        0        0       0.00643509      -0.00776990       0.01378313
F        3.83220635       1.02560837      26.26599443  T        0        0      -0.00315414      -0.02753922      -0.00360263
H        3.39966734       0.70747557      25.29460527  T        0        0       0.00545508       0.01123865      -0.00677553
40
Lattice="9.8418 0.0 0.0 -2.460449999999999 4.261624409482844 0.0 0.0 -0.0 34.16586254" Properties=species:S:1:pos:R:3:move_mask:L:1:spacegroup_kinds:I:1:tags:I:1:forces:R:3 surface=alpha_quartz_001 coadsorbate=HF start=1 calculation_kind="Local coadsorbate relaxation; not a reaction path" host_atoms=36 energy=-283.0275836337749 pbc="T T F"
Si       2.31725181       0.00000000      12.00000000  F        0        2      -0.13283073      -0.36560295      -1.69460757
Si      -1.15862590       2.00679893      15.60606667  F        0        2      -0.13783032       0.03224951       1.29321360
Si       1.30182410       2.25482548      13.80303333  F        0        2       0.03570893      -0.15697265       1.03629112
O        1.38326499       1.13103512      12.65233746  F        1        2      -0.50298275       0.21130519      -0.22476494
O        0.28787265       1.76346018      14.95372921  F        1        2       0.45937021      -0.24073705      -0.40855256
O        3.24976236       0.63242506      16.25840413  F        1        2      -0.24161154      -0.54791467       0.09123546
O        0.78931236       3.62919935      13.15069587  F        1        2       0.42110530       0.28925107       0.52833085
O        2.74832265       2.49816423      14.45537079  F        1        2      -0.00084373       0.38547266      -0.74586132
O       -1.07718501       3.13058929      16.75676254  F        1        2      -0.03965334       0.38840851       0.12836723
Si       2.29274624       0.03086376      17.45766008  T        0        1      -0.00714671      -0.00250274       0.00310615
Si      -1.18441479       1.67403909      21.12941575  T        0        1      -0.00127280       0.00330537       0.01480940
Si       1.27574766       2.28047712      19.29384302  T        0        1       0.01914817       0.01281538      -0.01184384
O        1.34334654       1.19944429      18.05109464  T        1        1       0.01222994       0.00601254       0.00491068
O        0.28197436       1.72272240      20.44577423  T        1        1       0.01711674       0.00133667       0.00304197
O        3.11100275       0.88289665      21.88827994  T        1        1       0.01033697      -0.01143913       0.00176977
O        0.72966605       3.66915995      18.64000932  T        1        1      -0.02026590       0.00572190       0.01518080
O        2.74483920       2.56694649      19.89558365  T        1        1      -0.00109645       0.03310244       0.01111730
O       -1.27892701       2.13827682      22.68731638  T        1        1      -0.01784459       0.02703540       0.03335934
Si       7.23815181       0.00000000      12.00000000  F        0        2      -0.13210396      -0.36547636      -1.68754033
Si       3.76227409       2.00679893      15.60606667  F        0        2      -0.10212904       0.09294035       1.24618704
Si       6.22272410       2.25482548      13.80303333  F        0        2       0.03100934      -0.16993250       1.05306654
O        6.30416499       1.13103512      12.65233746  F        1        2      -0.50373576       0.20814698      -0.23370701
O        5.20877265       1.76346018      14.95372921  F        1        2       0.43851073      -0.24554570      -0.39529749
O        8.17066236       0.63242506      16.25840413  F        1        2      -0.13343884      -0.48567235      -0.00609232
O        5.71021236       3.62919935      13.15069587  F        1        2       0.42168358       0.29214391       0.51945319
O        7.66922265       2.49816423      14.45537079  F        1        2       0.01205211       0.38821686      -0.74919418
O        3.84371499       3.13058929      16.75676254  F        1        2       0.11868813       0.22810105       0.12095715
Si       7.26619771      -0.01994371      17.46622869  T        0        1      -0.00413388       0.01110888       0.00379890
Si       3.73810894       2.16255598      21.14234304  T        0        1      -0.00004586      -0.00921133      -0.01125777
Si       6.21233269       2.20734854      19.31364318  T        0        1      -0.01894456       0.00871996      -0.00439689
O        6.31077490       1.11347137      18.10195876  T        1        1       0.00365402       0.00271690       0.01393100
O        5.13242195       1.73367058      20.40968042  T        1        1       0.01749542       0.00398557       0.01921578
O        8.27943180       0.10429059      21.57570541  T        1        1      -0.01367905      -0.03833453      -0.00918573
O        5.78783278       3.61010544      18.58872004  T        1        1      -0.00783783       0.00352587      -0.00429580
O        7.65647985       2.35616818      20.04204781  T        1        1       0.00515361       0.00587247      -0.02401542
O        3.94504999       3.44010352      22.19177561  T        1        1      -0.00937240       0.02043918       0.02712280
F        2.92258305       0.34268922      24.28630430  T        0        0      -0.00365122      -0.00395504       0.02803234
H        3.08946421       0.71603308      22.89898204  T        0        0       0.00462917      -0.00595206       0.01348613
F        3.83087441       1.01745835      26.27089684  T        0        0       0.01363632      -0.01401606       0.01843958
H        3.40020520       0.70554046      25.29792961  T        0        0      -0.00907743       0.00133051      -0.01781095
40
Lattice="9.8418 0.0 0.0 -2.460449999999999 4.261624409482844 0.0 0.0 -0.0 34.16586254" Properties=species:S:1:pos:R:3:move_mask:L:1:spacegroup_kinds:I:1:tags:I:1:forces:R:3 surface=alpha_quartz_001 coadsorbate=HF start=1 calculation_kind="Local coadsorbate relaxation; not a reaction path" host_atoms=36 energy=-283.02796023374657 pbc="T T F"
Si       2.31725181       0.00000000      12.00000000  F        0        2      -0.13290196      -0.36572733      -1.69567821
Si      -1.15862590       2.00679893      15.60606667  F        0        2      -0.13653781       0.03506673       1.29006251
Si       1.30182410       2.25482548      13.80303333  F        0        2       0.03593575      -0.15672184       1.03420129
O        1.38326499       1.13103512      12.65233746  F        1        2      -0.50329562       0.21179501      -0.22396943
O        0.28787265       1.76346018      14.95372921  F        1        2       0.45833547      -0.24127633      -0.40676271
O        3.24976236       0.63242506      16.25840413  F        1        2      -0.24302979      -0.54830042       0.09315858
O        0.78931236       3.62919935      13.15069587  F        1        2       0.42152425       0.28882288       0.52935455
O        2.74832265       2.49816423      14.45537079  F        1        2      -0.00045947       0.38533539      -0.74470132
O       -1.07718501       3.13058929      16.75676254  F        1        2      -0.03994320       0.38896049       0.12858657
Si       2.29288700       0.03073862      17.45772462  T        0        1      -0.00805914      -0.00154481       0.00571187
Si      -1.18461302       1.67510172      21.13092933  T        0        1      -0.00197031       0.01531196       0.01230617
Si       1.27521330       2.28054293      19.29450106  T        0        1       0.02139159       0.00718928      -0.00314739
O        1.34394453       1.19894580      18.05242818  T        1        1       0.00528565       0.00824016       0.00105690
O        0.28251818       1.72369463      20.44797340  T        1        1       0.00662663      -0.00121828       0.00017329
O        3.11356473       0.88298698      21.88950399  T        1        1       0.00553951      -0.01836814       0.00894724
O        0.72964695       3.66898410      18.64008177  T        1        1      -0.01749034       0.00333579       0.01505068
O        2.74397093       2.56650483      19.89698792  T        1        1       0.00860020       0.03839710       0.00929377
O       -1.27871139       2.14354936      22.68817547  T        1        1      -0.01848038       0.01964811       0.01963394
Si       7.23815181       0.00000000      12.00000000  F        0        2      -0.13224840      -0.36563001      -1.68877866
Si       3.76227409       2.00679893      15.60606667  F        0        2      -0.10222298       0.09321864       1.24381103
Si       6.22272410       2.25482548      13.80303333  F        0        2       0.03048107      -0.16997374       1.05083572
O        6.30416499       1.13103512      12.65233746  F        1        2      -0.50400819       0.20871865      -0.23284632
O        5.20877265       1.76346018      14.95372921  F        1        2       0.43815100      -0.24572872      -0.39410657
O        8.17066236       0.63242506      16.25840413  F        1        2      -0.13106604      -0.48747129      -0.00615980
O        5.71021236       3.62919935      13.15069587  F        1        2       0.42227875       0.29174750       0.52064155
O        7.66922265       2.49816423      14.45537079  F        1        2       0.01275295       0.38770309      -0.74750609
O        3.84371499       3.13058929      16.75676254  F        1        2       0.11980422       0.22968731       0.12102495
Si       7.26622544      -0.01983073      17.46602712  T        0        1      -0.01135256       0.01213753       0.01664509
Si       3.73806212       2.16395003      21.14328566  T        0        1       0.00636503      -0.02032725      -0.00605242
Si       6.21220609       2.20780275      19.31390324  T        0        1      -0.01052296       0.00850125       0.00574072
O        6.31129088       1.11360624      18.10254855  T        1        1      -0.00648856       0.01253614       0.01122293
O        5.13321280       1.73534729      20.41161263  T        1        1       0.01596396       0.00624806       0.01335882
O        8.27983892       0.10623264      21.58045127  T        1        1      -0.01623401      -0.03279925      -0.01088150
O        5.78567674       3.61093646      18.59075847  T        1        1       0.00411337      -0.00525812      -0.01185949
O        7.65719598       2.35672232      20.04155666  T        1        1       0.00338946      -0.00182697      -0.01628206
O        3.94317166       3.43976211      22.19461949  T        1        1      -0.00574164       0.02553222       0.02615006
F        2.92189762       0.34555487      24.28976857  T        0        0      -0.00501561      -0.00412595       0.00364393
H        3.09144508       0.71615111      22.89989541  T        0        0       0.00266883      -0.00201273       0.00959649
F        3.83002113       1.00946688      26.27586351  T        0        0       0.02835008      -0.00148948       0.03394419
H        3.40067922       0.70382703      25.30102391  T        0        0      -0.02048882      -0.00833264      -0.01542087
40
Lattice="9.8418 0.0 0.0 -2.460449999999999 4.261624409482844 0.0 0.0 -0.0 34.16586254" Properties=species:S:1:pos:R:3:move_mask:L:1:spacegroup_kinds:I:1:tags:I:1:forces:R:3 surface=alpha_quartz_001 coadsorbate=HF start=1 calculation_kind="Local coadsorbate relaxation; not a reaction path" host_atoms=36 energy=-283.02830499536196 pbc="T T F"
Si       2.31725181       0.00000000      12.00000000  F        0        2      -0.13293479      -0.36579827      -1.69639654
Si      -1.15862590       2.00679893      15.60606667  F        0        2      -0.13547565       0.03720123       1.28725696
Si       1.30182410       2.25482548      13.80303333  F        0        2       0.03631383      -0.15639102       1.03260341
O        1.38326499       1.13103512      12.65233746  F        1        2      -0.50350710       0.21211954      -0.22336706
O        0.28787265       1.76346018      14.95372921  F        1        2       0.45732145      -0.24170594      -0.40524749
O        3.24976236       0.63242506      16.25840413  F        1        2      -0.24643841      -0.55104527       0.09809371
O        0.78931236       3.62919935      13.15069587  F        1        2       0.42175646       0.28850615       0.53006249
O        2.74832265       2.49816423      14.45537079  F        1        2      -0.00025889       0.38523844      -0.74402771
O       -1.07718501       3.13058929      16.75676254  F        1        2      -0.04026439       0.39197600       0.13054983
Si       2.29269998       0.03083705      17.45789153  T        0        1      -0.00502785       0.00015642       0.00513536
Si      -1.18483045       1.67609938      21.13237694  T        0        1      -0.00007398       0.01998531       0.00710239
Si       1.27515391       2.28108786      19.29511369  T        0        1       0.01644788       0.00273250       0.00963231
O        1.34450084       1.19938468      18.05316516  T        1        1       0.00100435       0.00931027      -0.00006573
O        0.28330495       1.72463438      20.45004159  T        1        1      -0.00448556      -0.00340782      -0.00120626
O        3.11581529       0.88283625      21.89079642  T        1        1       0.00222742      -0.02063366       0.00781636
O        0.72888571       3.66925049      18.64076727  T        1        1      -0.01329809       0.00107204       0.01358618
O        2.74371151       2.56732967      19.89819900  T        1        1       0.01526801       0.03598850       0.01026339
O       -1.27909344       2.14811839      22.68916806  T        1        1      -0.01859090       0.00832590       0.00048707
Si       7.23815181       0.00000000      12.00000000  F        0        2      -0.13237233      -0.36571858      -1.68964324
Si       3.76227409       2.00679893      15.60606667  F        0        2      -0.10245842       0.09396238       1.24247276
Si       6.22272410       2.25482548      13.80303333  F        0        2       0.02989550      -0.17004058       1.04910328
O        6.30416499       1.13103512      12.65233746  F        1        2      -0.50414718       0.20914912      -0.23219907
O        5.20877265       1.76346018      14.95372921  F        1        2       0.43806078      -0.24590618      -0.39317271
O        8.17066236       0.63242506      16.25840413  F        1        2      -0.13321404      -0.49128994       0.00070576
O        5.71021236       3.62919935      13.15069587  F        1        2       0.42272755       0.29144061       0.52151516
O        7.66922265       2.49816423      14.45537079  F        1        2       0.01343962       0.38735743      -0.74606261
O        3.84371499       3.13058929      16.75676254  F        1        2       0.12103476       0.23284711       0.12170450
Si       7.26611096      -0.01970245      17.46615621  T        0        1      -0.01608073       0.01162123       0.01983074
Si       3.73811198       2.16489388      21.14421000  T        0        1       0.00982168      -0.02055031       0.00836846
Si       6.21209704       2.20812633      19.31444588  T        0        1       0.00135555       0.00962164       0.01526646
O        6.31154970       1.11349618      18.10362492  T        1        1      -0.01526875       0.01910393       0.00585630
O        5.13450935       1.73694604      20.41421524  T        1        1       0.01058509       0.00671058       0.00938393
O        8.27977542       0.10723989      21.58373861  T        1        1      -0.01532796      -0.01261233      -0.01306291
O        5.78340316       3.61119810      18.59265325  T        1        1       0.01534776      -0.00882429      -0.01911649
O        7.65832024       2.35752827      20.04054825  T        1        1       0.00320443      -0.01229671      -0.00356152
O        3.94136311       3.43932966      22.19807205  T        1        1      -0.00217684       0.02077171       0.01576893
F        2.92084964       0.34766297      24.29317806  T        0        0      -0.00488109      -0.00260003      -0.01635279
H        3.09306142       0.71575033      22.90076115  T        0        0       0.00078718       0.00278426       0.00816935
F        3.82998081       1.00305740      26.28043405  T        0        0       0.03379275       0.00447111       0.03186273
H        3.40095519       0.70244515      25.30354461  T        0        0      -0.02410910      -0.01363247       0.00088432
40
Lattice="9.8418 0.0 0.0 -2.460449999999999 4.261624409482844 0.0 0.0 -0.0 34.16586254" Properties=species:S:1:pos:R:3:move_mask:L:1:spacegroup_kinds:I:1:tags:I:1:forces:R:3 surface=alpha_quartz_001 coadsorbate=HF start=1 calculation_kind="Local coadsorbate relaxation; not a reaction path" host_atoms=36 energy=-283.02860804904964 pbc="T T F"
Si       2.31725181       0.00000000      12.00000000  F        0        2      -0.13293335      -0.36579081      -1.69657839
Si      -1.15862590       2.00679893      15.60606667  F        0        2      -0.13508782       0.03827807       1.28576692
Si       1.30182410       2.25482548      13.80303333  F        0        2       0.03666250      -0.15611468       1.03185793
O        1.38326499       1.13103512      12.65233746  F        1        2      -0.50355144       0.21220785      -0.22311195
O        0.28787265       1.76346018      14.95372921  F        1        2       0.45673715      -0.24193184      -0.40436446
O        3.24976236       0.63242506      16.25840413  F        1        2      -0.25127799      -0.55555247       0.10554219
O        0.78931236       3.62919935      13.15069587  F        1        2       0.42176908       0.28836734       0.53029537
O        2.74832265       2.49816423      14.45537079  F        1        2      -0.00024645       0.38515341      -0.74389169
O       -1.07718501       3.13058929      16.75676254  F        1        2      -0.03978461       0.39731397       0.13398256
Si       2.29241334       0.03100054      17.45820187  T        0        1      -0.00029880       0.00202546       0.00333797
Si      -1.18533577       1.67699712      21.13357950  T        0        1       0.00366231       0.01552477       0.00194050
Si       1.27539068       2.28173974      19.29609640  T        0        1       0.00897152       0.00136586       0.01969319
O        1.34513087       1.20032523      18.05373498  T        1        1       0.00021561       0.00904140       0.00183736
O        0.28379543       1.72527873      20.45189492  T        1        1      -0.01070276      -0.00497502      -0.00239172
O        3.11792088       0.88193102      21.89185383  T        1        1       0.00061564      -0.01913147       0.00491190
O        0.72776352       3.66954622      18.64185848  T        1        1      -0.00886294      -0.00090932       0.01135680
O        2.74373718       2.56917857      19.89982728  T        1        1       0.01723763       0.02745251       0.01280762
O       -1.28052636       2.15155342      22.68994743  T        1        1      -0.01822477      -0.00270439      -0.01503850
Si       7.23815181       0.00000000      12.00000000  F        0        2      -0.13243259      -0.36571547      -1.68987629
Si       3.76227409       2.00679893      15.60606667  F        0        2      -0.10249868       0.09519651       1.24255740
Si       6.22272410       2.25482548      13.80303333  F        0        2       0.02948337      -0.17005225       1.04838204
O        6.30416499       1.13103512      12.65233746  F        1        2      -0.50410651       0.20929740      -0.23193738
O        5.20877265       1.76346018      14.95372921  F        1        2       0.43811069      -0.24605582      -0.39276509
O        8.17066236       0.63242506      16.25840413  F        1        2      -0.14008105      -0.49651253       0.01330275
O        5.71021236       3.62919935      13.15069587  F        1        2       0.42287004       0.29131962       0.52181114
O        7.66922265       2.49816423      14.45537079  F        1        2       0.01387525       0.38729457      -0.74539273
O        3.84371499       3.13058929      16.75676254  F        1        2       0.12210754       0.23811681       0.12401296
Si       7.26566524      -0.01937075      17.46660274  T        0        1      -0.01596265       0.01006573       0.01288577
Si       3.73831498       2.16520114      21.14545732  T        0        1       0.00954729      -0.01080363       0.02326927
Si       6.21194427       2.20852341      19.31517227  T        0        1       0.01019099       0.01096049       0.01877551
O        6.31128524       1.11367654      18.10462080  T        1        1      -0.01961353       0.01935061      -0.00041002
O        5.13582212       1.73835577      20.41677408  T        1        1       0.00377707       0.00579442       0.00839793
O        8.27897780       0.10753579      21.58548819  T        1        1      -0.01173837       0.01349015      -0.01494760
O        5.78133734       3.61121439      18.59415474  T        1        1       0.02263931      -0.00626777      -0.02441439
O        7.65942457       2.35818527      20.03929212  T        1        1       0.00335940      -0.01967500       0.00817913
O        3.94005757       3.43884181      22.20182179  T        1        1       0.00055390       0.00881923       0.00003595
F        2.91916079       0.34867723      24.29538421  T        0        0      -0.00445336      -0.00100322      -0.02623113
H        3.09423960       0.71476726      22.90167920  T        0        0      -0.00130174       0.00686099       0.00600100
F        3.83107741       0.99973288      26.28275855  T        0        0       0.03001688       0.00333749       0.01870934
H        3.40074142       0.70168694      25.30471017  T        0        0      -0.01924374      -0.01343896       0.02170083
40
Lattice="9.8418 0.0 0.0 -2.460449999999999 4.261624409482844 0.0 0.0 -0.0 34.16586254" Properties=species:S:1:pos:R:3:move_mask:L:1:spacegroup_kinds:I:1:tags:I:1:forces:R:3 surface=alpha_quartz_001 coadsorbate=HF start=1 calculation_kind="Local coadsorbate relaxation; not a reaction path" host_atoms=36 energy=-283.02891712634846 pbc="T T F"
Si       2.31725181       0.00000000      12.00000000  F        0        2      -0.13292025      -0.36572530      -1.69634640
Si      -1.15862590       2.00679893      15.60606667  F        0        2      -0.13548512       0.03844269       1.28569864
Si       1.30182410       2.25482548      13.80303333  F        0        2       0.03685059      -0.15595495       1.03182204
O        1.38326499       1.13103512      12.65233746  F        1        2      -0.50345533       0.21212221      -0.22314630
O        0.28787265       1.76346018      14.95372921  F        1        2       0.45669528      -0.24198863      -0.40408078
O        3.24976236       0.63242506      16.25840413  F        1        2      -0.25674912      -0.56097168       0.11438018
O        0.78931236       3.62919935      13.15069587  F        1        2       0.42164282       0.28837315       0.53016270
O        2.74832265       2.49816423      14.45537079  F        1        2      -0.00035162       0.38503017      -0.74410344
O       -1.07718501       3.13058929      16.75676254  F        1        2      -0.03824323       0.40464529       0.13827778
Si       2.29212848       0.03118933      17.45860581  T        0        1       0.00394580       0.00349753       0.00276566
Si      -1.18589285       1.67789776      21.13470329  T        0        1       0.00801954       0.00608931      -0.00385606
Si       1.27579028       2.28243165      19.29755608  T        0        1       0.00293507       0.00237143       0.02432798
O        1.34589222       1.20148410      18.05444685  T        1        1       0.00204260       0.00821217       0.00554379
O        0.28406346       1.72568772      20.45370902  T        1        1      -0.01050349      -0.00597439      -0.00403086
O        3.12010548       0.88053461      21.89282500  T        1        1       0.00058897      -0.01348254      -0.00273890
O        0.72638831       3.66974037      18.64323428  T        1        1      -0.00403575      -0.00274111       0.00861558
O        2.74391534       2.57179070      19.90196349  T        1        1       0.01454649       0.01448826       0.01587004
O       -1.28270888       2.15439063      22.69043994  T        1        1      -0.01741740      -0.01112107      -0.02223817
Si       7.23815181       0.00000000      12.00000000  F        0        2      -0.13242511      -0.36564113      -1.68956929
Si       3.76227409       2.00679893      15.60606667  F        0        2      -0.10207098       0.09709744       1.24372485
Si       6.22272410       2.25482548      13.80303333  F        0        2       0.02936380      -0.16996188       1.04858425
O        6.30416499       1.13103512      12.65233746  F        1        2      -0.50393594       0.20919207      -0.23201386
O        5.20877265       1.76346018      14.95372921  F        1        2       0.43812142      -0.24622787      -0.39278314
O        8.17066236       0.63242506      16.25840413  F        1        2      -0.15031084      -0.50178459       0.02852855
O        5.71021236       3.62919935      13.15069587  F        1        2       0.42272564       0.29136230       0.52159485
O        7.66922265       2.49816423      14.45537079  F        1        2       0.01399483       0.38749392      -0.74555418
O        3.84371499       3.13058929      16.75676254  F        1        2       0.12297707       0.24567352       0.12829951
Si       7.26488992      -0.01876809      17.46724859  T        0        1      -0.01092976       0.00767450       0.00051549
Si       3.73864867       2.16528763      21.14717678  T        0        1       0.00592779       0.00238216       0.03272149
Si       6.21188612       2.20920712      19.31613249  T        0        1       0.01281793       0.01067903       0.01486847
O        6.31060700       1.11435779      18.10544443  T        1        1      -0.01942930       0.01329121      -0.00620529
O        5.13702626       1.73986935      20.41923825  T        1        1      -0.00201507       0.00506463       0.00858921
O        8.27785333       0.10771950      21.58637484  T        1        1      -0.00786599       0.03580827      -0.01492679
O        5.77978042       3.61125001      18.59510470  T        1        1       0.02548263       0.00019325      -0.02636904
O        7.66051774       2.35837417      20.03809150  T        1        1       0.00219607      -0.02080534       0.01552175
O        3.93890382       3.43873233      22.20542233  T        1        1       0.00368331      -0.00438576      -0.01411559
F        2.91732401       0.34934199      24.29676360  T        0        0      -0.00348840       0.00105334      -0.02260751
H        3.09527897       0.71376758      22.90260516  T        0        0      -0.00357954       0.00893009       0.00685295
F        3.83294425       0.99752519      26.28435860  T        0        0       0.01884157      -0.00272691      -0.00192408
H        3.40009939       0.70092655      25.30570612  T        0        0      -0.00818698      -0.00967478       0.03934393
40
Lattice="9.8418 0.0 0.0 -2.460449999999999 4.261624409482844 0.0 0.0 -0.0 34.16586254" Properties=species:S:1:pos:R:3:move_mask:L:1:spacegroup_kinds:I:1:tags:I:1:forces:R:3 surface=alpha_quartz_001 coadsorbate=HF start=1 calculation_kind="Local coadsorbate relaxation; not a reaction path" host_atoms=36 energy=-283.0292573708321 pbc="T T F"
Si       2.31725181       0.00000000      12.00000000  F        0        2      -0.13291723      -0.36561824      -1.69585550
Si      -1.15862590       2.00679893      15.60606667  F        0        2      -0.13651236       0.03839268       1.28675031
Si       1.30182410       2.25482548      13.80303333  F        0        2       0.03683634      -0.15594138       1.03220855
O        1.38326499       1.13103512      12.65233746  F        1        2      -0.50326111       0.21194173      -0.22337164
O        0.28787265       1.76346018      14.95372921  F        1        2       0.45715556      -0.24199648      -0.40413430
O        3.24976236       0.63242506      16.25840413  F        1        2      -0.26294365      -0.56702685       0.12494363
O        0.78931236       3.62919935      13.15069587  F        1        2       0.42146419       0.28845597       0.52981812
O        2.74832265       2.49816423      14.45537079  F        1        2      -0.00050089       0.38482619      -0.74444701
O       -1.07718501       3.13058929      16.75676254  F        1        2      -0.03499439       0.41372380       0.14331910
Si       2.29206329       0.03123040      17.45917178  T        0        1       0.00610712       0.00419849       0.00406984
Si      -1.18657205       1.67918902      21.13599377  T        0        1       0.01099554      -0.00418339      -0.00884799
Si       1.27626556       2.28293141      19.29982555  T        0        1       0.00028592       0.00451722       0.02190103
O        1.34700035       1.20231712      18.05597416  T        1        1       0.00571444       0.00747756       0.00924366
O        0.28393609       1.72589236      20.45572842  T        1        1      -0.00426990      -0.00655213      -0.00571482
O        3.12298164       0.87822680      21.89382663  T        1        1       0.00131650      -0.00565532      -0.00745877
O        0.72512070       3.66946506      18.64471430  T        1        1       0.00143146      -0.00406643       0.00547535
O        2.74392593       2.57470174      19.90533514  T        1        1       0.00829067       0.00038916       0.01689042
O       -1.28573940       2.15791316      22.69066400  T        1        1      -0.01575940      -0.01630681      -0.02089254
Si       7.23815181       0.00000000      12.00000000  F        0        2      -0.13236339      -0.36552072      -1.68889964
Si       3.76227409       2.00679893      15.60606667  F        0        2      -0.10105300       0.09963182       1.24570329
Si       6.22272410       2.25482548      13.80303333  F        0        2       0.02955166      -0.16973668       1.04945028
O        6.30416499       1.13103512      12.65233746  F        1        2      -0.50368405       0.20889217      -0.23231966
O        5.20877265       1.76346018      14.95372921  F        1        2       0.43797421      -0.24644570      -0.39313801
O        8.17066236       0.63242506      16.25840413  F        1        2      -0.16237399      -0.50572459       0.04330101
O        5.71021236       3.62919935      13.15069587  F        1        2       0.42235085       0.29153502       0.52102138
O        7.66922265       2.49816423      14.45537079  F        1        2       0.01381906       0.38788187      -0.74642358
O        3.84371499       3.13058929      16.75676254  F        1        2       0.12359447       0.25621084       0.13505675
Si       7.26369161      -0.01769681      17.46793551  T        0        1      -0.00205610       0.00379298      -0.01257969
Si       3.73912834       2.16522790      21.14983918  T        0        1       0.00102416       0.01408123       0.03188644
Si       6.21176434       2.21044978      19.31726328  T        0        1       0.00886008       0.00747585       0.00353354
O        6.30945810       1.11589796      18.10583319  T        1        1      -0.01522333       0.00158502      -0.01044207
O        5.13800593       1.74168539      20.42163073  T        1        1      -0.00527665       0.00623523       0.00792064
O        8.27627361       0.10876492      21.58769264  T        1        1      -0.00478841       0.04750026      -0.01270944
O        5.77865074       3.61174978      18.59555158  T        1        1       0.02384255       0.00778612      -0.02376505
O        7.66138036       2.35799761      20.03710639  T        1        1      -0.00103970      -0.01381155       0.01625723
O        3.93776735       3.43880516      22.20920107  T        1        1       0.00733213      -0.01443556      -0.02206610
F        2.91507380       0.35024394      24.29763991  T        0        0      -0.00394865       0.00253777      -0.00947784
H        3.09646547       0.71283765      22.90389440  T        0        0      -0.00640976       0.00854922       0.00649553
F        3.83551453       0.99510203      26.28543246  T        0        0       0.00498718      -0.01011004      -0.01911088
H        3.39891997       0.69982733      25.30705036  T        0        0       0.00644187      -0.00448633       0.04640841
40
Lattice="9.8418 0.0 0.0 -2.460449999999999 4.261624409482844 0.0 0.0 -0.0 34.16586254" Properties=species:S:1:pos:R:3:move_mask:L:1:spacegroup_kinds:I:1:tags:I:1:forces:R:3 surface=alpha_quartz_001 coadsorbate=HF start=1 calculation_kind="Local coadsorbate relaxation; not a reaction path" host_atoms=36 energy=-283.0295747588539 pbc="T T F"
Si       2.31725181       0.00000000      12.00000000  F        0        2      -0.13293724      -0.36551359      -1.69535706
Si      -1.15862590       2.00679893      15.60606667  F        0        2      -0.13766870       0.03872105       1.28829909
Si       1.30182410       2.25482548      13.80303333  F        0        2       0.03662026      -0.15606185       1.03270801
O        1.38326499       1.13103512      12.65233746  F        1        2      -0.50305277       0.21177148      -0.22364464
O        0.28787265       1.76346018      14.95372921  F        1        2       0.45788758      -0.24206601      -0.40430543
O        3.24976236       0.63242506      16.25840413  F        1        2      -0.26867093      -0.57223351       0.13505598
O        0.78931236       3.62919935      13.15069587  F        1        2       0.42133452       0.28854748       0.52946282
O        2.74832265       2.49816423      14.45537079  F        1        2      -0.00061501       0.38458607      -0.74471365
O       -1.07718501       3.13058929      16.75676254  F        1        2      -0.03045868       0.42290431       0.14824943
Si       2.29223214       0.03114549      17.45978797  T        0        1       0.00522867       0.00330628       0.00651910
Si      -1.18688706       1.68076054      21.13731974  T        0        1       0.01019004      -0.00799975      -0.01286338
Si       1.27675142       2.28322465      19.30236953  T        0        1       0.00199318       0.00564155       0.01294311
O        1.34823272       1.20257563      18.05813847  T        1        1       0.00980890       0.00699013       0.01030436
O        0.28373146       1.72597077      20.45762417  T        1        1       0.00492392      -0.00655555      -0.00622478
O        3.12606033       0.87587994      21.89488823  T        1        1       0.00227614       0.00251699      -0.01070696
O        0.72425772       3.66879754      18.64595124  T        1        1       0.00659077      -0.00393626       0.00245721
O        2.74380007       2.57704565      19.90913328  T        1        1       0.00088899      -0.00979987       0.01453626
O       -1.28860163       2.16198358      22.69063243  T        1        1      -0.01321460      -0.01647529      -0.01171712
Si       7.23815181       0.00000000      12.00000000  F        0        2      -0.13228156      -0.36540612      -1.68820319
Si       3.76227409       2.00679893      15.60606667  F        0        2      -0.09970243       0.10213932       1.24768721
Si       6.22272410       2.25482548      13.80303333  F        0        2       0.02997938      -0.16944033       1.05049035
O        6.30416499       1.13103512      12.65233746  F        1        2      -0.50346068       0.20854220      -0.23268058
O        5.20877265       1.76346018      14.95372921  F        1        2       0.43767435      -0.24667957      -0.39361090
O        8.17066236       0.63242506      16.25840413  F        1        2      -0.17194536      -0.50602397       0.05136975
O        5.71021236       3.62919935      13.15069587  F        1        2       0.42191203       0.29175111       0.52038893
O        7.66922265       2.49816423      14.45537079  F        1        2       0.01343490       0.38828161      -0.74760383
O        3.84371499       3.13058929      16.75676254  F        1        2       0.12397316       0.26725359       0.14263029
Si       7.26242885      -0.01639716      17.46837017  T        0        1       0.00703466      -0.00104507      -0.01877473
Si       3.73961217       2.16542144      21.15292548  T        0        1      -0.00234594       0.01664056       0.01964648
Si       6.21167477       2.21206940      19.31831683  T        0        1       0.00028418       0.00123535      -0.01104119
O        6.30820667       1.11787955      18.10578512  T        1        1      -0.00879758      -0.01154491      -0.01108159
O        5.13864597       1.74376349      20.42368954  T        1        1      -0.00425571       0.00997480       0.00401667
O        8.27492812       0.11104470      21.58985358  T        1        1      -0.00482058       0.03987473      -0.00804437
O        5.77841243       3.61274762      18.59527119  T        1        1       0.01852609       0.01201443      -0.01623458
O        7.66191070       2.35707926      20.03671518  T        1        1      -0.00607086      -0.00024703       0.00923179
O        3.93654070       3.43931526      22.21214582  T        1        1       0.01152071      -0.01497933      -0.01743897
F        2.91337920       0.35202072      24.29867934  T        0        0      -0.00574026       0.00351231       0.00902934
H        3.09777891       0.71269611      22.90527015  T        0        0      -0.00894968       0.00534072       0.00778241
F        3.83779818       0.99066199      26.28763533  T        0        0      -0.00538179      -0.01431888      -0.02541102
H        3.39765135       0.69793489      25.30981771  T        0        0       0.01828792      -0.00121918       0.03684937
40
Lattice="9.8418 0.0 0.0 -2.460449999999999 4.261624409482844 0.0 0.0 -0.0 34.16586254" Properties=species:S:1:pos:R:3:move_mask:L:1:spacegroup_kinds:I:1:tags:I:1:forces:R:3 surface=alpha_quartz_001 coadsorbate=HF start=1 calculation_kind="Local coadsorbate relaxation; not a reaction path" host_atoms=36 energy=-283.0297903260876 pbc="T T F"
Si       2.31725181       0.00000000      12.00000000  F        0        2      -0.13296898      -0.36545701      -1.69512653
Si      -1.15862590       2.00679893      15.60606667  F        0        2      -0.13808490       0.03997731       1.28908278
Si       1.30182410       2.25482548      13.80303333  F        0        2       0.03641073      -0.15619407       1.03290297
O        1.38326499       1.13103512      12.65233746  F        1        2      -0.50294323       0.21171440      -0.22377719
O        0.28787265       1.76346018      14.95372921  F        1        2       0.45834224      -0.24228815      -0.40421072
O        3.24976236       0.63242506      16.25840413  F        1        2      -0.27277126      -0.57532427       0.14236514
O        0.78931236       3.62919935      13.15069587  F        1        2       0.42132006       0.28856163       0.52931849
O        2.74832265       2.49816423      14.45537079  F        1        2      -0.00062817       0.38443201      -0.74473329
O       -1.07718501       3.13058929      16.75676254  F        1        2      -0.02601174       0.42949610       0.15220741
Si       2.29259013       0.03093971      17.46032663  T        0        1       0.00274015       0.00118225       0.00691940
Si      -1.18686954       1.68221211      21.13823437  T        0        1       0.00506506      -0.00335241      -0.01345348
Si       1.27711741       2.28321660      19.30435130  T        0        1       0.00535354       0.00445988       0.00271835
O        1.34928382       1.20217594      18.06031273  T        1        1       0.01227024       0.00619780       0.00749958
O        0.28355209       1.72594338      20.45886006  T        1        1       0.01038150      -0.00605155      -0.00464226
O        3.12851471       0.87412804      21.89571286  T        1        1       0.00237095       0.00609241      -0.00616789
O        0.72421211       3.66794895      18.64651654  T        1        1       0.00937253      -0.00192404       0.00043504
O        2.74349526       2.57789025      19.91227227  T        1        1      -0.00312166      -0.01101035       0.00919364
O       -1.29048308       2.16559977      22.69047690  T        1        1      -0.01033071      -0.01326135      -0.00315642
Si       7.23815181       0.00000000      12.00000000  F        0        2      -0.13224145      -0.36535609      -1.68791591
Si       3.76227409       2.00679893      15.60606667  F        0        2      -0.09881063       0.10329987       1.24874442
Si       6.22272410       2.25482548      13.80303333  F        0        2       0.03032015      -0.16923176       1.05097393
O        6.30416499       1.13103512      12.65233746  F        1        2      -0.50336981       0.20835162      -0.23284353
O        5.20877265       1.76346018      14.95372921  F        1        2       0.43742088      -0.24680442      -0.39393484
O        8.17066236       0.63242506      16.25840413  F        1        2      -0.17486641      -0.50260759       0.04956574
O        5.71021236       3.62919935      13.15069587  F        1        2       0.42166537       0.29188566       0.52011309
O        7.66922265       2.49816423      14.45537079  F        1        2       0.01313434       0.38844468      -0.74831273
O        3.84371499       3.13058929      16.75676254  F        1        2       0.12414329       0.27448002       0.14786562
Si       7.26159626      -0.01535207      17.46833220  T        0        1       0.01095358      -0.00519170      -0.01484294
Si       3.73993763       2.16573289      21.15543597  T        0        1      -0.00135269       0.00997917       0.00392319
Si       6.21148197       2.21344007      19.31875673  T        0        1      -0.00609257      -0.00465856      -0.02029720
O        6.30724556       1.11945144      18.10531091  T        1        1      -0.00386822      -0.01906125      -0.00805435
O        5.13885347       1.74551816      20.42487618  T        1        1      -0.00057634       0.01406399      -0.00227882
O        8.27401679       0.11391105      21.59249403  T        1        1      -0.00710736       0.01945705      -0.00389299
O        5.77882870       3.61398168      18.59461991  T        1        1       0.01288452       0.01014038      -0.00800002
O        7.66186370       2.35625452      20.03685638  T        1        1      -0.00954163       0.01194253      -0.00076423
O        3.93573188       3.43965518      22.21386464  T        1        1       0.01411932      -0.00693210      -0.00449227
F        2.91236394       0.35405193      24.29988220  T        0        0      -0.00902405       0.00295888       0.01885180
H        3.09876025       0.71311148      22.90644618  T        0        0      -0.01032841       0.00159619       0.00632069
F        3.83907635       0.98577172      26.28978846  T        0        0      -0.00505990      -0.01226640      -0.01351682
H        3.39683788       0.69599684      25.31281910  T        0        0       0.02083167      -0.00174074       0.01541315
40
Lattice="9.8418 0.0 0.0 -2.460449999999999 4.261624409482844 0.0 0.0 -0.0 34.16586254" Properties=species:S:1:pos:R:3:move_mask:L:1:spacegroup_kinds:I:1:tags:I:1:forces:R:3 surface=alpha_quartz_001 coadsorbate=HF start=1 calculation_kind="Local coadsorbate relaxation; not a reaction path" host_atoms=36 energy=-283.02992193050665 pbc="T T F"
Si       2.31725181       0.00000000      12.00000000  F        0        2      -0.13298938      -0.36544878      -1.69514439
Si      -1.15862590       2.00679893      15.60606667  F        0        2      -0.13770326       0.04157188       1.28880738
Si       1.30182410       2.25482548      13.80303333  F        0        2       0.03634863      -0.15622899       1.03280265
O        1.38326499       1.13103512      12.65233746  F        1        2      -0.50293542       0.21174596      -0.22375608
O        0.28787265       1.76346018      14.95372921  F        1        2       0.45832981      -0.24257687      -0.40386727
O        3.24976236       0.63242506      16.25840413  F        1        2      -0.27520371      -0.57676947       0.14647576
O        0.78931236       3.62919935      13.15069587  F        1        2       0.42136691       0.28851477       0.52935662
O        2.74832265       2.49816423      14.45537079  F        1        2      -0.00057414       0.38441602      -0.74460388
O       -1.07718501       3.13058929      16.75676254  F        1        2      -0.02282558       0.43364129       0.15538271
Si       2.29284712       0.03082740      17.46068969  T        0        1       0.00131577      -0.00122428       0.00439589
Si      -1.18652689       1.68318510      21.13858152  T        0        1      -0.00120340       0.00438164      -0.01257698
Si       1.27742195       2.28324129      19.30531876  T        0        1       0.00704019       0.00185505      -0.00352204
O        1.34995791       1.20184393      18.06165962  T        1        1       0.01269468       0.00454943       0.00300170
O        0.28373038       1.72590634      20.45940126  T        1        1       0.00982793      -0.00507347      -0.00210653
O        3.12982546       0.87356284      21.89628813  T        1        1       0.00210083       0.00633862      -0.00241741
O        0.72449996       3.66745281      18.64666487  T        1        1       0.00973716       0.00083412      -0.00076629
O        2.74334948       2.57780875      19.91386998  T        1        1      -0.00328626      -0.00721397       0.00461781
O       -1.29119167       2.16776177      22.69033744  T        1        1      -0.00789894      -0.00955400       0.00037737
Si       7.23815181       0.00000000      12.00000000  F        0        2      -0.13225564      -0.36536437      -1.68803086
Si       3.76227409       2.00679893      15.60606667  F        0        2      -0.09869371       0.10304329       1.24878180
Si       6.22272410       2.25482548      13.80303333  F        0        2       0.03041308      -0.16918538       1.05081913
O        6.30416499       1.13103512      12.65233746  F        1        2      -0.50339271       0.20835412      -0.23279282
O        5.20877265       1.76346018      14.95372921  F        1        2       0.43735774      -0.24679827      -0.39400010
O        8.17066236       0.63242506      16.25840413  F        1        2      -0.17286592      -0.49806141       0.04274369
O        5.71021236       3.62919935      13.15069587  F        1        2       0.42165677       0.29190584       0.52021184
O        7.66922265       2.49816423      14.45537079  F        1        2       0.01305672       0.38837768      -0.74833828
O        3.84371499       3.13058929      16.75676254  F        1        2       0.12433003       0.27660311       0.14967296
Si       7.26138099      -0.01489875      17.46802608  T        0        1       0.00957834      -0.00728500      -0.00622240
Si       3.74009297       2.16620071      21.15676990  T        0        1       0.00194123       0.00107510      -0.00545865
Si       6.21135746       2.21414035      19.31864149  T        0        1      -0.00713225      -0.00756810      -0.02121922
O        6.30675907       1.11997447      18.10492409  T        1        1      -0.00186055      -0.01950561      -0.00375783
O        5.13896321       1.74686469      20.42544532  T        1        1       0.00248255       0.01575851      -0.00830411
O        8.27370333       0.11616858      21.59447874  T        1        1      -0.00975269       0.00042127      -0.00181514
O        5.77956870       3.61486999      18.59394285  T        1        1       0.00947038       0.00492410      -0.00291962
O        7.66164411       2.35592374      20.03714074  T        1        1      -0.00972827       0.01731887      -0.00804842
O        3.93533881       3.43997693      22.21444183  T        1        1       0.01506651       0.00231328       0.00791533
F        2.91214666       0.35582470      24.30141320  T        0        0      -0.01081900       0.00249435       0.01969662
H        3.09923559       0.71385027      22.90703771  T        0        0      -0.01033621      -0.00082839       0.00636422
F        3.83935033       0.98131761      26.29227903  T        0        0       0.00116278      -0.00760224       0.00151237
H        3.39676407       0.69431939      25.31557228  T        0        0       0.01617899      -0.00414969      -0.00326749
40
Lattice="9.8418 0.0 0.0 -2.460449999999999 4.261624409482844 0.0 0.0 -0.0 34.16586254" Properties=species:S:1:pos:R:3:move_mask:L:1:spacegroup_kinds:I:1:tags:I:1:forces:R:3 surface=alpha_quartz_001 coadsorbate=HF start=1 calculation_kind="Local coadsorbate relaxation; not a reaction path" host_atoms=36 energy=-283.0300430816219 pbc="T T F"
Si       2.31725181       0.00000000      12.00000000  F        0        2      -0.13299453      -0.36545434      -1.69525031
Si      -1.15862590       2.00679893      15.60606667  F        0        2      -0.13681513       0.04343633       1.28771921
Si       1.30182410       2.25482548      13.80303333  F        0        2       0.03643488      -0.15616695       1.03253063
O        1.38326499       1.13103512      12.65233746  F        1        2      -0.50296972       0.21180694      -0.22365724
O        0.28787265       1.76346018      14.95372921  F        1        2       0.45798464      -0.24292641      -0.40327062
O        3.24976236       0.63242506      16.25840413  F        1        2      -0.27758773      -0.57834734       0.15032839
O        0.78931236       3.62919935      13.15069587  F        1        2       0.42141841       0.28843198       0.52946501
O        2.74832265       2.49816423      14.45537079  F        1        2      -0.00047773       0.38448564      -0.74439837
O       -1.07718501       3.13058929      16.75676254  F        1        2      -0.01966738       0.43801683       0.15953995
Si       2.29307616       0.03074521      17.46107283  T        0        1       0.00142847      -0.00351862      -0.00066372
Si      -1.18627813       1.68412461      21.13860964  T        0        1      -0.00757998       0.01041628      -0.01006292
Si       1.27780904       2.28333713      19.30605698  T        0        1       0.00638525      -0.00111298      -0.00683058
O        1.35072308       1.20173567      18.06274510  T        1        1       0.01195159       0.00165607      -0.00191348
O        0.28405337       1.72582040      20.45982018  T        1        1       0.00518785      -0.00340819       0.00046216
O        3.13093542       0.87319085      21.89682030  T        1        1       0.00184627       0.00504053       0.00354440
O        0.72493295       3.66712777      18.64677576  T        1        1       0.00890519       0.00361852      -0.00185914
O        2.74327875       2.57760032      19.91520079  T        1        1      -0.00162572      -0.00208531       0.00088653
O       -1.29191112       2.16942173      22.69018954  T        1        1      -0.00535417      -0.00660306      -0.00073532
Si       7.23815181       0.00000000      12.00000000  F        0        2      -0.13230635      -0.36539490      -1.68834833
Si       3.76227409       2.00679893      15.60606667  F        0        2      -0.09913051       0.10186678       1.24837335
Si       6.22272410       2.25482548      13.80303333  F        0        2       0.03030917      -0.16923466       1.05028692
O        6.30416499       1.13103512      12.65233746  F        1        2      -0.50345076       0.20845545      -0.23261863
O        5.20877265       1.76346018      14.95372921  F        1        2       0.43744446      -0.24669227      -0.39393599
O        8.17066236       0.63242506      16.25840413  F        1        2      -0.16942887      -0.49349912       0.03515233
O        5.71021236       3.62919935      13.15069587  F        1        2       0.42176914       0.29186974       0.52051348
O        7.66922265       2.49816423      14.45537079  F        1        2       0.01315426       0.38820692      -0.74793099
O        3.84371499       3.13058929      16.75676254  F        1        2       0.12453609       0.27623977       0.14987063
Si       7.26140513      -0.01471824      17.46763762  T        0        1       0.00553207      -0.00800998       0.00243952
Si       3.74027471       2.16661820      21.15783070  T        0        1       0.00588541      -0.00556940      -0.00895619
Si       6.21117210       2.21452098      19.31813527  T        0        1      -0.00422918      -0.00781528      -0.01685455
O        6.30627776       1.11990808      18.10457005  T        1        1      -0.00111245      -0.01610128       0.00085855
O        5.13918497       1.74832010      20.42588320  T        1        1       0.00351921       0.01460241      -0.01327350
O        8.27319964       0.11815443      21.59613785  T        1        1      -0.01115009      -0.01268908      -0.00194831
O        5.78028103       3.61563953      18.59337559  T        1        1       0.00737224      -0.00117696      -0.00071614
O        7.66133456       2.35609918      20.03719403  T        1        1      -0.00671207       0.01774840      -0.01281888
O        3.93531720       3.44003481      22.21524951  T        1        1       0.01461110       0.00883478       0.01627675
F        2.91161007       0.35731404      24.30329313  T        0        0      -0.01159976       0.00192442       0.01359988
H        3.09937794       0.71437883      22.90753864  T        0        0      -0.00973940      -0.00175533       0.00440136
F        3.83966577       0.97749553      26.29442057  T        0        0       0.00954052      -0.00304911       0.01626202
H        3.39704272       0.69280986      25.31788606  T        0        0       0.00871529      -0.00604717      -0.01646788
40
Lattice="9.8418 0.0 0.0 -2.460449999999999 4.261624409482844 0.0 0.0 -0.0 34.16586254" Properties=species:S:1:pos:R:3:move_mask:L:1:spacegroup_kinds:I:1:tags:I:1:forces:R:3 surface=alpha_quartz_001 coadsorbate=HF start=1 calculation_kind="Local coadsorbate relaxation; not a reaction path" host_atoms=36 energy=-283.0302001453264 pbc="T T F"
Si       2.31725181       0.00000000      12.00000000  F        0        2      -0.13298139      -0.36546478      -1.69538506
Si      -1.15862590       2.00679893      15.60606667  F        0        2      -0.13551051       0.04547114       1.28581224
Si       1.30182410       2.25482548      13.80303333  F        0        2       0.03664574      -0.15600005       1.03215708
O        1.38326499       1.13103512      12.65233746  F        1        2      -0.50302134       0.21187508      -0.22350990
O        0.28787265       1.76346018      14.95372921  F        1        2       0.45735057      -0.24335003      -0.40240993
O        3.24976236       0.63242506      16.25840413  F        1        2      -0.28031342      -0.58090455       0.15475809
O        0.78931236       3.62919935      13.15069587  F        1        2       0.42145619       0.28832750       0.52959544
O        2.74832265       2.49816423      14.45537079  F        1        2      -0.00032126       0.38462874      -0.74410622
O       -1.07718501       3.13058929      16.75676254  F        1        2      -0.01548635       0.44496514       0.16635231
Si       2.29327095       0.03075525      17.46155563  T        0        1       0.00317700      -0.00599008      -0.00771927
Si      -1.18605016       1.68527846      21.13831245  T        0        1      -0.01373941       0.01334914      -0.00702074
Si       1.27848317       2.28373743      19.30689228  T        0        1       0.00329822      -0.00459255      -0.00817147
O        1.35192801       1.20220643      18.06372638  T        1        1       0.00989546      -0.00307317      -0.00703667
O        0.28474267       1.72567196      20.46040886  T        1        1      -0.00302217      -0.00022863       0.00233544
O        3.13222989       0.87301227      21.89758380  T        1        1       0.00228386       0.00410308       0.00713395
O        0.72531298       3.66708015      18.64714942  T        1        1       0.00732571       0.00594050      -0.00347628
O        2.74344759       2.57780879      19.91667779  T        1        1       0.00049568       0.00248327      -0.00147712
O       -1.29312426       2.17078588      22.68990081  T        1        1      -0.00215480      -0.00334318      -0.00423245
Si       7.23815181       0.00000000      12.00000000  F        0        2      -0.13238961      -0.36543732      -1.68881214
Si       3.76227409       2.00679893      15.60606667  F        0        2      -0.10008876       0.09981219       1.24758112
Si       6.22272410       2.25482548      13.80303333  F        0        2       0.03006310      -0.16936179       1.04944820
O        6.30416499       1.13103512      12.65233746  F        1        2      -0.50352672       0.20862862      -0.23235086
O        5.20877265       1.76346018      14.95372921  F        1        2       0.43765926      -0.24649078      -0.39373936
O        8.17066236       0.63242506      16.25840413  F        1        2      -0.16567592      -0.48838732       0.02729481
O        5.71021236       3.62919935      13.15069587  F        1        2       0.42196331       0.29179378       0.52096910
O        7.66922265       2.49816423      14.45537079  F        1        2       0.01339352       0.38799603      -0.74717940
O        3.84371499       3.13058929      16.75676254  F        1        2       0.12471872       0.27366596       0.14891235
Si       7.26160223      -0.01476971      17.46719918  T        0        1      -0.00024916      -0.00696171       0.01033816
Si       3.74062472       2.16723026      21.15906294  T        0        1       0.00945969      -0.00920261      -0.00733432
Si       6.21104808       2.21473619      19.31723064  T        0        1       0.00151160      -0.00549651      -0.00769164
O        6.30556541       1.11917372      18.10435583  T        1        1      -0.00030257      -0.00957074       0.00643032
O        5.13974231       1.75060548      20.42651762  T        1        1       0.00218547       0.00949101      -0.01744516
O        8.27231854       0.12017375      21.59740944  T        1        1      -0.01138033      -0.02130804      -0.00383996
O        5.78129738       3.61637021      18.59264209  T        1        1       0.00544848      -0.00791067      -0.00084727
O        7.66112290       2.35680020      20.03683906  T        1        1      -0.00010971       0.01411081      -0.01648396
O        3.93557081       3.44017596      22.21667701  T        1        1       0.01324101       0.01221513       0.02145634
F        2.91059115       0.35897197      24.30619673  T        0        0      -0.00980265       0.00227656       0.00462792
H        3.09921538       0.71490653      22.90801654  T        0        0      -0.00831859      -0.00155292       0.00374485
F        3.84046865       0.97296515      26.29752495  T        0        0       0.01748602      -0.00036069       0.02482080
H        3.39774724       0.69081850      25.32074222  T        0        0      -0.00066395      -0.00614555      -0.02349933
40
Lattice="9.8418 0.0 0.0 -2.460449999999999 4.261624409482844 0.0 0.0 -0.0 34.16586254" Properties=species:S:1:pos:R:3:move_mask:L:1:spacegroup_kinds:I:1:tags:I:1:forces:R:3 surface=alpha_quartz_001 coadsorbate=HF start=1 calculation_kind="Local coadsorbate relaxation; not a reaction path" host_atoms=36 energy=-283.0303707791641 pbc="T T F"
Si       2.31725181       0.00000000      12.00000000  F        0        2      -0.13295036      -0.36547115      -1.69548267
Si      -1.15862590       2.00679893      15.60606667  F        0        2      -0.13428107       0.04686428       1.28348305
Si       1.30182410       2.25482548      13.80303333  F        0        2       0.03692081      -0.15577372       1.03177812
O        1.38326499       1.13103512      12.65233746  F        1        2      -0.50306705       0.21192307      -0.22336496
O        0.28787265       1.76346018      14.95372921  F        1        2       0.45662971      -0.24371354      -0.40146099
O        3.24976236       0.63242506      16.25840413  F        1        2      -0.28227604      -0.58421680       0.15842867
O        0.78931236       3.62919935      13.15069587  F        1        2       0.42146554       0.28822919       0.52969827
O        2.74832265       2.49816423      14.45537079  F        1        2      -0.00011289       0.38477365      -0.74374274
O       -1.07718501       3.13058929      16.75676254  F        1        2      -0.01064682       0.45364910       0.17496200
Si       2.29351793       0.03076099      17.46206028  T        0        1       0.00570702      -0.00730681      -0.01325059
Si      -1.18629657       1.68654142      21.13765308  T        0        1      -0.01650538       0.00901832      -0.00331414
Si       1.27935226       2.28431314      19.30798750  T        0        1      -0.00139263      -0.00713700      -0.00738860
O        1.35369184       1.20320235      18.06460284  T        1        1       0.00643810      -0.00818530      -0.00983115
O        0.28542281       1.72542600      20.46123861  T        1        1      -0.01182780       0.00413460       0.00162789
O        3.13385478       0.87254173      21.89845588  T        1        1       0.00346898       0.00374327       0.01140034
O        0.72563023       3.66725339      18.64781231  T        1        1       0.00569691       0.00570995      -0.00531918
O        2.74373219       2.57872067      19.91866235  T        1        1       0.00136633       0.00415691      -0.00158540
O       -1.29530656       2.17163396      22.68938509  T        1        1       0.00101594      -0.00073377      -0.00881001
Si       7.23815181       0.00000000      12.00000000  F        0        2      -0.13247961      -0.36547444      -1.68926169
Si       3.76227409       2.00679893      15.60606667  F        0        2      -0.10130669       0.09739772       1.24669737
Si       6.22272410       2.25482548      13.80303333  F        0        2       0.02976400      -0.16950716       1.04857172
O        6.30416499       1.13103512      12.65233746  F        1        2      -0.50358309       0.20880815      -0.23207024
O        5.20877265       1.76346018      14.95372921  F        1        2       0.43790438      -0.24624067      -0.39346584
O        8.17066236       0.63242506      16.25840413  F        1        2      -0.16390225      -0.48427435       0.02265229
O        5.71021236       3.62919935      13.15069587  F        1        2       0.42215626       0.29171058       0.52142462
O        7.66922265       2.49816423      14.45537079  F        1        2       0.01371130       0.38787525      -0.74633016
O        3.84371499       3.13058929      16.75676254  F        1        2       0.12449792       0.26953184       0.14722747
Si       7.26178373      -0.01496417      17.46687336  T        0        1      -0.00518729      -0.00376537       0.01280692
Si       3.74122136       2.16771554      21.16061672  T        0        1       0.01051732      -0.00606146      -0.00140710
Si       6.21094862       2.21484573      19.31601813  T        0        1       0.00762916      -0.00072142       0.00323988
O        6.30450545       1.11799906      18.10424837  T        1        1       0.00129761      -0.00223123       0.01123504
O        5.14052408       1.75345065      20.42713270  T        1        1      -0.00205640       0.00045283      -0.01807059
O        8.27063412       0.12178299      21.59780836  T        1        1      -0.00907060      -0.02011496      -0.00776585
O        5.78230734       3.61699814      18.59189928  T        1        1       0.00352226      -0.01231320      -0.00385912
O        7.66105012       2.35805085      20.03578535  T        1        1       0.00900322       0.00734510      -0.01793698
O        3.93634910       3.44003310      22.21923144  T        1        1       0.01063914       0.00921138       0.01942304
F        2.90846431       0.36012307      24.30933347  T        0        0      -0.00603860       0.00311136      -0.00591494
H        3.09859105       0.71489279      22.90863163  T        0        0      -0.00630052       0.00027615       0.00101644
F        3.84234300       0.96965375      26.29979361  T        0        0       0.02168250      -0.00189583       0.02396381
H        3.39859981       0.68898505      25.32289745  T        0        0      -0.00804932      -0.00278451      -0.02000399
40
Lattice="9.8418 0.0 0.0 -2.460449999999999 4.261624409482844 0.0 0.0 -0.0 34.16586254" Properties=species:S:1:pos:R:3:move_mask:L:1:spacegroup_kinds:I:1:tags:I:1:forces:R:3 surface=alpha_quartz_001 coadsorbate=HF start=1 calculation_kind="Local coadsorbate relaxation; not a reaction path" host_atoms=36 energy=-283.0305079404425 pbc="T T F"
Si       2.31725181       0.00000000      12.00000000  F        0        2      -0.13291875      -0.36547770      -1.69551032
Si      -1.15862590       2.00679893      15.60606667  F        0        2      -0.13390494       0.04653334       1.28186668
Si       1.30182410       2.25482548      13.80303333  F        0        2       0.03707533      -0.15561592       1.03159483
O        1.38326499       1.13103512      12.65233746  F        1        2      -0.50308722       0.21193326      -0.22329467
O        0.28787265       1.76346018      14.95372921  F        1        2       0.45624008      -0.24380689      -0.40092446
O        3.24976236       0.63242506      16.25840413  F        1        2      -0.28138172      -0.58642231       0.15802390
O        0.78931236       3.62919935      13.15069587  F        1        2       0.42145700       0.28819061       0.52973007
O        2.74832265       2.49816423      14.45537079  F        1        2       0.00007056       0.38481524      -0.74343192
O       -1.07718501       3.13058929      16.75676254  F        1        2      -0.00717898       0.46025655       0.18143163
Si       2.29373631       0.03077260      17.46228137  T        0        1       0.00699599      -0.00666234      -0.01232207
Si      -1.18682852       1.68732216      21.13682086  T        0        1      -0.01337763      -0.00034691      -0.00194540
Si       1.28009047       2.28490473      19.30882201  T        0        1      -0.00460384      -0.00764111      -0.00504490
O        1.35537339       1.20440959      18.06488612  T        1        1       0.00239374      -0.01063189      -0.00830319
O        0.28589270       1.72523823      20.46194086  T        1        1      -0.01594145       0.00778089      -0.00219932
O        3.13510558       0.87230995      21.89920135  T        1        1       0.00517084       0.00493607       0.00973971
O        0.72569107       3.66769245      18.64852619  T        1        1       0.00508008       0.00196915      -0.00673689
O        2.74410828       2.58009999      19.92022053  T        1        1      -0.00034564       0.00146224       0.00121092
O       -1.29749049       2.17138311      22.68872208  T        1        1       0.00253031       0.00106707      -0.00989359
Si       7.23815181       0.00000000      12.00000000  F        0        2      -0.13252768      -0.36549168      -1.68947125
Si       3.76227409       2.00679893      15.60606667  F        0        2      -0.10213129       0.09589545       1.24608336
Si       6.22272410       2.25482548      13.80303333  F        0        2       0.02963263      -0.16958462       1.04812230
O        6.30416499       1.13103512      12.65233746  F        1        2      -0.50360514       0.20890579      -0.23192413
O        5.20877265       1.76346018      14.95372921  F        1        2       0.43801155      -0.24608817      -0.39319476
O        8.17066236       0.63242506      16.25840413  F        1        2      -0.16524253      -0.48243950       0.02297480
O        5.71021236       3.62919935      13.15069587  F        1        2       0.42224367       0.29165750       0.52164285
O        7.66922265       2.49816423      14.45537079  F        1        2       0.01391596       0.38796152      -0.74585898
O        3.84371499       3.13058929      16.75676254  F        1        2       0.12375165       0.26527573       0.14541984
Si       7.26189242      -0.01525792      17.46681527  T        0        1      -0.00622553       0.00051701       0.00849379
Si       3.74187747       2.16810405      21.16186123  T        0        1       0.00738906       0.00172170       0.00465051
Si       6.21109565       2.21484927      19.31504773  T        0        1       0.00980034       0.00384339       0.00997572
O        6.30357760       1.11675460      18.10446173  T        1        1       0.00351583       0.00210570       0.01302114
O        5.14119819       1.75584191      20.42740454  T        1        1      -0.00654971      -0.00856777      -0.01430432
O        8.26895460       0.12225939      21.59682889  T        1        1      -0.00564356      -0.01170851      -0.01133928
O        5.78322317       3.61717006      18.59117206  T        1        1       0.00175179      -0.01196703      -0.00768918
O        7.66136195       2.35928364      20.03436300  T        1        1       0.01562283       0.00119974      -0.01685494
O        3.93732181       3.43998862      22.22167580  T        1        1       0.00827164       0.00190098       0.01246136
F        2.90638048       0.36053790      24.31159777  T        0        0      -0.00087431       0.00506664      -0.00941675
H        3.09769957       0.71464627      22.90904266  T        0        0      -0.00408837       0.00259477       0.00118104
F        3.84459067       0.96816028      26.30119750  T        0        0       0.01821661      -0.00773067       0.00943959
H        3.39932490       0.68780089      25.32401571  T        0        0      -0.00950922       0.00259266      -0.00740376
40
Lattice="9.8418 0.0 0.0 -2.460449999999999 4.261624409482844 0.0 0.0 -0.0 34.16586254" Properties=species:S:1:pos:R:3:move_mask:L:1:spacegroup_kinds:I:1:tags:I:1:forces:R:3 surface=alpha_quartz_001 coadsorbate=HF start=1 calculation_kind="Local coadsorbate relaxation; not a reaction path" host_atoms=36 energy=-283.030609472103 pbc="T T F"
Si       2.31725181       0.00000000      12.00000000  F        0        2      -0.13290326      -0.36548437      -1.69550820
Si      -1.15862590       2.00679893      15.60606667  F        0        2      -0.13431767       0.04511731       1.28120532
Si       1.30182410       2.25482548      13.80303333  F        0        2       0.03707886      -0.15558586       1.03155075
O        1.38326499       1.13103512      12.65233746  F        1        2      -0.50309334       0.21193025      -0.22328743
O        0.28787265       1.76346018      14.95372921  F        1        2       0.45624393      -0.24369364      -0.40078667
O        3.24976236       0.63242506      16.25840413  F        1        2      -0.27816580      -0.58692525       0.15425445
O        0.78931236       3.62919935      13.15069587  F        1        2       0.42146263       0.28819026       0.52973327
O        2.74832265       2.49816423      14.45537079  F        1        2       0.00019150       0.38472941      -0.74320596
O       -1.07718501       3.13058929      16.75676254  F        1        2      -0.00540877       0.46283373       0.18413899
Si       2.29405130       0.03062514      17.46224920  T        0        1       0.00594649      -0.00444514      -0.00609018
Si      -1.18764298       1.68766639      21.13609611  T        0        1      -0.00699892      -0.00948178      -0.00157836
Si       1.28049477       2.28512898      19.30939627  T        0        1      -0.00496648      -0.00640117      -0.00276488
O        1.35669056       1.20508015      18.06497619  T        1        1      -0.00122687      -0.00971417      -0.00406053
O        0.28579607       1.72517566      20.46235530  T        1        1      -0.01458915       0.00915312      -0.00690599
O        3.13609022       0.87198003      21.89971573  T        1        1       0.00621104       0.00571705       0.00956718
O        0.72584923       3.66795690      18.64892295  T        1        1       0.00554974      -0.00343013      -0.00734817
O        2.74422816       2.58120726      19.92155762  T        1        1      -0.00331293      -0.00218066       0.00412058
O       -1.29929913       2.17087190      22.68805796  T        1        1       0.00241852       0.00170571      -0.00825957
Si       7.23815181       0.00000000      12.00000000  F        0        2      -0.13253048      -0.36549445      -1.68946856
Si       3.76227409       2.00679893      15.60606667  F        0        2      -0.10236940       0.09556698       1.24595419
Si       6.22272410       2.25482548      13.80303333  F        0        2       0.02969497      -0.16956325       1.04810623
O        6.30416499       1.13103512      12.65233746  F        1        2      -0.50360396       0.20891666      -0.23190707
O        5.20877265       1.76346018      14.95372921  F        1        2       0.43795580      -0.24606870      -0.39302128
O        8.17066236       0.63242506      16.25840413  F        1        2      -0.16823418      -0.48212308       0.02580486
O        5.71021236       3.62919935      13.15069587  F        1        2       0.42222449       0.29164385       0.52163749
O        7.66922265       2.49816423      14.45537079  F        1        2       0.01395944       0.38818617      -0.74582608
O        3.84371499       3.13058929      16.75676254  F        1        2       0.12260620       0.26260019       0.14425672
Si       7.26182191      -0.01540719      17.46692125  T        0        1      -0.00405325       0.00357034       0.00111101
Si       3.74245498       2.16823212      21.16281876  T        0        1       0.00247523       0.00917540       0.00683295
Si       6.21128021       2.21493141      19.31447835  T        0        1       0.00788496       0.00620062       0.01059213
O        6.30294211       1.11599503      18.10474390  T        1        1       0.00548270       0.00245767       0.01171406
O        5.14144494       1.75717145      20.42715459  T        1        1      -0.00892442      -0.01394076      -0.00810121
O        8.26743544       0.12210888      21.59547157  T        1        1      -0.00214356      -0.00204454      -0.01382950
O        5.78377176       3.61711749      18.59058549  T        1        1       0.00022930      -0.00835434      -0.01003481
O        7.66180378       2.36019630      20.03291927  T        1        1       0.01748988      -0.00188721      -0.01405445
O        3.93835465       3.43971362      22.22376389  T        1        1       0.00628965      -0.00539110       0.00452613
F        2.90453541       0.36039020      24.31243390  T        0        0       0.00202200       0.00655767      -0.00883024
H        3.09682919       0.71417233      22.90950231  T        0        0      -0.00222117       0.00466045      -0.00035746
F        3.84674632       0.96842595      26.30086209  T        0        0       0.01199684      -0.01362930      -0.00470425
H        3.39961272       0.68754443      25.32383572  T        0        0      -0.00635055       0.00692606       0.00482456
40
Lattice="9.8418 0.0 0.0 -2.460449999999999 4.261624409482844 0.0 0.0 -0.0 34.16586254" Properties=species:S:1:pos:R:3:move_mask:L:1:spacegroup_kinds:I:1:tags:I:1:forces:R:3 surface=alpha_quartz_001 coadsorbate=HF start=1 calculation_kind="Local coadsorbate relaxation; not a reaction path" host_atoms=36 energy=-283.03071449616976 pbc="T T F"
Si       2.31725181       0.00000000      12.00000000  F        0        2      -0.13290191      -0.36549714      -1.69551854
Si      -1.15862590       2.00679893      15.60606667  F        0        2      -0.13517838       0.04311428       1.28107779
Si       1.30182410       2.25482548      13.80303333  F        0        2       0.03697551      -0.15564659       1.03158362
O        1.38326499       1.13103512      12.65233746  F        1        2      -0.50310022       0.21193141      -0.22330880
O        0.28787265       1.76346018      14.95372921  F        1        2       0.45648995      -0.24348438      -0.40087391
O        3.24976236       0.63242506      16.25840413  F        1        2      -0.27308344      -0.58608860       0.14775795
O        0.78931236       3.62919935      13.15069587  F        1        2       0.42149235       0.28820759       0.52973711
O        2.74832265       2.49816423      14.45537079  F        1        2       0.00027320       0.38455920      -0.74303082
O       -1.07718501       3.13058929      16.75676254  F        1        2      -0.00442745       0.46288529       0.18454476
Si       2.29446898       0.03036355      17.46205071  T        0        1       0.00296128      -0.00153714       0.00324882
Si      -1.18842912       1.68782144      21.13539776  T        0        1       0.00076787      -0.01548004      -0.00260950
Si       1.28077422       2.28515224      19.30972103  T        0        1      -0.00309402      -0.00449671      -0.00057266
O        1.35783860       1.20537439      18.06496274  T        1        1      -0.00487266      -0.00665890       0.00132999
O        0.28547932       1.72532783      20.46252002  T        1        1      -0.00967929       0.00836350      -0.01128910
O        3.13702539       0.87202443      21.90037453  T        1        1       0.00669083       0.00635649       0.00588602
O        0.72617864       3.66811449      18.64905380  T        1        1       0.00664674      -0.00927444      -0.00770104
O        2.74423281       2.58200847      19.92272937  T        1        1      -0.00648688      -0.00521502       0.00671585
O       -1.30065436       2.17046300      22.68729368  T        1        1       0.00134265       0.00239662      -0.00418409
Si       7.23815181       0.00000000      12.00000000  F        0        2      -0.13251044      -0.36549641      -1.68938338
Si       3.76227409       2.00679893      15.60606667  F        0        2      -0.10230700       0.09592861       1.24611192
Si       6.22272410       2.25482548      13.80303333  F        0        2       0.02991551      -0.16948262       1.04830725
O        6.30416499       1.13103512      12.65233746  F        1        2      -0.50361156       0.20889372      -0.23195632
O        5.20877265       1.76346018      14.95372921  F        1        2       0.43782598      -0.24614712      -0.39286903
O        8.17066236       0.63242506      16.25840413  F        1        2      -0.17151963      -0.48143397       0.02818313
O        5.71021236       3.62919935      13.15069587  F        1        2       0.42215762       0.29164271       0.52152983
O        7.66922265       2.49816423      14.45537079  F        1        2       0.01387946       0.38848695      -0.74604563
O        3.84371499       3.13058929      16.75676254  F        1        2       0.12114530       0.26069716       0.14328023
Si       7.26171206      -0.01548833      17.46705848  T        0        1      -0.00035411       0.00523339      -0.00612764
Si       3.74303120       2.16856440      21.16368105  T        0        1      -0.00302680       0.01336665       0.00554083
Si       6.21162599       2.21513413      19.31417237  T        0        1       0.00316413       0.00622636       0.00744343
O        6.30258740       1.11535667      18.10528203  T        1        1       0.00694753       0.00067892       0.00851401
O        5.14143357       1.75808155      20.42661165  T        1        1      -0.00839926      -0.01604158      -0.00119117
O        8.26618058       0.12190424      21.59404369  T        1        1       0.00062120       0.00433687      -0.01522645
O        5.78446200       3.61688783      18.58974428  T        1        1      -0.00140934      -0.00350835      -0.01003592
O        7.66254640       2.36093089      20.03136361  T        1        1       0.01500226      -0.00279446      -0.01005501
O        3.93937788       3.43962545      22.22553101  T        1        1       0.00480344      -0.01053907      -0.00130437
F        2.90323387       0.36064950      24.31297487  T        0        0       0.00367569       0.00852158      -0.00352521
H        3.09602875       0.71407425      22.91002969  T        0        0      -0.00006297       0.00612254       0.00094879
F        3.84875757       0.96778643      26.30105766  T        0        0       0.00450580      -0.01821008      -0.01890001
H        3.39977593       0.68730627      25.32397595  T        0        0      -0.00125895       0.00908279       0.01396726
40
Lattice="9.8418 0.0 0.0 -2.460449999999999 4.261624409482844 0.0 0.0 -0.0 34.16586254" Properties=species:S:1:pos:R:3:move_mask:L:1:spacegroup_kinds:I:1:tags:I:1:forces:R:3 surface=alpha_quartz_001 coadsorbate=HF start=1 calculation_kind="Local coadsorbate relaxation; not a reaction path" host_atoms=36 energy=-283.0308501327753 pbc="T T F"
Si       2.31725181       0.00000000      12.00000000  F        0        2      -0.13291113      -0.36550985      -1.69554268
Si      -1.15862590       2.00679893      15.60606667  F        0        2      -0.13619917       0.04110727       1.28106880
Si       1.30182410       2.25482548      13.80303333  F        0        2       0.03684152      -0.15577597       1.03163327
O        1.38326499       1.13103512      12.65233746  F        1        2      -0.50311553       0.21194212      -0.22334480
O        0.28787265       1.76346018      14.95372921  F        1        2       0.45685281      -0.24329054      -0.40095444
O        3.24976236       0.63242506      16.25840413  F        1        2      -0.26673378      -0.58450838       0.13968832
O        0.78931236       3.62919935      13.15069587  F        1        2       0.42154529       0.28821605       0.52974992
O        2.74832265       2.49816423      14.45537079  F        1        2       0.00033080       0.38432556      -0.74289021
O       -1.07718501       3.13058929      16.75676254  F        1        2      -0.00302191       0.46147477       0.18405529
Si       2.29520520       0.02981454      17.46185861  T        0        1      -0.00191869       0.00202385       0.01337436
Si      -1.18948580       1.68815172      21.13460416  T        0        1       0.00861422      -0.01739345      -0.00311542
Si       1.28107094       2.28482403      19.31016441  T        0        1       0.00037298      -0.00201656       0.00141842
O        1.35926558       1.20508657      18.06535675  T        1        1      -0.00885121      -0.00239897       0.00715763
O        0.28473474       1.72573568      20.46254312  T        1        1      -0.00220174       0.00473835      -0.01412156
O        3.13866630       0.87202032      21.90148794  T        1        1       0.00583881       0.00516290       0.00540959
O        0.72711708       3.66787330      18.64882839  T        1        1       0.00790126      -0.01459951      -0.00801983
O        2.74389957       2.58241294      19.92471872  T        1        1      -0.00867639      -0.00554532       0.00756807
O       -1.30221909       2.17092488      22.68625538  T        1        1      -0.00004116       0.00275715       0.00002311
Si       7.23815181       0.00000000      12.00000000  F        0        2      -0.13248659      -0.36550435      -1.68930715
Si       3.76227409       2.00679893      15.60606667  F        0        2      -0.10227425       0.09645098       1.24667185
Si       6.22272410       2.25482548      13.80303333  F        0        2       0.03024718      -0.16935331       1.04856512
O        6.30416499       1.13103512      12.65233746  F        1        2      -0.50363520       0.20886464      -0.23202119
O        5.20877265       1.76346018      14.95372921  F        1        2       0.43772526      -0.24627325      -0.39274881
O        8.17066236       0.63242506      16.25840413  F        1        2      -0.17454511      -0.47898166       0.02829767
O        5.71021236       3.62919935      13.15069587  F        1        2       0.42207072       0.29164792       0.52140536
O        7.66922265       2.49816423      14.45537079  F        1        2       0.01371304       0.38883077      -0.74637908
O        3.84371499       3.13058929      16.75676254  F        1        2       0.11908087       0.25946697       0.14233534
Si       7.26149449      -0.01538790      17.46711435  T        0        1       0.00377289       0.00484354      -0.01202247
Si       3.74377430       2.16912277      21.16504250  T        0        1      -0.00753226       0.01330090       0.00075351
Si       6.21198221       2.21563915      19.31389108  T        0        1      -0.00300014       0.00387470       0.00154116
O        6.30228924       1.11478801      18.10602679  T        1        1       0.00756590      -0.00226341       0.00338918
O        5.14115953       1.75896882      20.42574290  T        1        1      -0.00497414      -0.01477705       0.00655626
O        8.26451028       0.12225820      21.59296796  T        1        1       0.00360535       0.00717848      -0.01658278
O        5.78534092       3.61671519      18.58846153  T        1        1      -0.00343423       0.00168808      -0.00711537
O        7.66357861       2.36180979      20.02923766  T        1        1       0.00820292      -0.00239011      -0.00386671
O        3.94077635       3.43928736      22.22804848  T        1        1       0.00277415      -0.01350748      -0.00573532
F        2.90165155       0.36175486      24.31365604  T        0        0       0.00214424       0.01004406       0.00144695
H        3.09519532       0.71422252      22.91116758  T        0        0       0.00288672       0.00760353       0.00003106
F        3.85130463       0.96545276      26.30139368  T        0        0      -0.00099348      -0.01964443      -0.02553253
H        3.39981338       0.68690437      25.32457206  T        0        0       0.00445919       0.00819103       0.01716010
40
Lattice="9.8418 0.0 0.0 -2.460449999999999 4.261624409482844 0.0 0.0 -0.0 34.16586254" Properties=species:S:1:pos:R:3:move_mask:L:1:spacegroup_kinds:I:1:tags:I:1:forces:R:3 surface=alpha_quartz_001 coadsorbate=HF start=1 calculation_kind="Local coadsorbate relaxation; not a reaction path" host_atoms=36 energy=-283.03099038199866 pbc="T T F"
Si       2.31725181       0.00000000      12.00000000  F        0        2      -0.13292081      -0.36551520      -1.69554159
Si      -1.15862590       2.00679893      15.60606667  F        0        2      -0.13679886       0.04012996       1.28106519
Si       1.30182410       2.25482548      13.80303333  F        0        2       0.03676989      -0.15590736       1.03177151
O        1.38326499       1.13103512      12.65233746  F        1        2      -0.50312947       0.21194256      -0.22340348
O        0.28787265       1.76346018      14.95372921  F        1        2       0.45713496      -0.24325247      -0.40095826
O        3.24976236       0.63242506      16.25840413  F        1        2      -0.26174285      -0.58292709       0.13332592
O        0.78931236       3.62919935      13.15069587  F        1        2       0.42158076       0.28821989       0.52972431
O        2.74832265       2.49816423      14.45537079  F        1        2       0.00032395       0.38416451      -0.74292465
O       -1.07718501       3.13058929      16.75676254  F        1        2      -0.00109905       0.46005233       0.18379579
Si       2.29600203       0.02919542      17.46181405  T        0        1      -0.00637854       0.00432725       0.01803161
Si      -1.19021362       1.68860716      21.13383469  T        0        1       0.01248931      -0.01186520      -0.00381187
Si       1.28145721       2.28436316      19.31051062  T        0        1       0.00379275      -0.00008318       0.00262573
O        1.36058366       1.20444082      18.06601467  T        1        1      -0.01158760       0.00030934       0.01060438
O        0.28403426       1.72640601      20.46231738  T        1        1       0.00478659      -0.00139654      -0.01273677
O        3.14065113       0.87255568      21.90308730  T        1        1       0.00378849       0.00275968       0.00209965
O        0.72846843       3.66733715      18.64827515  T        1        1       0.00819022      -0.01576154      -0.00853244
O        2.74341601       2.58230919      19.92688455  T        1        1      -0.00779218      -0.00207658       0.00623178
O       -1.30338323       2.17223315      22.68512603  T        1        1      -0.00099321       0.00298418       0.00279872
Si       7.23815181       0.00000000      12.00000000  F        0        2      -0.13247963      -0.36551957      -1.68931119
Si       3.76227409       2.00679893      15.60606667  F        0        2      -0.10264406       0.09651448       1.24750049
Si       6.22272410       2.25482548      13.80303333  F        0        2       0.03058098      -0.16924794       1.04872265
O        6.30416499       1.13103512      12.65233746  F        1        2      -0.50368107       0.20885888      -0.23207420
O        5.20877265       1.76346018      14.95372921  F        1        2       0.43783357      -0.24637063      -0.39268532
O        8.17066236       0.63242506      16.25840413  F        1        2      -0.17547603      -0.47401735       0.02386795
O        5.71021236       3.62919935      13.15069587  F        1        2       0.42201527       0.29165060       0.52134448
O        7.66922265       2.49816423      14.45537079  F        1        2       0.01349981       0.38906753      -0.74665296
O        3.84371499       3.13058929      16.75676254  F        1        2       0.11696682       0.25867085       0.14116241
Si       7.26135768      -0.01521362      17.46697541  T        0        1       0.00605522       0.00207951      -0.01230483
Si       3.74451375       2.17020335      21.16655050  T        0        1      -0.00844026       0.00652428      -0.00503469
Si       6.21238715       2.21631373      19.31369417  T        0        1      -0.00772444      -0.00070393      -0.00409981
O        6.30223204       1.11410724      18.10705628  T        1        1       0.00644107      -0.00425583      -0.00194715
O        5.14082441       1.75994533      20.42499045  T        1        1       0.00125320      -0.00994036       0.01135214
O        8.26309348       0.12327573      21.59242754  T        1        1       0.00537185       0.00279182      -0.01692480
O        5.78656511       3.61656590      18.58673953  T        1        1      -0.00525253       0.00435890      -0.00101217
O        7.66487123       2.36264162      20.02700326  T        1        1      -0.00180018      -0.00135436       0.00315542
O        3.94213188       3.43920751      22.23053131  T        1        1       0.00102748      -0.01193140      -0.00547325
F        2.90066149       0.36429383      24.31510326  T        0        0      -0.00168150       0.01147834       0.00621993
H        3.09466922       0.71522296      22.91259595  T        0        0       0.00617061       0.00822334       0.00217110
F        3.85363035       0.95977646      26.30367224  T        0        0      -0.00221230      -0.01620451      -0.02367888
H        3.39997346       0.68576500      25.32675762  T        0        0       0.00776177       0.00322283       0.01153717
40
Lattice="9.8418 0.0 0.0 -2.460449999999999 4.261624409482844 0.0 0.0 -0.0 34.16586254" Properties=species:S:1:pos:R:3:move_mask:L:1:spacegroup_kinds:I:1:tags:I:1:forces:R:3 surface=alpha_quartz_001 coadsorbate=HF start=1 calculation_kind="Local coadsorbate relaxation; not a reaction path" host_atoms=36 energy=-283.0310900330438 pbc="T T F"
Si       2.31725181       0.00000000      12.00000000  F        0        2      -0.13291800      -0.36549954      -1.69547305
Si      -1.15862590       2.00679893      15.60606667  F        0        2      -0.13645655       0.04112786       1.28087201
Si       1.30182410       2.25482548      13.80303333  F        0        2       0.03687558      -0.15594668       1.03194253
O        1.38326499       1.13103512      12.65233746  F        1        2      -0.50312924       0.21191801      -0.22346851
O        0.28787265       1.76346018      14.95372921  F        1        2       0.45710625      -0.24346246      -0.40074478
O        3.24976236       0.63242506      16.25840413  F        1        2      -0.26167217      -0.58274775       0.13345615
O        0.78931236       3.62919935      13.15069587  F        1        2       0.42155762       0.28820859       0.52964163
O        2.74832265       2.49816423      14.45537079  F        1        2       0.00025598       0.38420439      -0.74315373
O       -1.07718501       3.13058929      16.75676254  F        1        2       0.00100986       0.46016906       0.18492822
Si       2.29656866       0.02871001      17.46209085  T        0        1      -0.00734538       0.00411496       0.01240559
Si      -1.19056205       1.68915295      21.13336483  T        0        1       0.00957694      -0.00298554      -0.00269728
Si       1.28182279       2.28387751      19.31090185  T        0        1       0.00459408       0.00072012       0.00216405
O        1.36138128       1.20363008      18.06697799  T        1        1      -0.01118181      -0.00101210       0.00964777
O        0.28351134       1.72693412      20.46202412  T        1        1       0.00701580      -0.00698902      -0.00701113
O        3.14249728       0.87287817      21.90449083  T        1        1       0.00107904      -0.00074978       0.00392281
O        0.72985526       3.66652733      18.64758322  T        1        1       0.00675168      -0.01117035      -0.00877789
O        2.74283816       2.58183576      19.92889132  T        1        1      -0.00351428       0.00393201       0.00257804
O       -1.30418903       2.17409541      22.68434715  T        1        1      -0.00057529       0.00194861       0.00076957
Si       7.23815181       0.00000000      12.00000000  F        0        2      -0.13250397      -0.36553289      -1.68942067
Si       3.76227409       2.00679893      15.60606667  F        0        2      -0.10354766       0.09557708       1.24830398
Si       6.22272410       2.25482548      13.80303333  F        0        2       0.03069781      -0.16922963       1.04862795
O        6.30416499       1.13103512      12.65233746  F        1        2      -0.50371507       0.20888337      -0.23207008
O        5.20877265       1.76346018      14.95372921  F        1        2       0.43819671      -0.24632992      -0.39275122
O        8.17066236       0.63242506      16.25840413  F        1        2      -0.17383285      -0.46873612       0.01686944
O        5.71021236       3.62919935      13.15069587  F        1        2       0.42202444       0.29165545       0.52140783
O        7.66922265       2.49816423      14.45537079  F        1        2       0.01337377       0.38905366      -0.74665609
O        3.84371499       3.13058929      16.75676254  F        1        2       0.11556270       0.25854257       0.14016292
Si       7.26129242      -0.01498053      17.46666154  T        0        1       0.00485710      -0.00167832      -0.00700184
Si       3.74499377       2.17110652      21.16782005  T        0        1      -0.00436249      -0.00245697      -0.00773209
Si       6.21246065       2.21688945      19.31349962  T        0        1      -0.00741277      -0.00466102      -0.00584118
O        6.30224982       1.11366570      18.10774458  T        1        1       0.00386924      -0.00371624      -0.00507130
O        5.14062401       1.76066679      20.42472872  T        1        1       0.00604257      -0.00441564       0.01111946
O        8.26207146       0.12461225      21.59267809  T        1        1       0.00620345      -0.00398172      -0.01665923
O        5.78736109       3.61666172      18.58546898  T        1        1      -0.00592128       0.00295630       0.00485683
O        7.66566439       2.36322867      20.02547223  T        1        1      -0.00909751      -0.00090482       0.00817100
O        3.94312116       3.43893618      22.23259308  T        1        1      -0.00035840      -0.00787163      -0.00290201
F        2.89990773       0.36702382      24.31659095  T        0        0      -0.00717528       0.01120834       0.00431230
H        3.09465212       0.71629925      22.91401028  T        0        0       0.00810827       0.00819469       0.00103934
F        3.85522808       0.95394340      26.30566273  T        0        0       0.00312725      -0.00950891      -0.00965764
H        3.40012938       0.68458856      25.32895017  T        0        0       0.00683389      -0.00282800      -0.00010971
40
Lattice="9.8418 0.0 0.0 -2.460449999999999 4.261624409482844 0.0 0.0 -0.0 34.16586254" Properties=species:S:1:pos:R:3:move_mask:L:1:spacegroup_kinds:I:1:tags:I:1:forces:R:3 surface=alpha_quartz_001 coadsorbate=HF start=1 calculation_kind="Local coadsorbate relaxation; not a reaction path" host_atoms=36 energy=-283.0311533023094 pbc="T T F"
Si       2.31725181       0.00000000      12.00000000  F        0        2      -0.13290372      -0.36547765      -1.69536899
Si      -1.15862590       2.00679893      15.60606667  F        0        2      -0.13565717       0.04288383       1.28068848
Si       1.30182410       2.25482548      13.80303333  F        0        2       0.03706108      -0.15589965       1.03213195
O        1.38326499       1.13103512      12.65233746  F        1        2      -0.50311521       0.21187596      -0.22352806
O        0.28787265       1.76346018      14.95372921  F        1        2       0.45689827      -0.24374654      -0.40050990
O        3.24976236       0.63242506      16.25840413  F        1        2      -0.26475693      -0.58339423       0.13738977
O        0.78931236       3.62919935      13.15069587  F        1        2       0.42149234       0.28820449       0.52952701
O        2.74832265       2.49816423      14.45537079  F        1        2       0.00017536       0.38439241      -0.74345250
O       -1.07718501       3.13058929      16.75676254  F        1        2       0.00230033       0.46157034       0.18672208
Si       2.29670455       0.02856360      17.46245005  T        0        1      -0.00503870       0.00202198       0.00215013
Si      -1.19038382       1.68952556      21.13313729  T        0        1       0.00380570       0.00391001      -0.00210904
Si       1.28215141       2.28369550      19.31109772  T        0        1       0.00322644       0.00057810       0.00095480
O        1.36152655       1.20319594      18.06764065  T        1        1      -0.00845785      -0.00478123       0.00648816
O        0.28349596       1.72717536      20.46175074  T        1        1       0.00557334      -0.00970454      -0.00073353
O        3.14355210       0.87336973      21.90545538  T        1        1      -0.00058079      -0.00259091       0.00191052
O        0.73071053       3.66595576      18.64704839  T        1        1       0.00444832      -0.00433548      -0.00852394
O        2.74256736       2.58155893      19.92989872  T        1        1       0.00130731       0.00806271      -0.00040359
O       -1.30440239       2.17541441      22.68393957  T        1        1       0.00045606       0.00064816      -0.00222903
Si       7.23815181       0.00000000      12.00000000  F        0        2      -0.13253987      -0.36554010      -1.68955062
Si       3.76227409       2.00679893      15.60606667  F        0        2      -0.10460788       0.09417857       1.24870084
Si       6.22272410       2.25482548      13.80303333  F        0        2       0.03065975      -0.16928223       1.04841326
O        6.30416499       1.13103512      12.65233746  F        1        2      -0.50373358       0.20892149      -0.23204109
O        5.20877265       1.76346018      14.95372921  F        1        2       0.43862481      -0.24620699      -0.39282659
O        8.17066236       0.63242506      16.25840413  F        1        2      -0.17137114      -0.46509998       0.01096352
O        5.71021236       3.62919935      13.15069587  F        1        2       0.42207282       0.29165466       0.52151888
O        7.66922265       2.49816423      14.45537079  F        1        2       0.01333265       0.38889642      -0.74649754
O        3.84371499       3.13058929      16.75676254  F        1        2       0.11492248       0.25803953       0.13911523
Si       7.26138203      -0.01492113      17.46636138  T        0        1       0.00220097      -0.00398588      -0.00026137
Si       3.74520590       2.17181086      21.16843033  T        0        1       0.00066005      -0.00900082      -0.00627894
Si       6.21244749       2.21711092      19.31338609  T        0        1      -0.00428462      -0.00653897      -0.00393655
O        6.30236823       1.11324617      18.10819194  T        1        1       0.00117553      -0.00130769      -0.00572169
O        5.14074045       1.76118344      20.42503412  T        1        1       0.00794279      -0.00108512       0.00748488
O        8.26184256       0.12549897      21.59281501  T        1        1       0.00592211      -0.00933449      -0.01535594
O        5.78782431       3.61670428      18.58477901  T        1        1      -0.00563789      -0.00036255       0.00820840
O        7.66603047       2.36348410      20.02486008  T        1        1      -0.01181283      -0.00118256       0.00996966
O        3.94352868       3.43897746      22.23354944  T        1        1      -0.00062162      -0.00414745       0.00018115
F        2.89976392       0.36936219      24.31798455  T        0        0      -0.01005648       0.01090262       0.00229385
H        3.09503518       0.71745869      22.91482931  T        0        0       0.00839429       0.00733222       0.00285588
F        3.85593233       0.94894958      26.30799576  T        0        0       0.00841833      -0.00437922       0.00029211
H        3.40043025       0.68339558      25.33101895  T        0        0       0.00410515      -0.00668920      -0.00863165
40
Lattice="9.8418 0.0 0.0 -2.460449999999999 4.261624409482844 0.0 0.0 -0.0 34.16586254" Properties=species:S:1:pos:R:3:move_mask:L:1:spacegroup_kinds:I:1:tags:I:1:forces:R:3 surface=alpha_quartz_001 coadsorbate=HF start=1 calculation_kind="Local coadsorbate relaxation; not a reaction path" host_atoms=36 energy=-283.03121594060656 pbc="T T F"
Si       2.31725181       0.00000000      12.00000000  F        0        2      -0.13288412      -0.36545347      -1.69525544
Si      -1.15862590       2.00679893      15.60606667  F        0        2      -0.13472737       0.04492620       1.28047835
Si       1.30182410       2.25482548      13.80303333  F        0        2       0.03730362      -0.15581272       1.03228913
O        1.38326499       1.13103512      12.65233746  F        1        2      -0.50310138       0.21183253      -0.22358055
O        0.28787265       1.76346018      14.95372921  F        1        2       0.45662733      -0.24406150      -0.40020434
O        3.24976236       0.63242506      16.25840413  F        1        2      -0.26923530      -0.58425568       0.14288265
O        0.78931236       3.62919935      13.15069587  F        1        2       0.42141385       0.28819356       0.52941047
O        2.74832265       2.49816423      14.45537079  F        1        2       0.00010332       0.38464883      -0.74374644
O       -1.07718501       3.13058929      16.75676254  F        1        2       0.00310524       0.46325806       0.18866307
Si       2.29673705       0.02847259      17.46286104  T        0        1      -0.00111837      -0.00063461      -0.00931230
Si      -1.19029040       1.68989915      21.13289144  T        0        1      -0.00250289       0.00734258      -0.00085184
Si       1.28249687       2.28353778      19.31143041  T        0        1       0.00091234       0.00044412      -0.00068417
O        1.36152321       1.20274835      18.06842934  T        1        1      -0.00421100      -0.00922481       0.00299333
O        0.28349344       1.72714613      20.46153878  T        1        1       0.00297455      -0.01023253       0.00504640
O        3.14459218       0.87350661      21.90626817  T        1        1      -0.00191373      -0.00426393       0.00307780
O        0.73155252       3.66531636      18.64645017  T        1        1       0.00177361       0.00285369      -0.00718485
O        2.74231097       2.58156676      19.93100703  T        1        1       0.00586538       0.01039764      -0.00335738
O       -1.30486029       2.17657550      22.68353828  T        1        1       0.00180022      -0.00155094      -0.00568738
Si       7.23815181       0.00000000      12.00000000  F        0        2      -0.13258045      -0.36554561      -1.68969307
Si       3.76227409       2.00679893      15.60606667  F        0        2      -0.10579598       0.09245047       1.24889516
Si       6.22272410       2.25482548      13.80303333  F        0        2       0.03055188      -0.16935266       1.04813511
O        6.30416499       1.13103512      12.65233746  F        1        2      -0.50374061       0.20896400      -0.23199162
O        5.20877265       1.76346018      14.95372921  F        1        2       0.43906674      -0.24603655      -0.39289806
O        8.17066236       0.63242506      16.25840413  F        1        2      -0.16905402      -0.46264755       0.00646486
O        5.71021236       3.62919935      13.15069587  F        1        2       0.42213334       0.29165298       0.52165214
O        7.66922265       2.49816423      14.45537079  F        1        2       0.01333889       0.38869366      -0.74627020
O        3.84371499       3.13058929      16.75676254  F        1        2       0.11419851       0.25696752       0.13779639
Si       7.26146473      -0.01491329      17.46608038  T        0        1      -0.00069840      -0.00501285       0.00567461
Si       3.74542231       2.17219755      21.16899254  T        0        1       0.00560105      -0.01230783      -0.00286656
Si       6.21227090       2.21717271      19.31319219  T        0        1      -0.00002715      -0.00679565      -0.00049198
O        6.30238827       1.11287885      18.10840979  T        1        1      -0.00153920       0.00187936      -0.00564545
O        5.14102017       1.76158526      20.42553965  T        1        1       0.00715933       0.00051259       0.00327934
O        8.26155820       0.12609078      21.59255587  T        1        1       0.00595506      -0.01104407      -0.01354466
O        5.78792831       3.61676717      18.58445262  T        1        1      -0.00493326      -0.00383688       0.00958736
O        7.66606607       2.36373079      20.02445988  T        1        1      -0.01138061      -0.00179131       0.01029290
O        3.94400245       3.43871926      22.23463971  T        1        1      -0.00077113      -0.00206976       0.00112623
F        2.89909501       0.37144720      24.31908593  T        0        0      -0.01237784       0.00976610      -0.00185947
H        3.09556355       0.71840975      22.91571373  T        0        0       0.00760018       0.00635917       0.00152208
F        3.85690421       0.94504197      26.30928327  T        0        0       0.01365420      -0.00085533       0.00955819
H        3.40075444       0.68243063      25.33231824  T        0        0       0.00145417      -0.00835682      -0.01369981
40
Lattice="9.8418 0.0 0.0 -2.460449999999999 4.261624409482844 0.0 0.0 -0.0 34.16586254" Properties=species:S:1:pos:R:3:move_mask:L:1:spacegroup_kinds:I:1:tags:I:1:forces:R:3 surface=alpha_quartz_001 coadsorbate=HF start=1 calculation_kind="Local coadsorbate relaxation; not a reaction path" host_atoms=36 energy=-283.03130908016465 pbc="T T F"
Si       2.31725181       0.00000000      12.00000000  F        0        2      -0.13286065      -0.36543682      -1.69515493
Si      -1.15862590       2.00679893      15.60606667  F        0        2      -0.13377498       0.04710478       1.28031240
Si       1.30182410       2.25482548      13.80303333  F        0        2       0.03761516      -0.15569240       1.03244327
O        1.38326499       1.13103512      12.65233746  F        1        2      -0.50310141       0.21179598      -0.22363119
O        0.28787265       1.76346018      14.95372921  F        1        2       0.45634665      -0.24441584      -0.39982861
O        3.24976236       0.63242506      16.25840413  F        1        2      -0.27450718      -0.58447786       0.14850372
O        0.78931236       3.62919935      13.15069587  F        1        2       0.42133089       0.28817646       0.52929568
O        2.74832265       2.49816423      14.45537079  F        1        2       0.00002721       0.38499581      -0.74406376
O       -1.07718501       3.13058929      16.75676254  F        1        2       0.00306948       0.46464451       0.19024242
Si       2.29670094       0.02840709      17.46326816  T        0        1       0.00466507      -0.00419324      -0.02116412
Si      -1.19017159       1.69026564      21.13234863  T        0        1      -0.00862834       0.00809650      -0.00028334
Si       1.28304068       2.28344468      19.31183757  T        0        1      -0.00171939       0.00029984      -0.00269785
O        1.36142307       1.20217663      18.06941554  T        1        1       0.00236771      -0.01394671      -0.00064740
O        0.28363054       1.72686645      20.46123383  T        1        1       0.00016014      -0.00828307       0.01076259
O        3.14591404       0.87385806      21.90743073  T        1        1      -0.00276828      -0.00513410      -0.00008738
O        0.73266488       3.66455575      18.64551532  T        1        1      -0.00161425       0.01084864      -0.00390516
O        2.74213670       2.58210110      19.93238038  T        1        1       0.01050144       0.01002039      -0.00608783
O       -1.30558395       2.17758188      22.68277263  T        1        1       0.00326069      -0.00475810      -0.00761736
Si       7.23815181       0.00000000      12.00000000  F        0        2      -0.13262747      -0.36555800      -1.68987653
Si       3.76227409       2.00679893      15.60606667  F        0        2      -0.10730344       0.09022605       1.24882057
Si       6.22272410       2.25482548      13.80303333  F        0        2       0.03044184      -0.16943899       1.04778756
O        6.30416499       1.13103512      12.65233746  F        1        2      -0.50375872       0.20902586      -0.23192462
O        5.20877265       1.76346018      14.95372921  F        1        2       0.43957331      -0.24583230      -0.39289552
O        8.17066236       0.63242506      16.25840413  F        1        2      -0.16672703      -0.46047035       0.00235187
O        5.71021236       3.62919935      13.15069587  F        1        2       0.42221641       0.29163915       0.52181706
O        7.66922265       2.49816423      14.45537079  F        1        2       0.01335024       0.38846257      -0.74600260
O        3.84371499       3.13058929      16.75676254  F        1        2       0.11279670       0.25410570       0.13528573
Si       7.26163956      -0.01507761      17.46577846  T        0        1      -0.00367994      -0.00443327       0.01145793
Si       3.74584511       2.17267729      21.16964858  T        0        1       0.00958491      -0.01349857       0.00232566
Si       6.21211453       2.21704449      19.31290576  T        0        1       0.00448699      -0.00589158       0.00440459
O        6.30241801       1.11217366      18.10874446  T        1        1      -0.00488573       0.00630133      -0.00537760
O        5.14159796       1.76212965      20.42635498  T        1        1       0.00444474       0.00066717      -0.00217818
O        8.26132416       0.12632394      21.59105281  T        1        1       0.00572669      -0.01063691      -0.00942545
O        5.78805210       3.61662136      18.58408458  T        1        1      -0.00397827      -0.00736068       0.00972459
O        7.66605907       2.36406720      20.02396327  T        1        1      -0.00871012      -0.00224238       0.00912711
O        3.94479615       3.43844826      22.23604727  T        1        1      -0.00029155      -0.00057442       0.00107038
F        2.89789158       0.37449050      24.32055338  T        0        0      -0.01290509       0.00882381      -0.00350826
H        3.09639795       0.71998308      22.91688294  T        0        0       0.00555758       0.00431134       0.00248899
F        3.85874934       0.93968075      26.31122422  T        0        0       0.01701645       0.00081173       0.01255044
H        3.40141640       0.68100075      25.33394141  T        0        0      -0.00069846      -0.00808200      -0.01441489
40
Lattice="9.8418 0.0 0.0 -2.460449999999999 4.261624409482844 0.0 0.0 -0.0 34.16586254" Properties=species:S:1:pos:R:3:move_mask:L:1:spacegroup_kinds:I:1:tags:I:1:forces:R:3 surface=alpha_quartz_001 coadsorbate=HF start=1 calculation_kind="Local coadsorbate relaxation; not a reaction path" host_atoms=36 energy=-283.03142717214484 pbc="T T F"
Si       2.31725181       0.00000000      12.00000000  F        0        2      -0.13284901      -0.36544602      -1.69517336
Si      -1.15862590       2.00679893      15.60606667  F        0        2      -0.13333489       0.04855727       1.28015753
Si       1.30182410       2.25482548      13.80303333  F        0        2       0.03793142      -0.15559241       1.03240994
O        1.38326499       1.13103512      12.65233746  F        1        2      -0.50315008       0.21181664      -0.22363211
O        0.28787265       1.76346018      14.95372921  F        1        2       0.45621046      -0.24469626      -0.39936729
O        3.24976236       0.63242506      16.25840413  F        1        2      -0.27816996      -0.58305035       0.15096529
O        0.78931236       3.62919935      13.15069587  F        1        2       0.42131053       0.28812633       0.52929112
O        2.74832265       2.49816423      14.45537079  F        1        2      -0.00002406       0.38529485      -0.74421896
O       -1.07718501       3.13058929      16.75676254  F        1        2       0.00175094       0.46386961       0.18994906
Si       2.29682335       0.02816826      17.46350061  T        0        1       0.01014042      -0.00706576      -0.02681111
Si      -1.19050644       1.69059849      21.13137639  T        0        1      -0.01114894       0.00390542       0.00062712
Si       1.28371815       2.28322480      19.31248392  T        0        1      -0.00304209       0.00040592      -0.00444246
O        1.36151093       1.20112752      18.07083687  T        1        1       0.00990195      -0.01572222      -0.00263792
O        0.28355936       1.72621059      20.46092595  T        1        1      -0.00101075      -0.00284462       0.01364410
O        3.14777033       0.87382869      21.90883686  T        1        1      -0.00319946      -0.00587668      -0.00089079
O        0.73425247       3.66356109      18.64414138  T        1        1      -0.00439895       0.01581369       0.00200707
O        2.74189618       2.58325594      19.93452055  T        1        1       0.01310040       0.00584995      -0.00855165
O       -1.30706344       2.17832759      22.68149111  T        1        1       0.00437668      -0.00918651      -0.00687610
Si       7.23815181       0.00000000      12.00000000  F        0        2      -0.13266586      -0.36558383      -1.69008582
Si       3.76227409       2.00679893      15.60606667  F        0        2      -0.10864523       0.08819052       1.24844305
Si       6.22272410       2.25482548      13.80303333  F        0        2       0.03038252      -0.16948929       1.04745009
O        6.30416499       1.13103512      12.65233746  F        1        2      -0.50379308       0.20909860      -0.23183530
O        5.20877265       1.76346018      14.95372921  F        1        2       0.43994209      -0.24567895      -0.39278687
O        8.17066236       0.63242506      16.25840413  F        1        2      -0.16545261      -0.45938800       0.00042000
O        5.71021236       3.62919935      13.15069587  F        1        2       0.42230244       0.29161206       0.52198596
O        7.66922265       2.49816423      14.45537079  F        1        2       0.01337475       0.38830591      -0.74577729
O        3.84371499       3.13058929      16.75676254  F        1        2       0.11037036       0.24952180       0.13176887
Si       7.26176925      -0.01532997      17.46554046  T        0        1      -0.00559938      -0.00181664       0.01375126
Si       3.74660371       2.17288143      21.17062790  T        0        1       0.01029911      -0.01052911       0.00644615
Si       6.21186736       2.21676582      19.31245025  T        0        1       0.00722792      -0.00352061       0.00855828
O        6.30228239       1.11136791      18.10895346  T        1        1      -0.00785980       0.01037506      -0.00552725
O        5.14230672       1.76258777      20.42712203  T        1        1      -0.00055679      -0.00130974      -0.00632126
O        8.26069291       0.12602785      21.58798756  T        1        1       0.00583813      -0.00618174      -0.00314243
O        5.78795473       3.61631657      18.58379918  T        1        1      -0.00329591      -0.00872721       0.00794368
O        7.66584012       2.36459746      20.02317848  T        1        1      -0.00345359      -0.00189620       0.00639179
O        3.94628415       3.43762749      22.23826296  T        1        1       0.00036567      -0.00070101      -0.00182565
F        2.89527308       0.37804110      24.32179835  T        0        0      -0.01249936       0.00731073      -0.00448048
H        3.09733909       0.72170674      22.91859334  T        0        0       0.00214275       0.00153725       0.00027346
F        3.86216259       0.93445592      26.31189481  T        0        0       0.01826000      -0.00030703       0.01131289
H        3.40227827       0.67965187      25.33471987  T        0        0      -0.00107870      -0.00498144      -0.00941258
40
Lattice="9.8418 0.0 0.0 -2.460449999999999 4.261624409482844 0.0 0.0 -0.0 34.16586254" Properties=species:S:1:pos:R:3:move_mask:L:1:spacegroup_kinds:I:1:tags:I:1:forces:R:3 surface=alpha_quartz_001 coadsorbate=HF start=1 calculation_kind="Local coadsorbate relaxation; not a reaction path" host_atoms=36 energy=-283.03152865908237 pbc="T T F"
Si       2.31725181       0.00000000      12.00000000  F        0        2      -0.13286772      -0.36549771      -1.69540078
Si      -1.15862590       2.00679893      15.60606667  F        0        2      -0.13401775       0.04788174       1.28010042
Si       1.30182410       2.25482548      13.80303333  F        0        2       0.03805627      -0.15559236       1.03209308
O        1.38326499       1.13103512      12.65233746  F        1        2      -0.50325586       0.21192610      -0.22354411
O        0.28787265       1.76346018      14.95372921  F        1        2       0.45640253      -0.24469120      -0.39906279
O        3.24976236       0.63242506      16.25840413  F        1        2      -0.27661129      -0.57953176       0.14610044
O        0.78931236       3.62919935      13.15069587  F        1        2       0.42141368       0.28805302       0.52948194
O        2.74832265       2.49816423      14.45537079  F        1        2      -0.00002653       0.38532411      -0.74403533
O       -1.07718501       3.13058929      16.75676254  F        1        2      -0.00078456       0.45995638       0.18671368
Si       2.29710686       0.02783079      17.46326787  T        0        1       0.01158390      -0.00740796      -0.01905055
Si      -1.19101243       1.69064871      21.13028537  T        0        1      -0.00663426      -0.00275792       0.00022740
Si       1.28430183       2.28303929      19.31290753  T        0        1      -0.00123234       0.00019960      -0.00431297
O        1.36180271       1.19997078      18.07198779  T        1        1       0.01405675      -0.01143830      -0.00149171
O        0.28348487       1.72550159      20.46071206  T        1        1       0.00083626       0.00439745       0.01103698
O        3.14927612       0.87381911      21.91003432  T        1        1      -0.00245299      -0.00509624      -0.00537203
O        0.73563892       3.66290238      18.64287532  T        1        1      -0.00453711       0.01340288       0.00807201
O        2.74187272       2.58462701      19.93622186  T        1        1       0.01147792      -0.00144618      -0.00874673
O       -1.30840557       2.17824995      22.68011451  T        1        1       0.00415943      -0.01227424      -0.00152351
Si       7.23815181       0.00000000      12.00000000  F        0        2      -0.13266922      -0.36561937      -1.69022999
Si       3.76227409       2.00679893      15.60606667  F        0        2      -0.10886482       0.08782091       1.24779872
Si       6.22272410       2.25482548      13.80303333  F        0        2       0.03045987      -0.16946292       1.04732873
O        6.30416499       1.13103512      12.65233746  F        1        2      -0.50384738       0.20915624      -0.23176644
O        5.20877265       1.76346018      14.95372921  F        1        2       0.43988656      -0.24572789      -0.39254835
O        8.17066236       0.63242506      16.25840413  F        1        2      -0.16618424      -0.45997557       0.00208684
O        5.71021236       3.62919935      13.15069587  F        1        2       0.42235482       0.29157165       0.52207135
O        7.66922265       2.49816423      14.45537079  F        1        2       0.01339644       0.38835914      -0.74574236
O        3.84371499       3.13058929      16.75676254  F        1        2       0.10792290       0.24483400       0.12863215
Si       7.26185721      -0.01564175      17.46553094  T        0        1      -0.00508731       0.00196206       0.01035704
Si       3.74744921       2.17290666      21.17142593  T        0        1       0.00537978      -0.00528120       0.00613771
Si       6.21181021       2.21639119      19.31210462  T        0        1       0.00529601      -0.00086701       0.00897682
O        6.30210825       1.11069046      18.10907250  T        1        1      -0.00847211       0.01154796      -0.00591780
O        5.14286268       1.76278249      20.42748597  T        1        1      -0.00455546      -0.00490880      -0.00704320
O        8.26024270       0.12519521      21.58425045  T        1        1       0.00529751      -0.00160690       0.00362372
O        5.78789934       3.61578727      18.58355680  T        1        1      -0.00364847      -0.00611881       0.00518571
O        7.66565710       2.36507580      20.02245305  T        1        1       0.00164492      -0.00049285       0.00267790
O        3.94782980       3.43691644      22.24001415  T        1        1       0.00153650      -0.00130423      -0.00462155
F        2.89255695       0.38113591      24.32263119  T        0        0      -0.00953275       0.00695458       0.00009498
H        3.09803066       0.72330829      22.91999530  T        0        0      -0.00136738      -0.00149475       0.00093404
F        3.86585540       0.93034941      26.31218837  T        0        0       0.01470627      -0.00435350       0.00057041
H        3.40316454       0.67858331      25.33499720  T        0        0       0.00078122      -0.00040017       0.00010811
40
Lattice="9.8418 0.0 0.0 -2.460449999999999 4.261624409482844 0.0 0.0 -0.0 34.16586254" Properties=species:S:1:pos:R:3:move_mask:L:1:spacegroup_kinds:I:1:tags:I:1:forces:R:3 surface=alpha_quartz_001 coadsorbate=HF start=1 calculation_kind="Local coadsorbate relaxation; not a reaction path" host_atoms=36 energy=-283.0315932727069 pbc="T T F"
Si       2.31725181       0.00000000      12.00000000  F        0        2      -0.13290740      -0.36556017      -1.69572083
Si      -1.15862590       2.00679893      15.60606667  F        0        2      -0.13530497       0.04591695       1.27998296
Si       1.30182410       2.25482548      13.80303333  F        0        2       0.03800151      -0.15568044       1.03160696
O        1.38326499       1.13103512      12.65233746  F        1        2      -0.50337293       0.21207382      -0.22340535
O        0.28787265       1.76346018      14.95372921  F        1        2       0.45676016      -0.24447754      -0.39891820
O        3.24976236       0.63242506      16.25840413  F        1        2      -0.27153336      -0.57600069       0.13768365
O        0.78931236       3.62919935      13.15069587  F        1        2       0.42158602       0.28797256       0.52977831
O        2.74832265       2.49816423      14.45537079  F        1        2      -0.00000403       0.38508839      -0.74363363
O       -1.07718501       3.13058929      16.75676254  F        1        2      -0.00276407       0.45500229       0.18264520
Si       2.29754304       0.02742535      17.46281128  T        0        1       0.00860963      -0.00527526      -0.00407781
Si      -1.19159375       1.69050594      21.12955693  T        0        1       0.00093343      -0.00759232       0.00026117
Si       1.28458229       2.28281140      19.31310092  T        0        1       0.00218258      -0.00030149      -0.00246553
O        1.36229681       1.19894398      18.07272817  T        1        1       0.01320015      -0.00363152       0.00112112
O        0.28329722       1.72507586      20.46071516  T        1        1       0.00384002       0.00966866       0.00543786
O        3.15009860       0.87341539      21.91053208  T        1        1      -0.00157960      -0.00437997      -0.00489943
O        0.73648478       3.66262241      18.64219298  T        1        1      -0.00229268       0.00593146       0.01131255
O        2.74192753       2.58541721      19.93718850  T        1        1       0.00743900      -0.00700462      -0.00779638
O       -1.30927994       2.17776569      22.67925592  T        1        1       0.00316771      -0.01336242       0.00378553
Si       7.23815181       0.00000000      12.00000000  F        0        2      -0.13264549      -0.36564772      -1.69027637
Si       3.76227409       2.00679893      15.60606667  F        0        2      -0.10799106       0.08903596       1.24736235
Si       6.22272410       2.25482548      13.80303333  F        0        2       0.03057042      -0.16938400       1.04741408
O        6.30416499       1.13103512      12.65233746  F        1        2      -0.50388781       0.20917605      -0.23173044
O        5.20877265       1.76346018      14.95372921  F        1        2       0.43950982      -0.24592029      -0.39236512
O        8.17066236       0.63242506      16.25840413  F        1        2      -0.16806475      -0.46162786       0.00585106
O        5.71021236       3.62919935      13.15069587  F        1        2       0.42236008       0.29154405       0.52206861
O        7.66922265       2.49816423      14.45537079  F        1        2       0.01344126       0.38855067      -0.74582894
O        3.84371499       3.13058929      16.75676254  F        1        2       0.10650992       0.24259279       0.12737863
Si       7.26179010      -0.01575472      17.46569437  T        0        1      -0.00335132       0.00434809       0.00374165
Si       3.74801239       2.17258001      21.17190796  T        0        1      -0.00088042      -0.00086082       0.00183371
Si       6.21177246       2.21615301      19.31195588  T        0        1       0.00108288       0.00101678       0.00585332
O        6.30185282       1.11061821      18.10885613  T        1        1      -0.00658654       0.00954683      -0.00611919
O        5.14296366       1.76252917      20.42727983  T        1        1      -0.00592000      -0.00793421      -0.00446840
O        8.25991254       0.12444310      21.58181926  T        1        1       0.00474463       0.00091818       0.00738494
O        5.78768020       3.61542501      18.58356576  T        1        1      -0.00475312      -0.00123772       0.00301904
O        7.66544522       2.36538000      20.02203922  T        1        1       0.00450228       0.00074312      -0.00003015
O        3.94893620       3.43621546      22.24097743  T        1        1       0.00210204      -0.00185845      -0.00644784
F        2.89042014       0.38259975      24.32268574  T        0        0      -0.00765409       0.00655257       0.00276417
H        3.09820991       0.72391234      22.92078615  T        0        0      -0.00362554      -0.00318903      -0.00094647
F        3.86853269       0.92919905      26.31108022  T        0        0       0.01172270      -0.00771974      -0.00587040
H        3.40362343       0.67838098      25.33435115  T        0        0       0.00285294       0.00296706       0.00671359
40
Lattice="9.8418 0.0 0.0 -2.460449999999999 4.261624409482844 0.0 0.0 -0.0 34.16586254" Properties=species:S:1:pos:R:3:move_mask:L:1:spacegroup_kinds:I:1:tags:I:1:forces:R:3 surface=alpha_quartz_001 coadsorbate=HF start=1 calculation_kind="Local coadsorbate relaxation; not a reaction path" host_atoms=36 energy=-283.03164715479716 pbc="T T F"
Si       2.31725181       0.00000000      12.00000000  F        0        2      -0.13295213      -0.36561652      -1.69603600
Si      -1.15862590       2.00679893      15.60606667  F        0        2      -0.13664827       0.04367144       1.27976012
Si       1.30182410       2.25482548      13.80303333  F        0        2       0.03788772      -0.15579433       1.03111504
O        1.38326499       1.13103512      12.65233746  F        1        2      -0.50347750       0.21221655      -0.22326181
O        0.28787265       1.76346018      14.95372921  F        1        2       0.45712249      -0.24420858      -0.39884501
O        3.24976236       0.63242506      16.25840413  F        1        2      -0.26566637      -0.57322119       0.12910797
O        0.78931236       3.62919935      13.15069587  F        1        2       0.42176236       0.28789859       0.53007766
O        2.74832265       2.49816423      14.45537079  F        1        2       0.00000446       0.38475808      -0.74321120
O       -1.07718501       3.13058929      16.75676254  F        1        2      -0.00368779       0.45070121       0.17934239
Si       2.29800814       0.02704170      17.46235166  T        0        1       0.00399897      -0.00249156       0.01090414
Si      -1.19186205       1.69029842      21.12911290  T        0        1       0.00787712      -0.00897242       0.00002202
Si       1.28480910       2.28265474      19.31306213  T        0        1       0.00555508      -0.00114803       0.00030584
O        1.36285503       1.19813065      18.07317677  T        1        1       0.00963612       0.00450297       0.00315466
O        0.28332716       1.72501266      20.46082682  T        1        1       0.00613091       0.01256552       0.00009971
O        3.15048181       0.87317520      21.91079639  T        1        1      -0.00067722      -0.00328952      -0.00605852
O        0.73698047       3.66261541      18.64194427  T        1        1       0.00063028      -0.00224047       0.01180211
O        2.74219270       2.58573701      19.93742882  T        1        1       0.00339500      -0.01039949      -0.00607021
O       -1.30953434       2.17720543      22.67878435  T        1        1       0.00199519      -0.01300454       0.00805134
Si       7.23815181       0.00000000      12.00000000  F        0        2      -0.13261550      -0.36566669      -1.69027352
Si       3.76227409       2.00679893      15.60606667  F        0        2      -0.10671908       0.09082858       1.24717148
Si       6.22272410       2.25482548      13.80303333  F        0        2       0.03065595      -0.16930575       1.04757949
O        6.30416499       1.13103512      12.65233746  F        1        2      -0.50391331       0.20917662      -0.23171805
O        5.20877265       1.76346018      14.95372921  F        1        2       0.43907439      -0.24615008      -0.39225638
O        8.17066236       0.63242506      16.25840413  F        1        2      -0.17002548      -0.46325677       0.00971325
O        5.71021236       3.62919935      13.15069587  F        1        2       0.42234769       0.29152769       0.52202947
O        7.66922265       2.49816423      14.45537079  F        1        2       0.01350909       0.38877064      -0.74591622
O        3.84371499       3.13058929      16.75676254  F        1        2       0.10591218       0.24195260       0.12717688
Si       7.26169833      -0.01577350      17.46590926  T        0        1      -0.00168028       0.00527082      -0.00265355
Si       3.74835587       2.17233213      21.17213195  T        0        1      -0.00601200       0.00094975      -0.00309824
Si       6.21183379       2.21599677      19.31199844  T        0        1      -0.00323101       0.00213997       0.00171162
O        6.30161923       1.11078117      18.10858892  T        1        1      -0.00346808       0.00644776      -0.00558296
O        5.14290434       1.76217660      20.42698496  T        1        1      -0.00472929      -0.00992166      -0.00164594
O        8.25997994       0.12395608      21.58047642  T        1        1       0.00368267       0.00027264       0.00923366
O        5.78752282       3.61512656      18.58360819  T        1        1      -0.00604773       0.00380604       0.00204349
O        7.66539876       2.36556208      20.02187726  T        1        1       0.00525115       0.00107901      -0.00191207
O        3.94958371       3.43586215      22.24125270  T        1        1       0.00257704      -0.00134777      -0.00606809
F        2.88906292       0.38381607      24.32292884  T        0        0      -0.00552522       0.00698307       0.00626410
H        3.09823981       0.72437236      22.92113726  T        0        0      -0.00512229      -0.00432930      -0.00042904
F        3.87042164       0.92793870      26.31081166  T        0        0       0.00923516      -0.00980248      -0.01132320
H        3.40398469       0.67813224      25.33428697  T        0        0       0.00395751       0.00464765       0.00969355
40
Lattice="9.8418 0.0 0.0 -2.460449999999999 4.261624409482844 0.0 0.0 -0.0 34.16586254" Properties=species:S:1:pos:R:3:move_mask:L:1:spacegroup_kinds:I:1:tags:I:1:forces:R:3 surface=alpha_quartz_001 coadsorbate=HF start=1 calculation_kind="Local coadsorbate relaxation; not a reaction path" host_atoms=36 energy=-283.031727349678 pbc="T T F"
Si       2.31725181       0.00000000      12.00000000  F        0        2      -0.13300858      -0.36567324      -1.69639823
Si      -1.15862590       2.00679893      15.60606667  F        0        2      -0.13819314       0.04111299       1.27919757
Si       1.30182410       2.25482548      13.80303333  F        0        2       0.03779171      -0.15594163       1.03048840
O        1.38326499       1.13103512      12.65233746  F        1        2      -0.50360111       0.21238625      -0.22308672
O        0.28787265       1.76346018      14.95372921  F        1        2       0.45751170      -0.24390042      -0.39865062
O        3.24976236       0.63242506      16.25840413  F        1        2      -0.25880561      -0.57082165       0.11986008
O        0.78931236       3.62919935      13.15069587  F        1        2       0.42197276       0.28779387       0.53043732
O        2.74832265       2.49816423      14.45537079  F        1        2      -0.00002152       0.38430701      -0.74271212
O       -1.07718501       3.13058929      16.75676254  F        1        2      -0.00323735       0.44632269       0.17675329
Si       2.29878466       0.02640634      17.46193868  T        0        1      -0.00242770       0.00136741       0.02675151
Si      -1.19210484       1.69006496      21.12860331  T        0        1       0.01426586      -0.00814123       0.00065897
Si       1.28525441       2.28235314      19.31309942  T        0        1       0.00893983      -0.00218160       0.00432399
O        1.36384892       1.19692864      18.07403207  T        1        1       0.00364917       0.01426651       0.00420506
O        0.28345896       1.72522806      20.46110223  T        1        1       0.00758260       0.01423906      -0.00525788
O        3.15117450       0.87257424      21.91117734  T        1        1      -0.00003204      -0.00234316      -0.00422153
O        0.73778312       3.66250236      18.64180462  T        1        1       0.00428740      -0.01184693       0.01022133
O        2.74263636       2.58581286      19.93779590  T        1        1      -0.00078195      -0.01258487      -0.00386894
O       -1.30984774       2.17661830      22.67831191  T        1        1       0.00075214      -0.01226489       0.01131261
Si       7.23815181       0.00000000      12.00000000  F        0        2      -0.13258164      -0.36568215      -1.69025628
Si       3.76227409       2.00679893      15.60606667  F        0        2      -0.10506657       0.09306051       1.24731237
Si       6.22272410       2.25482548      13.80303333  F        0        2       0.03067331      -0.16921794       1.04779186
O        6.30416499       1.13103512      12.65233746  F        1        2      -0.50391990       0.20916243      -0.23170640
O        5.20877265       1.76346018      14.95372921  F        1        2       0.43858623      -0.24640673      -0.39225244
O        8.17066236       0.63242506      16.25840413  F        1        2      -0.17231704      -0.46518008       0.01441429
O        5.71021236       3.62919935      13.15069587  F        1        2       0.42232372       0.29152693       0.52197691
O        7.66922265       2.49816423      14.45537079  F        1        2       0.01365139       0.38903210      -0.74593605
O        3.84371499       3.13058929      16.75676254  F        1        2       0.10525674       0.24212699       0.12726247
Si       7.26147373      -0.01564122      17.46615774  T        0        1      -0.00018739       0.00512589      -0.00989247
Si       3.74874053       2.17191446      21.17254690  T        0        1      -0.00961744       0.00148824      -0.00888747
Si       6.21179857       2.21587936      19.31210001  T        0        1      -0.00740260       0.00356534      -0.00380795
O        6.30115732       1.11126557      18.10801992  T        1        1       0.00141661       0.00219136      -0.00397315
O        5.14275390       1.76156859      20.42662019  T        1        1      -0.00181638      -0.01149646       0.00166234
O        8.26009113       0.12358652      21.57936179  T        1        1       0.00244126      -0.00172532       0.01009951
O        5.78708038       3.61488853      18.58378832  T        1        1      -0.00755218       0.01002980       0.00171401
O        7.66536669       2.36586142      20.02165682  T        1        1       0.00505309      -0.00007059      -0.00366846
O        3.95047226       3.43519390      22.24178742  T        1        1       0.00263893      -0.00030128      -0.00521240
F        2.88694091       0.38593540      24.32364528  T        0        0      -0.00406219       0.00714266       0.00741202
H        3.09826407       0.72490871      22.92170258  T        0        0      -0.00718142      -0.00543371      -0.00182330
F        3.87329146       0.92550948      26.31038671  T        0        0       0.00890153      -0.01070987      -0.01178269
H        3.40446964       0.67768526      25.33449413  T        0        0       0.00411777       0.00567571       0.00953919
40
Lattice="9.8418 0.0 0.0 -2.460449999999999 4.261624409482844 0.0 0.0 -0.0 34.16586254" Properties=species:S:1:pos:R:3:move_mask:L:1:spacegroup_kinds:I:1:tags:I:1:forces:R:3 surface=alpha_quartz_001 coadsorbate=HF start=1 calculation_kind="Local coadsorbate relaxation; not a reaction path" host_atoms=36 energy=-283.03186790715796 pbc="T T F"
Si       2.31725181       0.00000000      12.00000000  F        0        2      -0.13307760      -0.36572639      -1.69679900
Si      -1.15862590       2.00679893      15.60606667  F        0        2      -0.13993684       0.03826916       1.27804288
Si       1.30182410       2.25482548      13.80303333  F        0        2       0.03779018      -0.15612531       1.02971736
O        1.38326499       1.13103512      12.65233746  F        1        2      -0.50375265       0.21258584      -0.22288353
O        0.28787265       1.76346018      14.95372921  F        1        2       0.45791083      -0.24357381      -0.39820106
O        3.24976236       0.63242506      16.25840413  F        1        2      -0.25108977      -0.56914990       0.11030007
O        0.78931236       3.62919935      13.15069587  F        1        2       0.42221654       0.28764092       0.53085289
O        2.74832265       2.49816423      14.45537079  F        1        2      -0.00012052       0.38373071      -0.74215948
O       -1.07718501       3.13058929      16.75676254  F        1        2      -0.00013439       0.44242627       0.17615785
Si       2.30011997       0.02530924      17.46169804  T        0        1      -0.01060474       0.00639441       0.04148064
Si      -1.19211274       1.68979659      21.12774701  T        0        1       0.01871837      -0.00418884       0.00181459
Si       1.28637569       2.28184846      19.31331739  T        0        1       0.01177855      -0.00333938       0.00996901
O        1.36567370       1.19499533      18.07576889  T        1        1      -0.00530727       0.02566901       0.00301365
O        0.28401972       1.72597693      20.46161597  T        1        1       0.00723901       0.01407802      -0.00960063
O        3.15272015       0.87169951      21.91220445  T        1        1       0.00040175      -0.00086239      -0.00357499
O        0.73942323       3.66209023      18.64166777  T        1        1       0.00820558      -0.02210431       0.00532790
O        2.74360332       2.58573753      19.93848719  T        1        1      -0.00448459      -0.01390308      -0.00023769
O       -1.31030549       2.17589510      22.67755821  T        1        1      -0.00067243      -0.01109109       0.01395856
Si       7.23815181       0.00000000      12.00000000  F        0        2      -0.13254773      -0.36569317      -1.69023179
Si       3.76227409       2.00679893      15.60606667  F        0        2      -0.10317309       0.09542353       1.24801546
Si       6.22272410       2.25482548      13.80303333  F        0        2       0.03056568      -0.16912903       1.04804317
O        6.30416499       1.13103512      12.65233746  F        1        2      -0.50389569       0.20913138      -0.23169577
O        5.20877265       1.76346018      14.95372921  F        1        2       0.43813398      -0.24664885      -0.39241303
O        8.17066236       0.63242506      16.25840413  F        1        2      -0.17500514      -0.46736361       0.02017417
O        5.71021236       3.62919935      13.15069587  F        1        2       0.42228965       0.29155114       0.52191431
O        7.66922265       2.49816423      14.45537079  F        1        2       0.01391506       0.38933677      -0.74579475
O        3.84371499       3.13058929      16.75676254  F        1        2       0.10384303       0.24245180       0.12678974
Si       7.26108055      -0.01535635      17.46641259  T        0        1       0.00104780       0.00389056      -0.01742109
Si       3.74938831       2.17143074      21.17340280  T        0        1      -0.01019715      -0.00023682      -0.01430177
Si       6.21168930       2.21574293      19.31228209  T        0        1      -0.01104714       0.00581074      -0.01069738
O        6.30033300       1.11202236      18.10710768  T        1        1       0.00883460      -0.00298408      -0.00037786
O        5.14269359       1.76064631      20.42640578  T        1        1       0.00403818      -0.01255696       0.00451166
O        8.26047288       0.12326816      21.57784855  T        1        1       0.00058341      -0.00558259       0.01051797
O        5.78623543       3.61459317      18.58406846  T        1        1      -0.00902336       0.01777204       0.00247111
O        7.66553660       2.36644927      20.02115637  T        1        1       0.00343246      -0.00408344      -0.00571660
O        3.95203157       3.43414686      22.24296186  T        1        1       0.00255274       0.00179464      -0.00327724
F        2.88312970       0.39106959      24.32601465  T        0        0      -0.00153228       0.00798158       0.00891800
H        3.09847117       0.72632319      22.92283430  T        0        0      -0.01090062      -0.00719984      -0.00191394
F        3.87884287       0.91840685      26.31125716  T        0        0       0.00981646      -0.01068020      -0.01085337
H        3.40553886       0.67613820      25.33622817  T        0        0       0.00318914       0.00628456       0.00615997
40
Lattice="9.8418 0.0 0.0 -2.460449999999999 4.261624409482844 0.0 0.0 -0.0 34.16586254" Properties=species:S:1:pos:R:3:move_mask:L:1:spacegroup_kinds:I:1:tags:I:1:forces:R:3 surface=alpha_quartz_001 coadsorbate=HF start=1 calculation_kind="Local coadsorbate relaxation; not a reaction path" host_atoms=36 energy=-283.0320942671397 pbc="T T F"
Si       2.31725181       0.00000000      12.00000000  F        0        2      -0.13313887      -0.36574502      -1.69708213
Si      -1.15862590       2.00679893      15.60606667  F        0        2      -0.14124580       0.03631681       1.27606615
Si       1.30182410       2.25482548      13.80303333  F        0        2       0.03803989      -0.15630832       1.02898769
O        1.38326499       1.13103512      12.65233746  F        1        2      -0.50390201       0.21275984      -0.22272230
O        0.28787265       1.76346018      14.95372921  F        1        2       0.45813421      -0.24338212      -0.39732002
O        3.24976236       0.63242506      16.25840413  F        1        2      -0.24531169      -0.56983805       0.10482692
O        0.78931236       3.62919935      13.15069587  F        1        2       0.42242087       0.28744073       0.53119118
O        2.74832265       2.49816423      14.45537079  F        1        2      -0.00032149       0.38316849      -0.74174030
O       -1.07718501       3.13058929      16.75676254  F        1        2       0.00763450       0.44127175       0.18045415
Si       2.30224328       0.02352921      17.46202602  T        0        1      -0.01864489       0.01194697       0.04649065
Si      -1.19194598       1.68952256      21.12626516  T        0        1       0.01693484       0.00240670       0.00437940
Si       1.28861506       2.28093644      19.31413643  T        0        1       0.01182252      -0.00361874       0.01588464
O        1.36872915       1.19203091      18.07906109  T        1        1      -0.01592558       0.03516552      -0.00211254
O        0.28504747       1.72747311      20.46246670  T        1        1       0.00367660       0.01050853      -0.01015576
O        3.15588782       0.87003935      21.91427308  T        1        1      -0.00013833       0.00045416      -0.00034636
O        0.74259240       3.66088410      18.64137024  T        1        1       0.01051433      -0.02888123      -0.00381747
O        2.74520961       2.58549915      19.94024523  T        1        1      -0.00576245      -0.01345342       0.00456767
O       -1.31149759       2.17493736      22.67629324  T        1        1      -0.00200050      -0.01007812       0.01429201
Si       7.23815181       0.00000000      12.00000000  F        0        2      -0.13252993      -0.36569330      -1.69021660
Si       3.76227409       2.00679893      15.60606667  F        0        2      -0.10186244       0.09654638       1.24967563
Si       6.22272410       2.25482548      13.80303333  F        0        2       0.03021510      -0.16906264       1.04823257
O        6.30416499       1.13103512      12.65233746  F        1        2      -0.50381037       0.20907772      -0.23167837
O        5.20877265       1.76346018      14.95372921  F        1        2       0.43800192      -0.24669454      -0.39288308
O        8.17066236       0.63242506      16.25840413  F        1        2      -0.17738010      -0.46951480       0.02594052
O        5.71021236       3.62919935      13.15069587  F        1        2       0.42224668       0.29162472       0.52186805
O        7.66922265       2.49816423      14.45537079  F        1        2       0.01432701       0.38958498      -0.74534588
O        3.84371499       3.13058929      16.75676254  F        1        2       0.10055798       0.24225059       0.12459252
Si       7.26037386      -0.01480097      17.46651562  T        0        1       0.00156959       0.00146632      -0.02231837
Si       3.75052029       2.17065094      21.17512482  T        0        1      -0.00369306      -0.00438394      -0.01642752
Si       6.21126682       2.21563811      19.31240004  T        0        1      -0.01170271       0.00925080      -0.01739265
O        6.29894481       1.11316987      18.10562158  T        1        1       0.01798631      -0.00749727       0.00531384
O        5.14286978       1.75914126      20.42648859  T        1        1       0.01245762      -0.01213390       0.00584962
O        8.26088952       0.12291236      21.57542974  T        1        1      -0.00098589      -0.00900106       0.00996571
O        5.78449623       3.61440954      18.58462812  T        1        1      -0.00926777       0.02533404       0.00462895
O        7.66590277       2.36749486      20.01999235  T        1        1       0.00027639      -0.01234582      -0.00755564
O        3.95494043       3.43212197      22.24567409  T        1        1       0.00181969       0.00396272      -0.00223732
F        2.87611335       0.40087808      24.33081496  T        0        0       0.00131643       0.00923882       0.00798508
H        3.09885608       0.72881695      22.92507435  T        0        0      -0.01707356      -0.00944780      -0.00378197
F        3.88912797       0.90470881      26.31283433  T        0        0       0.01316972      -0.00968879      -0.00513515
H        3.40744976       0.67315884      25.33963137  T        0        0       0.00157523       0.00699227      -0.00092351
40
Lattice="9.8418 0.0 0.0 -2.460449999999999 4.261624409482844 0.0 0.0 -0.0 34.16586254" Properties=species:S:1:pos:R:3:move_mask:L:1:spacegroup_kinds:I:1:tags:I:1:forces:R:3 surface=alpha_quartz_001 coadsorbate=HF start=1 calculation_kind="Local coadsorbate relaxation; not a reaction path" host_atoms=36 energy=-283.03241128183413 pbc="T T F"
Si       2.31725181       0.00000000      12.00000000  F        0        2      -0.13316020      -0.36570112      -1.69704974
Si      -1.15862590       2.00679893      15.60606667  F        0        2      -0.14123703       0.03670152       1.27343113
Si       1.30182410       2.25482548      13.80303333  F        0        2       0.03864388      -0.15642875       1.02864355
O        1.38326499       1.13103512      12.65233746  F        1        2      -0.50399812       0.21282629      -0.22270464
O        0.28787265       1.76346018      14.95372921  F        1        2       0.45797009      -0.24351266      -0.39601042
O        3.24976236       0.63242506      16.25840413  F        1        2      -0.24477265      -0.57393691       0.10786925
O        0.78931236       3.62919935      13.15069587  F        1        2       0.42248200       0.28723195       0.53125734
O        2.74832265       2.49816423      14.45537079  F        1        2      -0.00059529       0.38288089      -0.74170451
O       -1.07718501       3.13058929      16.75676254  F        1        2       0.02073193       0.44535433       0.19186899
Si       2.30504003       0.02114887      17.46323482  T        0        1      -0.02289063       0.01597668       0.03297910
Si      -1.19149648       1.68927096      21.12396259  T        0        1       0.00577685       0.00953437       0.00738725
Si       1.29227803       2.27963912      19.31580743  T        0        1       0.00691949      -0.00186003       0.01913806
O        1.37295542       1.18826770      18.08399895  T        1        1      -0.02459905       0.03721472      -0.01143275
O        0.28666441       1.72980503      20.46361030  T        1        1      -0.00336933       0.00276907      -0.00431739
O        3.16104356       0.86780975      21.91779563  T        1        1      -0.00187718       0.00159598       0.00098728
O        0.74762699       3.65858162      18.64065364  T        1        1       0.00851797      -0.02635524      -0.01633118
O        2.74760473       2.58524078      19.94339527  T        1        1      -0.00298827      -0.01155401       0.01025743
O       -1.31365721       2.17352908      22.67431541  T        1        1      -0.00330970      -0.00931186       0.01243738
Si       7.23815181       0.00000000      12.00000000  F        0        2      -0.13254833      -0.36568364      -1.69025475
Si       3.76227409       2.00679893      15.60606667  F        0        2      -0.10238311       0.09460682       1.25225005
Si       6.22272410       2.25482548      13.80303333  F        0        2       0.02960746      -0.16904652       1.04818950
O        6.30416499       1.13103512      12.65233746  F        1        2      -0.50366596       0.20902220      -0.23164035
O        5.20877265       1.76346018      14.95372921  F        1        2       0.43851867      -0.24634263      -0.39364245
O        8.17066236       0.63242506      16.25840413  F        1        2      -0.17827000      -0.47083117       0.02935609
O        5.71021236       3.62919935      13.15069587  F        1        2       0.42221517       0.29174512       0.52188812
O        7.66922265       2.49816423      14.45537079  F        1        2       0.01481262       0.38963242      -0.74451918
O        3.84371499       3.13058929      16.75676254  F        1        2       0.09441219       0.23996588       0.11916804
Si       7.25938737      -0.01404935      17.46626321  T        0        1       0.00142046      -0.00121838      -0.01995658
Si       3.75240552       2.16969741      21.17788514  T        0        1       0.01146363      -0.01102351      -0.01161210
Si       6.21053352       2.21560450      19.31230202  T        0        1      -0.00762739       0.01308964      -0.02072251
O        6.29715779       1.11440928      18.10380499  T        1        1       0.02572394      -0.00836315       0.01163450
O        5.14361392       1.75706761      20.42713932  T        1        1       0.02227048      -0.00923782       0.00387789
O        8.26137772       0.12233251      21.57142116  T        1        1      -0.00171887      -0.01003990       0.00891311
O        5.78181068       3.61440565      18.58541758  T        1        1      -0.00662749       0.02927601       0.00826408
O        7.66663468       2.36894317      20.01782698  T        1        1      -0.00429351      -0.02410343      -0.00860724
O        3.95954618       3.42922449      22.25021011  T        1        1       0.00098596       0.00529746      -0.00311619
F        2.86553898       0.41679466      24.33892456  T        0        0       0.00696611       0.01287983       0.00975324
H        3.09934319       0.73283390      22.92855467  T        0        0      -0.02543608      -0.01200466      -0.00368106
F        3.90526752       0.88215956      26.31601526  T        0        0       0.01447062      -0.00967434      -0.00403989
H        3.41047748       0.66819133      25.34543399  T        0        0       0.00145868       0.00862852      -0.00820842
40
Lattice="9.8418 0.0 0.0 -2.460449999999999 4.261624409482844 0.0 0.0 -0.0 34.16586254" Properties=species:S:1:pos:R:3:move_mask:L:1:spacegroup_kinds:I:1:tags:I:1:forces:R:3 surface=alpha_quartz_001 coadsorbate=HF start=1 calculation_kind="Local coadsorbate relaxation; not a reaction path" host_atoms=36 energy=-283.0328098558007 pbc="T T F"
Si       2.31725181       0.00000000      12.00000000  F        0        2      -0.13312334      -0.36559241      -1.69662561
Si      -1.15862590       2.00679893      15.60606667  F        0        2      -0.13940900       0.04024247       1.27055359
Si       1.30182410       2.25482548      13.80303333  F        0        2       0.03958017      -0.15646539       1.02886336
O        1.38326499       1.13103512      12.65233746  F        1        2      -0.50402132       0.21275252      -0.22287903
O        0.28787265       1.76346018      14.95372921  F        1        2       0.45733522      -0.24404653      -0.39441559
O        3.24976236       0.63242506      16.25840413  F        1        2      -0.25040274      -0.58080433       0.12020290
O        0.78931236       3.62919935      13.15069587  F        1        2       0.42236185       0.28704549       0.53097103
O        2.74832265       2.49816423      14.45537079  F        1        2      -0.00085911       0.38302056      -0.74212586
O       -1.07718501       3.13058929      16.75676254  F        1        2       0.03771191       0.45460139       0.20958889
Si       2.30828199       0.01834449      17.46531645  T        0        1      -0.02138684       0.01705071       0.00026140
Si      -1.19113250       1.68880601      21.12072317  T        0        1      -0.01363691       0.01329063       0.01077871
Si       1.29719754       2.27792094      19.31849891  T        0        1      -0.00347299       0.00278235       0.01682279
O        1.37798294       1.18396464      18.09031146  T        1        1      -0.02793441       0.02906632      -0.02262515
O        0.28851163       1.73271497      20.46495740  T        1        1      -0.01205854      -0.00794045       0.00698914
O        3.16803183       0.86479054      21.92255620  T        1        1      -0.00508133       0.00141744       0.00388632
O        0.75449563       3.65499997      18.63917964  T        1        1       0.00121563      -0.01253699      -0.02900863
O        2.75059497       2.58496016      19.94823585  T        1        1       0.00299277      -0.00890102       0.01555939
O       -1.31719411       2.17083867      22.67159799  T        1        1      -0.00508996      -0.00844814       0.00930340
Si       7.23815181       0.00000000      12.00000000  F        0        2      -0.13260778      -0.36567646      -1.69038985
Si       3.76227409       2.00679893      15.60606667  F        0        2      -0.10539277       0.08871128       1.25530638
Si       6.22272410       2.25482548      13.80303333  F        0        2       0.02881206      -0.16906733       1.04779536
O        6.30416499       1.13103512      12.65233746  F        1        2      -0.50348937       0.20898988      -0.23155599
O        5.20877265       1.76346018      14.95372921  F        1        2       0.43974602      -0.24550763      -0.39457651
O        8.17066236       0.63242506      16.25840413  F        1        2      -0.17665061      -0.47131899       0.02883120
O        5.71021236       3.62919935      13.15069587  F        1        2       0.42221304       0.29189565       0.52201504
O        7.66922265       2.49816423      14.45537079  F        1        2       0.01526172       0.38938106      -0.74338375
O        3.84371499       3.13058929      16.75676254  F        1        2       0.08497558       0.23468669       0.10993240
Si       7.25811434      -0.01312427      17.46552410  T        0        1       0.00116600      -0.00301681      -0.00818383
Si       3.75524562       2.16823580      21.18165440  T        0        1       0.03303054      -0.01786567      -0.00034729
Si       6.20935960       2.21571462      19.31176110  T        0        1       0.00131936       0.01598644      -0.01891966
O        6.29522809       1.11574232      18.10166716  T        1        1       0.02839469      -0.00389089       0.01566517
O        5.14496581       1.75402113      20.42808932  T        1        1       0.03072741      -0.00334775      -0.00057108
O        8.26171498       0.12095686      21.56514108  T        1        1      -0.00078232      -0.00637130       0.00755414
O        5.77797070       3.61479964      18.58662440  T        1        1       0.00015852       0.02705235       0.01235603
O        7.66753382       2.37046902      20.01448914  T        1        1      -0.00891829      -0.03626140      -0.00820492
O        3.96617559       3.42532571      22.25643442  T        1        1       0.00028541       0.00407118      -0.00810710
F        2.85149201       0.43835019      24.34985858  T        0        0       0.01352956       0.01810530       0.01137123
H        3.09944536       0.73780526      22.93309858  T        0        0      -0.03466295      -0.01377626      -0.00417636
F        3.92739324       0.85283904      26.31842929  T        0        0       0.01226685      -0.01137859      -0.00663468
H        3.41448790       0.66201007      25.35215071  T        0        0       0.00589628       0.01206463      -0.01187694
40
Lattice="9.8418 0.0 0.0 -2.460449999999999 4.261624409482844 0.0 0.0 -0.0 34.16586254" Properties=species:S:1:pos:R:3:move_mask:L:1:spacegroup_kinds:I:1:tags:I:1:forces:R:3 surface=alpha_quartz_001 coadsorbate=HF start=1 calculation_kind="Local coadsorbate relaxation; not a reaction path" host_atoms=36 energy=-283.0333011996421 pbc="T T F"
Si       2.31725181       0.00000000      12.00000000  F        0        2      -0.13303799      -0.36545362      -1.69593787
Si      -1.15862590       2.00679893      15.60606667  F        0        2      -0.13608930       0.04617858       1.26801600
Si       1.30182410       2.25482548      13.80303333  F        0        2       0.04066963      -0.15644473       1.02956349
O        1.38326499       1.13103512      12.65233746  F        1        2      -0.50399663       0.21257927      -0.22320045
O        0.28787265       1.76346018      14.95372921  F        1        2       0.45637026      -0.24486055      -0.39284750
O        3.24976236       0.63242506      16.25840413  F        1        2      -0.25935965      -0.58760543       0.13661102
O        0.78931236       3.62919935      13.15069587  F        1        2       0.42211517       0.28690272       0.53042902
O        2.74832265       2.49816423      14.45537079  F        1        2      -0.00102118       0.38355377      -0.74284445
O       -1.07718501       3.13058929      16.75676254  F        1        2       0.05496530       0.46605223       0.22948804
Si       2.31154819       0.01549103      17.46778285  T        0        1      -0.01446982       0.01451620      -0.04179404
Si      -1.19090411       1.68778951      21.11670481  T        0        1      -0.03491368       0.01154511       0.01351889
Si       1.30291037       2.27600947      19.32179792  T        0        1      -0.01718477       0.00953733       0.00807785
O        1.38305460       1.17960560      18.09700820  T        1        1      -0.02473062       0.01256017      -0.03179442
O        0.29047778       1.73591170      20.46635543  T        1        1      -0.01984469      -0.01880279       0.01984676
O        3.17584910       0.86160292      21.92811904  T        1        1      -0.00874779      -0.00035566       0.00409017
O        0.76254314       3.65053112      18.63672721  T        1        1      -0.01007414       0.00959931      -0.03782045
O        2.75418297       2.58449266      19.95394740  T        1        1       0.00876440      -0.00703377       0.01984418
O       -1.32154468       2.16593062      22.66840165  T        1        1      -0.00846129      -0.00590817       0.00730018
Si       7.23815181       0.00000000      12.00000000  F        0        2      -0.13269426      -0.36568988      -1.69063914
Si       3.76227409       2.00679893      15.60606667  F        0        2      -0.11047269       0.07965688       1.25799875
Si       6.22272410       2.25482548      13.80303333  F        0        2       0.02799735      -0.16909466       1.04707463
O        6.30416499       1.13103512      12.65233746  F        1        2      -0.50333641       0.20901072      -0.23141281
O        5.20877265       1.76346018      14.95372921  F        1        2       0.44141425      -0.24432429      -0.39542691
O        8.17066236       0.63242506      16.25840413  F        1        2      -0.17229449      -0.47157953       0.02437111
O        5.71021236       3.62919935      13.15069587  F        1        2       0.42225919       0.29203395       0.52225097
O        7.66922265       2.49816423      14.45537079  F        1        2       0.01557151       0.38885791      -0.74213663
O        3.84371499       3.13058929      16.75676254  F        1        2       0.07346958       0.22665077       0.09797460
Si       7.25674185      -0.01219396      17.46438577  T        0        1       0.00168349      -0.00307408       0.01128072
Si       3.75915482       2.16625529      21.18586435  T        0        1       0.05326783      -0.02360924       0.01366621
Si       6.20797819       2.21594892      19.31077496  T        0        1       0.01259678       0.01598518      -0.01201219
O        6.29368381       1.11707575      18.09946261  T        1        1       0.02354619       0.00541332       0.01460841
O        5.14696159       1.74978102      20.42900275  T        1        1       0.03610699       0.00477069      -0.00568644
O        8.26239905       0.11826985      21.55643776  T        1        1       0.00099239       0.00017010       0.00666103
O        5.77334240       3.61556217      18.58827539  T        1        1       0.01082972       0.01836618       0.01550504
O        7.66852414       2.37146537      20.01028724  T        1        1      -0.01170089      -0.04421478      -0.00630466
O        3.97445782       3.42117828      22.26288709  T        1        1       0.00109506       0.00070102      -0.01529158
F        2.83581717       0.46463723      24.36308466  T        0        0       0.02095148       0.02421235       0.01469310
H        3.09866319       0.74344085      22.93795813  T        0        0      -0.04266356      -0.01348777      -0.00148737
F        3.95388449       0.81858332      26.31968087  T        0        0       0.00382379      -0.01475241      -0.01689683
H        3.41940397       0.65517451      25.35919448  T        0        0       0.01660350       0.01743760      -0.00933643
40
Lattice="9.8418 0.0 0.0 -2.460449999999999 4.261624409482844 0.0 0.0 -0.0 34.16586254" Properties=species:S:1:pos:R:3:move_mask:L:1:spacegroup_kinds:I:1:tags:I:1:forces:R:3 surface=alpha_quartz_001 coadsorbate=HF start=1 calculation_kind="Local coadsorbate relaxation; not a reaction path" host_atoms=36 energy=-283.0340472169083 pbc="T T F"
Si       2.31725181       0.00000000      12.00000000  F        0        2      -0.13290497      -0.36529349      -1.69501311
Si      -1.15862590       2.00679893      15.60606667  F        0        2      -0.13121401       0.05449190       1.26595230
Si       1.30182410       2.25482548      13.80303333  F        0        2       0.04190077      -0.15639597       1.03070814
O        1.38326499       1.13103512      12.65233746  F        1        2      -0.50394604       0.21232176      -0.22366515
O        0.28787265       1.76346018      14.95372921  F        1        2       0.45507234      -0.24590644      -0.39138648
O        3.24976236       0.63242506      16.25840413  F        1        2      -0.26989413      -0.59265433       0.15416924
O        0.78931236       3.62919935      13.15069587  F        1        2       0.42176242       0.28680067       0.52966460
O        2.74832265       2.49816423      14.45537079  F        1        2      -0.00104678       0.38446644      -0.74379410
O       -1.07718501       3.13058929      16.75676254  F        1        2       0.07136652       0.47802210       0.25006624
Si       2.31491288       0.01252408      17.47048185  T        0        1      -0.00226241       0.00810260      -0.08882766
Si      -1.19093813       1.68545259      21.11157258  T        0        1      -0.05475786       0.00308314       0.01672857
Si       1.30964386       2.27379619      19.32572629  T        0        1      -0.03433989       0.01796549      -0.00822700
O        1.38810829       1.17498459      18.10403608  T        1        1      -0.01444778      -0.01219524      -0.03668697
O        0.29261665       1.73961560      20.46791904  T        1        1      -0.02618313      -0.02891708       0.03184222
O        3.18431626       0.85789354      21.93444835  T        1        1      -0.01258919      -0.00516235       0.00652772
O        0.77215553       3.64494692      18.63282124  T        1        1      -0.02475671       0.03915465      -0.04006578
O        2.75883329       2.58319886      19.96042994  T        1        1       0.01165610      -0.00550665       0.02223981
O       -1.32687389       2.15648697      22.66482806  T        1        1      -0.01489308       0.00047230       0.00604837
Si       7.23815181       0.00000000      12.00000000  F        0        2      -0.13279984      -0.36573387      -1.69099976
Si       3.76227409       2.00679893      15.60606667  F        0        2      -0.11755953       0.06733539       1.26003210
Si       6.22272410       2.25482548      13.80303333  F        0        2       0.02713668      -0.16910758       1.04604769
O        6.30416499       1.13103512      12.65233746  F        1        2      -0.50321245       0.20908812      -0.23119904
O        5.20877265       1.76346018      14.95372921  F        1        2       0.44342789      -0.24277121      -0.39618926
O        8.17066236       0.63242506      16.25840413  F        1        2      -0.16425632      -0.47294233       0.01605597
O        5.71021236       3.62919935      13.15069587  F        1        2       0.42235801       0.29216242       0.52258880
O        7.66922265       2.49816423      14.45537079  F        1        2       0.01573845       0.38802524      -0.74079982
O        3.84371499       3.13058929      16.75676254  F        1        2       0.06040679       0.21670132       0.08409842
Si       7.25515400      -0.01112271      17.46282702  T        0        1       0.00344403      -0.00177874       0.03788372
Si       3.76474501       2.16297798      21.19039231  T        0        1       0.06734486      -0.02719245       0.02773760
Si       6.20623518       2.21637314      19.30918228  T        0        1       0.02620344       0.01110883       0.00059040
O        6.29273270       1.11900800      18.09668006  T        1        1       0.00867253       0.01904356       0.00568210
O        5.14979007       1.74299709      20.42940505  T        1        1       0.03672686       0.01578934      -0.00942380
O        8.26404146       0.11309853      21.54418588  T        1        1       0.00353930       0.00877252       0.00550125
O        5.76729985       3.61701566      18.59098468  T        1        1       0.02613138       0.00190000       0.01639956
O        7.66943760       2.37122631      20.00509370  T        1        1      -0.01034635      -0.04444602      -0.00206476
O        3.98531551       3.41654859      22.26877439  T        1        1       0.00415879      -0.00548276      -0.02428345
F        2.81801296       0.49801442      24.37939645  T        0        0       0.02471609       0.02937747       0.01204442
H        3.09605528       0.74967496      22.94307108  T        0        0      -0.04789895      -0.00884760       0.00074947
F        3.98686728       0.77827917      26.31724973  T        0        0      -0.00729429      -0.01835654      -0.02507685
H        3.42582362       0.64811407      25.36573877  T        0        0       0.03484044       0.02450539      -0.00165575
40
Lattice="9.8418 0.0 0.0 -2.460449999999999 4.261624409482844 0.0 0.0 -0.0 34.16586254" Properties=species:S:1:pos:R:3:move_mask:L:1:spacegroup_kinds:I:1:tags:I:1:forces:R:3 surface=alpha_quartz_001 coadsorbate=HF start=1 calculation_kind="Local coadsorbate relaxation; not a reaction path" host_atoms=36 energy=-283.03511281079676 pbc="T T F"
Si       2.31725181       0.00000000      12.00000000  F        0        2      -0.13278458      -0.36518296      -1.69429813
Si      -1.15862590       2.00679893      15.60606667  F        0        2      -0.12645896       0.06237685       1.26445358
Si       1.30182410       2.25482548      13.80303333  F        0        2       0.04300456      -0.15640303       1.03159066
O        1.38326499       1.13103512      12.65233746  F        1        2      -0.50397121       0.21215379      -0.22405278
O        0.28787265       1.76346018      14.95372921  F        1        2       0.45386864      -0.24686555      -0.39011051
O        3.24976236       0.63242506      16.25840413  F        1        2      -0.27556657      -0.59131221       0.16160024
O        0.78931236       3.62919935      13.15069587  F        1        2       0.42150908       0.28668230       0.52909075
O        2.74832265       2.49816423      14.45537079  F        1        2      -0.00086255       0.38539585      -0.74438213
O       -1.07718501       3.13058929      16.75676254  F        1        2       0.08266213       0.48502064       0.26474386
Si       2.31819884       0.00963218      17.47253166  T        0        1       0.01079999       0.00005612      -0.11800096
Si      -1.19146576       1.68232202      21.10595704  T        0        1      -0.06095774      -0.01030945       0.02046326
Si       1.31677650       2.27154030      19.32988570  T        0        1      -0.04901455       0.02443592      -0.02749977
O        1.39275414       1.17009519      18.11081730  T        1        1       0.00063056      -0.03609909      -0.03285840
O        0.29470064       1.74352530      20.46982813  T        1        1      -0.02820890      -0.03313619       0.03538235
O        3.19306417       0.85412784      21.94162097  T        1        1      -0.01491214      -0.01242950       0.01258744
O        0.78272134       3.63886938      18.62726093  T        1        1      -0.03742721       0.06465744      -0.03057375
O        2.76435454       2.58080082      19.96754290  T        1        1       0.00570285      -0.00585827       0.02028346
O       -1.33271938       2.14405852      22.66120166  T        1        1      -0.02509193       0.01075476       0.00622548
Si       7.23815181       0.00000000      12.00000000  F        0        2      -0.13289777      -0.36582105      -1.69148176
Si       3.76227409       2.00679893      15.60606667  F        0        2      -0.12457759       0.05496638       1.26049705
Si       6.22272410       2.25482548      13.80303333  F        0        2       0.02643418      -0.16903657       1.04488012
O        6.30416499       1.13103512      12.65233746  F        1        2      -0.50316861       0.20924201      -0.23088602
O        5.20877265       1.76346018      14.95372921  F        1        2       0.44508091      -0.24131284      -0.39652825
O        8.17066236       0.63242506      16.25840413  F        1        2      -0.15521864      -0.47628024       0.00771781
O        5.71021236       3.62919935      13.15069587  F        1        2       0.42250938       0.29222673       0.52300696
O        7.66922265       2.49816423      14.45537079  F        1        2       0.01579515       0.38715530      -0.73960688
O        3.84371499       3.13058929      16.75676254  F        1        2       0.04944678       0.20838785       0.07307233
Si       7.25354078      -0.00997751      17.46129929  T        0        1       0.00659429       0.00019721       0.06090686
Si       3.77230692       2.15861746      21.19528977  T        0        1       0.06214372      -0.02871779       0.03477965
Si       6.20457991       2.21713265      19.30711561  T        0        1       0.03762639       0.00033504       0.01592581
O        6.29252899       1.12154017      18.09364115  T        1        1      -0.01429237       0.03199030      -0.01225331
O        5.15371982       1.73461793      20.42932674  T        1        1       0.03029686       0.02605306      -0.00853620
O        8.26673473       0.10645636      21.53010007  T        1        1       0.00524997       0.01384184       0.00542018
O        5.76083082       3.61910649      18.59446961  T        1        1       0.04176791      -0.01786338       0.01348521
O        7.67031250       2.36946572      19.99918961  T        1        1      -0.00198192      -0.03237735       0.00386062
O        3.99797201       3.41203277      22.27362088  T        1        1       0.01166270      -0.01244331      -0.03198092
F        2.79989498       0.53796549      24.39868158  T        0        0       0.03719462       0.03571794       0.02168373
H        3.09145190       0.75658249      22.94848606  T        0        0      -0.04786030       0.00056191       0.00314947
F        4.02403724       0.73134660      26.31328387  T        0        0      -0.03245388      -0.02222419      -0.05105868
H        3.43381847       0.64063227      25.37283080  T        0        0       0.05772677       0.03146377       0.00930156
40
Lattice="9.8418 0.0 0.0 -2.460449999999999 4.261624409482844 0.0 0.0 -0.0 34.16586254" Properties=species:S:1:pos:R:3:move_mask:L:1:spacegroup_kinds:I:1:tags:I:1:forces:R:3 surface=alpha_quartz_001 coadsorbate=HF start=1 calculation_kind="Local coadsorbate relaxation; not a reaction path" host_atoms=36 energy=-283.0353956874285 pbc="T T F"
Si       2.31725181       0.00000000      12.00000000  F        0        2      -0.13260320      -0.36511162      -1.69341005
Si      -1.15862590       2.00679893      15.60606667  F        0        2      -0.12064851       0.07091160       1.26725734
Si       1.30182410       2.25482548      13.80303333  F        0        2       0.04355124      -0.15630603       1.03325882
O        1.38326499       1.13103512      12.65233746  F        1        2      -0.50390864       0.21181264      -0.22462261
O        0.28787265       1.76346018      14.95372921  F        1        2       0.45263403      -0.24748470      -0.39092425
O        3.24976236       0.63242506      16.25840413  F        1        2      -0.27593652      -0.57720045       0.15355608
O        0.78931236       3.62919935      13.15069587  F        1        2       0.42108782       0.28689953       0.52828773
O        2.74832265       2.49816423      14.45537079  F        1        2      -0.00033275       0.38690015      -0.74517888
O       -1.07718501       3.13058929      16.75676254  F        1        2       0.07248584       0.48128215       0.26051381
Si       2.31803244       0.00972493      17.47261061  T        0        1       0.03299471      -0.01788316      -0.12402480
Si      -1.19183615       1.67384842      21.10094707  T        0        1      -0.04786777      -0.03705873       0.02403711
Si       1.32107360       2.27081251      19.33136681  T        0        1      -0.05909881       0.02432696      -0.05961992
O        1.39135695       1.16959745      18.11039125  T        1        1       0.02883583      -0.06675384      -0.00971532
O        0.29620145       1.74644155      20.47050859  T        1        1      -0.02042201      -0.02828619       0.02868373
O        3.19333585       0.85265378      21.94452632  T        1        1      -0.00576376      -0.02558295      -0.01541255
O        0.78889179       3.63481871      18.62024962  T        1        1      -0.04736212       0.09261302       0.00820376
O        2.77034488       2.57471872      19.96832863  T        1        1      -0.01148814      -0.00452570       0.00976826
O       -1.33605209       2.11691814      22.66070394  T        1        1      -0.03846425       0.03490761       0.00933816
Si       7.23815181       0.00000000      12.00000000  F        0        2      -0.13293615      -0.36593894      -1.69171661
Si       3.76227409       2.00679893      15.60606667  F        0        2      -0.13159246       0.04252151       1.25664960
Si       6.22272410       2.25482548      13.80303333  F        0        2       0.02616629      -0.16900770       1.04406345
O        6.30416499       1.13103512      12.65233746  F        1        2      -0.50326687       0.20940955      -0.23069955
O        5.20877265       1.76346018      14.95372921  F        1        2       0.44598723      -0.23987441      -0.39621280
O        8.17066236       0.63242506      16.25840413  F        1        2      -0.13739476      -0.48515487      -0.00676784
O        5.71021236       3.62919935      13.15069587  F        1        2       0.42268704       0.29222724       0.52322810
O        7.66922265       2.49816423      14.45537079  F        1        2       0.01528829       0.38583851      -0.73946248
O        3.84371499       3.13058929      16.75676254  F        1        2       0.04868942       0.20647661       0.07181234
Si       7.25274059      -0.00924294      17.45982247  T        0        1       0.01114966       0.00319320       0.08443320
Si       3.78075343       2.15138850      21.19508438  T        0        1       0.01734714      -0.01317835       0.02690551
Si       6.20329707       2.21784918      19.30462299  T        0        1       0.04703800      -0.02556687       0.04025077
O        6.29595737       1.12562630      18.08999826  T        1        1      -0.06039771       0.04574300      -0.05001880
O        5.15817280       1.72032018      20.42634480  T        1        1       0.00481102       0.03851413       0.00082099
O        8.27408977       0.09210578      21.51249066  T        1        1       0.00938142       0.01489121       0.00012651
O        5.75434775       3.62258878      18.60041187  T        1        1       0.05929365      -0.05387850       0.00068945
O        7.67009221       2.36130251      19.99549901  T        1        1       0.02093068       0.01071156       0.01549258
O        4.01067667       3.41115310      22.26609518  T        1        1       0.01814807      -0.02757861      -0.03180964
F        2.79349321       0.57468714      24.41445488  T        0        0      -0.06997909       0.02260622      -0.11607516
H        3.08073194       0.75991148      22.94800160  T        0        0      -0.03059586       0.02266973       0.01497200
F        4.05417908       0.70150067      26.29358992  T        0        0       0.05313575      -0.01006285       0.10544931
H        3.44278094       0.64096411      25.36984534  T        0        0       0.07841622       0.03197833       0.01787262
40
Lattice="9.8418 0.0 0.0 -2.460449999999999 4.261624409482844 0.0 0.0 -0.0 34.16586254" Properties=species:S:1:pos:R:3:move_mask:L:1:spacegroup_kinds:I:1:tags:I:1:forces:R:3 surface=alpha_quartz_001 coadsorbate=HF start=1 calculation_kind="Local coadsorbate relaxation; not a reaction path" host_atoms=36 energy=-283.0356877442295 pbc="T T F"
Si       2.31725181       0.00000000      12.00000000  F        0        2      -0.13263618      -0.36515019      -1.69372369
Si      -1.15862590       2.00679893      15.60606667  F        0        2      -0.12020658       0.07198194       1.26491044
Si       1.30182410       2.25482548      13.80303333  F        0        2       0.04418435      -0.15654552       1.03238293
O        1.38326499       1.13103512      12.65233746  F        1        2      -0.50418261       0.21207461      -0.22448852
O        0.28787265       1.76346018      14.95372921  F        1        2       0.45248705      -0.24774916      -0.38938702
O        3.24976236       0.63242506      16.25840413  F        1        2      -0.26863764      -0.56911275       0.14000257
O        0.78931236       3.62919935      13.15069587  F        1        2       0.42133870       0.28657564       0.52869233
O        2.74832265       2.49816423      14.45537079  F        1        2      -0.00015521       0.38678137      -0.74441814
O       -1.07718501       3.13058929      16.75676254  F        1        2       0.08006583       0.47850764       0.26510995
Si       2.32181096       0.00648022      17.47314300  T        0        1       0.03309067      -0.01803517      -0.10657056
Si      -1.19304511       1.67308099      21.09670723  T        0        1      -0.03105359      -0.04024480       0.02915803
Si       1.32724650       2.26868127      19.33520001  T        0        1      -0.06272762       0.02392189      -0.06321531
O        1.39663304       1.16347190      18.11771120  T        1        1       0.03437458      -0.06731714      -0.00194234
O        0.29767513       1.74975341      20.47303215  T        1        1      -0.01936015      -0.02361827       0.01768113
O        3.20314556       0.84885071      21.95254260  T        1        1      -0.01054173      -0.03137791       0.02188890
O        0.79896873       3.62972239      18.61482844  T        1        1      -0.04824621       0.08994394       0.02025997
O        2.77493830       2.57244555      19.97675426  T        1        1      -0.02638277      -0.00731889       0.00382503
O       -1.34175250       2.11156998      22.65711887  T        1        1      -0.04977959       0.03977342       0.00898384
Si       7.23815181       0.00000000      12.00000000  F        0        2      -0.13297428      -0.36603053      -1.69217091
Si       3.76227409       2.00679893      15.60606667  F        0        2      -0.13337811       0.03812898       1.25646086
Si       6.22272410       2.25482548      13.80303333  F        0        2       0.02575250      -0.16879113       1.04340679
O        6.30416499       1.13103512      12.65233746  F        1        2      -0.50326250       0.20954697      -0.23036118
O        5.20877265       1.76346018      14.95372921  F        1        2       0.44617561      -0.23949208      -0.39617203
O        8.17066236       0.63242506      16.25840413  F        1        2      -0.13701684      -0.48992125      -0.00333143
O        5.71021236       3.62919935      13.15069587  F        1        2       0.42278762       0.29223012       0.52354792
O        7.66922265       2.49816423      14.45537079  F        1        2       0.01558421       0.38572254      -0.73861001
O        3.84371499       3.13058929      16.75676254  F        1        2       0.04393526       0.20533623       0.06967828
Si       7.25131505      -0.00809298      17.45938776  T        0        1       0.01384305       0.00289828       0.08170990
Si       3.78838579       2.14785296      21.20127072  T        0        1      -0.00373013      -0.01805866       0.02109701
Si       6.20242165       2.21878622      19.30309510  T        0        1       0.04806104      -0.03281057       0.04552794
O        6.29497327       1.12803940      18.08745324  T        1        1      -0.07062093       0.04599137      -0.06288141
O        5.16228909       1.71523386      20.42694984  T        1        1      -0.00135766       0.04049330       0.00571565
O        8.27559659       0.08951386      21.50328524  T        1        1       0.00771592       0.01055850       0.00434253
O        5.74992358       3.62414462      18.60283544  T        1        1       0.06360892      -0.05837366      -0.00371500
O        7.67116518       2.36060271      19.98988541  T        1        1       0.03027281       0.02287123       0.01794764
O        4.02171119       3.40676534      22.27279778  T        1        1       0.03100710      -0.02885963      -0.03876914
F        2.77656860       0.61324119      24.43343189  T        0        0       0.03997215       0.02067243      -0.00162064
H        3.07720766       0.76733860      22.95500088  T        0        0      -0.02876643       0.03048126       0.00817025
F        4.08732525       0.65155712      26.29623063  T        0        0      -0.06446669      -0.00384604      -0.04667000
H        3.45058961       0.63196330      25.38038489  T        0        0       0.09522606       0.03816169       0.02754747
40
Lattice="9.8418 0.0 0.0 -2.460449999999999 4.261624409482844 0.0 0.0 -0.0 34.16586254" Properties=species:S:1:pos:R:3:move_mask:L:1:spacegroup_kinds:I:1:tags:I:1:forces:R:3 surface=alpha_quartz_001 coadsorbate=HF start=1 calculation_kind="Local coadsorbate relaxation; not a reaction path" host_atoms=36 energy=-283.0377125766446 pbc="T T F"
Si       2.31725181       0.00000000      12.00000000  F        0        2      -0.13296285      -0.36542443      -1.69579621
Si      -1.15862590       2.00679893      15.60606667  F        0        2      -0.13049765       0.05576058       1.26469805
Si       1.30182410       2.25482548      13.80303333  F        0        2       0.04259432      -0.15678636       1.02899586
O        1.38326499       1.13103512      12.65233746  F        1        2      -0.50445712       0.21281948      -0.22334958
O        0.28787265       1.76346018      14.95372921  F        1        2       0.45496413      -0.24609339      -0.38968306
O        3.24976236       0.63242506      16.25840413  F        1        2      -0.24925391      -0.56453394       0.11052708
O        0.78931236       3.62919935      13.15069587  F        1        2       0.42223964       0.28634884       0.53055426
O        2.74832265       2.49816423      14.45537079  F        1        2      -0.00029929       0.38458615      -0.74202298
O       -1.07718501       3.13058929      16.75676254  F        1        2       0.06712088       0.46258031       0.24155311
Si       2.31958994       0.00852766      17.46969934  T        0        1       0.00159165       0.00251219      -0.02894773
Si      -1.19340659       1.68178529      21.10475544  T        0        1      -0.00811764      -0.01882182       0.01735678
Si       1.31938589       2.27090845      19.33151324  T        0        1      -0.03137285       0.00880958      -0.02366722
O        1.39385301       1.16636695      18.11304729  T        1        1       0.00741179      -0.01579445      -0.00507468
O        0.29484702       1.74513780      20.47238109  T        1        1      -0.00825731      -0.00810731      -0.00199404
O        3.19812195       0.85257223      21.94783405  T        1        1      -0.00763634      -0.02280807       0.03074974
O        0.78856563       3.63658249      18.62079963  T        1        1      -0.02057290       0.03318097       0.01260084
O        2.76795747       2.57618403      19.97316440  T        1        1      -0.02824145      -0.01185452       0.00176190
O       -1.33595838       2.13969133      22.66033636  T        1        1      -0.03469376       0.02685382       0.01771169
Si       7.23815181       0.00000000      12.00000000  F        0        2      -0.13284125      -0.36594187      -1.69184549
Si       3.76227409       2.00679893      15.60606667  F        0        2      -0.12032756       0.05980788       1.25587428
Si       6.22272410       2.25482548      13.80303333  F        0        2       0.02683055      -0.16866421       1.04481345
O        6.30416499       1.13103512      12.65233746  F        1        2      -0.50335714       0.20943432      -0.23051193
O        5.20877265       1.76346018      14.95372921  F        1        2       0.44288781      -0.24228845      -0.39522752
O        8.17066236       0.63242506      16.25840413  F        1        2      -0.15959121      -0.48578640       0.01984793
O        5.71021236       3.62919935      13.15069587  F        1        2       0.42261379       0.29203101       0.52317948
O        7.66922265       2.49816423      14.45537079  F        1        2       0.01592909       0.38762942      -0.73997036
O        3.84371499       3.13058929      16.75676254  F        1        2       0.06125315       0.22171619       0.09081567
Si       7.25319222      -0.00930943      17.46231888  T        0        1       0.00897664      -0.00006701       0.02518024
Si       3.78090735       2.15453771      21.19943098  T        0        1      -0.01617005      -0.02182139       0.00489756
Si       6.20538725       2.21854107      19.30586005  T        0        1       0.02959649      -0.01655113       0.01070218
O        6.29364072       1.12436619      18.09212678  T        1        1      -0.02842384       0.01654594      -0.03696083
O        5.15915643       1.73078474      20.42928210  T        1        1       0.00268528       0.01420296       0.01306717
O        8.26992728       0.10485927      21.52662333  T        1        1       0.00011384      -0.01481302       0.00885647
O        5.75983387       3.62117468      18.59703333  T        1        1       0.03275417      -0.01380855       0.00177312
O        7.67105453       2.36534764      19.99561140  T        1        1       0.02332660       0.00766762       0.00684229
O        4.00582224       3.41089479      22.27390855  T        1        1       0.02162028      -0.01005341      -0.01758144
F        2.79433653       0.57166912      24.41440819  T        0        0       0.04397750       0.03857285       0.03152983
H        3.08475521       0.76199550      22.95366170  T        0        0      -0.02778162       0.01523608      -0.01100295
F        4.04501325       0.68860372      26.31714100  T        0        0      -0.03127835      -0.00930316      -0.04813891
H        3.44194378       0.63468679      25.38245058  T        0        0       0.04764653       0.02302670      -0.01211406
40
Lattice="9.8418 0.0 0.0 -2.460449999999999 4.261624409482844 0.0 0.0 -0.0 34.16586254" Properties=species:S:1:pos:R:3:move_mask:L:1:spacegroup_kinds:I:1:tags:I:1:forces:R:3 surface=alpha_quartz_001 coadsorbate=HF start=1 calculation_kind="Local coadsorbate relaxation; not a reaction path" host_atoms=36 energy=-283.0384178321789 pbc="T T F"
Si       2.31725181       0.00000000      12.00000000  F        0        2      -0.13300895      -0.36548500      -1.69613274
Si      -1.15862590       2.00679893      15.60606667  F        0        2      -0.13188997       0.05353213       1.26464370
Si       1.30182410       2.25482548      13.80303333  F        0        2       0.04254124      -0.15687671       1.02834247
O        1.38326499       1.13103512      12.65233746  F        1        2      -0.50458609       0.21297417      -0.22319072
O        0.28787265       1.76346018      14.95372921  F        1        2       0.45527623      -0.24572778      -0.38972557
O        3.24976236       0.63242506      16.25840413  F        1        2      -0.24172317      -0.55826019       0.09685261
O        0.78931236       3.62919935      13.15069587  F        1        2       0.42240872       0.28628013       0.53091534
O        2.74832265       2.49816423      14.45537079  F        1        2      -0.00034576       0.38423777      -0.74151959
O       -1.07718501       3.13058929      16.75676254  F        1        2       0.06319261       0.45624490       0.23536824
Si       2.31975511       0.00843260      17.46884010  T        0        1      -0.00019482       0.00162620      -0.00618124
Si      -1.19358725       1.67957831      21.10425175  T        0        1       0.00392512      -0.01844730       0.01955396
Si       1.31960462       2.27089884      19.33118979  T        0        1      -0.02677499       0.00264562      -0.01948674
O        1.39381989       1.16561268      18.11298140  T        1        1       0.00328025      -0.00660078      -0.00015837
O        0.29513793       1.74572542      20.47282676  T        1        1      -0.01027976      -0.00582478      -0.00752185
O        3.19782636       0.85158529      21.94840314  T        1        1      -0.00345138      -0.02294294       0.01839173
O        0.78925679       3.63660874      18.61979274  T        1        1      -0.01572233       0.02424625       0.01866142
O        2.76871490       2.57414084      19.97329841  T        1        1      -0.03108873      -0.01010419      -0.00007519
O       -1.33705667       2.13424413      22.66077802  T        1        1      -0.03634463       0.02929458       0.01368226
Si       7.23815181       0.00000000      12.00000000  F        0        2      -0.13279442      -0.36594075      -1.69169143
Si       3.76227409       2.00679893      15.60606667  F        0        2      -0.11801129       0.06212832       1.25504725
Si       6.22272410       2.25482548      13.80303333  F        0        2       0.02668375      -0.16864339       1.04523162
O        6.30416499       1.13103512      12.65233746  F        1        2      -0.50331885       0.20936387      -0.23055818
O        5.20877265       1.76346018      14.95372921  F        1        2       0.44214906      -0.24252106      -0.39535666
O        8.17066236       0.63242506      16.25840413  F        1        2      -0.15926208      -0.49064070       0.02475342
O        5.71021236       3.62919935      13.15069587  F        1        2       0.42256927       0.29208257       0.52302569
O        7.66922265       2.49816423      14.45537079  F        1        2       0.01613488       0.38773200      -0.74008012
O        3.84371499       3.13058929      16.75676254  F        1        2       0.06576809       0.22711260       0.09683087
Si       7.25302263      -0.00897426      17.46268231  T        0        1       0.00936637      -0.00280463       0.01619695
Si       3.78233807       2.15235109      21.19952712  T        0        1      -0.02921863      -0.01356480      -0.00785804
Si       6.20542954       2.21845018      19.30583917  T        0        1       0.02314115      -0.01916946       0.00979319
O        6.29374503       1.12615426      18.09039322  T        1        1      -0.02832781       0.01082058      -0.03702194
O        5.15995509       1.72769339      20.42883707  T        1        1       0.00080047       0.01461835       0.01306667
O        8.27183691       0.10154757      21.52370341  T        1        1       0.00101363      -0.01645337       0.00782247
O        5.75881517       3.62176476      18.59864109  T        1        1       0.02899826      -0.01308564      -0.00251233
O        7.67119919       2.36343078      19.99528974  T        1        1       0.02474119       0.01388429       0.00710255
O        4.00870406       3.41075490      22.27158338  T        1        1       0.02020281      -0.01387072      -0.01517170
F        2.79342621       0.58005402      24.41729545  T        0        0       0.02417937       0.03627014       0.00467418
H        3.08233324       0.76309174      22.95339636  T        0        0      -0.02532841       0.01608946      -0.00109258
F        4.05103645       0.68232410      26.31249349  T        0        0      -0.00765343      -0.00489365      -0.01008177
H        3.44464034       0.63540258      25.38121827  T        0        0       0.04295303       0.02067391      -0.01453986
40
Lattice="9.8418 0.0 0.0 -2.460449999999999 4.261624409482844 0.0 0.0 -0.0 34.16586254" Properties=species:S:1:pos:R:3:move_mask:L:1:spacegroup_kinds:I:1:tags:I:1:forces:R:3 surface=alpha_quartz_001 coadsorbate=HF start=1 calculation_kind="Local coadsorbate relaxation; not a reaction path" host_atoms=36 energy=-283.03965450710984 pbc="T T F"
Si       2.31725181       0.00000000      12.00000000  F        0        2      -0.13316664      -0.36563390      -1.69705593
Si      -1.15862590       2.00679893      15.60606667  F        0        2      -0.13733174       0.04522993       1.26427381
Si       1.30182410       2.25482548      13.80303333  F        0        2       0.04247679      -0.15716298       1.02646378
O        1.38326499       1.13103512      12.65233746  F        1        2      -0.50492053       0.21340749      -0.22277119
O        0.28787265       1.76346018      14.95372921  F        1        2       0.45658629      -0.24455408      -0.38964454
O        3.24976236       0.63242506      16.25840413  F        1        2      -0.22238345      -0.54247995       0.06075016
O        0.78931236       3.62919935      13.15069587  F        1        2       0.42287020       0.28607029       0.53191180
O        2.74832265       2.49816423      14.45537079  F        1        2      -0.00075402       0.38310201      -0.74019293
O       -1.07718501       3.13058929      16.75676254  F        1        2       0.05535250       0.43948292       0.22014176
Si       2.32067235       0.00771521      17.46664389  T        0        1      -0.00766717       0.00196267       0.05424997
Si      -1.19378121       1.67541792      21.10363845  T        0        1       0.02772216      -0.00906141       0.02170732
Si       1.32019846       2.27061164      19.33039757  T        0        1      -0.01327658      -0.01286017       0.00135626
O        1.39445071       1.16256401      18.11410252  T        1        1      -0.01000748       0.02146620       0.00704146
O        0.29575410       1.74726089      20.47405479  T        1        1      -0.01039993       0.00059417      -0.02158466
O        3.19890816       0.84872158      21.95178813  T        1        1       0.00299714      -0.02331217       0.00965449
O        0.79180982       3.63665243      18.61718177  T        1        1      -0.00040817      -0.00554473       0.03297820
O        2.77000183       2.56890395      19.97523091  T        1        1      -0.03675544      -0.00449446      -0.00924740
O       -1.34071631       2.12548355      22.66145468  T        1        1      -0.03751915       0.03033741       0.00196407
Si       7.23815181       0.00000000      12.00000000  F        0        2      -0.13264427      -0.36586509      -1.69099255
Si       3.76227409       2.00679893      15.60606667  F        0        2      -0.11021079       0.06997872       1.25414994
Si       6.22272410       2.25482548      13.80303333  F        0        2       0.02620128      -0.16865739       1.04699744
O        6.30416499       1.13103512      12.65233746  F        1        2      -0.50307977       0.20900242      -0.23087848
O        5.20877265       1.76346018      14.95372921  F        1        2       0.44011564      -0.24331032      -0.39625976
O        8.17066236       0.63242506      16.25840413  F        1        2      -0.16111718      -0.50276934       0.04126830
O        5.71021236       3.62919935      13.15069587  F        1        2       0.42229981       0.29233544       0.52232914
O        7.66922265       2.49816423      14.45537079  F        1        2       0.01685506       0.38831740      -0.74050057
O        3.84371499       3.13058929      16.75676254  F        1        2       0.07981984       0.24311888       0.11563114
Si       7.25284472      -0.00825571      17.46407957  T        0        1       0.00724089      -0.00924442      -0.01568745
Si       3.78581561       2.14700996      21.20065542  T        0        1      -0.05560902      -0.00183033      -0.03379708
Si       6.20627944       2.21794724      19.30617668  T        0        1       0.00504207      -0.01835829      -0.00173897
O        6.29319329       1.13051338      18.08577971  T        1        1      -0.01603471      -0.01084973      -0.02634693
O        5.16256194       1.72170058      20.42870052  T        1        1      -0.00624431       0.01132650       0.01245491
O        8.27617183       0.09548088      21.51846323  T        1        1       0.00195834      -0.02256498       0.00771020
O        5.75755066       3.62268613      18.60194657  T        1        1       0.01132610      -0.00355271      -0.01232926
O        7.67257389       2.35995335      19.99403447  T        1        1       0.02243767       0.01998541       0.00732746
O        4.01611662       3.40913933      22.26782988  T        1        1       0.01668296      -0.01739915      -0.00646748
F        2.79068937       0.60558177      24.42604086  T        0        0       0.00957108       0.03284831      -0.01967229
H        3.07606459       0.76727509      22.95572575  T        0        0      -0.01457364       0.02021697       0.00468738
F        4.06713520       0.65812377      26.30649654  T        0        0       0.02157918       0.00702575       0.03257598
H        3.45279461       0.63535231      25.38167513  T        0        0       0.02496899       0.01369672      -0.02245745
40
Lattice="9.8418 0.0 0.0 -2.460449999999999 4.261624409482844 0.0 0.0 -0.0 34.16586254" Properties=species:S:1:pos:R:3:move_mask:L:1:spacegroup_kinds:I:1:tags:I:1:forces:R:3 surface=alpha_quartz_001 coadsorbate=HF start=1 calculation_kind="Local coadsorbate relaxation; not a reaction path" host_atoms=36 energy=-283.0402819665124 pbc="T T F"
Si       2.31725181       0.00000000      12.00000000  F        0        2      -0.13319644      -0.36562647      -1.69700085
Si      -1.15862590       2.00679893      15.60606667  F        0        2      -0.13950935       0.04199144       1.26459782
Si       1.30182410       2.25482548      13.80303333  F        0        2       0.04263909      -0.15723318       1.02637217
O        1.38326499       1.13103512      12.65233746  F        1        2      -0.50493362       0.21340640      -0.22285113
O        0.28787265       1.76346018      14.95372921  F        1        2       0.45720082      -0.24406075      -0.38980304
O        3.24976236       0.63242506      16.25840413  F        1        2      -0.22022658      -0.53894203       0.05374560
O        0.78931236       3.62919935      13.15069587  F        1        2       0.42284615       0.28608560       0.53192722
O        2.74832265       2.49816423      14.45537079  F        1        2      -0.00119758       0.38286185      -0.74019905
O       -1.07718501       3.13058929      16.75676254  F        1        2       0.05465948       0.43559470       0.21758769
Si       2.32097121       0.00741859      17.46623023  T        0        1      -0.00711926       0.00105928       0.06446079
Si      -1.19348796       1.67347423      21.10380820  T        0        1       0.02538660      -0.00098770       0.01688145
Si       1.32014936       2.27030050      19.33001076  T        0        1      -0.00807000      -0.01666703       0.01122455
O        1.39447001       1.16117050      18.11490437  T        1        1      -0.01377845       0.02782644       0.00406973
O        0.29580515       1.74787749      20.47421865  T        1        1      -0.01003850      -0.00053383      -0.01865345
O        3.19996580       0.84715631      21.95431117  T        1        1       0.00478168      -0.02007216       0.00218596
O        0.79320252       3.63664480      18.61620897  T        1        1       0.00266372      -0.01368567       0.03660727
O        2.76976757       2.56623386      19.97659475  T        1        1      -0.03016478       0.00020461      -0.01323973
O       -1.34354078       2.12283158      22.66161237  T        1        1      -0.03447816       0.02658377      -0.00380323
Si       7.23815181       0.00000000      12.00000000  F        0        2      -0.13256438      -0.36575216      -1.69031964
Si       3.76227409       2.00679893      15.60606667  F        0        2      -0.10709838       0.07193548       1.25501969
Si       6.22272410       2.25482548      13.80303333  F        0        2       0.02578390      -0.16881966       1.04835898
O        6.30416499       1.13103512      12.65233746  F        1        2      -0.50281458       0.20864179      -0.23128207
O        5.20877265       1.76346018      14.95372921  F        1        2       0.43965135      -0.24336758      -0.39743499
O        8.17066236       0.63242506      16.25840413  F        1        2      -0.16018230      -0.50740459       0.04683651
O        5.71021236       3.62919935      13.15069587  F        1        2       0.42202837       0.29261241       0.52171052
O        7.66922265       2.49816423      14.45537079  F        1        2       0.01720305       0.38853837      -0.74077926
O        3.84371499       3.13058929      16.75676254  F        1        2       0.08657053       0.24897710       0.12375599
Si       7.25303777      -0.00816709      17.46467396  T        0        1       0.00376851      -0.01027963      -0.02633000
Si       3.78671458       2.14444727      21.20111889  T        0        1      -0.05394657      -0.00132375      -0.03727671
Si       6.20710042       2.21725294      19.30646626  T        0        1      -0.00365390      -0.01230785      -0.00830301
O        6.29252889       1.13227272      18.08317165  T        1        1      -0.00437484      -0.02056299      -0.01097186
O        5.16397477       1.71950761      20.42929113  T        1        1      -0.01052097       0.00962267       0.00584237
O        8.27825799       0.09261747      21.51619751  T        1        1       0.00395530      -0.02041019       0.00853893
O        5.75762822       3.62280088      18.60314639  T        1        1       0.00003508      -0.00038736      -0.01599967
O        7.67396818       2.35880246      19.99334200  T        1        1       0.01220852       0.01406781       0.00619398
O        4.02026591       3.40792299      22.26630106  T        1        1       0.01131490      -0.01844242      -0.00247149
F        2.79018537       0.62052392      24.43064766  T        0        0       0.00984997       0.03033317      -0.02051260
H        3.07270540       0.77026003      22.95788499  T        0        0      -0.00734860       0.02220595       0.00607695
F        4.07520832       0.64348521      26.30519228  T        0        0       0.02750739       0.01293229       0.03773882
H        3.45774520       0.63499498      25.38262406  T        0        0       0.01516284       0.01138586      -0.02250118
40
Lattice="9.8418 0.0 0.0 -2.460449999999999 4.261624409482844 0.0 0.0 -0.0 34.16586254" Properties=species:S:1:pos:R:3:move_mask:L:1:spacegroup_kinds:I:1:tags:I:1:forces:R:3 surface=alpha_quartz_001 coadsorbate=HF start=1 calculation_kind="Local coadsorbate relaxation; not a reaction path" host_atoms=36 energy=-283.04108813606473 pbc="T T F"
Si       2.31725181       0.00000000      12.00000000  F        0        2      -0.13315602      -0.36549762      -1.69620540
Si      -1.15862590       2.00679893      15.60606667  F        0        2      -0.14060344       0.04026606       1.26584795
Si       1.30182410       2.25482548      13.80303333  F        0        2       0.04292018      -0.15720152       1.02750560
O        1.38326499       1.13103512      12.65233746  F        1        2      -0.50469382       0.21308538      -0.22332966
O        0.28787265       1.76346018      14.95372921  F        1        2       0.45771365      -0.24370695      -0.39037572
O        3.24976236       0.63242506      16.25840413  F        1        2      -0.22997782      -0.54276240       0.06503315
O        0.78931236       3.62919935      13.15069587  F        1        2       0.42245799       0.28629282       0.53125156
O        2.74832265       2.49816423      14.45537079  F        1        2      -0.00185580       0.38312913      -0.74107075
O       -1.07718501       3.13058929      16.75676254  F        1        2       0.05829726       0.43870604       0.22224258
Si       2.32073173       0.00748110      17.46681358  T        0        1      -0.00065391      -0.00124013       0.04480015
Si      -1.19290062       1.67202580      21.10522747  T        0        1       0.00248747       0.00890868       0.00530381
Si       1.31885830       2.26979519      19.32961339  T        0        1      -0.00331737      -0.01530777       0.01896581
O        1.39349400       1.16047728      18.11544082  T        1        1      -0.01280998       0.02334330      -0.00659820
O        0.29509116       1.74782922      20.47381246  T        1        1      -0.00840698      -0.00693808      -0.00203115
O        3.20120963       0.84513668      21.95745881  T        1        1       0.00393141      -0.01215239      -0.00504682
O        0.79395666       3.63692945      18.61621562  T        1        1      -0.00168500      -0.01195463       0.03457910
O        2.76763110       2.56344952      19.97834675  T        1        1      -0.00933487       0.00762693      -0.01676764
O       -1.34794457       2.12380147      22.66186821  T        1        1      -0.02441566       0.01608323      -0.01005912
Si       7.23815181       0.00000000      12.00000000  F        0        2      -0.13248082      -0.36553477      -1.68923732
Si       3.76227409       2.00679893      15.60606667  F        0        2      -0.10520500       0.07109584       1.25738675
Si       6.22272410       2.25482548      13.80303333  F        0        2       0.02520936      -0.16918212       1.05024586
O        6.30416499       1.13103512      12.65233746  F        1        2      -0.50236940       0.20805231      -0.23198632
O        5.20877265       1.76346018      14.95372921  F        1        2       0.43988857      -0.24295537      -0.39947903
O        8.17066236       0.63242506      16.25840413  F        1        2      -0.15638193      -0.50976529       0.04774405
O        5.71021236       3.62919935      13.15069587  F        1        2       0.42157946       0.29306737       0.52076998
O        7.66922265       2.49816423      14.45537079  F        1        2       0.01747861       0.38863157      -0.74115576
O        3.84371499       3.13058929      16.75676254  F        1        2       0.09330215       0.25171832       0.13041450
Si       7.25373036      -0.00855054      17.46510411  T        0        1      -0.00269501      -0.00766701      -0.02873932
Si       3.78584766       2.14188338      21.20114370  T        0        1      -0.03025759      -0.00466014      -0.02772827
Si       6.20852598       2.21596034      19.30687919  T        0        1      -0.01396812       0.00145891      -0.01427157
O        6.29148282       1.13327709      18.08031803  T        1        1       0.01386599      -0.02798237       0.01831331
O        5.16527113       1.71902248      20.43075151  T        1        1      -0.01578404       0.00670364      -0.01082918
O        8.28001999       0.09038340      21.51579968  T        1        1       0.00813643      -0.00917117       0.00980116
O        5.75897043       3.62249653      18.60363872  T        1        1      -0.01454910      -0.00009205      -0.01840274
O        7.67614968       2.35836350      19.99292526  T        1        1      -0.01067784      -0.00333316       0.00260803
O        4.02427476       3.40608429      22.26502281  T        1        1      -0.00083532      -0.01976732       0.00076465
F        2.79236741       0.63640793      24.43399570  T        0        0       0.00567532       0.02741861      -0.02026309
H        3.06900098       0.77395400      22.96133387  T        0        0       0.00435818       0.02330043      -0.00236966
F        4.08101864       0.62894002      26.30569500  T        0        0       0.03480976       0.01804148       0.03858187
H        3.46357481       0.63512006      25.38344280  T        0        0       0.00400306       0.00994221      -0.01621314
40
Lattice="9.8418 0.0 0.0 -2.460449999999999 4.261624409482844 0.0 0.0 -0.0 34.16586254" Properties=species:S:1:pos:R:3:move_mask:L:1:spacegroup_kinds:I:1:tags:I:1:forces:R:3 surface=alpha_quartz_001 coadsorbate=HF start=1 calculation_kind="Local coadsorbate relaxation; not a reaction path" host_atoms=36 energy=-283.04150413519176 pbc="T T F"
Si       2.31725181       0.00000000      12.00000000  F        0        2      -0.13308250      -0.36536844      -1.69540566
Si      -1.15862590       2.00679893      15.60606667  F        0        2      -0.13916222       0.04189749       1.26688996
Si       1.30182410       2.25482548      13.80303333  F        0        2       0.04296657      -0.15713824       1.02886041
O        1.38326499       1.13103512      12.65233746  F        1        2      -0.50441754       0.21274293      -0.22376374
O        0.28787265       1.76346018      14.95372921  F        1        2       0.45759657      -0.24382654      -0.39091471
O        3.24976236       0.63242506      16.25840413  F        1        2      -0.24237104      -0.55057978       0.08459809
O        0.78931236       3.62919935      13.15069587  F        1        2       0.42207999       0.28650577       0.53051225
O        2.74832265       2.49816423      14.45537079  F        1        2      -0.00201043       0.38367650      -0.74191123
O       -1.07718501       3.13058929      16.75676254  F        1        2       0.06392314       0.44640825       0.23078455
Si       2.32025642       0.00781156      17.46792575  T        0        1       0.00457379      -0.00265459       0.01307479
Si      -1.19265341       1.67209103      21.10651727  T        0        1      -0.01780522       0.01014843      -0.00350579
Si       1.31753763       2.26946603      19.32965351  T        0        1      -0.00283272      -0.01034074       0.01563014
O        1.39232131       1.16113301      18.11508291  T        1        1      -0.00721708       0.01173903      -0.01340387
O        0.29432291       1.74719288      20.47338256  T        1        1      -0.00722851      -0.01235207       0.01239834
O        3.20161319       0.84441329      21.95867794  T        1        1       0.00291385      -0.00548884      -0.01738920
O        0.79355655       3.63726772      18.61727967  T        1        1      -0.01086355      -0.00178533       0.02816016
O        2.76576009       2.56279600      19.97873718  T        1        1       0.00591927       0.01014792      -0.01537832
O       -1.35033952       2.12687196      22.66188245  T        1        1      -0.01688768       0.00878105      -0.00969008
Si       7.23815181       0.00000000      12.00000000  F        0        2      -0.13247518      -0.36542861      -1.68882717
Si       3.76227409       2.00679893      15.60606667  F        0        2      -0.10666047       0.06771914       1.25873191
Si       6.22272410       2.25482548      13.80303333  F        0        2       0.02505421      -0.16938745       1.05073637
O        6.30416499       1.13103512      12.65233746  F        1        2      -0.50218986       0.20781889      -0.23228752
O        5.20877265       1.76346018      14.95372921  F        1        2       0.44059810      -0.24239298      -0.40036248
O        8.17066236       0.63242506      16.25840413  F        1        2      -0.15238722      -0.50794830       0.04227237
O        5.71021236       3.62919935      13.15069587  F        1        2       0.42140154       0.29324737       0.52045486
O        7.66922265       2.49816423      14.45537079  F        1        2       0.01738665       0.38844536      -0.74117686
O        3.84371499       3.13058929      16.75676254  F        1        2       0.09267302       0.24684894       0.12773359
Si       7.25431268      -0.00915849      17.46485790  T        0        1      -0.00566289      -0.00245786      -0.01817197
Si       3.78416616       2.14128808      21.20062687  T        0        1      -0.00627429      -0.00725434      -0.01414315
Si       6.20924604       2.21516392      19.30693703  T        0        1      -0.01719781       0.00937011      -0.01285619
O        6.29118249       1.13246515      18.07986688  T        1        1       0.01964142      -0.02449395       0.03314120
O        5.16542126       1.72035373      20.43171624  T        1        1      -0.01767459       0.00394699      -0.02255139
O        8.28045602       0.09018532      21.51704023  T        1        1       0.00999947       0.00142748       0.01061046
O        5.76009077       3.62197051      18.60309359  T        1        1      -0.01698189      -0.00426140      -0.01780009
O        7.67711477       2.35866640      19.99305426  T        1        1      -0.02439473      -0.01485327      -0.00049854
O        4.02513476       3.40517994      22.26475372  T        1        1      -0.00883452      -0.01987245       0.00091663
F        2.79518822       0.64168802      24.43403825  T        0        0       0.00349515       0.02570306      -0.01363021
H        3.06802657       0.77592366      22.96282206  T        0        0       0.00890594       0.02118935      -0.00287889
F        4.08108360       0.62496588      26.30812296  T        0        0       0.03163738       0.01814899       0.02631793
H        3.46582468       0.63530798      25.38394540  T        0        0       0.00384588       0.01197216      -0.00527694
40
Lattice="9.8418 0.0 0.0 -2.460449999999999 4.261624409482844 0.0 0.0 -0.0 34.16586254" Properties=species:S:1:pos:R:3:move_mask:L:1:spacegroup_kinds:I:1:tags:I:1:forces:R:3 surface=alpha_quartz_001 coadsorbate=HF start=1 calculation_kind="Local coadsorbate relaxation; not a reaction path" host_atoms=36 energy=-283.04188273159554 pbc="T T F"
Si       2.31725181       0.00000000      12.00000000  F        0        2      -0.13301270      -0.36525682      -1.69474141
Si      -1.15862590       2.00679893      15.60606667  F        0        2      -0.13663184       0.04474864       1.26750253
Si       1.30182410       2.25482548      13.80303333  F        0        2       0.04280158      -0.15712200       1.03006550
O        1.38326499       1.13103512      12.65233746  F        1        2      -0.50416394       0.21245912      -0.22409558
O        0.28787265       1.76346018      14.95372921  F        1        2       0.45720537      -0.24411060      -0.39136089
O        3.24976236       0.63242506      16.25840413  F        1        2      -0.25416084      -0.56038331       0.10670835
O        0.78931236       3.62919935      13.15069587  F        1        2       0.42179878       0.28667561       0.52988833
O        2.74832265       2.49816423      14.45537079  F        1        2      -0.00184528       0.38418088      -0.74249302
O       -1.07718501       3.13058929      16.75676254  F        1        2       0.07123563       0.45558842       0.24093987
Si       2.31995052       0.00804596      17.46923568  T        0        1       0.00641704      -0.00213898      -0.01850422
Si      -1.19313710       1.67266548      21.10770746  T        0        1      -0.03245969       0.00654347      -0.00876253
Si       1.31616248       2.26894725      19.33023219  T        0        1      -0.00448708      -0.00386812       0.00791595
O        1.39137525       1.16213498      18.11455458  T        1        1      -0.00098636      -0.00072926      -0.01645278
O        0.29327721       1.74614007      20.47338413  T        1        1      -0.00575457      -0.01538898       0.02194590
O        3.20201294       0.84329709      21.95888123  T        1        1      -0.00071569      -0.00076122      -0.01483433
O        0.79268427       3.63750620      18.61908908  T        1        1      -0.02137283       0.00870468       0.01870377
O        2.76400831       2.56292545      19.97893532  T        1        1       0.01541610       0.00973228      -0.01239952
O       -1.35282023       2.13052576      22.66181732  T        1        1      -0.01020764       0.00318154      -0.00792990
Si       7.23815181       0.00000000      12.00000000  F        0        2      -0.13250298      -0.36539140      -1.68881742
Si       3.76227409       2.00679893      15.60606667  F        0        2      -0.10931383       0.06387864       1.25946755
Si       6.22272410       2.25482548      13.80303333  F        0        2       0.02510663      -0.16946202       1.05045333
O        6.30416499       1.13103512      12.65233746  F        1        2      -0.50216053       0.20778908      -0.23232439
O        5.20877265       1.76346018      14.95372921  F        1        2       0.44133603      -0.24183993      -0.40060913
O        8.17066236       0.63242506      16.25840413  F        1        2      -0.14847712      -0.50473720       0.03448449
O        5.71021236       3.62919935      13.15069587  F        1        2       0.42137555       0.29326773       0.52050677
O        7.66922265       2.49816423      14.45537079  F        1        2       0.01715209       0.38816391      -0.74096426
O        3.84371499       3.13058929      16.75676254  F        1        2       0.08823123       0.23895997       0.12085448
Si       7.25465638      -0.00968920      17.46429493  T        0        1      -0.00666464       0.00324691      -0.00403390
Si       3.78234877       2.14075433      21.19992962  T        0        1       0.01461957      -0.00700047      -0.00089424
Si       6.20934852       2.21473568      19.30661267  T        0        1      -0.01690746       0.01278548      -0.00820746
O        6.29117150       1.13119375      18.08020939  T        1        1       0.01833496      -0.01691043       0.03849393
O        5.16491286       1.72200383      20.43193579  T        1        1      -0.01807169      -0.00041707      -0.02997454
O        8.28032771       0.09057394      21.51901316  T        1        1       0.01018826       0.01148024       0.01052673
O        5.76058165       3.62151981      18.60231092  T        1        1      -0.01276826      -0.00902796      -0.01615529
O        7.67713946       2.35897175      19.99326925  T        1        1      -0.03094201      -0.02149917      -0.00298808
O        4.02514417       3.40379832      22.26503681  T        1        1      -0.01480400      -0.01934805       0.00012815
F        2.79736300       0.64382103      24.43247337  T        0        0       0.00275886       0.02387895      -0.00492960
H        3.06766073       0.77701325      22.96386824  T        0        0       0.01266989       0.01823350      -0.01365965
F        4.08050639       0.62580728      26.30956250  T        0        0       0.02424668       0.01613149       0.01028487
H        3.46710697       0.63627416      25.38341570  T        0        0       0.00751671       0.01576246       0.00626163
40
Lattice="9.8418 0.0 0.0 -2.460449999999999 4.261624409482844 0.0 0.0 -0.0 34.16586254" Properties=species:S:1:pos:R:3:move_mask:L:1:spacegroup_kinds:I:1:tags:I:1:forces:R:3 surface=alpha_quartz_001 coadsorbate=HF start=1 calculation_kind="Local coadsorbate relaxation; not a reaction path" host_atoms=36 energy=-283.0423719318273 pbc="T T F"
Si       2.31725181       0.00000000      12.00000000  F        0        2      -0.13295989      -0.36518060      -1.69427071
Si      -1.15862590       2.00679893      15.60606667  F        0        2      -0.13342526       0.04769659       1.26780140
Si       1.30182410       2.25482548      13.80303333  F        0        2       0.04232415      -0.15719172       1.03108911
O        1.38326499       1.13103512      12.65233746  F        1        2      -0.50394575       0.21224837      -0.22431079
O        0.28787265       1.76346018      14.95372921  F        1        2       0.45667457      -0.24437851      -0.39194915
O        3.24976236       0.63242506      16.25840413  F        1        2      -0.26328492      -0.57143626       0.12839737
O        0.78931236       3.62919935      13.15069587  F        1        2       0.42164419       0.28682733       0.52943152
O        2.74832265       2.49816423      14.45537079  F        1        2      -0.00140826       0.38450222      -0.74277728
O       -1.07718501       3.13058929      16.75676254  F        1        2       0.07959210       0.46495449       0.25144691
Si       2.31959518       0.00841951      17.47046250  T        0        1       0.00378478       0.00013638      -0.04470195
Si      -1.19413391       1.67260051      21.10877069  T        0        1      -0.03855860       0.00091475      -0.01326450
Si       1.31435633       2.26841613      19.33074444  T        0        1      -0.00640769       0.00329857      -0.00179667
O        1.39015254       1.16383494      18.11300927  T        1        1       0.00336147      -0.01065507      -0.01491373
O        0.29214059       1.74467510      20.47373219  T        1        1      -0.00334113      -0.01577868       0.02567363
O        3.20156039       0.84215566      21.95818101  T        1        1      -0.00210667       0.00530933      -0.02740848
O        0.79069242       3.63835876      18.62208891  T        1        1      -0.03219292       0.01555949       0.00508810
O        2.76253304       2.56319433      19.97775834  T        1        1       0.01856354       0.00613518      -0.00613683
O       -1.35579678       2.13260477      22.66181091  T        1        1      -0.00400830      -0.00029617      -0.00359790
Si       7.23815181       0.00000000      12.00000000  F        0        2      -0.13254327      -0.36541479      -1.68911398
Si       3.76227409       2.00679893      15.60606667  F        0        2      -0.11237577       0.06080956       1.25948383
Si       6.22272410       2.25482548      13.80303333  F        0        2       0.02538616      -0.16942393       1.04959817
O        6.30416499       1.13103512      12.65233746  F        1        2      -0.50227804       0.20792992      -0.23216191
O        5.20877265       1.76346018      14.95372921  F        1        2       0.44190592      -0.24140250      -0.40024618
O        8.17066236       0.63242506      16.25840413  F        1        2      -0.14427597      -0.50065726       0.02502020
O        5.71021236       3.62919935      13.15069587  F        1        2       0.42147873       0.29314093       0.52083866
O        7.66922265       2.49816423      14.45537079  F        1        2       0.01679806       0.38785259      -0.74057782
O        3.84371499       3.13058929      16.75676254  F        1        2       0.08031022       0.22757676       0.10959340
Si       7.25490613      -0.01028148      17.46350667  T        0        1      -0.00552204       0.00891835       0.01189827
Si       3.78024911       2.13978478      21.19825066  T        0        1       0.03057557      -0.00326575       0.01027393
Si       6.20904655       2.21433921      19.30606361  T        0        1      -0.01433747       0.01113341      -0.00224316
O        6.29160358       1.12941166      18.08124056  T        1        1       0.01080881      -0.00680367       0.03501256
O        5.16379460       1.72321056      20.43124106  T        1        1      -0.01714287      -0.00823637      -0.03361487
O        8.28098279       0.08995372      21.52044863  T        1        1       0.00742976       0.01881341       0.01038112
O        5.76067050       3.62072681      18.60120383  T        1        1      -0.00241458      -0.01281602      -0.01294232
O        7.67643214       2.35840718      19.99374416  T        1        1      -0.03152142      -0.02262482      -0.00526147
O        4.02506490       3.40205346      22.26405750  T        1        1      -0.02002109      -0.01561113       0.00197424
F        2.80011355       0.64616547      24.43004951  T        0        0       0.00333515       0.02172038       0.00912910
H        3.06720443       0.77869233      22.96360708  T        0        0       0.01357998       0.01193021      -0.01069996
F        4.08079162       0.62935009      26.31038309  T        0        0       0.01273158       0.01304398      -0.01267202
H        3.46903331       0.63854498      25.38196051  T        0        0       0.01378714       0.02072107       0.02253015
40
Lattice="9.8418 0.0 0.0 -2.460449999999999 4.261624409482844 0.0 0.0 -0.0 34.16586254" Properties=species:S:1:pos:R:3:move_mask:L:1:spacegroup_kinds:I:1:tags:I:1:forces:R:3 surface=alpha_quartz_001 coadsorbate=HF start=1 calculation_kind="Local coadsorbate relaxation; not a reaction path" host_atoms=36 energy=-283.0430208342602 pbc="T T F"
Si       2.31725181       0.00000000      12.00000000  F        0        2      -0.13294357      -0.36515334      -1.69411187
Si      -1.15862590       2.00679893      15.60606667  F        0        2      -0.13000848       0.05014910       1.26750948
Si       1.30182410       2.25482548      13.80303333  F        0        2       0.04151635      -0.15738781       1.03165025
O        1.38326499       1.13103512      12.65233746  F        1        2      -0.50380927       0.21217307      -0.22434554
O        0.28787265       1.76346018      14.95372921  F        1        2       0.45608427      -0.24453665      -0.39257716
O        3.24976236       0.63242506      16.25840413  F        1        2      -0.26812442      -0.58365603       0.14803857
O        0.78931236       3.62919935      13.15069587  F        1        2       0.42169308       0.28691593       0.52927877
O        2.74832265       2.49816423      14.45537079  F        1        2      -0.00072812       0.38441174      -0.74261170
O       -1.07718501       3.13058929      16.75676254  F        1        2       0.08845221       0.47273700       0.26051233
Si       2.31941888       0.00869887      17.47146551  T        0        1      -0.00483946       0.00551595      -0.05719732
Si      -1.19639167       1.67140519      21.10963531  T        0        1      -0.03207893      -0.00614610      -0.01287180
Si       1.31200348       2.26750389      19.33159280  T        0        1      -0.00917562       0.01178331      -0.01150048
O        1.38897525       1.16580576      18.11086012  T        1        1       0.00397213      -0.01547673      -0.00786266
O        0.29049945       1.74262145      20.47493738  T        1        1       0.00066322      -0.01128467       0.01959715
O        3.20076198       0.83949814      21.95625508  T        1        1      -0.00627684       0.00977487      -0.01975977
O        0.78751778       3.63951253      18.62640382  T        1        1      -0.04050458       0.01412727      -0.01231354
O        2.76117114       2.56306473      19.97599892  T        1        1       0.01188510       0.00047769       0.00050207
O       -1.36087436       2.13213365      22.66201407  T        1        1       0.00281400      -0.00138262      -0.00105670
Si       7.23815181       0.00000000      12.00000000  F        0        2      -0.13258377      -0.36549891      -1.68969465
Si       3.76227409       2.00679893      15.60606667  F        0        2      -0.11497728       0.05992960       1.25900613
Si       6.22272410       2.25482548      13.80303333  F        0        2       0.02583418      -0.16923964       1.04828775
O        6.30416499       1.13103512      12.65233746  F        1        2      -0.50252419       0.20822216      -0.23179045
O        5.20877265       1.76346018      14.95372921  F        1        2       0.44208592      -0.24121706      -0.39939816
O        8.17066236       0.63242506      16.25840413  F        1        2      -0.14000409      -0.49636362       0.01506835
O        5.71021236       3.62919935      13.15069587  F        1        2       0.42168998       0.29288378       0.52142269
O        7.66922265       2.49816423      14.45537079  F        1        2       0.01639002       0.38759724      -0.74007680
O        3.84371499       3.13058929      16.75676254  F        1        2       0.06999421       0.21566228       0.09628660
Si       7.25478482      -0.01054983      17.46258636  T        0        1      -0.00210809       0.01097984       0.02338377
Si       3.77833017       2.13712772      21.19567645  T        0        1       0.03576480       0.00600005       0.01582646
Si       6.20792806       2.21415849      19.30498479  T        0        1      -0.00851064       0.00292415       0.00403980
O        6.29229740       1.12795016      18.08221907  T        1        1      -0.00331358       0.00207837       0.01936945
O        5.16184046       1.72281386      20.42870063  T        1        1      -0.01526733      -0.01983196      -0.03050694
O        8.28250516       0.08765561      21.52130549  T        1        1       0.00139331       0.02233078       0.00859577
O        5.75981670       3.61996504      18.60011006  T        1        1       0.01294762      -0.01308720      -0.00804973
O        7.67452389       2.35633505      19.99418300  T        1        1      -0.02289994      -0.01578128      -0.00569946
O        4.02587596       3.39872274      22.26176572  T        1        1      -0.02451038      -0.00919211       0.00701958
F        2.80223333       0.65164532      24.42673937  T        0        0       0.00252138       0.01932660       0.02069794
H        3.06543264       0.78070225      22.96279717  T        0        0       0.01733381       0.00432347      -0.02221438
F        4.08499575       0.63547140      26.30706135  T        0        0       0.00424169       0.00974500      -0.02899910
H        3.47282686       0.64363008      25.37807359  T        0        0       0.01791129       0.02516648       0.03654530
40
Lattice="9.8418 0.0 0.0 -2.460449999999999 4.261624409482844 0.0 0.0 -0.0 34.16586254" Properties=species:S:1:pos:R:3:move_mask:L:1:spacegroup_kinds:I:1:tags:I:1:forces:R:3 surface=alpha_quartz_001 coadsorbate=HF start=1 calculation_kind="Local coadsorbate relaxation; not a reaction path" host_atoms=36 energy=-283.04362704675117 pbc="T T F"
Si       2.31725181       0.00000000      12.00000000  F        0        2      -0.13298348      -0.36521879      -1.69444506
Si      -1.15862590       2.00679893      15.60606667  F        0        2      -0.12833631       0.05001691       1.26708468
Si       1.30182410       2.25482548      13.80303333  F        0        2       0.04064436      -0.15762885       1.03142260
O        1.38326499       1.13103512      12.65233746  F        1        2      -0.50384566       0.21229192      -0.22414802
O        0.28787265       1.76346018      14.95372921  F        1        2       0.45581514      -0.24435851      -0.39325280
O        3.24976236       0.63242506      16.25840413  F        1        2      -0.26400527      -0.58977502       0.15238456
O        0.78931236       3.62919935      13.15069587  F        1        2       0.42195923       0.28693403       0.52958119
O        2.74832265       2.49816423      14.45537079  F        1        2      -0.00015595       0.38382925      -0.74205461
O       -1.07718501       3.13058929      16.75676254  F        1        2       0.09095114       0.47302670       0.26066112
Si       2.31896127       0.00925768      17.47131189  T        0        1      -0.01546184       0.01026164      -0.04302363
Si      -1.19839472       1.66817564      21.10967876  T        0        1      -0.01118675      -0.00839722      -0.01055123
Si       1.30978175       2.26709022      19.33146184  T        0        1      -0.00949276       0.01602468      -0.01509561
O        1.38745999       1.16785836      18.10773397  T        1        1      -0.00138414      -0.00935601       0.00270124
O        0.28960301       1.74100024      20.47625679  T        1        1       0.00415636      -0.00353496       0.00522497
O        3.19856359       0.83776194      21.95376724  T        1        1      -0.00403332       0.01347469      -0.03921881
O        0.78339530       3.64132163      18.63043368  T        1        1      -0.04004274       0.00207937      -0.02519844
O        2.76100492       2.56199929      19.97241116  T        1        1      -0.00354247      -0.00468036       0.00691303
O       -1.36549144       2.12623570      22.66245694  T        1        1       0.00627324       0.00213866       0.00116612
Si       7.23815181       0.00000000      12.00000000  F        0        2      -0.13259117      -0.36561141      -1.69025330
Si       3.76227409       2.00679893      15.60606667  F        0        2      -0.11521442       0.06319561       1.25782414
Si       6.22272410       2.25482548      13.80303333  F        0        2       0.02633812      -0.16901670       1.04723873
O        6.30416499       1.13103512      12.65233746  F        1        2      -0.50282385       0.20853853      -0.23142478
O        5.20877265       1.76346018      14.95372921  F        1        2       0.44158343      -0.24153572      -0.39830391
O        8.17066236       0.63242506      16.25840413  F        1        2      -0.13720452      -0.49394276       0.00942537
O        5.71021236       3.62919935      13.15069587  F        1        2       0.42192457       0.29259442       0.52194914
O        7.66922265       2.49816423      14.45537079  F        1        2       0.01608444       0.38755269      -0.73980193
O        3.84371499       3.13058929      16.75676254  F        1        2       0.06207823       0.20739487       0.08598743
Si       7.25457071      -0.01060660      17.46202281  T        0        1       0.00306357       0.00703624       0.02401870
Si       3.77737053       2.13403614      21.19221193  T        0        1       0.02307996       0.01623454       0.01059031
Si       6.20673702       2.21383429      19.30407680  T        0        1      -0.00277132      -0.00946514       0.00672975
O        6.29328851       1.12707551      18.08298638  T        1        1      -0.01811872       0.00492486      -0.00322067
O        5.15985876       1.71991818      20.42513131  T        1        1      -0.01251812      -0.02988594      -0.02178662
O        8.28606982       0.08278735      21.51950921  T        1        1      -0.00763782       0.01639110       0.00696124
O        5.75885926       3.61896837      18.59923914  T        1        1       0.02641044      -0.00872861      -0.00244820
O        7.67247262       2.35254222      19.99469167  T        1        1      -0.00921378      -0.00229431      -0.00404714
O        4.02752155       3.39617016      22.25679176  T        1        1      -0.02569011       0.00045161       0.01647352
F        2.80471251       0.66115768      24.42533417  T        0        0       0.00295138       0.01784981       0.03037720
H        3.06292526       0.78410023      22.95991766  T        0        0       0.01695707      -0.00437671      -0.00449001
F        4.09243012       0.63899776      26.30265833  T        0        0       0.00133844       0.00932922      -0.03648346
H        3.47839825       0.64961130      25.37447256  T        0        0       0.01664539       0.02623565       0.04453317
40
Lattice="9.8418 0.0 0.0 -2.460449999999999 4.261624409482844 0.0 0.0 -0.0 34.16586254" Properties=species:S:1:pos:R:3:move_mask:L:1:spacegroup_kinds:I:1:tags:I:1:forces:R:3 surface=alpha_quartz_001 coadsorbate=HF start=1 calculation_kind="Local coadsorbate relaxation; not a reaction path" host_atoms=36 energy=-283.0440777139523 pbc="T T F"
Si       2.31725181       0.00000000      12.00000000  F        0        2      -0.13304745      -0.36530826      -1.69495780
Si      -1.15862590       2.00679893      15.60606667  F        0        2      -0.12888437       0.04839983       1.26682873
Si       1.30182410       2.25482548      13.80303333  F        0        2       0.04016192      -0.15777239       1.03064146
O        1.38326499       1.13103512      12.65233746  F        1        2      -0.50398494       0.21250003      -0.22387610
O        0.28787265       1.76346018      14.95372921  F        1        2       0.45593523      -0.24405673      -0.39353653
O        3.24976236       0.63242506      16.25840413  F        1        2      -0.25725498      -0.59022691       0.14725023
O        0.78931236       3.62919935      13.15069587  F        1        2       0.42225920       0.28687146       0.53007535
O        2.74832265       2.49816423      14.45537079  F        1        2       0.00002982       0.38309573      -0.74148571
O       -1.07718501       3.13058929      16.75676254  F        1        2       0.08682520       0.46721547       0.25290041
Si       2.31852315       0.00963861      17.47049328  T        0        1      -0.02238222       0.01315332      -0.01536125
Si      -1.20015552       1.66509827      21.10934201  T        0        1       0.00984084      -0.00643619      -0.00335288
Si       1.30824609       2.26683632      19.33130434  T        0        1      -0.00944688       0.01598540      -0.01215785
O        1.38649423       1.16872226      18.10593478  T        1        1      -0.00818030       0.00128596       0.00957342
O        0.28895617       1.73999785      20.47752890  T        1        1       0.00546462       0.00441448      -0.00951093
O        3.19716606       0.83580295      21.95142006  T        1        1      -0.00549609       0.01229534      -0.02268812
O        0.78005365       3.64218669      18.63256775  T        1        1      -0.03103787      -0.01216356      -0.02794057
O        2.76099740       2.56056235      19.97035868  T        1        1      -0.01835941      -0.00483584       0.00705072
O       -1.36941050       2.12008946      22.66296037  T        1        1       0.00813780       0.00591997      -0.00288966
Si       7.23815181       0.00000000      12.00000000  F        0        2      -0.13257005      -0.36567884      -1.69049712
Si       3.76227409       2.00679893      15.60606667  F        0        2      -0.11324013       0.06855147       1.25711242
Si       6.22272410       2.25482548      13.80303333  F        0        2       0.02660349      -0.16887121       1.04697301
O        6.30416499       1.13103512      12.65233746  F        1        2      -0.50298810       0.20868514      -0.23124619
O        5.20877265       1.76346018      14.95372921  F        1        2       0.44077230      -0.24210175      -0.39777457
O        8.17066236       0.63242506      16.25840413  F        1        2      -0.13659742      -0.49365769       0.00930390
O        5.71021236       3.62919935      13.15069587  F        1        2       0.42202801       0.29245252       0.52215532
O        7.66922265       2.49816423      14.45537079  F        1        2       0.01600256       0.38770351      -0.73994245
O        3.84371499       3.13058929      16.75676254  F        1        2       0.06028846       0.20738055       0.08425099
Si       7.25418184      -0.01018535      17.46198967  T        0        1       0.00679630      -0.00197350       0.01275565
Si       3.77758691       2.13123218      21.18991435  T        0        1       0.00268466       0.02273876      -0.00075788
Si       6.20558508       2.21368057      19.30332080  T        0        1       0.00121009      -0.01893605       0.00541084
O        6.29365239       1.12753108      18.08257818  T        1        1      -0.02562275      -0.00002955      -0.02173467
O        5.15822407       1.71595438      20.42150923  T        1        1      -0.01119312      -0.03226213      -0.01070003
O        8.28889289       0.07854069      21.51783728  T        1        1      -0.01474549       0.00785596       0.00419049
O        5.75805491       3.61866450      18.59902032  T        1        1       0.03033342      -0.00168691       0.00153114
O        7.67069717       2.34909492      19.99478961  T        1        1       0.00377035       0.00921386      -0.00009747
O        4.02920263       3.39405704      22.25303495  T        1        1      -0.02380778       0.00586574       0.02214035
F        2.80541653       0.67081953      24.42544379  T        0        0       0.00007591       0.01784733       0.02443069
H        3.06037361       0.78627105      22.95779468  T        0        0       0.02008723      -0.00808200      -0.01120520
F        4.10065050       0.64053631      26.29641180  T        0        0       0.01180705       0.01089893      -0.01885908
H        3.48337369       0.65512758      25.37137511  T        0        0       0.00772490       0.02374874       0.03599697
40
Lattice="9.8418 0.0 0.0 -2.460449999999999 4.261624409482844 0.0 0.0 -0.0 34.16586254" Properties=species:S:1:pos:R:3:move_mask:L:1:spacegroup_kinds:I:1:tags:I:1:forces:R:3 surface=alpha_quartz_001 coadsorbate=HF start=1 calculation_kind="Local coadsorbate relaxation; not a reaction path" host_atoms=36 energy=-283.0444914934655 pbc="T T F"
Si       2.31725181       0.00000000      12.00000000  F        0        2      -0.13309909      -0.36539916      -1.69540683
Si      -1.15862590       2.00679893      15.60606667  F        0        2      -0.13061882       0.04621734       1.26743673
Si       1.30182410       2.25482548      13.80303333  F        0        2       0.03997829      -0.15776574       1.02991815
O        1.38326499       1.13103512      12.65233746  F        1        2      -0.50412694       0.21266671      -0.22366789
O        0.28787265       1.76346018      14.95372921  F        1        2       0.45629433      -0.24372950      -0.39385403
O        3.24976236       0.63242506      16.25840413  F        1        2      -0.25140006      -0.58687224       0.13809371
O        0.78931236       3.62919935      13.15069587  F        1        2       0.42245500       0.28684590       0.53048625
O        2.74832265       2.49816423      14.45537079  F        1        2      -0.00009988       0.38253805      -0.74121198
O       -1.07718501       3.13058929      16.75676254  F        1        2       0.07675155       0.45839783       0.23990538
Si       2.31740024       0.01050175      17.46923572  T        0        1      -0.02348942       0.01229357       0.01239546
Si      -1.20073754       1.66188759      21.10876548  T        0        1       0.02593512      -0.00073944       0.00047535
Si       1.30688032       2.26732280      19.33028194  T        0        1      -0.00739335       0.01161178      -0.00642169
O        1.38488777       1.16968617      18.10395749  T        1        1      -0.01366838       0.01215736       0.01204808
O        0.28904271       1.73952807      20.47809330  T        1        1       0.00484537       0.00987329      -0.01900791
O        3.19526936       0.83576494      21.94944580  T        1        1      -0.00199653       0.01125003      -0.03581305
O        0.77644246       3.64306453      18.63346344  T        1        1      -0.01801639      -0.02202892      -0.02330758
O        2.76117047       2.55915859      19.96764755  T        1        1      -0.02825613      -0.00206410       0.00674209
O       -1.37157087       2.11362138      22.66327019  T        1        1       0.00835386       0.00961843      -0.00480227
Si       7.23815181       0.00000000      12.00000000  F        0        2      -0.13253575      -0.36570062      -1.69045318
Si       3.76227409       2.00679893      15.60606667  F        0        2      -0.11044477       0.07419965       1.25647979
Si       6.22272410       2.25482548      13.80303333  F        0        2       0.02677348      -0.16888152       1.04730355
O        6.30416499       1.13103512      12.65233746  F        1        2      -0.50306461       0.20869536      -0.23128769
O        5.20877265       1.76346018      14.95372921  F        1        2       0.43998432      -0.24269584      -0.39761133
O        8.17066236       0.63242506      16.25840413  F        1        2      -0.13642052      -0.49394368       0.01126734
O        5.71021236       3.62919935      13.15069587  F        1        2       0.42203936       0.29242170       0.52208710
O        7.66922265       2.49816423      14.45537079  F        1        2       0.01597955       0.38788277      -0.74042461
O        3.84371499       3.13058929      16.75676254  F        1        2       0.06138689       0.20784448       0.08467531
Si       7.25418206      -0.01008905      17.46222928  T        0        1       0.00930345      -0.01015160       0.00040694
Si       3.77792022       2.12996505      21.18764395  T        0        1      -0.01656497       0.02335346      -0.01147136
Si       6.20505810       2.21299820      19.30303550  T        0        1       0.00244252      -0.02425297       0.00150236
O        6.29378149       1.12759822      18.08213566  T        1        1      -0.02624166      -0.00605751      -0.03219005
O        5.15692018       1.71184817      20.41858987  T        1        1      -0.01002730      -0.02777160      -0.00216122
O        8.29201784       0.07438856      21.51551699  T        1        1      -0.02149369      -0.00178146       0.00283932
O        5.75838159       3.61801333      18.59863735  T        1        1       0.02795501       0.00446124       0.00489525
O        7.66979210       2.34604367      19.99499387  T        1        1       0.01055977       0.01533865       0.00321111
O        4.03011116       3.39369746      22.24917538  T        1        1      -0.01960279       0.01040482       0.02512167
F        2.80737788       0.68077122      24.42770477  T        0        0      -0.00005902       0.01827964       0.01994082
H        3.05885555       0.78913194      22.95463839  T        0        0       0.01786799      -0.01104691       0.01014532
F        4.10758684       0.63880268      26.29358112  T        0        0       0.02186862       0.01361882      -0.00296382
H        3.48797855       0.65915918      25.37099513  T        0        0      -0.00215446       0.02091194       0.02467940
40
Lattice="9.8418 0.0 0.0 -2.460449999999999 4.261624409482844 0.0 0.0 -0.0 34.16586254" Properties=species:S:1:pos:R:3:move_mask:L:1:spacegroup_kinds:I:1:tags:I:1:forces:R:3 surface=alpha_quartz_001 coadsorbate=HF start=1 calculation_kind="Local coadsorbate relaxation; not a reaction path" host_atoms=36 energy=-283.04505467191956 pbc="T T F"
Si       2.31725181       0.00000000      12.00000000  F        0        2      -0.13312495      -0.36546122      -1.69567797
Si      -1.15862590       2.00679893      15.60606667  F        0        2      -0.13301363       0.04472601       1.26897244
Si       1.30182410       2.25482548      13.80303333  F        0        2       0.04005388      -0.15757812       1.02931982
O        1.38326499       1.13103512      12.65233746  F        1        2      -0.50422396       0.21275792      -0.22355774
O        0.28787265       1.76346018      14.95372921  F        1        2       0.45677029      -0.24352579      -0.39410768
O        3.24976236       0.63242506      16.25840413  F        1        2      -0.25111180      -0.58435936       0.13459626
O        0.78931236       3.62919935      13.15069587  F        1        2       0.42251734       0.28685230       0.53073090
O        2.74832265       2.49816423      14.45537079  F        1        2      -0.00047206       0.38216138      -0.74126364
O       -1.07718501       3.13058929      16.75676254  F        1        2       0.06139671       0.44820316       0.22231927
Si       2.31555369       0.01175230      17.46796498  T        0        1      -0.01888445       0.00938710       0.03552821
Si      -1.20165537       1.65899217      21.10840134  T        0        1       0.03470401       0.00543635       0.00602186
Si       1.30471584       2.26793016      19.32945797  T        0        1      -0.00537547       0.00543780      -0.00012633
O        1.38266718       1.17078642      18.10233253  T        1        1      -0.01654884       0.02005996       0.00912207
O        0.28858984       1.73866236      20.47868159  T        1        1       0.00312809       0.01469596      -0.02448617
O        3.19394469       0.83498327      21.94674159  T        1        1      -0.00494136       0.00770899      -0.01332070
O        0.77152354       3.64329064      18.63402160  T        1        1      -0.00055278      -0.02534873      -0.01338614
O        2.76009471       2.55789782      19.96580048  T        1        1      -0.03268217       0.00499918       0.00394196
O       -1.37498271       2.10907154      22.66332434  T        1        1       0.01122004       0.01079146      -0.00870800
Si       7.23815181       0.00000000      12.00000000  F        0        2      -0.13250411      -0.36567288      -1.69018989
Si       3.76227409       2.00679893      15.60606667  F        0        2      -0.10716638       0.07999472       1.25640478
Si       6.22272410       2.25482548      13.80303333  F        0        2       0.02684295      -0.16904760       1.04808996
O        6.30416499       1.13103512      12.65233746  F        1        2      -0.50304608       0.20857135      -0.23149719
O        5.20877265       1.76346018      14.95372921  F        1        2       0.43929814      -0.24323362      -0.39799860
O        8.17066236       0.63242506      16.25840413  F        1        2      -0.13571048      -0.49338883       0.01316135
O        5.71021236       3.62919935      13.15069587  F        1        2       0.42195207       0.29250773       0.52182336
O        7.66922265       2.49816423      14.45537079  F        1        2       0.01595503       0.38803346      -0.74128562
O        3.84371499       3.13058929      16.75676254  F        1        2       0.06383125       0.20721855       0.08583409
Si       7.25434882      -0.01011420      17.46255039  T        0        1       0.01041640      -0.01821430      -0.01382825
Si       3.77793596       2.12897975      21.18541020  T        0        1      -0.03259324       0.01961319      -0.01992911
Si       6.20437216       2.21180194      19.30248909  T        0        1       0.00290259      -0.02551619      -0.00390697
O        6.29311679       1.12732582      18.08105701  T        1        1      -0.02000654      -0.01266468      -0.03689632
O        5.15484460       1.70715531      20.41489625  T        1        1      -0.00925445      -0.01513354       0.00627733
O        8.29426462       0.07087938      21.51457783  T        1        1      -0.02835389      -0.00844015       0.00045857
O        5.75955259       3.61734201      18.59792993  T        1        1       0.01918675       0.01055822       0.00852050
O        7.66870141       2.34329019      19.99503047  T        1        1       0.01389326       0.01503533       0.00678342
O        4.03027670       3.39261966      22.24678284  T        1        1      -0.01346717       0.01202164       0.02084252
F        2.80953048       0.69306544      24.43094151  T        0        0      -0.00254654       0.01867578       0.00661347
H        3.05757538       0.79179568      22.95161285  T        0        0       0.01900559      -0.01219624       0.00584848
F        4.11604254       0.63766588      26.28999221  T        0        0       0.03704952       0.01554025       0.02444422
H        3.49319251       0.66455578      25.37114923  T        0        0      -0.01454358       0.01879343       0.00451149
40
Lattice="9.8418 0.0 0.0 -2.460449999999999 4.261624409482844 0.0 0.0 -0.0 34.16586254" Properties=species:S:1:pos:R:3:move_mask:L:1:spacegroup_kinds:I:1:tags:I:1:forces:R:3 surface=alpha_quartz_001 coadsorbate=HF start=1 calculation_kind="Local coadsorbate relaxation; not a reaction path" host_atoms=36 energy=-283.04576825690566 pbc="T T F"
Si       2.31725181       0.00000000      12.00000000  F        0        2      -0.13309276      -0.36548294      -1.69560567
Si      -1.15862590       2.00679893      15.60606667  F        0        2      -0.13518103       0.04469597       1.27196087
Si       1.30182410       2.25482548      13.80303333  F        0        2       0.04030850      -0.15714392       1.02929966
O        1.38326499       1.13103512      12.65233746  F        1        2      -0.50420131       0.21267450      -0.22363709
O        0.28787265       1.76346018      14.95372921  F        1        2       0.45719954      -0.24353447      -0.39464662
O        3.24976236       0.63242506      16.25840413  F        1        2      -0.25916227      -0.58419618       0.14093486
O        0.78931236       3.62919935      13.15069587  F        1        2       0.42233970       0.28698690       0.53061048
O        2.74832265       2.49816423      14.45537079  F        1        2      -0.00099667       0.38223835      -0.74182486
O       -1.07718501       3.13058929      16.75676254  F        1        2       0.04091330       0.43927965       0.20204418
Si       2.31229952       0.01404074      17.46680354  T        0        1      -0.00697765       0.00286951       0.04369512
Si      -1.20218039       1.65625825      21.10836055  T        0        1       0.03221501       0.01041976       0.00690961
Si       1.30117343       2.26923599      19.32804788  T        0        1      -0.00098839      -0.00200614       0.00364392
O        1.37877972       1.17334189      18.09956808  T        1        1      -0.01481829       0.02122660       0.00066703
O        0.28796177       1.73731254      20.47870779  T        1        1       0.00049856       0.01638734      -0.02183846
O        3.19188649       0.83534257      21.94324578  T        1        1      -0.00673939       0.00521279      -0.01185314
O        0.76411328       3.64378762      18.63488825  T        1        1       0.01782786      -0.01693445      -0.00044667
O        2.75771896       2.55731039      19.96277074  T        1        1      -0.02896096       0.01393854       0.00376818
O       -1.37861365       2.10660004      22.66287754  T        1        1       0.01640236       0.00899865      -0.00717621
Si       7.23815181       0.00000000      12.00000000  F        0        2      -0.13249456      -0.36560238      -1.68977574
Si       3.76227409       2.00679893      15.60606667  F        0        2      -0.10455105       0.08445315       1.25632644
Si       6.22272410       2.25482548      13.80303333  F        0        2       0.02692597      -0.16945724       1.04909677
O        6.30416499       1.13103512      12.65233746  F        1        2      -0.50298917       0.20836375      -0.23187643
O        5.20877265       1.76346018      14.95372921  F        1        2       0.43896095      -0.24353282      -0.39871019
O        8.17066236       0.63242506      16.25840413  F        1        2      -0.13285889      -0.49072006       0.01224210
O        5.71021236       3.62919935      13.15069587  F        1        2       0.42182465       0.29266383       0.52144855
O        7.66922265       2.49816423      14.45537079  F        1        2       0.01580277       0.38799048      -0.74242307
O        3.84371499       3.13058929      16.75676254  F        1        2       0.06477778       0.19758666       0.08154434
Si       7.25524748      -0.01106709      17.46273226  T        0        1       0.01025226      -0.02039966      -0.02058850
Si       3.77662355       2.12942920      21.18208277  T        0        1      -0.03882560       0.00980798      -0.01987533
Si       6.20398643       2.20930949      19.30185923  T        0        1       0.00144713      -0.02070540      -0.00919397
O        6.29191389       1.12497681      18.08033545  T        1        1      -0.00676903      -0.01331802      -0.03212379
O        5.15181511       1.70265386      20.41092149  T        1        1      -0.00733019       0.00494120       0.01065266
O        8.29618086       0.06770525      21.51452694  T        1        1      -0.03594226      -0.00970222      -0.00100759
O        5.76253438       3.61567362      18.59617597  T        1        1       0.00640894       0.01345893       0.01236730
O        7.66779066       2.34088587      19.99538540  T        1        1       0.00948656       0.00526712       0.00768787
O        4.02875739       3.39187767      22.24479245  T        1        1      -0.00585292       0.01358466       0.00986790
F        2.81451633       0.70776558      24.43593578  T        0        0      -0.00202293       0.01796182      -0.00198949
H        3.05758632       0.79570338      22.94686063  T        0        0       0.01506759      -0.01447551       0.02258613
F        4.12449568       0.63679261      26.29031670  T        0        0       0.04339292       0.01615985       0.03885012
H        3.49914317       0.67080234      25.37394009  T        0        0      -0.02129701       0.02004344      -0.01161124
40
Lattice="9.8418 0.0 0.0 -2.460449999999999 4.261624409482844 0.0 0.0 -0.0 34.16586254" Properties=species:S:1:pos:R:3:move_mask:L:1:spacegroup_kinds:I:1:tags:I:1:forces:R:3 surface=alpha_quartz_001 coadsorbate=HF start=1 calculation_kind="Local coadsorbate relaxation; not a reaction path" host_atoms=36 energy=-283.04636244469407 pbc="T T F"
Si       2.31725181       0.00000000      12.00000000  F        0        2      -0.13300737      -0.36543153      -1.69516424
Si      -1.15862590       2.00679893      15.60606667  F        0        2      -0.13559882       0.04707668       1.27482846
Si       1.30182410       2.25482548      13.80303333  F        0        2       0.04058462      -0.15664434       1.02988407
O        1.38326499       1.13103512      12.65233746  F        1        2      -0.50403484       0.21243713      -0.22387232
O        0.28787265       1.76346018      14.95372921  F        1        2       0.45723746      -0.24387955      -0.39507437
O        3.24976236       0.63242506      16.25840413  F        1        2      -0.27491684      -0.58959703       0.16056666
O        0.78931236       3.62919935      13.15069587  F        1        2       0.42199108       0.28717303       0.53014058
O        2.74832265       2.49816423      14.45537079  F        1        2      -0.00131752       0.38278471      -0.74256063
O       -1.07718501       3.13058929      16.75676254  F        1        2       0.02658163       0.43799954       0.19049204
Si       2.30926795       0.01615758      17.46666591  T        0        1       0.00570213      -0.00273688       0.02790214
Si      -1.20302650       1.65604173      21.10915393  T        0        1       0.01641119       0.00842892       0.00562154
Si       1.29733499       2.27022798      19.32745299  T        0        1       0.00193711      -0.00485567       0.00112171
O        1.37527057       1.17617812      18.09740434  T        1        1      -0.00794602       0.01236627      -0.00960933
O        0.28653984       1.73554714      20.47850116  T        1        1      -0.00212529       0.01415784      -0.01231823
O        3.19069719       0.83494048      21.93990134  T        1        1      -0.01484677       0.00288590       0.01754037
O        0.75731793       3.64392500      18.63621754  T        1        1       0.02701608       0.00129794       0.00691532
O        2.75398401       2.55826689      19.96132248  T        1        1      -0.01639987       0.02015128       0.00517349
O       -1.38196829       2.11047532      22.66212608  T        1        1       0.02404125       0.00325607      -0.00339414
Si       7.23815181       0.00000000      12.00000000  F        0        2      -0.13253123      -0.36552413      -1.68951025
Si       3.76227409       2.00679893      15.60606667  F        0        2      -0.10425751       0.08478032       1.25640371
Si       6.22272410       2.25482548      13.80303333  F        0        2       0.02695818      -0.16992275       1.04963475
O        6.30416499       1.13103512      12.65233746  F        1        2      -0.50292318       0.20819472      -0.23216897
O        5.20877265       1.76346018      14.95372921  F        1        2       0.43920762      -0.24334554      -0.39948826
O        8.17066236       0.63242506      16.25840413  F        1        2      -0.12856772      -0.48624668       0.00734865
O        5.71021236       3.62919935      13.15069587  F        1        2       0.42173676       0.29280357       0.52125196
O        7.66922265       2.49816423      14.45537079  F        1        2       0.01558456       0.38770903      -0.74321359
O        3.84371499       3.13058929      16.75676254  F        1        2       0.06314467       0.18219940       0.07316009
Si       7.25639671      -0.01245302      17.46256346  T        0        1       0.00790611      -0.01450254      -0.01610680
Si       3.77401479       2.13056080      21.17948028  T        0        1      -0.02915607      -0.00028012      -0.00830520
Si       6.20361310       2.20672704      19.30092754  T        0        1      -0.00036828      -0.01023473      -0.01011299
O        6.29033439       1.12155596      18.07997556  T        1        1       0.00764016      -0.00625981      -0.01948221
O        5.14850100       1.70109071      20.40787564  T        1        1      -0.00536635       0.02241514       0.00978015
O        8.29496115       0.06791063      21.51768254  T        1        1      -0.03910888      -0.00157820      -0.00243171
O        5.76586239       3.61412856      18.59415210  T        1        1      -0.00478263       0.01156788       0.01369560
O        7.66674809       2.34045713      19.99581340  T        1        1       0.00090831      -0.01076518       0.00551255
O        4.02550622       3.39008795      22.24599987  T        1        1      -0.00107324       0.01243586      -0.00630243
F        2.81909813       0.71620496      24.43854223  T        0        0      -0.00527811       0.01682380      -0.01086352
H        3.05883192       0.79729903      22.94384436  T        0        0       0.01435874      -0.01464061       0.00788487
F        4.12897877       0.64174539      26.29196686  T        0        0       0.04254398       0.01420903       0.04479785
H        3.50251600       0.67688118      25.37640574  T        0        0      -0.01788511       0.02329120      -0.01967740
40
Lattice="9.8418 0.0 0.0 -2.460449999999999 4.261624409482844 0.0 0.0 -0.0 34.16586254" Properties=species:S:1:pos:R:3:move_mask:L:1:spacegroup_kinds:I:1:tags:I:1:forces:R:3 surface=alpha_quartz_001 coadsorbate=HF start=1 calculation_kind="Local coadsorbate relaxation; not a reaction path" host_atoms=36 energy=-283.0467312007549 pbc="T T F"
Si       2.31725181       0.00000000      12.00000000  F        0        2      -0.13292400      -0.36537188      -1.69473156
Si      -1.15862590       2.00679893      15.60606667  F        0        2      -0.13449016       0.04963201       1.27629752
Si       1.30182410       2.25482548      13.80303333  F        0        2       0.04066436      -0.15632790       1.03062054
O        1.38326499       1.13103512      12.65233746  F        1        2      -0.50385739       0.21220995      -0.22407918
O        0.28787265       1.76346018      14.95372921  F        1        2       0.45694724      -0.24423334      -0.39540633
O        3.24976236       0.63242506      16.25840413  F        1        2      -0.28695996      -0.59555824       0.17781828
O        0.78931236       3.62919935      13.15069587  F        1        2       0.42170253       0.28733236       0.52968411
O        2.74832265       2.49816423      14.45537079  F        1        2      -0.00129500       0.38339243      -0.74299560
O       -1.07718501       3.13058929      16.75676254  F        1        2       0.02258561       0.44250967       0.19008113
Si       2.30752963       0.01748367      17.46710257  T        0        1       0.01152343      -0.00514797       0.00406406
Si      -1.20332403       1.65715331      21.11005553  T        0        1       0.00080534       0.00251242       0.00138918
Si       1.29486324       2.27090737      19.32707731  T        0        1       0.00397715      -0.00326203      -0.00436370
O        1.37319314       1.17857341      18.09563596  T        1        1      -0.00142571       0.00160504      -0.01448775
O        0.28554048       1.73442757      20.47797309  T        1        1      -0.00384442       0.00911030      -0.00335283
O        3.18952520       0.83533318      21.93796200  T        1        1      -0.01716941       0.00315586       0.01536564
O        0.75346658       3.64445454      18.63756620  T        1        1       0.02540502       0.01664483       0.00643328
O        2.75127219       2.56007208      19.96027015  T        1        1      -0.00527585       0.01958470       0.00884796
O       -1.38263429       2.11580732      22.66154005  T        1        1       0.02808638      -0.00180147       0.00285030
Si       7.23815181       0.00000000      12.00000000  F        0        2      -0.13258513      -0.36549180      -1.68952715
Si       3.76227409       2.00679893      15.60606667  F        0        2      -0.10571892       0.08221749       1.25597011
Si       6.22272410       2.25482548      13.80303333  F        0        2       0.02698121      -0.17024338       1.04948527
O        6.30416499       1.13103512      12.65233746  F        1        2      -0.50292812       0.20817556      -0.23224268
O        5.20877265       1.76346018      14.95372921  F        1        2       0.43967872      -0.24292146      -0.39975733
O        8.17066236       0.63242506      16.25840413  F        1        2      -0.12442842      -0.48257782       0.00133583
O        5.71021236       3.62919935      13.15069587  F        1        2       0.42176670       0.29282584       0.52132817
O        7.66922265       2.49816423      14.45537079  F        1        2       0.01541726       0.38735713      -0.74330718
O        3.84371499       3.13058929      16.75676254  F        1        2       0.06005753       0.16719125       0.06390780
Si       7.25747132      -0.01384593      17.46220199  T        0        1       0.00504086      -0.00411997      -0.00411638
Si       3.77135326       2.13209172      21.17785711  T        0        1      -0.01319909      -0.00547221       0.00581785
Si       6.20355547       2.20487049      19.30026841  T        0        1      -0.00223798      -0.00069086      -0.00650901
O        6.28950216       1.11834402      18.08037855  T        1        1       0.01499781       0.00501391      -0.00715134
O        5.14634283       1.70226610      20.40682679  T        1        1      -0.00396714       0.02851193       0.00552760
O        8.29251049       0.06971880      21.52079424  T        1        1      -0.03699405       0.00835968      -0.00222922
O        5.76827555       3.61295582      18.59270457  T        1        1      -0.00860047       0.00655887       0.01180121
O        7.66607398       2.34102869      19.99642817  T        1        1      -0.00625580      -0.02208128       0.00116734
O        4.02222225       3.38935115      22.24745261  T        1        1      -0.00067370       0.01156799      -0.01583318
F        2.82244636       0.71703227      24.43897807  T        0        0      -0.00368598       0.01585211      -0.00601614
H        3.06087556       0.79736106      22.94190004  T        0        0       0.00988927      -0.01449187       0.01149749
F        4.12878063       0.64820765      26.29597240  T        0        0       0.02722058       0.01261085       0.02618051
H        3.50289896       0.68021460      25.37859156  T        0        0      -0.00423032       0.02586129      -0.01136462
40
Lattice="9.8418 0.0 0.0 -2.460449999999999 4.261624409482844 0.0 0.0 -0.0 34.16586254" Properties=species:S:1:pos:R:3:move_mask:L:1:spacegroup_kinds:I:1:tags:I:1:forces:R:3 surface=alpha_quartz_001 coadsorbate=HF start=1 calculation_kind="Local coadsorbate relaxation; not a reaction path" host_atoms=36 energy=-283.0470168036894 pbc="T T F"
Si       2.31725181       0.00000000      12.00000000  F        0        2      -0.13286836      -0.36533069      -1.69448034
Si      -1.15862590       2.00679893      15.60606667  F        0        2      -0.13311965       0.05128730       1.27661395
Si       1.30182410       2.25482548      13.80303333  F        0        2       0.04058952      -0.15616982       1.03109493
O        1.38326499       1.13103512      12.65233746  F        1        2      -0.50373576       0.21207284      -0.22417408
O        0.28787265       1.76346018      14.95372921  F        1        2       0.45656573      -0.24445263      -0.39558836
O        3.24976236       0.63242506      16.25840413  F        1        2      -0.29385747      -0.60072749       0.18963988
O        0.78931236       3.62919935      13.15069587  F        1        2       0.42155004       0.28742280       0.52942099
O        2.74832265       2.49816423      14.45537079  F        1        2      -0.00110233       0.38379118      -0.74307139
O       -1.07718501       3.13058929      16.75676254  F        1        2       0.02381679       0.44802726       0.19408633
Si       2.30677017       0.01814601      17.46761626  T        0        1       0.01158496      -0.00435446      -0.01433096
Si      -1.20377769       1.65864966      21.11097938  T        0        1      -0.00950467      -0.00352052      -0.00129717
Si       1.29321349       2.27120087      19.32697892  T        0        1       0.00362872       0.00068921      -0.00863277
O        1.37222056       1.18031916      18.09431633  T        1        1       0.00291732      -0.00615737      -0.01432906
O        0.28456423       1.73366278      20.47759997  T        1        1      -0.00519139       0.00415963       0.00060050
O        3.18827449       0.83513498      21.93648039  T        1        1      -0.01885617       0.00313974       0.02369694
O        0.75142375       3.64513899      18.63893513  T        1        1       0.01975910       0.02504892       0.00139074
O        2.74908750       2.56211538      19.96001116  T        1        1       0.00217923       0.01518723       0.01094761
O       -1.38220474       2.12094940      22.66137605  T        1        1       0.02981654      -0.00539972       0.00635259
Si       7.23815181       0.00000000      12.00000000  F        0        2      -0.13263135      -0.36548971      -1.68968775
Si       3.76227409       2.00679893      15.60606667  F        0        2      -0.10714000       0.07958087       1.25532349
Si       6.22272410       2.25482548      13.80303333  F        0        2       0.02694259      -0.17042995       1.04906548
O        6.30416499       1.13103512      12.65233746  F        1        2      -0.50296246       0.20823270      -0.23217097
O        5.20877265       1.76346018      14.95372921  F        1        2       0.43999728      -0.24253556      -0.39980048
O        8.17066236       0.63242506      16.25840413  F        1        2      -0.12064758      -0.48015229      -0.00423041
O        5.71021236       3.62919935      13.15069587  F        1        2       0.42185078       0.29278575       0.52153286
O        7.66922265       2.49816423      14.45537079  F        1        2       0.01537115       0.38708509      -0.74304443
O        3.84371499       3.13058929      16.75676254  F        1        2       0.05827376       0.15722726       0.05810922
Si       7.25824456      -0.01480382      17.46188036  T        0        1       0.00154931       0.00482536       0.00539799
Si       3.76896445       2.13286934      21.17690711  T        0        1      -0.00021282      -0.00616515       0.01628171
Si       6.20333275       2.20379544      19.29960096  T        0        1      -0.00338971       0.00632835      -0.00090303
O        6.28915927       1.11631685      18.08057331  T        1        1       0.01668564       0.01426694       0.00139280
O        5.14461882       1.70430866      20.40618842  T        1        1      -0.00349999       0.02695544       0.00262410
O        8.28911020       0.07216309      21.52391858  T        1        1      -0.03163806       0.01539193      -0.00177441
O        5.76966131       3.61252070      18.59202032  T        1        1      -0.00915621       0.00205090       0.00795402
O        7.66516853       2.34152994      19.99705846  T        1        1      -0.00878314      -0.02640689      -0.00242247
O        4.01916947       3.38837040      22.24887340  T        1        1      -0.00213915       0.01125388      -0.01957234
F        2.82406304       0.71353288      24.43701584  T        0        0      -0.00428100       0.01627556      -0.00093887
H        3.06256695       0.79560840      22.94128886  T        0        0       0.00770194      -0.01221145       0.00010922
F        4.12708925       0.65781981      26.29783485  T        0        0       0.01414600       0.01116019       0.01074363
H        3.50195407       0.68358858      25.37869487  T        0        0       0.00979086       0.02525737      -0.00192969
40
Lattice="9.8418 0.0 0.0 -2.460449999999999 4.261624409482844 0.0 0.0 -0.0 34.16586254" Properties=species:S:1:pos:R:3:move_mask:L:1:spacegroup_kinds:I:1:tags:I:1:forces:R:3 surface=alpha_quartz_001 coadsorbate=HF start=1 calculation_kind="Local coadsorbate relaxation; not a reaction path" host_atoms=36 energy=-283.04737082628833 pbc="T T F"
Si       2.31725181       0.00000000      12.00000000  F        0        2      -0.13282110      -0.36530799      -1.69431008
Si      -1.15862590       2.00679893      15.60606667  F        0        2      -0.13177898       0.05192093       1.27662178
Si       1.30182410       2.25482548      13.80303333  F        0        2       0.04042043      -0.15607134       1.03149201
O        1.38326499       1.13103512      12.65233746  F        1        2      -0.50364620       0.21196413      -0.22423293
O        0.28787265       1.76346018      14.95372921  F        1        2       0.45616982      -0.24448980      -0.39593427
O        3.24976236       0.63242506      16.25840413  F        1        2      -0.29710647      -0.60444468       0.19646678
O        0.78931236       3.62919935      13.15069587  F        1        2       0.42144874       0.28751792       0.52924423
O        2.74832265       2.49816423      14.45537079  F        1        2      -0.00087209       0.38406714      -0.74298095
O       -1.07718501       3.13058929      16.75676254  F        1        2       0.02583487       0.45299181       0.19861376
Si       2.30613842       0.01881785      17.46789826  T        0        1       0.00834988      -0.00215803      -0.02732656
Si      -1.20423037       1.65909455      21.11171024  T        0        1      -0.01539641      -0.00785140      -0.00414324
Si       1.29157581       2.27158086      19.32649562  T        0        1       0.00260178       0.00554414      -0.01107277
O        1.37116409       1.18230894      18.09227784  T        1        1       0.00617293      -0.01147669      -0.00954025
O        0.28363617       1.73321713      20.47718702  T        1        1      -0.00590553      -0.00210217       0.00014688
O        3.18592046       0.83498987      21.93489719  T        1        1      -0.01601149       0.00317666       0.01930321
O        0.74957251       3.64643740      18.64043888  T        1        1       0.01304329       0.02841142      -0.00459248
O        2.74704508       2.56412674      19.95933026  T        1        1       0.00651514       0.00800657       0.01146107
O       -1.38123887       2.12356311      22.66150756  T        1        1       0.02870730      -0.00745920       0.00918484
Si       7.23815181       0.00000000      12.00000000  F        0        2      -0.13266021      -0.36549540      -1.68983024
Si       3.76227409       2.00679893      15.60606667  F        0        2      -0.10804361       0.07732622       1.25419137
Si       6.22272410       2.25482548      13.80303333  F        0        2       0.02681860      -0.17062199       1.04868779
O        6.30416499       1.13103512      12.65233746  F        1        2      -0.50299964       0.20829121      -0.23209130
O        5.20877265       1.76346018      14.95372921  F        1        2       0.44011157      -0.24215520      -0.39985496
O        8.17066236       0.63242506      16.25840413  F        1        2      -0.11490499      -0.47878889      -0.01070568
O        5.71021236       3.62919935      13.15069587  F        1        2       0.42194761       0.29274290       0.52172672
O        7.66922265       2.49816423      14.45537079  F        1        2       0.01541579       0.38682349      -0.74265163
O        3.84371499       3.13058929      16.75676254  F        1        2       0.05819215       0.14857506       0.05408626
Si       7.25909922      -0.01573471      17.46158589  T        0        1      -0.00312249       0.01322800       0.01302815
Si       3.76652480       2.13294004      21.17553863  T        0        1       0.00932344      -0.00379855       0.02281561
Si       6.20291594       2.20260247      19.29874617  T        0        1      -0.00486061       0.01202137       0.00597290
O        6.28922588       1.11486214      18.08015350  T        1        1       0.01434716       0.02227960       0.00836615
O        5.14265909       1.70571538      20.40499444  T        1        1      -0.00429426       0.02147450       0.00110411
O        8.28555311       0.07342111      21.52571546  T        1        1      -0.02260362       0.01900378      -0.00057145
O        5.77076239       3.61231569      18.59185933  T        1        1      -0.00909742      -0.00310234       0.00205692
O        7.66392021       2.34052658      19.99776667  T        1        1      -0.00868137      -0.02348417      -0.00569094
O        4.01662361       3.38767377      22.24851708  T        1        1      -0.00490536       0.01175512      -0.01744466
F        2.82544716       0.71281621      24.43547089  T        0        0       0.00172953       0.01667992       0.01247503
H        3.06381667       0.79399146      22.94018939  T        0        0       0.00322700      -0.00823282       0.00031838
F        4.12826695       0.66741535      26.29871466  T        0        0      -0.00722042       0.01180762      -0.01631892
H        3.50227321       0.68868008      25.37835831  T        0        0       0.02655521       0.02143116       0.01192934
40
Lattice="9.8418 0.0 0.0 -2.460449999999999 4.261624409482844 0.0 0.0 -0.0 34.16586254" Properties=species:S:1:pos:R:3:move_mask:L:1:spacegroup_kinds:I:1:tags:I:1:forces:R:3 surface=alpha_quartz_001 coadsorbate=HF start=1 calculation_kind="Local coadsorbate relaxation; not a reaction path" host_atoms=36 energy=-283.0478652748991 pbc="T T F"
Si       2.31725181       0.00000000      12.00000000  F        0        2      -0.13278827      -0.36531494      -1.69428149
Si      -1.15862590       2.00679893      15.60606667  F        0        2      -0.13102547       0.05088466       1.27658944
Si       1.30182410       2.25482548      13.80303333  F        0        2       0.04012324      -0.15598070       1.03166494
O        1.38326499       1.13103512      12.65233746  F        1        2      -0.50359773       0.21190059      -0.22421881
O        0.28787265       1.76346018      14.95372921  F        1        2       0.45582692      -0.24425410      -0.39655752
O        3.24976236       0.63242506      16.25840413  F        1        2      -0.29709987      -0.60627237       0.19782429
O        0.78931236       3.62919935      13.15069587  F        1        2       0.42140791       0.28762989       0.52921332
O        2.74832265       2.49816423      14.45537079  F        1        2      -0.00067147       0.38415383      -0.74271150
O       -1.07718501       3.13058929      16.75676254  F        1        2       0.02552919       0.45587501       0.20041941
Si       2.30504690       0.01995913      17.46762478  T        0        1       0.00257827       0.00136358      -0.02957895
Si      -1.20498788       1.65801597      21.11255353  T        0        1      -0.01625510      -0.00849092      -0.00657969
Si       1.28900351       2.27234392      19.32524795  T        0        1       0.00033905       0.01070566      -0.00965464
O        1.36917846       1.18514972      18.08872255  T        1        1       0.00884156      -0.01253380       0.00031078
O        0.28231179       1.73280349      20.47664693  T        1        1      -0.00678955      -0.00994428      -0.00602360
O        3.18131726       0.83446187      21.93232364  T        1        1      -0.00917772       0.00208179       0.01530835
O        0.74654375       3.64890034      18.64246007  T        1        1       0.00724460       0.02491814      -0.01102987
O        2.74419221       2.56629282      19.95795200  T        1        1       0.00830582      -0.00189501       0.00828033
O       -1.37984203       2.12328414      22.66234322  T        1        1       0.02538911      -0.00747640       0.00908913
Si       7.23815181       0.00000000      12.00000000  F        0        2      -0.13265695      -0.36549273      -1.68986038
Si       3.76227409       2.00679893      15.60606667  F        0        2      -0.10735514       0.07691107       1.25237791
Si       6.22272410       2.25482548      13.80303333  F        0        2       0.02657244      -0.17086679       1.04856439
O        6.30416499       1.13103512      12.65233746  F        1        2      -0.50301480       0.20830325      -0.23205250
O        5.20877265       1.76346018      14.95372921  F        1        2       0.43976400      -0.24189882      -0.40008636
O        8.17066236       0.63242506      16.25840413  F        1        2      -0.10616093      -0.47842829      -0.01857271
O        5.71021236       3.62919935      13.15069587  F        1        2       0.42202489       0.29272728       0.52183167
O        7.66922265       2.49816423      14.45537079  F        1        2       0.01560499       0.38661831      -0.74229405
O        3.84371499       3.13058929      16.75676254  F        1        2       0.06190501       0.14288040       0.05420939
Si       7.26012823      -0.01659122      17.46143047  T        0        1      -0.00995158       0.01936991       0.01520058
Si       3.76328570       2.13189714      21.17309743  T        0        1       0.01226729       0.00141198       0.02427146
Si       6.20203570       2.20108360      19.29753867  T        0        1      -0.00699356       0.01724448       0.01340411
O        6.28965377       1.11432198      18.07850581  T        1        1       0.00859676       0.02633041       0.01484450
O        5.13949597       1.70614604      20.40229247  T        1        1      -0.00549593       0.01259602       0.00189246
O        8.28102410       0.07337356      21.52703002  T        1        1      -0.00869421       0.01647689       0.00071616
O        5.77189926       3.61248603      18.59226954  T        1        1      -0.01129253      -0.00783091      -0.00616683
O        7.66184559       2.33714593      19.99879260  T        1        1      -0.00628813      -0.01148337      -0.00735196
O        4.01351272       3.38655007      22.24603294  T        1        1      -0.00850363       0.01392498      -0.00933954
F        2.82752578       0.71510743      24.43308274  T        0        0       0.00309191       0.01840035       0.02119717
H        3.06441511       0.79154948      22.93842545  T        0        0      -0.00165073       0.00005711      -0.00243785
F        4.13277851       0.68227372      26.29601986  T        0        0      -0.02056959       0.01426586      -0.02933318
H        3.50469984       0.69877194      25.37603627  T        0        0       0.04061994       0.01113199       0.02092164
40
Lattice="9.8418 0.0 0.0 -2.460449999999999 4.261624409482844 0.0 0.0 -0.0 34.16586254" Properties=species:S:1:pos:R:3:move_mask:L:1:spacegroup_kinds:I:1:tags:I:1:forces:R:3 surface=alpha_quartz_001 coadsorbate=HF start=1 calculation_kind="Local coadsorbate relaxation; not a reaction path" host_atoms=36 energy=-283.04831465037086 pbc="T T F"
Si       2.31725181       0.00000000      12.00000000  F        0        2      -0.13278416      -0.36534826      -1.69436856
Si      -1.15862590       2.00679893      15.60606667  F        0        2      -0.13155206       0.04828539       1.27684892
Si       1.30182410       2.25482548      13.80303333  F        0        2       0.03989885      -0.15593781       1.03156304
O        1.38326499       1.13103512      12.65233746  F        1        2      -0.50361811       0.21189595      -0.22417793
O        0.28787265       1.76346018      14.95372921  F        1        2       0.45580379      -0.24378420      -0.39728141
O        3.24976236       0.63242506      16.25840413  F        1        2      -0.29318559      -0.60345835       0.19046830
O        0.78931236       3.62919935      13.15069587  F        1        2       0.42141934       0.28772890       0.52931677
O        2.74832265       2.49816423      14.45537079  F        1        2      -0.00069378       0.38400924      -0.74248171
O       -1.07718501       3.13058929      16.75676254  F        1        2       0.02144973       0.45391169       0.19695347
Si       2.30385510       0.02116186      17.46671560  T        0        1      -0.00220610       0.00357133      -0.01757772
Si      -1.20562052       1.65488592      21.11275454  T        0        1      -0.01057874      -0.00348971      -0.00688382
Si       1.28668935       2.27326380      19.32357910  T        0        1      -0.00109552       0.01201226      -0.00461126
O        1.36685101       1.18741317      18.08517506  T        1        1       0.01024842      -0.00777770       0.01091499
O        0.28123763       1.73282781      20.47606424  T        1        1      -0.00748273      -0.01624860      -0.01499699
O        3.17649645       0.83390394      21.93031595  T        1        1       0.00047446       0.00038994       0.00739890
O        0.74392864       3.65145920      18.64356995  T        1        1       0.00632052       0.01510405      -0.01153663
O        2.74193396       2.56695445      19.95650347  T        1        1       0.00626722      -0.00847423       0.00157783
O       -1.37889064       2.11802909      22.66342820  T        1        1       0.01969096      -0.00466193       0.00565823
Si       7.23815181       0.00000000      12.00000000  F        0        2      -0.13260314      -0.36546734      -1.68961987
Si       3.76227409       2.00679893      15.60606667  F        0        2      -0.10496819       0.07891224       1.25068094
Si       6.22272410       2.25482548      13.80303333  F        0        2       0.02629234      -0.17106756       1.04901229
O        6.30416499       1.13103512      12.65233746  F        1        2      -0.50296253       0.20819382      -0.23216590
O        5.20877265       1.76346018      14.95372921  F        1        2       0.43902358      -0.24189648      -0.40054801
O        8.17066236       0.63242506      16.25840413  F        1        2      -0.09749745      -0.47993532      -0.02417802
O        5.71021236       3.62919935      13.15069587  F        1        2       0.42198811       0.29280198       0.52166191
O        7.66922265       2.49816423      14.45537079  F        1        2       0.01586488       0.38657498      -0.74227252
O        3.84371499       3.13058929      16.75676254  F        1        2       0.06821213       0.14337051       0.05913713
Si       7.26082965      -0.01690793      17.46151451  T        0        1      -0.01548393       0.01919143       0.00941842
Si       3.76108583       2.12989507      21.17070579  T        0        1       0.00498046       0.00787485       0.01740601
Si       6.20093646       2.19972890      19.29653161  T        0        1      -0.00892090       0.01838727       0.01624129
O        6.29034175       1.11536827      18.07586771  T        1        1       0.00094290       0.02225982       0.01718141
O        5.13649957       1.70417935      20.39896187  T        1        1      -0.00727698       0.00591076       0.00535337
O        8.27825614       0.07068235      21.52594708  T        1        1       0.00524535       0.00758465       0.00128284
O        5.77236652       3.61289549      18.59325581  T        1        1      -0.01575503      -0.00962523      -0.01222382
O        7.65990133       2.33177095      19.99938519  T        1        1      -0.00325515       0.00741975      -0.00548652
O        4.01235041       3.38618809      22.24138444  T        1        1      -0.01186555       0.01475922       0.00214259
F        2.82935756       0.72654042      24.43391717  T        0        0       0.00995609       0.01827765       0.02794911
H        3.06364280       0.79103323      22.93647615  T        0        0      -0.00612121       0.00920489       0.00450492
F        4.14300700       0.68996154      26.29147836  T        0        0      -0.02851602       0.02064115      -0.03539572
H        3.51047639       0.70965461      25.37417564  T        0        0       0.04434374      -0.00110098       0.02313372
40
Lattice="9.8418 0.0 0.0 -2.460449999999999 4.261624409482844 0.0 0.0 -0.0 34.16586254" Properties=species:S:1:pos:R:3:move_mask:L:1:spacegroup_kinds:I:1:tags:I:1:forces:R:3 surface=alpha_quartz_001 coadsorbate=HF start=1 calculation_kind="Local coadsorbate relaxation; not a reaction path" host_atoms=36 energy=-283.0485942270848 pbc="T T F"
Si       2.31725181       0.00000000      12.00000000  F        0        2      -0.13281369      -0.36539880      -1.69460392
Si      -1.15862590       2.00679893      15.60606667  F        0        2      -0.13305836       0.04562622       1.27714276
Si       1.30182410       2.25482548      13.80303333  F        0        2       0.03980127      -0.15590243       1.03112588
O        1.38326499       1.13103512      12.65233746  F        1        2      -0.50369127       0.21197366      -0.22406122
O        0.28787265       1.76346018      14.95372921  F        1        2       0.45602316      -0.24340472      -0.39766580
O        3.24976236       0.63242506      16.25840413  F        1        2      -0.28901605      -0.59862978       0.18065824
O        0.78931236       3.62919935      13.15069587  F        1        2       0.42149272       0.28775531       0.52955140
O        2.74832265       2.49816423      14.45537079  F        1        2      -0.00087019       0.38374326      -0.74239236
O       -1.07718501       3.13058929      16.75676254  F        1        2       0.01536924       0.44952995       0.19035759
Si       2.30274543       0.02218643      17.46563508  T        0        1      -0.00323580       0.00357431       0.00082978
Si      -1.20588595       1.65246260      21.11280918  T        0        1      -0.00375870       0.00297972      -0.00544745
Si       1.28505318       2.27424076      19.32210480  T        0        1      -0.00104076       0.00903532       0.00175342
O        1.36495591       1.18867361      18.08292365  T        1        1       0.00994792       0.00015904       0.01512812
O        0.28058382       1.73268810      20.47535511  T        1        1      -0.00815864      -0.01733151      -0.02127277
O        3.17312002       0.83399188      21.92913135  T        1        1       0.00748024      -0.00081351      -0.00151523
O        0.74195237       3.65344614      18.64387735  T        1        1       0.00977084       0.00427253      -0.00841133
O        2.74056197       2.56691933      19.95527434  T        1        1       0.00239234      -0.00989742      -0.00379910
O       -1.37767680       2.11349328      22.66444234  T        1        1       0.01577071      -0.00116259       0.00078575
Si       7.23815181       0.00000000      12.00000000  F        0        2      -0.13254143      -0.36544237      -1.68935096
Si       3.76227409       2.00679893      15.60606667  F        0        2      -0.10217570       0.08278142       1.24979049
Si       6.22272410       2.25482548      13.80303333  F        0        2       0.02621345      -0.17110694       1.04955841
O        6.30416499       1.13103512      12.65233746  F        1        2      -0.50291438       0.20808028      -0.23229666
O        5.20877265       1.76346018      14.95372921  F        1        2       0.43824624      -0.24224764      -0.40077099
O        8.17066236       0.63242506      16.25840413  F        1        2      -0.09449272      -0.48105429      -0.02500152
O        5.71021236       3.62919935      13.15069587  F        1        2       0.42190416       0.29286941       0.52142232
O        7.66922265       2.49816423      14.45537079  F        1        2       0.01605277       0.38674502      -0.74256702
O        3.84371499       3.13058929      16.75676254  F        1        2       0.07295290       0.14887780       0.06522354
Si       7.26092239      -0.01664058      17.46178728  T        0        1      -0.01676776       0.01371498       0.00000513
Si       3.75973338       2.12894288      21.16932337  T        0        1      -0.00527521       0.01064094       0.00862601
Si       6.20013222       2.19930521      19.29638275  T        0        1      -0.00985732       0.01637730       0.01367209
O        6.29087200       1.11687920      18.07428996  T        1        1      -0.00360602       0.01314625       0.01571901
O        5.13440094       1.70271678      20.39690357  T        1        1      -0.00612689       0.00377151       0.00906326
O        8.27713384       0.06864886      21.52543645  T        1        1       0.01179982      -0.00231645       0.00054726
O        5.77243526       3.61313451      18.59373625  T        1        1      -0.01970839      -0.00590320      -0.01236655
O        7.65877986       2.32810773      19.99980702  T        1        1      -0.00195152       0.02076986      -0.00088762
O        4.01109827       3.38665970      22.23808006  T        1        1      -0.01254728       0.01571656       0.00932263
F        2.83150040       0.73408192      24.43443199  T        0        0       0.00539228       0.01811176       0.01914889
H        3.06312133       0.79086672      22.93517833  T        0        0      -0.00866360       0.01477993       0.01185067
F        4.14844500       0.69549904      26.28773885  T        0        0      -0.01062086       0.02329346      -0.00975370
H        3.51482547       0.71693328      25.37272812  T        0        0       0.03228247      -0.00771416       0.01088155
40
Lattice="9.8418 0.0 0.0 -2.460449999999999 4.261624409482844 0.0 0.0 -0.0 34.16586254" Properties=species:S:1:pos:R:3:move_mask:L:1:spacegroup_kinds:I:1:tags:I:1:forces:R:3 surface=alpha_quartz_001 coadsorbate=HF start=1 calculation_kind="Local coadsorbate relaxation; not a reaction path" host_atoms=36 energy=-283.04883571472254 pbc="T T F"
Si       2.31725181       0.00000000      12.00000000  F        0        2      -0.13283886      -0.36542684      -1.69473162
Si      -1.15862590       2.00679893      15.60606667  F        0        2      -0.13442313       0.04406845       1.27744095
Si       1.30182410       2.25482548      13.80303333  F        0        2       0.03989298      -0.15587476       1.03079781
O        1.38326499       1.13103512      12.65233746  F        1        2      -0.50375509       0.21202708      -0.22400782
O        0.28787265       1.76346018      14.95372921  F        1        2       0.45627324      -0.24322416      -0.39776341
O        3.24976236       0.63242506      16.25840413  F        1        2      -0.28660557      -0.59367848       0.17272055
O        0.78931236       3.62919935      13.15069587  F        1        2       0.42152225       0.28775581       0.52968828
O        2.74832265       2.49816423      14.45537079  F        1        2      -0.00111982       0.38357451      -0.74256890
O       -1.07718501       3.13058929      16.75676254  F        1        2       0.01091690       0.44608499       0.18549597
Si       2.30208748       0.02277428      17.46489116  T        0        1      -0.00162012       0.00197257       0.01369835
Si      -1.20612923       1.65066319      21.11236116  T        0        1       0.00091376       0.00753584      -0.00259128
Si       1.28431169       2.27493373      19.32128107  T        0        1      -0.00020436       0.00376256       0.00550034
O        1.36389727       1.18886571      18.08226532  T        1        1       0.00994167       0.00622382       0.01425794
O        0.28004325       1.73247416      20.47448936  T        1        1      -0.00886707      -0.01598181      -0.02300157
O        3.17184135       0.83396548      21.92924012  T        1        1       0.01037598      -0.00130457       0.00106353
O        0.74154860       3.65449091      18.64330795  T        1        1       0.01289859      -0.00330074      -0.00274056
O        2.73985461       2.56629078      19.95514172  T        1        1      -0.00027001      -0.00778294      -0.00681958
O       -1.37704304       2.10978172      22.66477881  T        1        1       0.01226495       0.00147532      -0.00348729
Si       7.23815181       0.00000000      12.00000000  F        0        2      -0.13248911      -0.36541817      -1.68908991
Si       3.76227409       2.00679893      15.60606667  F        0        2      -0.10041597       0.08585075       1.24973535
Si       6.22272410       2.25482548      13.80303333  F        0        2       0.02623800      -0.17104435       1.05004467
O        6.30416499       1.13103512      12.65233746  F        1        2      -0.50285746       0.20796388      -0.23243650
O        5.20877265       1.76346018      14.95372921  F        1        2       0.43777963      -0.24258024      -0.40091446
O        8.17066236       0.63242506      16.25840413  F        1        2      -0.09432130      -0.48160849      -0.02410808
O        5.71021236       3.62919935      13.15069587  F        1        2       0.42178679       0.29294812       0.52116471
O        7.66922265       2.49816423      14.45537079  F        1        2       0.01613981       0.38694590      -0.74294116
O        3.84371499       3.13058929      16.75676254  F        1        2       0.07391538       0.15411521       0.06857615
Si       7.26053701      -0.01606262      17.46194835  T        0        1      -0.01497404       0.00707690      -0.00767194
Si       3.75928502       2.12844296      21.16920993  T        0        1      -0.01269238       0.01176693       0.00110378
Si       6.19928319       2.19935719      19.29658141  T        0        1      -0.00917755       0.01258040       0.00874127
O        6.29115707       1.11842393      18.07335416  T        1        1      -0.00778257       0.00360472       0.01149657
O        5.13306683       1.70126689      20.39581602  T        1        1      -0.00457054       0.00486571       0.01258139
O        8.27697611       0.06687356      21.52441588  T        1        1       0.01495101      -0.00848405      -0.00079523
O        5.77178222       3.61314700      18.59387852  T        1        1      -0.02106247      -0.00028790      -0.00819022
O        7.65814300       2.32573823      19.99959291  T        1        1      -0.00185130       0.03002589       0.00494263
O        4.01106429       3.38756768      22.23624342  T        1        1      -0.01243205       0.01382236       0.01166587
F        2.83252163       0.74474450      24.43760128  T        0        0       0.01159471       0.01435667       0.01537908
H        3.06254171       0.79229825      22.93502330  T        0        0      -0.00976387       0.01795328       0.01503894
F        4.15493547       0.69358902      26.28595812  T        0        0      -0.00089587       0.02461519       0.00149710
H        3.51948403       0.72085795      25.37322786  T        0        0       0.01758485      -0.00697536       0.00122825
40
Lattice="9.8418 0.0 0.0 -2.460449999999999 4.261624409482844 0.0 0.0 -0.0 34.16586254" Properties=species:S:1:pos:R:3:move_mask:L:1:spacegroup_kinds:I:1:tags:I:1:forces:R:3 surface=alpha_quartz_001 coadsorbate=HF start=1 calculation_kind="Local coadsorbate relaxation; not a reaction path" host_atoms=36 energy=-283.0491792534152 pbc="T T F"
Si       2.31725181       0.00000000      12.00000000  F        0        2      -0.13286552      -0.36545968      -1.69488576
Si      -1.15862590       2.00679893      15.60606667  F        0        2      -0.13584890       0.04293723       1.27768002
Si       1.30182410       2.25482548      13.80303333  F        0        2       0.04003893      -0.15577879       1.03043478
O        1.38326499       1.13103512      12.65233746  F        1        2      -0.50381869       0.21208566      -0.22392299
O        0.28787265       1.76346018      14.95372921  F        1        2       0.45647407      -0.24320034      -0.39775052
O        3.24976236       0.63242506      16.25840413  F        1        2      -0.28606933      -0.58841035       0.16589358
O        0.78931236       3.62919935      13.15069587  F        1        2       0.42153593       0.28775431       0.52982329
O        2.74832265       2.49816423      14.45537079  F        1        2      -0.00141786       0.38347566      -0.74301111
O       -1.07718501       3.13058929      16.75676254  F        1        2       0.00638784       0.44469434       0.18169765
Si       2.30095422       0.02381632      17.46411728  T        0        1       0.00216482      -0.00101733       0.02438827
Si      -1.20643491       1.64962207      21.11204970  T        0        1       0.00335193       0.01057199      -0.00050783
Si       1.28296597       2.27620682      19.32012958  T        0        1       0.00149728      -0.00397243       0.00895523
O        1.36244442       1.18960020      18.08140792  T        1        1       0.01042343       0.01186595       0.00825360
O        0.27899240       1.73138278      20.47258416  T        1        1      -0.00909048      -0.01183219      -0.02164699
O        3.17024240       0.83471334      21.92947444  T        1        1       0.01246998      -0.00011832      -0.00037805
O        0.74067952       3.65633341      18.64291919  T        1        1       0.01456357      -0.01161969       0.00288630
O        2.73845382       2.56635448      19.95469486  T        1        1      -0.00270087      -0.00514552      -0.00677523
O       -1.37503270       2.10801315      22.66503682  T        1        1       0.00889661       0.00390155      -0.00682218
Si       7.23815181       0.00000000      12.00000000  F        0        2      -0.13244359      -0.36540230      -1.68889190
Si       3.76227409       2.00679893      15.60606667  F        0        2      -0.09906362       0.08976481       1.24991674
Si       6.22272410       2.25482548      13.80303333  F        0        2       0.02645655      -0.17088357       1.05033561
O        6.30416499       1.13103512      12.65233746  F        1        2      -0.50283979       0.20788966      -0.23254288
O        5.20877265       1.76346018      14.95372921  F        1        2       0.43738428      -0.24309773      -0.40073322
O        8.17066236       0.63242506      16.25840413  F        1        2      -0.09696549      -0.48013887      -0.02268010
O        5.71021236       3.62919935      13.15069587  F        1        2       0.42167716       0.29298193       0.52095518
O        7.66922265       2.49816423      14.45537079  F        1        2       0.01614913       0.38724872      -0.74342098
O        3.84371499       3.13058929      16.75676254  F        1        2       0.07107559       0.15871526       0.06880145
Si       7.25985354      -0.01532096      17.46202683  T        0        1      -0.01039436      -0.00069037      -0.01349893
Si       3.75762795       2.12930599      21.16935385  T        0        1      -0.01611498       0.01019575      -0.00482107
Si       6.19811083       2.19974133      19.29729370  T        0        1      -0.00739261       0.00794437       0.00189843
O        6.29140213       1.11963985      18.07349419  T        1        1      -0.01258694      -0.00722323       0.00571142
O        5.13088923       1.70155110      20.39534744  T        1        1       0.00088358       0.00608142       0.01557262
O        8.27606392       0.06629323      21.52481251  T        1        1       0.01632731      -0.01324755      -0.00260744
O        5.77103281       3.61265016      18.59313151  T        1        1      -0.01928873       0.00944647       0.00117474
O        7.65731888       2.32435193      19.99965233  T        1        1      -0.00438152       0.03673994       0.01300917
O        4.00892869       3.38945435      22.23526549  T        1        1      -0.01144227       0.01240149       0.01146949
F        2.83562740       0.75415026      24.44058085  T        0        0       0.01101381       0.00872529       0.00236882
H        3.06296375       0.79384047      22.93507706  T        0        0      -0.01188034       0.02037300       0.01878329
F        4.15879301       0.69554179      26.28603903  T        0        0       0.02313199       0.02087264       0.02762424
H        3.52439079       0.72534622      25.37441174  T        0        0      -0.00529790       0.00057083      -0.01273673
40
Lattice="9.8418 0.0 0.0 -2.460449999999999 4.261624409482844 0.0 0.0 -0.0 34.16586254" Properties=species:S:1:pos:R:3:move_mask:L:1:spacegroup_kinds:I:1:tags:I:1:forces:R:3 surface=alpha_quartz_001 coadsorbate=HF start=1 calculation_kind="Local coadsorbate relaxation; not a reaction path" host_atoms=36 energy=-283.0496329194668 pbc="T T F"
Si       2.31725181       0.00000000      12.00000000  F        0        2      -0.13286573      -0.36546791      -1.69489231
Si      -1.15862590       2.00679893      15.60606667  F        0        2      -0.13636649       0.04342959       1.27765367
Si       1.30182410       2.25482548      13.80303333  F        0        2       0.04030829      -0.15562031       1.03033067
O        1.38326499       1.13103512      12.65233746  F        1        2      -0.50384313       0.21207966      -0.22389678
O        0.28787265       1.76346018      14.95372921  F        1        2       0.45642290      -0.24346708      -0.39756872
O        3.24976236       0.63242506      16.25840413  F        1        2      -0.28878933      -0.58418362       0.16330434
O        0.78931236       3.62919935      13.15069587  F        1        2       0.42146445       0.28776859       0.52980291
O        2.74832265       2.49816423      14.45537079  F        1        2      -0.00168715       0.38361603      -0.74380496
O       -1.07718501       3.13058929      16.75676254  F        1        2       0.00508770       0.44811502       0.18318136
Si       2.29976923       0.02500233      17.46375337  T        0        1       0.00751613      -0.00526314       0.02368210
Si      -1.20723226       1.64952486      21.11158954  T        0        1       0.00189249       0.00977103       0.00104168
Si       1.28127103       2.27767633      19.31915768  T        0        1       0.00381213      -0.01272324       0.00850770
O        1.36116292       1.19061329      18.08087917  T        1        1       0.01252410       0.01315446      -0.00264486
O        0.27702862       1.72929499      20.46948084  T        1        1      -0.00935515      -0.00594435      -0.01487316
O        3.16928953       0.83554377      21.93053739  T        1        1       0.01130307       0.00364163       0.01067930
O        0.74041104       3.65852400      18.64251966  T        1        1       0.01078438      -0.01757149       0.00781683
O        2.73618460       2.56705789      19.95496168  T        1        1      -0.00259732      -0.00265118      -0.00241068
O       -1.37229110       2.10882355      22.66468907  T        1        1       0.00496028       0.00445908      -0.00821264
Si       7.23815181       0.00000000      12.00000000  F        0        2      -0.13242439      -0.36540176      -1.68883175
Si       3.76227409       2.00679893      15.60606667  F        0        2      -0.09938731       0.09235551       1.25046976
Si       6.22272410       2.25482548      13.80303333  F        0        2       0.02679641      -0.17064129       1.05022565
O        6.30416499       1.13103512      12.65233746  F        1        2      -0.50285924       0.20787899      -0.23257729
O        5.20877265       1.76346018      14.95372921  F        1        2       0.43736231      -0.24352577      -0.40029519
O        8.17066236       0.63242506      16.25840413  F        1        2      -0.10127487      -0.47646585      -0.02227954
O        5.71021236       3.62919935      13.15069587  F        1        2       0.42159923       0.29297350       0.52087309
O        7.66922265       2.49816423      14.45537079  F        1        2       0.01605507       0.38752187      -0.74380017
O        3.84371499       3.13058929      16.75676254  F        1        2       0.06216547       0.15905568       0.06271593
Si       7.25881685      -0.01449973      17.46177759  T        0        1      -0.00371586      -0.00637396      -0.01286746
Si       3.75488878       2.13118909      21.17031324  T        0        1      -0.01089999       0.00682842      -0.00655547
Si       6.19627193       2.20032649      19.29819933  T        0        1      -0.00382739       0.00324111      -0.00484492
O        6.29136614       1.12027147      18.07451562  T        1        1      -0.01922797      -0.01549638      -0.00092195
O        5.12787077       1.70346271      20.39554027  T        1        1       0.00822066       0.00643511       0.01764025
O        8.27399501       0.06686165      21.52609397  T        1        1       0.01756198      -0.01226779      -0.00445524
O        5.76969249       3.61171802      18.59165869  T        1        1      -0.01221934       0.02055433       0.01477448
O        7.65598541       2.32416375      19.99966075  T        1        1      -0.00913207       0.04022264       0.02198607
O        4.00565136       3.39214348      22.23566148  T        1        1      -0.01071782       0.00861854       0.00721145
F        2.83979016       0.76813809      24.44591944  T        0        0       0.02076668      -0.00219287      -0.00444435
H        3.06402122       0.79671904      22.93624243  T        0        0      -0.01386879       0.02257384       0.01334293
F        4.16453201       0.69657356      26.28914104  T        0        0       0.03399147       0.01386384       0.03162336
H        3.53093550       0.73032062      25.37769616  T        0        0      -0.02553588       0.01709952      -0.01668608
40
Lattice="9.8418 0.0 0.0 -2.460449999999999 4.261624409482844 0.0 0.0 -0.0 34.16586254" Properties=species:S:1:pos:R:3:move_mask:L:1:spacegroup_kinds:I:1:tags:I:1:forces:R:3 surface=alpha_quartz_001 coadsorbate=HF start=1 calculation_kind="Local coadsorbate relaxation; not a reaction path" host_atoms=36 energy=-283.0500791213123 pbc="T T F"
Si       2.31725181       0.00000000      12.00000000  F        0        2      -0.13283853      -0.36546589      -1.69485083
Si      -1.15862590       2.00679893      15.60606667  F        0        2      -0.13554161       0.04540023       1.27707859
Si       1.30182410       2.25482548      13.80303333  F        0        2       0.04048652      -0.15541889       1.03044389
O        1.38326499       1.13103512      12.65233746  F        1        2      -0.50382191       0.21203291      -0.22386184
O        0.28787265       1.76346018      14.95372921  F        1        2       0.45598799      -0.24395222      -0.39734712
O        3.24976236       0.63242506      16.25840413  F        1        2      -0.29322799      -0.58317533       0.16573461
O        0.78931236       3.62919935      13.15069587  F        1        2       0.42136389       0.28779683       0.52970508
O        2.74832265       2.49816423      14.45537079  F        1        2      -0.00172955       0.38394954      -0.74455320
O       -1.07718501       3.13058929      16.75676254  F        1        2       0.00735878       0.45635513       0.18999679
Si       2.29859839       0.02629592      17.46381919  T        0        1       0.01137051      -0.00874341       0.01205967
Si      -1.20826358       1.65101615      21.11168842  T        0        1      -0.00309967       0.00509722      -0.00028030
Si       1.27909159       2.27915332      19.31824450  T        0        1       0.00584879      -0.01816027       0.00488574
O        1.36016350       1.19255053      18.07980285  T        1        1       0.01466206       0.00928904      -0.01397268
O        0.27448322       1.72639562      20.46575472  T        1        1      -0.00868834       0.00007018      -0.00605758
O        3.16809720       0.83703705      21.93138145  T        1        1       0.00911432       0.00932453       0.01453598
O        0.73970761       3.66110299      18.64299985  T        1        1       0.00162338      -0.02019134       0.00766636
O        2.73321324       2.56904764      19.95494601  T        1        1      -0.00065328      -0.00339945       0.00578411
O       -1.36825266       2.11365235      22.66424228  T        1        1       0.00251249       0.00278132      -0.00620833
Si       7.23815181       0.00000000      12.00000000  F        0        2      -0.13245411      -0.36543410      -1.68906587
Si       3.76227409       2.00679893      15.60606667  F        0        2      -0.10125217       0.09299994       1.25076056
Si       6.22272410       2.25482548      13.80303333  F        0        2       0.02717047      -0.17041432       1.04949736
O        6.30416499       1.13103512      12.65233746  F        1        2      -0.50296317       0.20801407      -0.23244008
O        5.20877265       1.76346018      14.95372921  F        1        2       0.43766612      -0.24378074      -0.39950693
O        8.17066236       0.63242506      16.25840413  F        1        2      -0.10675828      -0.47115969      -0.02280594
O        5.71021236       3.62919935      13.15069587  F        1        2       0.42165639       0.29285727       0.52108597
O        7.66922265       2.49816423      14.45537079  F        1        2       0.01589562       0.38767008      -0.74384965
O        3.84371499       3.13058929      16.75676254  F        1        2       0.05068184       0.15444673       0.05220595
Si       7.25794395      -0.01406015      17.46131812  T        0        1       0.00182839      -0.00606789      -0.00417572
Si       3.75084935       2.13437351      21.17122663  T        0        1       0.00292458       0.00197269      -0.00193684
Si       6.19443871       2.20096307      19.29911648  T        0        1      -0.00058608       0.00148805      -0.00745323
O        6.29098555       1.11951415      18.07668591  T        1        1      -0.02361782      -0.01587279      -0.00393756
O        5.12449439       1.70801457      20.39660001  T        1        1       0.01625544       0.00343429       0.01681982
O        8.27061959       0.06953102      21.52946840  T        1        1       0.01747626      -0.00624418      -0.00512891
O        5.76874673       3.61069989      18.58975291  T        1        1      -0.00200650       0.02838600       0.02623496
O        7.65421296       2.32599292      20.00053381  T        1        1      -0.01452157       0.03687507       0.02706181
O        3.99998534       3.39533283      22.23718214  T        1        1      -0.01014521       0.00625664       0.00173796
F        2.84578751       0.77557364      24.44898506  T        0        0       0.02011349      -0.01126285      -0.01355858
H        3.06613520       0.79872374      22.93746614  T        0        0      -0.01617795       0.02345280       0.00656167
F        4.16556798       0.70443131      26.29491678  T        0        0       0.04190257       0.00470521       0.03205342
H        3.53534906       0.73561862      25.38116401  T        0        0      -0.03381614       0.03408760      -0.01091912
40
Lattice="9.8418 0.0 0.0 -2.460449999999999 4.261624409482844 0.0 0.0 -0.0 34.16586254" Properties=species:S:1:pos:R:3:move_mask:L:1:spacegroup_kinds:I:1:tags:I:1:forces:R:3 surface=alpha_quartz_001 coadsorbate=HF start=1 calculation_kind="Local coadsorbate relaxation; not a reaction path" host_atoms=36 energy=-283.05048362571796 pbc="T T F"
Si       2.31725181       0.00000000      12.00000000  F        0        2      -0.13278883      -0.36545264      -1.69477324
Si      -1.15862590       2.00679893      15.60606667  F        0        2      -0.13362872       0.04828543       1.27597163
Si       1.30182410       2.25482548      13.80303333  F        0        2       0.04058020      -0.15524924       1.03068811
O        1.38326499       1.13103512      12.65233746  F        1        2      -0.50377817       0.21196040      -0.22383234
O        0.28787265       1.76346018      14.95372921  F        1        2       0.45527533      -0.24447997      -0.39712082
O        3.24976236       0.63242506      16.25840413  F        1        2      -0.29626106      -0.58467370       0.16981905
O        0.78931236       3.62919935      13.15069587  F        1        2       0.42126707       0.28782054       0.52957818
O        2.74832265       2.49816423      14.45537079  F        1        2      -0.00155733       0.38433670      -0.74499302
O       -1.07718501       3.13058929      16.75676254  F        1        2       0.01226448       0.46580641       0.19956431
Si       2.29803282       0.02711653      17.46422774  T        0        1       0.01203681      -0.01031615      -0.00471452
Si      -1.20960310       1.65306122      21.11192458  T        0        1      -0.00777272      -0.00030590      -0.00202025
Si       1.27724202       2.27994984      19.31781127  T        0        1       0.00700743      -0.01915226      -0.00129990
O        1.36007561       1.19452432      18.07868923  T        1        1       0.01546882       0.00200141      -0.02082845
O        0.27180148       1.72361760      20.46240874  T        1        1      -0.00773773       0.00412293       0.00139199
O        3.16737634       0.83817128      21.93220365  T        1        1       0.00580696       0.01438702       0.02150885
O        0.73933208       3.66296614      18.64382228  T        1        1      -0.00969244      -0.01916523       0.00427401
O        2.73039581       2.57113073      19.95537663  T        1        1       0.00211714      -0.00623568       0.01363166
O       -1.36456308       2.11974513      22.66366610  T        1        1       0.00085957      -0.00035159      -0.00261391
Si       7.23815181       0.00000000      12.00000000  F        0        2      -0.13252022      -0.36548643      -1.68948429
Si       3.76227409       2.00679893      15.60606667  F        0        2      -0.10389101       0.09140289       1.25077667
Si       6.22272410       2.25482548      13.80303333  F        0        2       0.02735192      -0.17028254       1.04846648
O        6.30416499       1.13103512      12.65233746  F        1        2      -0.50309114       0.20822952      -0.23218834
O        5.20877265       1.76346018      14.95372921  F        1        2       0.43817109      -0.24374378      -0.39876513
O        8.17066236       0.63242506      16.25840413  F        1        2      -0.11179576      -0.46690363      -0.02286070
O        5.71021236       3.62919935      13.15069587  F        1        2       0.42181684       0.29270077       0.52149286
O        7.66922265       2.49816423      14.45537079  F        1        2       0.01577257       0.38764319      -0.74355381
O        3.84371499       3.13058929      16.75676254  F        1        2       0.04103530       0.14767584       0.04187702
Si       7.25731409      -0.01391008      17.46082171  T        0        1       0.00409437      -0.00079971       0.00763222
Si       3.74717804       2.13719264      21.17214544  T        0        1       0.01829789      -0.00129339       0.00536479
Si       6.19273211       2.20148162      19.29957881  T        0        1       0.00191143       0.00244015      -0.00509358
O        6.29010904       1.11813055      18.07871916  T        1        1      -0.02439496      -0.00882318      -0.00327862
O        5.12170398       1.71276705      20.39782516  T        1        1       0.02063841      -0.00160472       0.01462655
O        8.26709237       0.07272260      21.53303977  T        1        1       0.01648800       0.00164811      -0.00436601
O        5.76795333       3.61030214      18.58852411  T        1        1       0.00706758       0.02982339       0.03072281
O        7.65205740       2.32880024      20.00186989  T        1        1      -0.01686036       0.02947909       0.02649809
O        3.99451705       3.39793332      22.23904470  T        1        1      -0.00923161       0.00447865      -0.00329027
F        2.85095772       0.78048079      24.45102789  T        0        0       0.02214428      -0.01723248      -0.01028939
H        3.06783987       0.80041301      22.93884242  T        0        0      -0.01688047       0.02347595      -0.00377518
F        4.16669528       0.71303048      26.30088298  T        0        0       0.03006644      -0.00083786       0.01108401
H        3.53830995       0.74090733      25.38450118  T        0        0      -0.02565739       0.04467169       0.00417249
40
Lattice="9.8418 0.0 0.0 -2.460449999999999 4.261624409482844 0.0 0.0 -0.0 34.16586254" Properties=species:S:1:pos:R:3:move_mask:L:1:spacegroup_kinds:I:1:tags:I:1:forces:R:3 surface=alpha_quartz_001 coadsorbate=HF start=1 calculation_kind="Local coadsorbate relaxation; not a reaction path" host_atoms=36 energy=-283.05093583223686 pbc="T T F"
Si       2.31725181       0.00000000      12.00000000  F        0        2      -0.13272914      -0.36544853      -1.69475995
Si      -1.15862590       2.00679893      15.60606667  F        0        2      -0.13131623       0.05132042       1.27439115
Si       1.30182410       2.25482548      13.80303333  F        0        2       0.04057857      -0.15509055       1.03087811
O        1.38326499       1.13103512      12.65233746  F        1        2      -0.50374022       0.21189453      -0.22375639
O        0.28787265       1.76346018      14.95372921  F        1        2       0.45438322      -0.24495069      -0.39699272
O        3.24976236       0.63242506      16.25840413  F        1        2      -0.29585627      -0.58699131       0.17145705
O        0.78931236       3.62919935      13.15069587  F        1        2       0.42120290       0.28784204       0.52951505
O        2.74832265       2.49816423      14.45537079  F        1        2      -0.00126903       0.38465101      -0.74515332
O       -1.07718501       3.13058929      16.75676254  F        1        2       0.01683578       0.47437756       0.20861002
Si       2.29765525       0.02782358      17.46454123  T        0        1       0.00995032      -0.01035543      -0.01945387
Si      -1.21123819       1.65490833      21.11226667  T        0        1      -0.01024643      -0.00404659      -0.00368914
Si       1.27524714       2.28042085      19.31726988  T        0        1       0.00730011      -0.01744803      -0.00731016
O        1.36043189       1.19701673      18.07676435  T        1        1       0.01351419      -0.00594876      -0.02333473
O        0.26875684       1.72073649      20.45893896  T        1        1      -0.00536408       0.00710433       0.00593067
O        3.16610568       0.83952642      21.93265278  T        1        1       0.00323578       0.01816954       0.02140281
O        0.73836865       3.66466032      18.64506632  T        1        1      -0.02012060      -0.01745332      -0.00061397
O        2.72744467       2.57313333      19.95562366  T        1        1       0.00391653      -0.00990507       0.01936244
O       -1.36051122       2.12540022      22.66333513  T        1        1      -0.00057212      -0.00332433       0.00162940
Si       7.23815181       0.00000000      12.00000000  F        0        2      -0.13260273      -0.36554810      -1.68997617
Si       3.76227409       2.00679893      15.60606667  F        0        2      -0.10623812       0.08940060       1.25049779
Si       6.22272410       2.25482548      13.80303333  F        0        2       0.02735645      -0.17022606       1.04736048
O        6.30416499       1.13103512      12.65233746  F        1        2      -0.50322568       0.20848664      -0.23188093
O        5.20877265       1.76346018      14.95372921  F        1        2       0.43863924      -0.24362924      -0.39807921
O        8.17066236       0.63242506      16.25840413  F        1        2      -0.11807466      -0.46412504      -0.02014026
O        5.71021236       3.62919935      13.15069587  F        1        2       0.42204196       0.29252551       0.52198647
O        7.66922265       2.49816423      14.45537079  F        1        2       0.01571222       0.38756608      -0.74313994
O        3.84371499       3.13058929      16.75676254  F        1        2       0.03502884       0.14268756       0.03473681
Si       7.25674956      -0.01375987      17.46048534  T        0        1       0.00395996       0.00593984       0.01805812
Si       3.74354796       2.13984179      21.17267666  T        0        1       0.03073303      -0.00268976       0.01210113
Si       6.19092687       2.20206700      19.29985935  T        0        1       0.00376519       0.00498976       0.00010172
O        6.28867568       1.11666790      18.08053582  T        1        1      -0.02048565       0.00192794      -0.00043842
O        5.11902533       1.71739962      20.39898462  T        1        1       0.02215328      -0.00759054       0.01164523
O        8.26368467       0.07570607      21.53660466  T        1        1       0.01367964       0.00816552      -0.00260487
O        5.76730934       3.61071332      18.58806179  T        1        1       0.01307305       0.02647970       0.02926698
O        7.64919305       2.33208467      20.00412107  T        1        1      -0.01572553       0.01956294       0.02146852
O        3.98841035       3.40069375      22.24016471  T        1        1      -0.00683943       0.00413842      -0.00652807
F        2.85672881       0.78319905      24.45167729  T        0        0       0.01685019      -0.01786844      -0.00508995
H        3.06896295       0.80201005      22.93972448  T        0        0      -0.01656541       0.02228724      -0.00945601
F        4.16795548       0.72545002      26.30582677  T        0        0       0.01554186      -0.00271568      -0.00773816
H        3.54078331       0.74838151      25.38709248  T        0        0      -0.00848102       0.04583829       0.01973628
40
Lattice="9.8418 0.0 0.0 -2.460449999999999 4.261624409482844 0.0 0.0 -0.0 34.16586254" Properties=species:S:1:pos:R:3:move_mask:L:1:spacegroup_kinds:I:1:tags:I:1:forces:R:3 surface=alpha_quartz_001 coadsorbate=HF start=1 calculation_kind="Local coadsorbate relaxation; not a reaction path" host_atoms=36 energy=-283.0515887019174 pbc="T T F"
Si       2.31725181       0.00000000      12.00000000  F        0        2      -0.13264944      -0.36545709      -1.69481918
Si      -1.15862590       2.00679893      15.60606667  F        0        2      -0.12854701       0.05484697       1.27203504
Si       1.30182410       2.25482548      13.80303333  F        0        2       0.04055685      -0.15490890       1.03096350
O        1.38326499       1.13103512      12.65233746  F        1        2      -0.50372106       0.21182640      -0.22361895
O        0.28787265       1.76346018      14.95372921  F        1        2       0.45318309      -0.24539256      -0.39697391
O        3.24976236       0.63242506      16.25840413  F        1        2      -0.29002524      -0.58880587       0.16720666
O        0.78931236       3.62919935      13.15069587  F        1        2       0.42115504       0.28786631       0.52953126
O        2.74832265       2.49816423      14.45537079  F        1        2      -0.00091177       0.38488513      -0.74514817
O       -1.07718501       3.13058929      16.75676254  F        1        2       0.01986752       0.48157259       0.21648729
Si       2.29731389       0.02860191      17.46454946  T        0        1       0.00566486      -0.00949803      -0.03047111
Si      -1.21375176       1.65578569      21.11229205  T        0        1      -0.00889104      -0.00461675      -0.00416689
Si       1.27265563       2.28064501      19.31629057  T        0        1       0.00680365      -0.01453173      -0.01320311
O        1.36123541       1.20043943      18.07346211  T        1        1       0.00782773      -0.01461702      -0.02168918
O        0.26439151       1.71711883      20.45416586  T        1        1      -0.00098952       0.00979884       0.00856443
O        3.16399223       0.84124326      21.93338289  T        1        1       0.00040644       0.02062636       0.02119050
O        0.73667344       3.66644919      18.64655471  T        1        1      -0.02940805      -0.01556570      -0.00491117
O        2.72363992       2.57462676      19.95608596  T        1        1       0.00436690      -0.01293503       0.02153082
O       -1.35557243       2.12909561      22.66315826  T        1        1      -0.00341234      -0.00548855       0.00622713
Si       7.23815181       0.00000000      12.00000000  F        0        2      -0.13269923      -0.36561676      -1.69050423
Si       3.76227409       2.00679893      15.60606667  F        0        2      -0.10810211       0.08746387       1.25005353
Si       6.22272410       2.25482548      13.80303333  F        0        2       0.02711877      -0.17021269       1.04621146
O        6.30416499       1.13103512      12.65233746  F        1        2      -0.50334655       0.20877448      -0.23152785
O        5.20877265       1.76346018      14.95372921  F        1        2       0.43903708      -0.24348956      -0.39746989
O        8.17066236       0.63242506      16.25840413  F        1        2      -0.12804898      -0.46345647      -0.01162780
O        5.71021236       3.62919935      13.15069587  F        1        2       0.42231891       0.29235079       0.52253409
O        7.66922265       2.49816423      14.45537079  F        1        2       0.01574138       0.38749768      -0.74270432
O        3.84371499       3.13058929      16.75676254  F        1        2       0.03268885       0.14209980       0.03199604
Si       7.25578379      -0.01314835      17.46035802  T        0        1       0.00232430       0.01223990       0.02516957
Si       3.73957586       2.14230281      21.17305862  T        0        1       0.03772141      -0.00201573       0.01682519
Si       6.18817725       2.20301882      19.30010282  T        0        1       0.00597407       0.00805661       0.00707859
O        6.28614239       1.11574597      18.08190361  T        1        1      -0.01067790       0.01509232       0.00301390
O        5.11572512       1.72145574      20.39998737  T        1        1       0.02005483      -0.01390244       0.00794862
O        8.26040504       0.07753968      21.53950291  T        1        1       0.00762731       0.01306629       0.00006074
O        5.76605129       3.61242434      18.58877375  T        1        1       0.01543832       0.01795495       0.02225094
O        7.64463178       2.33577882      20.00770359  T        1        1      -0.00973002       0.00703089       0.01228360
O        3.98110829       3.40442658      22.23990726  T        1        1      -0.00086493       0.00454912      -0.00853807
F        2.86435687       0.79200643      24.45357969  T        0        0       0.01043791      -0.01458148       0.00662295
H        3.06860490       0.80562396      22.94069070  T        0        0      -0.01345422       0.02004462      -0.01251285
F        4.17512201       0.74084467      26.30941225  T        0        0      -0.00610496       0.00148101      -0.02908615
H        3.54635221       0.76173880      25.39003872  T        0        0       0.01526917       0.03596745       0.03318700
40
Lattice="9.8418 0.0 0.0 -2.460449999999999 4.261624409482844 0.0 0.0 -0.0 34.16586254" Properties=species:S:1:pos:R:3:move_mask:L:1:spacegroup_kinds:I:1:tags:I:1:forces:R:3 surface=alpha_quartz_001 coadsorbate=HF start=1 calculation_kind="Local coadsorbate relaxation; not a reaction path" host_atoms=36 energy=-283.0523550538553 pbc="T T F"
Si       2.31725181       0.00000000      12.00000000  F        0        2      -0.13257433      -0.36549661      -1.69504184
Si      -1.15862590       2.00679893      15.60606667  F        0        2      -0.12646864       0.05756238       1.26922455
Si       1.30182410       2.25482548      13.80303333  F        0        2       0.04050726      -0.15472890       1.03071666
O        1.38326499       1.13103512      12.65233746  F        1        2      -0.50375331       0.21180133      -0.22338572
O        0.28787265       1.76346018      14.95372921  F        1        2       0.45194640      -0.24560966      -0.39716426
O        3.24976236       0.63242506      16.25840413  F        1        2      -0.27689225      -0.58811645       0.15302031
O        0.78931236       3.62919935      13.15069587  F        1        2       0.42116333       0.28788641       0.52972879
O        2.74832265       2.49816423      14.45537079  F        1        2      -0.00062654       0.38486044      -0.74497021
O       -1.07718501       3.13058929      16.75676254  F        1        2       0.01738884       0.48302860       0.21782900
Si       2.29675479       0.02954769      17.46379142  T        0        1       0.00046959      -0.00795163      -0.02859667
Si      -1.21676308       1.65460738      21.11180909  T        0        1      -0.00222208      -0.00033731      -0.00191973
Si       1.26954957       2.28073590      19.31441458  T        0        1       0.00545444      -0.01195366      -0.01504302
O        1.36200814       1.20454805      18.06852841  T        1        1      -0.00195166      -0.01961108      -0.01535776
O        0.25910430       1.71319431      20.44818802  T        1        1       0.00499884       0.01148924       0.00864176
O        3.16057274       0.84367650      21.93432459  T        1        1      -0.00104900       0.02030199       0.01535358
O        0.73372234       3.66830268      18.64798208  T        1        1      -0.03209633      -0.01563777      -0.00596124
O        2.71929719       2.57486614      19.95639307  T        1        1       0.00271198      -0.01296000       0.01677572
O       -1.35001454       2.12784736      22.66351740  T        1        1      -0.00782150      -0.00488546       0.00886593
Si       7.23815181       0.00000000      12.00000000  F        0        2      -0.13277018      -0.36566798      -1.69084905
Si       3.76227409       2.00679893      15.60606667  F        0        2      -0.10804559       0.08761762       1.24950002
Si       6.22272410       2.25482548      13.80303333  F        0        2       0.02666540      -0.17020610       1.04545989
O        6.30416499       1.13103512      12.65233746  F        1        2      -0.50340275       0.20899658      -0.23124946
O        5.20877265       1.76346018      14.95372921  F        1        2       0.43903834      -0.24354147      -0.39706583
O        8.17066236       0.63242506      16.25840413  F        1        2      -0.14254970      -0.46617459       0.00494196
O        5.71021236       3.62919935      13.15069587  F        1        2       0.42255255       0.29223807       0.52291999
O        7.66922265       2.49816423      14.45537079  F        1        2       0.01589965       0.38758275      -0.74254646
O        3.84371499       3.13058929      16.75676254  F        1        2       0.03687647       0.15152081       0.03845278
Si       7.25426657      -0.01173762      17.46070627  T        0        1       0.00050421       0.01319455       0.02250816
Si       3.73584780       2.14428027      21.17305010  T        0        1       0.03267599       0.00117272       0.01484836
Si       6.18461847       2.20451358      19.30061525  T        0        1       0.00778889       0.00955248       0.01223162
O        6.28273174       1.11638175      18.08236580  T        1        1       0.00521031       0.02424425       0.00482957
O        5.11204547       1.72354637      20.40059795  T        1        1       0.01433512      -0.01720295       0.00396241
O        8.25830326       0.07677630      21.54060230  T        1        1      -0.00151573       0.01407276       0.00229046
O        5.76410710       3.61561089      18.59095004  T        1        1       0.01116279       0.00613617       0.01136599
O        7.63871754       2.33883439      20.01252940  T        1        1       0.00122904      -0.00466190       0.00145872
O        3.97337179       3.40950985      22.23709041  T        1        1       0.00897538       0.00553962      -0.00819806
F        2.87391773       0.80805468      24.45688041  T        0        0      -0.00266394      -0.00582292       0.01453186
H        3.06625735       0.81167296      22.94132622  T        0        0      -0.00775941       0.01646687      -0.00634836
F        4.18882985       0.75836122      26.30971421  T        0        0      -0.01852467       0.01339548      -0.03123793
H        3.55596137       0.78151647      25.39249465  T        0        0       0.03513278       0.01190532       0.03547750
40
Lattice="9.8418 0.0 0.0 -2.460449999999999 4.261624409482844 0.0 0.0 -0.0 34.16586254" Properties=species:S:1:pos:R:3:move_mask:L:1:spacegroup_kinds:I:1:tags:I:1:forces:R:3 surface=alpha_quartz_001 coadsorbate=HF start=1 calculation_kind="Local coadsorbate relaxation; not a reaction path" host_atoms=36 energy=-283.0528572403031 pbc="T T F"
Si       2.31725181       0.00000000      12.00000000  F        0        2      -0.13255195      -0.36555167      -1.69534243
Si      -1.15862590       2.00679893      15.60606667  F        0        2      -0.12654140       0.05768790       1.26753712
Si       1.30182410       2.25482548      13.80303333  F        0        2       0.04045708      -0.15465130       1.03017276
O        1.38326499       1.13103512      12.65233746  F        1        2      -0.50383068       0.21185147      -0.22315956
O        0.28787265       1.76346018      14.95372921  F        1        2       0.45139608      -0.24543774      -0.39746321
O        3.24976236       0.63242506      16.25840413  F        1        2      -0.26310353      -0.58467072       0.13557947
O        0.78931236       3.62919935      13.15069587  F        1        2       0.42123578       0.28788346       0.53004060
O        2.74832265       2.49816423      14.45537079  F        1        2      -0.00059352       0.38455959      -0.74472539
O       -1.07718501       3.13058929      16.75676254  F        1        2       0.00922684       0.47627328       0.21000374
Si       2.29617291       0.03017736      17.46253987  T        0        1      -0.00196595      -0.00658100      -0.01316531
Si      -1.21859916       1.65180446      21.11094717  T        0        1       0.00638026       0.00572758       0.00272245
Si       1.26758349       2.28064948      19.31244805  T        0        1       0.00412101      -0.01119806      -0.01057168
O        1.36211689       1.20703744      18.06448677  T        1        1      -0.01003448      -0.01701967      -0.00775129
O        0.25573193       1.71111227      20.44402195  T        1        1       0.00879111       0.01040305       0.00736811
O        3.15758368       0.84568510      21.93525101  T        1        1      -0.00031885       0.01686096       0.00914191
O        0.73094551       3.66918093      18.64843066  T        1        1      -0.02505984      -0.01745445      -0.00224296
O        2.71668220       2.57352687      19.95642627  T        1        1      -0.00000015      -0.00947015       0.00651926
O       -1.34681926       2.12164452      22.66424199  T        1        1      -0.01192978      -0.00128648       0.00770823
Si       7.23815181       0.00000000      12.00000000  F        0        2      -0.13276550      -0.36566936      -1.69077935
Si       3.76227409       2.00679893      15.60606667  F        0        2      -0.10581644       0.09027704       1.24909183
Si       6.22272410       2.25482548      13.80303333  F        0        2       0.02627960      -0.17017333       1.04557730
O        6.30416499       1.13103512      12.65233746  F        1        2      -0.50335629       0.20901431      -0.23121488
O        5.20877265       1.76346018      14.95372921  F        1        2       0.43853980      -0.24381723      -0.39706049
O        8.17066236       0.63242506      16.25840413  F        1        2      -0.15407678      -0.47108610       0.02118808
O        5.71021236       3.62919935      13.15069587  F        1        2       0.42259149       0.29225729       0.52288998
O        7.66922265       2.49816423      14.45537079  F        1        2       0.01611378       0.38781982      -0.74282489
O        3.84371499       3.13058929      16.75676254  F        1        2       0.04538987       0.16738421       0.05158060
Si       7.25291178      -0.01015103      17.46138678  T        0        1       0.00024280       0.00709354       0.00993179
Si       3.73442516       2.14469416      21.17270953  T        0        1       0.01684633       0.00435162       0.00638597
Si       6.18208712       2.20584873      19.30125663  T        0        1       0.00797636       0.00734707       0.01153008
O        6.28041779       1.11860658      18.08158647  T        1        1       0.01772117       0.02221556       0.00304152
O        5.10987978       1.72217635      20.40043681  T        1        1       0.00826181      -0.01455261       0.00194529
O        8.25852421       0.07355126      21.53901204  T        1        1      -0.00823497       0.01086284       0.00224698
O        5.76233835       3.61856128      18.59347037  T        1        1       0.00238175      -0.00153155       0.00357544
O        7.63466466       2.33936831      20.01591998  T        1        1       0.01063740      -0.00752761      -0.00419267
O        3.96951417       3.41332828      22.23306117  T        1        1       0.01774891       0.00669417      -0.00583718
F        2.88029615       0.82496305      24.46061484  T        0        0      -0.01097157       0.00209010       0.01625529
H        3.06293457       0.81745298      22.94153992  T        0        0      -0.00226982       0.01414886       0.00547895
F        4.20310099       0.76806228      26.30644128  T        0        0      -0.01307793       0.02603335      -0.01230696
H        3.56560903       0.79761104      25.39346459  T        0        0       0.03416021      -0.01115803       0.02112549
40
Lattice="9.8418 0.0 0.0 -2.460449999999999 4.261624409482844 0.0 0.0 -0.0 34.16586254" Properties=species:S:1:pos:R:3:move_mask:L:1:spacegroup_kinds:I:1:tags:I:1:forces:R:3 surface=alpha_quartz_001 coadsorbate=HF start=1 calculation_kind="Local coadsorbate relaxation; not a reaction path" host_atoms=36 energy=-283.05308396962505 pbc="T T F"
Si       2.31725181       0.00000000      12.00000000  F        0        2      -0.13256986      -0.36559056      -1.69554885
Si      -1.15862590       2.00679893      15.60606667  F        0        2      -0.12773302       0.05641259       1.26724384
Si       1.30182410       2.25482548      13.80303333  F        0        2       0.04038723      -0.15466621       1.02971709
O        1.38326499       1.13103512      12.65233746  F        1        2      -0.50388995       0.21192184      -0.22303062
O        0.28787265       1.76346018      14.95372921  F        1        2       0.45145560      -0.24514234      -0.39769430
O        3.24976236       0.63242506      16.25840413  F        1        2      -0.25588629      -0.58201190       0.12582653
O        0.78931236       3.62919935      13.15069587  F        1        2       0.42131312       0.28786993       0.53027236
O        2.74832265       2.49816423      14.45537079  F        1        2      -0.00067688       0.38425911      -0.74456095
O       -1.07718501       3.13058929      16.75676254  F        1        2       0.00140190       0.46794692       0.20041869
Si       2.29574823       0.03038760      17.46162276  T        0        1      -0.00162258      -0.00537850       0.00077392
Si      -1.21894806       1.64960237      21.11033216  T        0        1       0.01109503       0.00861279       0.00649084
Si       1.26698937       2.28050488      19.31123073  T        0        1       0.00289806      -0.01119489      -0.00425672
O        1.36165142       1.20763966      18.06257656  T        1        1      -0.01279765      -0.01157072      -0.00295636
O        0.25486541       1.71083778      20.44260519  T        1        1       0.00933308       0.00745340       0.00728368
O        3.15606255       0.84677084      21.93574536  T        1        1       0.00123494       0.01376062       0.00496570
O        0.72916474       3.66916274      18.64834503  T        1        1      -0.01563484      -0.01835260       0.00148279
O        2.71595893       2.57218729      19.95624174  T        1        1      -0.00094889      -0.00612483      -0.00166463
O       -1.34636372       2.11595838      22.66483270  T        1        1      -0.01363321       0.00211541       0.00523277
Si       7.23815181       0.00000000      12.00000000  F        0        2      -0.13272027      -0.36564684      -1.69054169
Si       3.76227409       2.00679893      15.60606667  F        0        2      -0.10359148       0.09305505       1.24886310
Si       6.22272410       2.25482548      13.80303333  F        0        2       0.02618305      -0.17011057       1.04602584
O        6.30416499       1.13103512      12.65233746  F        1        2      -0.50329318       0.20892678      -0.23131104
O        5.20877265       1.76346018      14.95372921  F        1        2       0.43798367      -0.24409295      -0.39717148
O        8.17066236       0.63242506      16.25840413  F        1        2      -0.15860186      -0.47443318       0.02904809
O        5.71021236       3.62919935      13.15069587  F        1        2       0.42250998       0.29232302       0.52267306
O        7.66922265       2.49816423      14.45537079  F        1        2       0.01623510       0.38802996      -0.74320909
O        3.84371499       3.13058929      16.75676254  F        1        2       0.05143231       0.17903618       0.06160349
Si       7.25226142      -0.00921041      17.46188574  T        0        1       0.00138466       0.00037884      -0.00113914
Si       3.73462489       2.14436369      21.17233024  T        0        1       0.00419855       0.00540532      -0.00135535
Si       6.18124976       2.20653559      19.30175062  T        0        1       0.00710728       0.00362846       0.00791685
O        6.27990790       1.12061791      18.08068778  T        1        1       0.02162497       0.01490032      -0.00016998
O        5.10933379       1.71986905      20.39996918  T        1        1       0.00498622      -0.00954368       0.00169780
O        8.25947088       0.07074191      21.53686121  T        1        1      -0.00940914       0.00783705       0.00062970
O        5.76150140       3.61991440      18.59483029  T        1        1      -0.00394629      -0.00284867       0.00200548
O        7.63348676       2.33842606      20.01700045  T        1        1       0.01384774      -0.00387575      -0.00427447
O        3.96931225       3.41490824      22.23033153  T        1        1       0.02114660       0.00723904      -0.00388380
F        2.88226989       0.83423529      24.46284364  T        0        0      -0.01216081       0.00478456       0.01356854
H        3.06078049       0.82054516      22.94146409  T        0        0       0.00022536       0.01346058       0.01506100
F        4.21090303       0.77077445      26.30307384  T        0        0       0.00110098       0.03096897       0.00893596
H        3.57111244       0.80461967      25.39319399  T        0        0       0.02003076      -0.01974255       0.00503135
40
Lattice="9.8418 0.0 0.0 -2.460449999999999 4.261624409482844 0.0 0.0 -0.0 34.16586254" Properties=species:S:1:pos:R:3:move_mask:L:1:spacegroup_kinds:I:1:tags:I:1:forces:R:3 surface=alpha_quartz_001 coadsorbate=HF start=1 calculation_kind="Local coadsorbate relaxation; not a reaction path" host_atoms=36 energy=-283.0532553289556 pbc="T T F"
Si       2.31725181       0.00000000      12.00000000  F        0        2      -0.13259554      -0.36561640      -1.69568020
Si      -1.15862590       2.00679893      15.60606667  F        0        2      -0.12889485       0.05519022       1.26739621
Si       1.30182410       2.25482548      13.80303333  F        0        2       0.04026757      -0.15471998       1.02939648
O        1.38326499       1.13103512      12.65233746  F        1        2      -0.50392230       0.21198352      -0.22294863
O        0.28787265       1.76346018      14.95372921  F        1        2       0.45164084      -0.24487501      -0.39789023
O        3.24976236       0.63242506      16.25840413  F        1        2      -0.25218614      -0.58094606       0.12157160
O        0.78931236       3.62919935      13.15069587  F        1        2       0.42138068       0.28785737       0.53043271
O        2.74832265       2.49816423      14.45537079  F        1        2      -0.00071698       0.38403158      -0.74443189
O       -1.07718501       3.13058929      16.75676254  F        1        2      -0.00515195       0.46028733       0.19166867
Si       2.29543134       0.03040247      17.46102765  T        0        1      -0.00070716      -0.00373607       0.00924452
Si      -1.21884108       1.64810308      21.10990812  T        0        1       0.01228380       0.00955968       0.00872081
Si       1.26681000       2.28023407      19.31038816  T        0        1       0.00125267      -0.01046309       0.00155660
O        1.36104028       1.20767194      18.06141148  T        1        1      -0.01273051      -0.00682089       0.00095517
O        0.25475139       1.71098801      20.44208383  T        1        1       0.00905986       0.00352100       0.00866075
O        3.15522106       0.84765959      21.93624372  T        1        1       0.00207703       0.01142327       0.00411251
O        0.72770499       3.66874593      18.64827760  T        1        1      -0.00698105      -0.01680947       0.00374643
O        2.71569653       2.57125228      19.95605905  T        1        1      -0.00025669      -0.00411279      -0.00768782
O       -1.34686940       2.11162018      22.66524147  T        1        1      -0.01402657       0.00455948       0.00317821
Si       7.23815181       0.00000000      12.00000000  F        0        2      -0.13267031      -0.36562613      -1.69033117
Si       3.76227409       2.00679893      15.60606667  F        0        2      -0.10202032       0.09507600       1.24862027
Si       6.22272410       2.25482548      13.80303333  F        0        2       0.02624898      -0.17001549       1.04638308
O        6.30416499       1.13103512      12.65233746  F        1        2      -0.50325349       0.20884050      -0.23140241
O        5.20877265       1.76346018      14.95372921  F        1        2       0.43750754      -0.24428824      -0.39720284
O        8.17066236       0.63242506      16.25840413  F        1        2      -0.16009573      -0.47648834       0.03233352
O        5.71021236       3.62919935      13.15069587  F        1        2       0.42241390       0.29237443       0.52247484
O        7.66922265       2.49816423      14.45537079  F        1        2       0.01627730       0.38817032      -0.74353536
O        3.84371499       3.13058929      16.75676254  F        1        2       0.05501562       0.18719153       0.06852475
Si       7.25190035      -0.00860813      17.46218125  T        0        1       0.00302921      -0.00470101      -0.00816622
Si       3.73507714       2.14409571      21.17200132  T        0        1      -0.00371015       0.00518474      -0.00605656
Si       6.18100241       2.20701061      19.30215970  T        0        1       0.00624472      -0.00001737       0.00419163
O        6.28012405       1.12224898      18.08001341  T        1        1       0.02131853       0.00780016      -0.00327974
O        5.10923344       1.71791142      20.39954461  T        1        1       0.00278764      -0.00482042       0.00158269
O        8.26009613       0.06870691      21.53483291  T        1        1      -0.00805514       0.00607215      -0.00102451
O        5.76098339       3.62060023      18.59559431  T        1        1      -0.00766529      -0.00244716       0.00267684
O        7.63329562       2.33746783      20.01728136  T        1        1       0.01440412       0.00079055      -0.00262399
O        3.97013566       3.41570015      22.22856932  T        1        1       0.02192223       0.00751798      -0.00302721
F        2.88273836       0.84033841      24.46471879  T        0        0      -0.00852494       0.00386853       0.01128989
H        3.05926350       0.82280396      22.94158797  T        0        0       0.00179807       0.01334559       0.02051567
F        4.21626803       0.77230153      26.30062258  T        0        0       0.01305032       0.03106057       0.02225240
H        3.57506894       0.80830196      25.39281900  T        0        0       0.00418449      -0.01920257      -0.00619743
40
Lattice="9.8418 0.0 0.0 -2.460449999999999 4.261624409482844 0.0 0.0 -0.0 34.16586254" Properties=species:S:1:pos:R:3:move_mask:L:1:spacegroup_kinds:I:1:tags:I:1:forces:R:3 surface=alpha_quartz_001 coadsorbate=HF start=1 calculation_kind="Local coadsorbate relaxation; not a reaction path" host_atoms=36 energy=-283.05351291857204 pbc="T T F"
Si       2.31725181       0.00000000      12.00000000  F        0        2      -0.13263300      -0.36565017      -1.69585129
Si      -1.15862590       2.00679893      15.60606667  F        0        2      -0.13018538       0.05394042       1.26764252
Si       1.30182410       2.25482548      13.80303333  F        0        2       0.03998061      -0.15482538       1.02901559
O        1.38326499       1.13103512      12.65233746  F        1        2      -0.50394536       0.21207112      -0.22282590
O        0.28787265       1.76346018      14.95372921  F        1        2       0.45184690      -0.24454921      -0.39817908
O        3.24976236       0.63242506      16.25840413  F        1        2      -0.24841891      -0.58133813       0.11947714
O        0.78931236       3.62919935      13.15069587  F        1        2       0.42148637       0.28783886       0.53064297
O        2.74832265       2.49816423      14.45537079  F        1        2      -0.00064058       0.38376419      -0.74419411
O       -1.07718501       3.13058929      16.75676254  F        1        2      -0.01377932       0.44988069       0.17976606
Si       2.29500572       0.03034549      17.46039822  T        0        1      -0.00003469      -0.00040519       0.01582346
Si      -1.21861090       1.64677293      21.10957389  T        0        1       0.01082507       0.00947203       0.01030877
Si       1.26644393       2.27964729      19.30924291  T        0        1      -0.00151540      -0.00727819       0.00894137
O        1.36009699       1.20777842      18.05965126  T        1        1      -0.01106487      -0.00154869       0.00710839
O        0.25458708       1.71097112      20.44137613  T        1        1       0.00864340      -0.00315466       0.01231006
O        3.15409851       0.84947869      21.93709311  T        1        1       0.00232308       0.00874807       0.00389185
O        0.72529808       3.66794992      18.64852870  T        1        1       0.00416907      -0.01138167       0.00458244
O        2.71508176       2.57056535      19.95567038  T        1        1       0.00256551      -0.00326541      -0.01419369
O       -1.34752187       2.10709378      22.66578509  T        1        1      -0.01356491       0.00694170       0.00110797
Si       7.23815181       0.00000000      12.00000000  F        0        2      -0.13260458      -0.36561084      -1.69014261
Si       3.76227409       2.00679893      15.60606667  F        0        2      -0.10046164       0.09720689       1.24804065
Si       6.22272410       2.25482548      13.80303333  F        0        2       0.02648348      -0.16982766       1.04661568
O        6.30416499       1.13103512      12.65233746  F        1        2      -0.50324572       0.20876810      -0.23146273
O        5.20877265       1.76346018      14.95372921  F        1        2       0.43687574      -0.24450320      -0.39702427
O        8.17066236       0.63242506      16.25840413  F        1        2      -0.16116515      -0.47842769       0.03441094
O        5.71021236       3.62919935      13.15069587  F        1        2       0.42230804       0.29239898       0.52230065
O        7.66922265       2.49816423      14.45537079  F        1        2       0.01626325       0.38829413      -0.74390139
O        3.84371499       3.13058929      16.75676254  F        1        2       0.05841717       0.19694129       0.07644420
Si       7.25150067      -0.00791437      17.46244389  T        0        1       0.00525808      -0.00962042      -0.01371779
Si       3.73529018       2.14442658      21.17152445  T        0        1      -0.01024127       0.00411560      -0.00923115
Si       6.18081709       2.20777563      19.30279602  T        0        1       0.00516812      -0.00449507      -0.00026446
O        6.28079564       1.12427541      18.07947548  T        1        1       0.01869388      -0.00033126      -0.00676812
O        5.10898052       1.71619802      20.39918481  T        1        1       0.00016616       0.00068694       0.00060853
O        8.26007654       0.06686112      21.53247693  T        1        1      -0.00453272       0.00479702      -0.00282379
O        5.76033557       3.62141663      18.59640629  T        1        1      -0.01045944      -0.00227347       0.00397412
O        7.63318564       2.33683723      20.01776921  T        1        1       0.01371046       0.00636640      -0.00065566
O        3.97093167       3.41709645      22.22665940  T        1        1       0.02113183       0.00764589      -0.00312841
F        2.88352215       0.84657362      24.46719774  T        0        0      -0.00244280       0.00020038       0.00774101
H        3.05763976       0.82605553      22.94208237  T        0        0       0.00366283       0.01291136       0.02518564
F        4.22261243       0.77783267      26.29856125  T        0        0       0.02660376       0.02709447       0.03305871
H        3.58019827       0.81317238      25.39252260  T        0        0      -0.01564705      -0.01159828      -0.01463427
40
Lattice="9.8418 0.0 0.0 -2.460449999999999 4.261624409482844 0.0 0.0 -0.0 34.16586254" Properties=species:S:1:pos:R:3:move_mask:L:1:spacegroup_kinds:I:1:tags:I:1:forces:R:3 surface=alpha_quartz_001 coadsorbate=HF start=1 calculation_kind="Local coadsorbate relaxation; not a reaction path" host_atoms=36 energy=-283.05389198342556 pbc="T T F"
Si       2.31725181       0.00000000      12.00000000  F        0        2      -0.13267969      -0.36569724      -1.69609656
Si      -1.15862590       2.00679893      15.60606667  F        0        2      -0.13121486       0.05321697       1.26777932
Si       1.30182410       2.25482548      13.80303333  F        0        2       0.03943036      -0.15499397       1.02856427
O        1.38326499       1.13103512      12.65233746  F        1        2      -0.50395370       0.21219396      -0.22262512
O        0.28787265       1.76346018      14.95372921  F        1        2       0.45193981      -0.24420840      -0.39858984
O        3.24976236       0.63242506      16.25840413  F        1        2      -0.24400916      -0.58414787       0.12036055
O        0.78931236       3.62919935      13.15069587  F        1        2       0.42165067       0.28780973       0.53093434
O        2.74832265       2.49816423      14.45537079  F        1        2      -0.00032695       0.38347120      -0.74375246
O       -1.07718501       3.13058929      16.75676254  F        1        2      -0.02445512       0.43684742       0.16476113
Si       2.29445828       0.03023623      17.45977534  T        0        1      -0.00073914       0.00514702       0.01813036
Si      -1.21848509       1.64610252      21.10949521  T        0        1       0.00583460       0.00823679       0.01039130
Si       1.26552609       2.27856738      19.30767641  T        0        1      -0.00525122       0.00024894       0.01701718
O        1.35885433       1.20831160      18.05680120  T        1        1      -0.00796377       0.00302500       0.01671630
O        0.25393346       1.71025262      20.44006345  T        1        1       0.00868800      -0.01256891       0.01840394
O        3.15236697       0.85295158      21.93856209  T        1        1       0.00120376       0.00584816       0.00618306
O        0.72146656       3.66674247      18.64940459  T        1        1       0.01692837      -0.00027625       0.00279939
O        2.71362172       2.57052623      19.95492998  T        1        1       0.00789207      -0.00500036      -0.02006731
O       -1.34767150       2.10339076      22.66651784  T        1        1      -0.01223500       0.00876580       0.00000807
Si       7.23815181       0.00000000      12.00000000  F        0        2      -0.13253195      -0.36561556      -1.69008519
Si       3.76227409       2.00679893      15.60606667  F        0        2      -0.09923416       0.09907869       1.24684581
Si       6.22272410       2.25482548      13.80303333  F        0        2       0.02692979      -0.16951263       1.04647432
O        6.30416499       1.13103512      12.65233746  F        1        2      -0.50330830       0.20876386      -0.23141487
O        5.20877265       1.76346018      14.95372921  F        1        2       0.43607844      -0.24471390      -0.39645390
O        8.17066236       0.63242506      16.25840413  F        1        2      -0.16212833      -0.48014127       0.03503542
O        5.71021236       3.62919935      13.15069587  F        1        2       0.42223719       0.29235259       0.52226114
O        7.66922265       2.49816423      14.45537079  F        1        2       0.01616301       0.38834105      -0.74422778
O        3.84371499       3.13058929      16.75676254  F        1        2       0.06144112       0.20842095       0.08523316
Si       7.25102910      -0.00710901      17.46262006  T        0        1       0.00724630      -0.01267583      -0.01534411
Si       3.73467692       2.14602852      21.17086747  T        0        1      -0.01340579       0.00185837      -0.00885825
Si       6.18050506       2.20904317      19.30373525  T        0        1       0.00403829      -0.00896328      -0.00445471
O        6.28192608       1.12667881      18.07929997  T        1        1       0.01370559      -0.00744145      -0.00947504
O        5.10815558       1.71559980      20.39904013  T        1        1      -0.00290584       0.00544186      -0.00172122
O        8.25853923       0.06594993      21.53024660  T        1        1       0.00124079       0.00376361      -0.00382758
O        5.75938892       3.62262737      18.59742179  T        1        1      -0.01112490      -0.00376274       0.00440409
O        7.63270661       2.33736940      20.01903655  T        1        1       0.01188035       0.01124704      -0.00000152
O        3.97072631       3.41975950      22.22469608  T        1        1       0.01850450       0.00790887      -0.00489430
F        2.88548836       0.85279140      24.47061718  T        0        0       0.00657538      -0.00687730       0.00501982
H        3.05602483       0.83100802      22.94336111  T        0        0       0.00627695       0.01179822       0.02613653
F        4.23075164       0.79171553      26.29791127  T        0        0       0.03591324       0.01790712       0.03352479
H        3.58709656       0.82111022      25.39286739  T        0        0      -0.03433073       0.00490375      -0.01509451
40
Lattice="9.8418 0.0 0.0 -2.460449999999999 4.261624409482844 0.0 0.0 -0.0 34.16586254" Properties=species:S:1:pos:R:3:move_mask:L:1:spacegroup_kinds:I:1:tags:I:1:forces:R:3 surface=alpha_quartz_001 coadsorbate=HF start=1 calculation_kind="Local coadsorbate relaxation; not a reaction path" host_atoms=36 energy=-283.05430822523374 pbc="T T F"
Si       2.31725181       0.00000000      12.00000000  F        0        2      -0.13271904      -0.36574845      -1.69636776
Si      -1.15862590       2.00679893      15.60606667  F        0        2      -0.13131205       0.05376381       1.26765666
Si       1.30182410       2.25482548      13.80303333  F        0        2       0.03870519      -0.15517677       1.02819156
O        1.38326499       1.13103512      12.65233746  F        1        2      -0.50393951       0.21232106      -0.22238062
O        0.28787265       1.76346018      14.95372921  F        1        2       0.45178783      -0.24400761      -0.39903342
O        3.24976236       0.63242506      16.25840413  F        1        2      -0.24012134      -0.58925098       0.12477862
O        0.78931236       3.62919935      13.15069587  F        1        2       0.42183843       0.28777805       0.53123793
O        2.74832265       2.49816423      14.45537079  F        1        2       0.00021923       0.38325549      -0.74317997
O       -1.07718501       3.13058929      16.75676254  F        1        2      -0.03357478       0.42602231       0.15177010
Si       2.29388906       0.03020662      17.45938698  T        0        1      -0.00360631       0.01113349       0.01386676
Si      -1.21869458       1.64683357      21.10993175  T        0        1      -0.00119129       0.00607076       0.00798742
Si       1.26393072       2.27726966      19.30610777  T        0        1      -0.00812293       0.01082133       0.02200738
O        1.35768930       1.20948853      18.05335685  T        1        1      -0.00493667       0.00425109       0.02703837
O        0.25266636       1.70845294      20.43828592  T        1        1       0.00929924      -0.02046163       0.02449080
O        3.15013558       0.85782891      21.94035381  T        1        1      -0.00118094       0.00394721       0.00972933
O        0.71693261       3.66560155      18.65094876  T        1        1       0.02603540       0.01373849      -0.00187463
O        2.71137288       2.57154878      19.95372424  T        1        1       0.01393306      -0.00977492      -0.02145687
O       -1.34656524       2.10273764      22.66734416  T        1        1      -0.01039572       0.00899836       0.00105370
Si       7.23815181       0.00000000      12.00000000  F        0        2      -0.13248319      -0.36565117      -1.69026906
Si       3.76227409       2.00679893      15.60606667  F        0        2      -0.09896868       0.09993434       1.24516619
Si       6.22272410       2.25482548      13.80303333  F        0        2       0.02749184      -0.16914470       1.04579443
O        6.30416499       1.13103512      12.65233746  F        1        2      -0.50345688       0.20887581      -0.23121061
O        5.20877265       1.76346018      14.95372921  F        1        2       0.43535569      -0.24485504      -0.39550706
O        8.17066236       0.63242506      16.25840413  F        1        2      -0.16276917      -0.48092248       0.03355448
O        5.71021236       3.62919935      13.15069587  F        1        2       0.42226336       0.29220996       0.52246293
O        7.66922265       2.49816423      14.45537079  F        1        2       0.01597077       0.38823470      -0.74435872
O        3.84371499       3.13058929      16.75676254  F        1        2       0.06304357       0.21808375       0.09190560
Si       7.25064703      -0.00646458      17.46260908  T        0        1       0.00733410      -0.01130338      -0.01026640
Si       3.73280889       2.14917273      21.17016197  T        0        1      -0.00997194      -0.00093848      -0.00387607
Si       6.18004299       2.21058871      19.30476783  T        0        1       0.00323341      -0.01097200      -0.00608270
O        6.28323368       1.12865129      18.07978772  T        1        1       0.00783164      -0.00940120      -0.00915503
O        5.10657461       1.71725858      20.39927512  T        1        1      -0.00486894       0.00619762      -0.00481179
O        8.25512724       0.06705492      21.52938107  T        1        1       0.00754753       0.00281967      -0.00278081
O        5.75834411       3.62403716      18.59842236  T        1        1      -0.00807168      -0.00741766       0.00246399
O        7.63163746       2.33973091      20.02126794  T        1        1       0.00934480       0.01217005      -0.00246588
O        3.96857539       3.42370816      22.22324506  T        1        1       0.01410504       0.00828848      -0.00824947
F        2.88900962       0.85588851      24.47397876  T        0        0       0.01429778      -0.01441295       0.00527527
H        3.05523988       0.83667737      22.94529153  T        0        0       0.00871610       0.00962950       0.02201552
F        4.23831317       0.81444564      26.29993839  T        0        0       0.03299799       0.00509171       0.01723508
H        3.59382722       0.83146736      25.39428656  T        0        0      -0.03966094       0.02580236      -0.00235525
40
Lattice="9.8418 0.0 0.0 -2.460449999999999 4.261624409482844 0.0 0.0 -0.0 34.16586254" Properties=species:S:1:pos:R:3:move_mask:L:1:spacegroup_kinds:I:1:tags:I:1:forces:R:3 surface=alpha_quartz_001 coadsorbate=HF start=1 calculation_kind="Local coadsorbate relaxation; not a reaction path" host_atoms=36 energy=-283.054620255283 pbc="T T F"
Si       2.31725181       0.00000000      12.00000000  F        0        2      -0.13273068      -0.36577543      -1.69650291
Si      -1.15862590       2.00679893      15.60606667  F        0        2      -0.13040934       0.05545811       1.26751645
Si       1.30182410       2.25482548      13.80303333  F        0        2       0.03817577      -0.15527799       1.02812213
O        1.38326499       1.13103512      12.65233746  F        1        2      -0.50390434       0.21238062      -0.22223121
O        0.28787265       1.76346018      14.95372921  F        1        2       0.45148711      -0.24404868      -0.39933780
O        3.24976236       0.63242506      16.25840413  F        1        2      -0.23908920      -0.59379601       0.13063500
O        0.78931236       3.62919935      13.15069587  F        1        2       0.42194299       0.28776786       0.53138160
O        2.74832265       2.49816423      14.45537079  F        1        2       0.00069885       0.38323556      -0.74281494
O       -1.07718501       3.13058929      16.75676254  F        1        2      -0.03673726       0.42319043       0.14729010
Si       2.29347883       0.03037818      17.45940532  T        0        1      -0.00672423       0.01353095       0.00543010
Si      -1.21921512       1.64841076      21.11064540  T        0        1      -0.00596887       0.00448314       0.00433240
Si       1.26230297       2.27643779      19.30534474  T        0        1      -0.00801455       0.01797568       0.02087131
O        1.35704822       1.21077390      18.05103419  T        1        1      -0.00374947       0.00105830       0.03201000
O        0.25139477       1.70622709      20.43698426  T        1        1       0.01010533      -0.02076490       0.02665160
O        3.14834235       0.86194150      21.94194391  T        1        1      -0.00363468       0.00420296       0.01510973
O        0.71392207       3.66515452      18.65233138  T        1        1       0.02673973       0.02305977      -0.00564608
O        2.70948378       2.57280384      19.95245977  T        1        1       0.01679412      -0.01426033      -0.01693968
O       -1.34486815       2.10488474      22.66794612  T        1        1      -0.00914240       0.00759459       0.00327658
Si       7.23815181       0.00000000      12.00000000  F        0        2      -0.13247739      -0.36569314      -1.69055989
Si       3.76227409       2.00679893      15.60606667  F        0        2      -0.09970934       0.09949101       1.24384387
Si       6.22272410       2.25482548      13.80303333  F        0        2       0.02787679      -0.16890721       1.04497609
O        6.30416499       1.13103512      12.65233746  F        1        2      -0.50360390       0.20902794      -0.23097396
O        5.20877265       1.76346018      14.95372921  F        1        2       0.43504364      -0.24486532      -0.39470182
O        8.17066236       0.63242506      16.25840413  F        1        2      -0.16238013      -0.48085459       0.03073349
O        5.71021236       3.62919935      13.15069587  F        1        2       0.42235689       0.29205621       0.52276874
O        7.66922265       2.49816423      14.45537079  F        1        2       0.01577327       0.38800512      -0.74428256
O        3.84371499       3.13058929      16.75676254  F        1        2       0.06276217       0.22183983       0.09360196
Si       7.25051730      -0.00625237      17.46242183  T        0        1       0.00513774      -0.00630785      -0.00118751
Si       3.73060111       2.15224662      21.16970683  T        0        1      -0.00172565      -0.00298897       0.00288770
Si       6.17960332       2.21166632      19.30540722  T        0        1       0.00297291      -0.00955812      -0.00420839
O        6.28415837       1.12948805      18.08049530  T        1        1       0.00370798      -0.00564883      -0.00554798
O        5.10491602       1.72006270      20.39964617  T        1        1      -0.00430865       0.00232289      -0.00684736
O        8.25168570       0.06930726      21.52993830  T        1        1       0.01084078       0.00200852       0.00000625
O        5.75749726       3.62502905      18.59912298  T        1        1      -0.00264253      -0.01138509      -0.00134957
O        7.63046416       2.34275832      20.02341883  T        1        1       0.00701801       0.00825757      -0.00677395
O        3.96573543       3.42722429      22.22259854  T        1        1       0.00996214       0.00859353      -0.01148783
F        2.89264187       0.85642296      24.47657215  T        0        0       0.01847830      -0.01784568       0.01020043
H        3.05534686       0.84109830      22.94727912  T        0        0       0.01052393       0.00740151       0.01344801
F        4.24347909       0.83487016      26.30343807  T        0        0       0.01719339      -0.00460140      -0.00936934
H        3.59806109       0.84037251      25.39656502  T        0        0      -0.02863921       0.03963743       0.01566925
40
Lattice="9.8418 0.0 0.0 -2.460449999999999 4.261624409482844 0.0 0.0 -0.0 34.16586254" Properties=species:S:1:pos:R:3:move_mask:L:1:spacegroup_kinds:I:1:tags:I:1:forces:R:3 surface=alpha_quartz_001 coadsorbate=HF start=1 calculation_kind="Local coadsorbate relaxation; not a reaction path" host_atoms=36 energy=-283.05489956423276 pbc="T T F"
Si       2.31725181       0.00000000      12.00000000  F        0        2      -0.13272522      -0.36577644      -1.69647700
Si      -1.15862590       2.00679893      15.60606667  F        0        2      -0.12923633       0.05743819       1.26772096
Si       1.30182410       2.25482548      13.80303333  F        0        2       0.03789615      -0.15530617       1.02830796
O        1.38326499       1.13103512      12.65233746  F        1        2      -0.50385323       0.21237196      -0.22220555
O        0.28787265       1.76346018      14.95372921  F        1        2       0.45124654      -0.24420274      -0.39956513
O        3.24976236       0.63242506      16.25840413  F        1        2      -0.24099563      -0.59655244       0.13655629
O        0.78931236       3.62919935      13.15069587  F        1        2       0.42195206       0.28778853       0.53135940
O        2.74832265       2.49816423      14.45537079  F        1        2       0.00096998       0.38334441      -0.74275222
O       -1.07718501       3.13058929      16.75676254  F        1        2      -0.03602444       0.42601459       0.14864583
Si       2.29307967       0.03078136      17.45962559  T        0        1      -0.00792815       0.01186289      -0.00256734
Si      -1.21978435       1.64975709      21.11133141  T        0        1      -0.00802437       0.00393497       0.00068685
Si       1.26088889       2.27615446      19.30526203  T        0        1      -0.00535281       0.01990678       0.01581323
O        1.35656612       1.21181870      18.04997446  T        1        1      -0.00375842      -0.00437558       0.03102750
O        0.25052490       1.70407591      20.43644600  T        1        1       0.01076528      -0.01403800       0.02534144
O        3.14704352       0.86505578      21.94360499  T        1        1      -0.00498275       0.00619408       0.01936213
O        0.71246937       3.66532267      18.65321724  T        1        1       0.02229096       0.02645215      -0.00631286
O        2.70836989       2.57335858      19.95118549  T        1        1       0.01661321      -0.01584628      -0.00907706
O       -1.34360104       2.10708831      22.66842661  T        1        1      -0.00841552       0.00587580       0.00509127
Si       7.23815181       0.00000000      12.00000000  F        0        2      -0.13248504      -0.36571502      -1.69074950
Si       3.76227409       2.00679893      15.60606667  F        0        2      -0.10065846       0.09875627       1.24308596
Si       6.22272410       2.25482548      13.80303333  F        0        2       0.02807590      -0.16879324       1.04441181
O        6.30416499       1.13103512      12.65233746  F        1        2      -0.50368928       0.20912309      -0.23082751
O        5.20877265       1.76346018      14.95372921  F        1        2       0.43499511      -0.24482893      -0.39423912
O        8.17066236       0.63242506      16.25840413  F        1        2      -0.16103137      -0.48092567       0.02787365
O        5.71021236       3.62919935      13.15069587  F        1        2       0.42242607       0.29196113       0.52297754
O        7.66922265       2.49816423      14.45537079  F        1        2       0.01560262       0.38775054      -0.74420828
O        3.84371499       3.13058929      16.75676254  F        1        2       0.06182076       0.22244265       0.09272862
Si       7.25052789      -0.00627056      17.46219884  T        0        1       0.00212546      -0.00087073       0.00755904
Si       3.72880637       2.15448858      21.16945850  T        0        1       0.00741504      -0.00418443       0.00802545
Si       6.17929850       2.21224572      19.30577160  T        0        1       0.00272818      -0.00681924      -0.00132953
O        6.28483378       1.12987608      18.08092500  T        1        1       0.00102690      -0.00084932      -0.00062367
O        5.10359749       1.72238647      20.39991506  T        1        1      -0.00221315      -0.00308458      -0.00733473
O        8.24945453       0.07108857      21.53055924  T        1        1       0.01135948       0.00125041       0.00297331
O        5.75671644       3.62557369      18.59969765  T        1        1       0.00300830      -0.01418371      -0.00523868
O        7.62964984       2.34532729      20.02497661  T        1        1       0.00449604       0.00219966      -0.01035331
O        3.96368486       3.43007165      22.22190446  T        1        1       0.00618053       0.00828158      -0.01377225
F        2.89595740       0.85794059      24.47933349  T        0        0       0.01808141      -0.01704244       0.01451994
H        3.05556646       0.84492736      22.94927470  T        0        0       0.01215598       0.00523093       0.00521850
F        4.24822369       0.84873400      26.30659008  T        0        0      -0.00046519      -0.00835950      -0.03173414
H        3.60108853       0.84771886      25.39929214  T        0        0      -0.01139263       0.04357386       0.03008123
40
Lattice="9.8418 0.0 0.0 -2.460449999999999 4.261624409482844 0.0 0.0 -0.0 34.16586254" Properties=species:S:1:pos:R:3:move_mask:L:1:spacegroup_kinds:I:1:tags:I:1:forces:R:3 surface=alpha_quartz_001 coadsorbate=HF start=1 calculation_kind="Local coadsorbate relaxation; not a reaction path" host_atoms=36 energy=-283.0553280701401 pbc="T T F"
Si       2.31725181       0.00000000      12.00000000  F        0        2      -0.13272004      -0.36575939      -1.69631946
Si      -1.15862590       2.00679893      15.60606667  F        0        2      -0.12791486       0.05989930       1.26859825
Si       1.30182410       2.25482548      13.80303333  F        0        2       0.03766086      -0.15531733       1.02869220
O        1.38326499       1.13103512      12.65233746  F        1        2      -0.50376879       0.21232214      -0.22226513
O        0.28787265       1.76346018      14.95372921  F        1        2       0.45112488      -0.24440174      -0.39988689
O        3.24976236       0.63242506      16.25840413  F        1        2      -0.24646134      -0.59869171       0.14519926
O        0.78931236       3.62919935      13.15069587  F        1        2       0.42190267       0.28784191       0.53122388
O        2.74832265       2.49816423      14.45537079  F        1        2       0.00113565       0.38352654      -0.74291108
O       -1.07718501       3.13058929      16.75676254  F        1        2      -0.03371715       0.43252702       0.15268191
Si       2.29235329       0.03158053      17.45995617  T        0        1      -0.00644727       0.00590976      -0.00987869
Si      -1.22051894       1.65102429      21.11216074  T        0        1      -0.00849694       0.00354891      -0.00346706
Si       1.25903561       2.27615416      19.30561442  T        0        1       0.00075558       0.01764864       0.00666619
O        1.35561025       1.21287358      18.04950254  T        1        1      -0.00418765      -0.01205347       0.02447773
O        0.24988796       1.70112522      20.43659755  T        1        1       0.01044006       0.00201977       0.02054448
O        3.14533359       0.86933718      21.94677104  T        1        1      -0.00512632       0.00990062       0.02284641
O        0.71135672       3.66594964      18.65402070  T        1        1       0.01422415       0.02568371      -0.00361870
O        2.70757991       2.57297812      19.94922572  T        1        1       0.01359616      -0.01407263       0.00369803
O       -1.34282274       2.10842533      22.66924763  T        1        1      -0.00759621       0.00412746       0.00587284
Si       7.23815181       0.00000000      12.00000000  F        0        2      -0.13247761      -0.36571165      -1.69079471
Si       3.76227409       2.00679893      15.60606667  F        0        2      -0.10151604       0.09845357       1.24242774
Si       6.22272410       2.25482548      13.80303333  F        0        2       0.02826876      -0.16867581       1.04403638
O        6.30416499       1.13103512      12.65233746  F        1        2      -0.50372727       0.20914623      -0.23076000
O        5.20877265       1.76346018      14.95372921  F        1        2       0.43493298      -0.24484170      -0.39389759
O        8.17066236       0.63242506      16.25840413  F        1        2      -0.15827638      -0.48218829       0.02453061
O        5.71021236       3.62919935      13.15069587  F        1        2       0.42243235       0.29191052       0.52306233
O        7.66922265       2.49816423      14.45537079  F        1        2       0.01538678       0.38742651      -0.74426898
O        3.84371499       3.13058929      16.75676254  F        1        2       0.06111114       0.22416991       0.09208042
Si       7.25053927      -0.00626210      17.46196528  T        0        1      -0.00198217       0.00519083       0.01666991
Si       3.72693154       2.15689091      21.16925354  T        0        1       0.01868364      -0.00550918       0.01184413
Si       6.17901616       2.21284657      19.30627648  T        0        1       0.00182367      -0.00312097       0.00164950
O        6.28594736       1.13091148      18.08094737  T        1        1      -0.00291145       0.00289052       0.00652022
O        5.10206983       1.72442001      20.40004324  T        1        1       0.00217710      -0.01058978      -0.00622860
O        8.24751061       0.07246263      21.53040757  T        1        1       0.01103655      -0.00012211       0.00642817
O        5.75534659       3.62612797      18.60072178  T        1        1       0.01024745      -0.01589924      -0.01012334
O        7.62903913       2.34830795      20.02655681  T        1        1       0.00035194      -0.00650875      -0.01305833
O        3.96225633       3.43390455      22.22018545  T        1        1       0.00034585       0.00753340      -0.01595326
F        2.90038074       0.86317215      24.48451277  T        0        0       0.01292075      -0.01161927       0.01767860
H        3.05550874       0.85118667      22.95275235  T        0        0       0.01477205       0.00190053      -0.00452887
F        4.25737800       0.86416015      26.30943046  T        0        0      -0.02092911      -0.00695840      -0.05065403
H        3.60601293       0.85886910      25.40353723  T        0        0       0.01292557       0.03846364       0.04118553
40
Lattice="9.8418 0.0 0.0 -2.460449999999999 4.261624409482844 0.0 0.0 -0.0 34.16586254" Properties=species:S:1:pos:R:3:move_mask:L:1:spacegroup_kinds:I:1:tags:I:1:forces:R:3 surface=alpha_quartz_001 coadsorbate=HF start=1 calculation_kind="Local coadsorbate relaxation; not a reaction path" host_atoms=36 energy=-283.0558320619938 pbc="T T F"
Si       2.31725181       0.00000000      12.00000000  F        0        2      -0.13273521      -0.36572986      -1.69606844
Si      -1.15862590       2.00679893      15.60606667  F        0        2      -0.12748771       0.06136946       1.27028394
Si       1.30182410       2.25482548      13.80303333  F        0        2       0.03747229      -0.15535013       1.02910445
O        1.38326499       1.13103512      12.65233746  F        1        2      -0.50366879       0.21225744      -0.22240150
O        0.28787265       1.76346018      14.95372921  F        1        2       0.45138029      -0.24444832      -0.40031194
O        3.24976236       0.63242506      16.25840413  F        1        2      -0.25458579      -0.59949861       0.15475932
O        0.78931236       3.62919935      13.15069587  F        1        2       0.42182174       0.28791984       0.53103097
O        2.74832265       2.49816423      14.45537079  F        1        2       0.00109069       0.38363534      -0.74325715
O       -1.07718501       3.13058929      16.75676254  F        1        2      -0.03225320       0.43886238       0.15560619
Si       2.29130288       0.03260757      17.46015659  T        0        1      -0.00114282      -0.00269957      -0.01038424
Si      -1.22107519       1.65140964      21.11276128  T        0        1      -0.00673887       0.00239238      -0.00566610
Si       1.25724109       2.27643427      19.30621896  T        0        1       0.00858890       0.01073817      -0.00261494
O        1.35397652       1.21340477      18.04977083  T        1        1      -0.00439879      -0.01751961       0.01370598
O        0.25004207       1.69825358      20.43782504  T        1        1       0.00763597       0.02421814       0.01278211
O        3.14323446       0.87470425      21.95141565  T        1        1      -0.00251244       0.01339672       0.02098328
O        0.71046830       3.66681175      18.65456382  T        1        1       0.00754588       0.01951050       0.00256624
O        2.70755504       2.57116672      19.94685178  T        1        1       0.00801499      -0.00745963       0.01650499
O       -1.34345824       2.10643043      22.67047131  T        1        1      -0.00688781       0.00373443       0.00380221
Si       7.23815181       0.00000000      12.00000000  F        0        2      -0.13242097      -0.36566079      -1.69049974
Si       3.76227409       2.00679893      15.60606667  F        0        2      -0.10127843       0.09986815       1.24201289
Si       6.22272410       2.25482548      13.80303333  F        0        2       0.02849312      -0.16852023       1.04423918
O        6.30416499       1.13103512      12.65233746  F        1        2      -0.50366662       0.20900744      -0.23088164
O        5.20877265       1.76346018      14.95372921  F        1        2       0.43464252      -0.24502736      -0.39380732
O        8.17066236       0.63242506      16.25840413  F        1        2      -0.15500699      -0.48548462       0.02266184
O        5.71021236       3.62919935      13.15069587  F        1        2       0.42228137       0.29196385       0.52282793
O        7.66922265       2.49816423      14.45537079  F        1        2       0.01517605       0.38720579      -0.74465711
O        3.84371499       3.13058929      16.75676254  F        1        2       0.06222145       0.23047341       0.09494225
Si       7.25043710      -0.00600259      17.46193497  T        0        1      -0.00495934       0.00786607       0.01936622
Si       3.72588202       2.15885566      21.16907601  T        0        1       0.02593934      -0.00633234       0.01075345
Si       6.17887140       2.21348636      19.30702803  T        0        1       0.00026139      -0.00077837       0.00169723
O        6.28763677       1.13320871      18.08022337  T        1        1      -0.00854826      -0.00014292       0.01259587
O        5.10077017       1.72463614      20.39975165  T        1        1       0.00800866      -0.01655610      -0.00278811
O        8.24656820       0.07221492      21.52815498  T        1        1       0.01188992      -0.00177230       0.00849060
O        5.75350384       3.62664864      18.60218977  T        1        1       0.01575314      -0.01420560      -0.01378960
O        7.62904954       2.35058420      20.02760257  T        1        1      -0.00412555      -0.01347553      -0.01208150
O        3.96272738       3.43840673      22.21688261  T        1        1      -0.00692701       0.00654575      -0.01679208
F        2.90472954       0.87276319      24.49208410  T        0        0       0.00435862      -0.00142522       0.01715311
H        3.05493089       0.85983543      22.95739704  T        0        0       0.01724236      -0.00252602      -0.00864066
F        4.27161731       0.87916745      26.30981278  T        0        0      -0.03265098       0.00147791      -0.05183611
H        3.61332735       0.87338482      25.40833206  T        0        0       0.03217688       0.02216998       0.03860794
40
Lattice="9.8418 0.0 0.0 -2.460449999999999 4.261624409482844 0.0 0.0 -0.0 34.16586254" Properties=species:S:1:pos:R:3:move_mask:L:1:spacegroup_kinds:I:1:tags:I:1:forces:R:3 surface=alpha_quartz_001 coadsorbate=HF start=1 calculation_kind="Local coadsorbate relaxation; not a reaction path" host_atoms=36 energy=-283.05625814307587 pbc="T T F"
Si       2.31725181       0.00000000      12.00000000  F        0        2      -0.13277564      -0.36570221      -1.69583890
Si      -1.15862590       2.00679893      15.60606667  F        0        2      -0.12845499       0.06079120       1.27215258
Si       1.30182410       2.25482548      13.80303333  F        0        2       0.03731651      -0.15543128       1.02932651
O        1.38326499       1.13103512      12.65233746  F        1        2      -0.50358773       0.21221593      -0.22254882
O        0.28787265       1.76346018      14.95372921  F        1        2       0.45200237      -0.24423357      -0.40073413
O        3.24976236       0.63242506      16.25840413  F        1        2      -0.26212844      -0.59933490       0.16232928
O        0.78931236       3.62919935      13.15069587  F        1        2       0.42176420       0.28799256       0.53088417
O        2.74832265       2.49816423      14.45537079  F        1        2       0.00087159       0.38355757      -0.74360484
O       -1.07718501       3.13058929      16.75676254  F        1        2      -0.03340035       0.44067449       0.15429782
Si       2.29027418       0.03340875      17.46007984  T        0        1       0.00585890      -0.00913314      -0.00271372
Si      -1.22122085       1.65057210      21.11276275  T        0        1      -0.00337110       0.00022721      -0.00413684
Si       1.25620487       2.27679553      19.30667230  T        0        1       0.01369631       0.00244956      -0.00661900
O        1.35205825       1.21312482      18.05045782  T        1        1      -0.00350098      -0.01676560       0.00423632
O        0.25101621       1.69674109      20.43972378  T        1        1       0.00221802       0.04236297       0.00547551
O        3.14122792       0.87996049      21.95615863  T        1        1       0.00213475       0.01364794       0.01517556
O        0.70963092       3.66747322      18.65486087  T        1        1       0.00724096       0.01077884       0.00867869
O        2.70822319       2.56861124      19.94495624  T        1        1       0.00247228       0.00150234       0.02195881
O       -1.34560495       2.10078451      22.67172524  T        1        1      -0.00657718       0.00511841      -0.00119373
Si       7.23815181       0.00000000      12.00000000  F        0        2      -0.13231836      -0.36557558      -1.68991414
Si       3.76227409       2.00679893      15.60606667  F        0        2      -0.09968536       0.10303008       1.24189847
Si       6.22272410       2.25482548      13.80303333  F        0        2       0.02874649      -0.16832992       1.04502924
O        6.30416499       1.13103512      12.65233746  F        1        2      -0.50352347       0.20873305      -0.23117230
O        5.20877265       1.76346018      14.95372921  F        1        2       0.43410183      -0.24537706      -0.39395196
O        8.17066236       0.63242506      16.25840413  F        1        2      -0.15311936      -0.48987278       0.02369489
O        5.71021236       3.62919935      13.15069587  F        1        2       0.42199183       0.29211101       0.52230309
O        7.66922265       2.49816423      14.45537079  F        1        2       0.01503718       0.38724290      -0.74531402
O        3.84371499       3.13058929      16.75676254  F        1        2       0.06531162       0.24112983       0.10201394
Si       7.25015761      -0.00543165      17.46219740  T        0        1      -0.00462104       0.00469644       0.01193552
Si       3.72621626       2.15986746      21.16888381  T        0        1       0.02411467      -0.00629968       0.00497619
Si       6.17883919       2.21408808      19.30784209  T        0        1      -0.00090888      -0.00169128      -0.00190325
O        6.28940850       1.13628029      18.07898439  T        1        1      -0.01444271      -0.01106031       0.01380111
O        5.10009799       1.72253425      20.39898256  T        1        1       0.01263850      -0.01727705       0.00194626
O        8.24679152       0.07009336      21.52384050  T        1        1       0.01521521      -0.00270812       0.00793455
O        5.75184350       3.62706082      18.60358284  T        1        1       0.01632863      -0.00904393      -0.01418564
O        7.62961903       2.35121168      20.02775260  T        1        1      -0.00640117      -0.01457621      -0.00699519
O        3.96506390       3.44237352      22.21273954  T        1        1      -0.01253072       0.00632352      -0.01575545
F        2.90732333       0.88391832      24.49986652  T        0        0      -0.00168100       0.00933479       0.01358052
H        3.05405388       0.86853956      22.96180754  T        0        0       0.01827462      -0.00646825      -0.00464609
F        4.28738441       0.89111380      26.30680610  T        0        0      -0.02722548       0.01294226      -0.03144561
H        3.62158763       0.88760333      25.41182970  T        0        0       0.03291750       0.00201800       0.01904460
40
Lattice="9.8418 0.0 0.0 -2.460449999999999 4.261624409482844 0.0 0.0 -0.0 34.16586254" Properties=species:S:1:pos:R:3:move_mask:L:1:spacegroup_kinds:I:1:tags:I:1:forces:R:3 surface=alpha_quartz_001 coadsorbate=HF start=1 calculation_kind="Local coadsorbate relaxation; not a reaction path" host_atoms=36 energy=-283.05653608032594 pbc="T T F"
Si       2.31725181       0.00000000      12.00000000  F        0        2      -0.13281675      -0.36568483      -1.69570373
Si      -1.15862590       2.00679893      15.60606667  F        0        2      -0.12985580       0.05911343       1.27327063
Si       1.30182410       2.25482548      13.80303333  F        0        2       0.03718825      -0.15553457       1.02936615
O        1.38326499       1.13103512      12.65233746  F        1        2      -0.50354113       0.21220006      -0.22264841
O        0.28787265       1.76346018      14.95372921  F        1        2       0.45260158      -0.24392453      -0.40102108
O        3.24976236       0.63242506      16.25840413  F        1        2      -0.26655069      -0.59948056       0.16688854
O        0.78931236       3.62919935      13.15069587  F        1        2       0.42175061       0.28803957       0.53081728
O        2.74832265       2.49816423      14.45537079  F        1        2       0.00065965       0.38337759      -0.74380522
O       -1.07718501       3.13058929      16.75676254  F        1        2      -0.03563795       0.43853505       0.15072686
Si       2.28967495       0.03370232      17.45990155  T        0        1       0.01046764      -0.01032670       0.00579131
Si      -1.22116550       1.64915678      21.11227183  T        0        1      -0.00035675      -0.00143074      -0.00122190
Si       1.25601932       2.27701005      19.30675347  T        0        1       0.01355965      -0.00258286      -0.00471087
O        1.35061107       1.21246045      18.05097245  T        1        1      -0.00146102      -0.01166774       0.00040819
O        0.25198117       1.69687390      20.44120773  T        1        1      -0.00299322       0.04882276       0.00202386
O        3.13993653       0.88376082      21.95940350  T        1        1       0.00600169       0.01015859       0.00998829
O        0.70888100       3.66776659      18.65514484  T        1        1       0.01176003       0.00455142       0.01041135
O        2.70885490       2.56675395      19.94421726  T        1        1       0.00017974       0.00782667       0.01880385
O       -1.34809079       2.09454655      22.67245556  T        1        1      -0.00670706       0.00700763      -0.00549324
Si       7.23815181       0.00000000      12.00000000  F        0        2      -0.13222414      -0.36550408      -1.68937713
Si       3.76227409       2.00679893      15.60606667  F        0        2      -0.09789870       0.10608048       1.24198628
Si       6.22272410       2.25482548      13.80303333  F        0        2       0.02896131      -0.16816802       1.04586120
O        6.30416499       1.13103512      12.65233746  F        1        2      -0.50339018       0.20848246      -0.23145520
O        5.20877265       1.76346018      14.95372921  F        1        2       0.43361345      -0.24569377      -0.39414340
O        8.17066236       0.63242506      16.25840413  F        1        2      -0.15354592      -0.49293559       0.02646369
O        5.71021236       3.62919935      13.15069587  F        1        2       0.42172336       0.29225778       0.52180202
O        7.66922265       2.49816423      14.45537079  F        1        2       0.01497333       0.38746411      -0.74589016
O        3.84371499       3.13058929      16.75676254  F        1        2       0.06807372       0.25049200       0.10899376
Si       7.24978820      -0.00481313      17.46253308  T        0        1      -0.00152943      -0.00142257       0.00051203
Si       3.72731209       2.16018338      21.16869280  T        0        1       0.01663912      -0.00525834      -0.00099855
Si       6.17873153       2.21449477      19.30836966  T        0        1      -0.00073586      -0.00472519      -0.00599190
O        6.29041732       1.13860215      18.07800016  T        1        1      -0.01799085      -0.02267278       0.01049256
O        5.09994584       1.71967087      20.39814107  T        1        1       0.01373481      -0.01330933       0.00552859
O        8.24754489       0.06739298      21.51940292  T        1        1       0.01953138      -0.00247940       0.00597899
O        5.75097426       3.62730140      18.60427797  T        1        1       0.01312748      -0.00401279      -0.01180389
O        7.63009325       2.35057115      20.02738041  T        1        1      -0.00575007      -0.01130336      -0.00159346
O        3.96753312       3.44505295      22.20927437  T        1        1      -0.01416960       0.00692810      -0.01384418
F        2.90805641       0.89290934      24.50551172  T        0        0      -0.00184376       0.01527762       0.00915571
H        3.05351867       0.87469875      22.96459236  T        0        0       0.01745874      -0.00862736       0.00384468
F        4.29949696       0.89868883      26.30263366  T        0        0      -0.01172172       0.02046892      -0.00551323
H        3.62835195       0.89751373      25.41331279  T        0        0       0.01871505      -0.01033916      -0.00390027
40
Lattice="9.8418 0.0 0.0 -2.460449999999999 4.261624409482844 0.0 0.0 -0.0 34.16586254" Properties=species:S:1:pos:R:3:move_mask:L:1:spacegroup_kinds:I:1:tags:I:1:forces:R:3 surface=alpha_quartz_001 coadsorbate=HF start=1 calculation_kind="Local coadsorbate relaxation; not a reaction path" host_atoms=36 energy=-283.0567867895296 pbc="T T F"
Si       2.31725181       0.00000000      12.00000000  F        0        2      -0.13285171      -0.36567072      -1.69562166
Si      -1.15862590       2.00679893      15.60606667  F        0        2      -0.13089172       0.05753012       1.27370658
Si       1.30182410       2.25482548      13.80303333  F        0        2       0.03704983      -0.15565049       1.02936257
O        1.38326499       1.13103512      12.65233746  F        1        2      -0.50350663       0.21219154      -0.22271459
O        0.28787265       1.76346018      14.95372921  F        1        2       0.45304493      -0.24366655      -0.40119410
O        3.24976236       0.63242506      16.25840413  F        1        2      -0.26991091      -0.60054189       0.17137124
O        0.78931236       3.62919935      13.15069587  F        1        2       0.42176336       0.28807066       0.53078462
O        2.74832265       2.49816423      14.45537079  F        1        2       0.00052276       0.38320297      -0.74390572
O       -1.07718501       3.13058929      16.75676254  F        1        2      -0.03676763       0.43589505       0.14809968
Si       2.28939380       0.03370920      17.45983900  T        0        1       0.01245927      -0.00841538       0.01095935
Si      -1.22124199       1.64780181      21.11163216  T        0        1       0.00192838      -0.00179412       0.00112906
Si       1.25611127       2.27709454      19.30668754  T        0        1       0.01081622      -0.00458331      -0.00049492
O        1.34946396       1.21169619      18.05135751  T        1        1       0.00167805      -0.00537272      -0.00007191
O        0.25254387       1.69787708      20.44225903  T        1        1      -0.00686954       0.04827343       0.00093745
O        3.13911154       0.88721351      21.96218569  T        1        1       0.00859817       0.00459252       0.00768864
O        0.70829061       3.66799829      18.65563135  T        1        1       0.01668126       0.00034802       0.00779984
O        2.70913440       2.56562478      19.94423069  T        1        1       0.00044684       0.01105122       0.01159455
O       -1.35051138       2.08912379      22.67278978  T        1        1      -0.00699199       0.00858418      -0.00747746
Si       7.23815181       0.00000000      12.00000000  F        0        2      -0.13215488      -0.36545676      -1.68899809
Si       3.76227409       2.00679893      15.60606667  F        0        2      -0.09652238       0.10840703       1.24209958
Si       6.22272410       2.25482548      13.80303333  F        0        2       0.02914338      -0.16803263       1.04647273
O        6.30416499       1.13103512      12.65233746  F        1        2      -0.50329657       0.20830295      -0.23166312
O        5.20877265       1.76346018      14.95372921  F        1        2       0.43327575      -0.24593192      -0.39426521
O        8.17066236       0.63242506      16.25840413  F        1        2      -0.15542173      -0.49448807       0.02952754
O        5.71021236       3.62919935      13.15069587  F        1        2       0.42152512       0.29236777       0.52143947
O        7.66922265       2.49816423      14.45537079  F        1        2       0.01492732       0.38773051      -0.74627710
O        3.84371499       3.13058929      16.75676254  F        1        2       0.06941022       0.25695435       0.11390551
Si       7.24937485      -0.00425318      17.46278806  T        0        1       0.00248540      -0.00752552      -0.00969291
Si       3.72851463       2.16058592      21.16855990  T        0        1       0.00776949      -0.00404669      -0.00471994
Si       6.17844744       2.21478405      19.30866328  T        0        1       0.00019370      -0.00813280      -0.00886519
O        6.29073993       1.14003316      18.07743647  T        1        1      -0.01932165      -0.03144436       0.00569476
O        5.09989065       1.71705802      20.39745043  T        1        1       0.01238708      -0.00752960       0.00787534
O        8.24831943       0.06492511      21.51542746  T        1        1       0.02357465      -0.00182151       0.00404392
O        5.75055884       3.62745441      18.60445599  T        1        1       0.00908179      -0.00055049      -0.00833231
O        7.63018326       2.34975905      20.02700575  T        1        1      -0.00371856      -0.00758105       0.00209282
O        3.96934088       3.44758922      22.20624414  T        1        1      -0.01298687       0.00819313      -0.01174550
F        2.90854141       0.90127319      24.51045727  T        0        0       0.00084762       0.01745251       0.00438004
H        3.05358425       0.87989474      22.96698500  T        0        0       0.01584656      -0.00939725       0.01113753
F        4.31002116       0.90576127      26.29885606  T        0        0       0.00458752       0.02420178       0.01680347
H        3.63466949       0.90594465      25.41427482  T        0        0       0.00116809      -0.01571587      -0.02286655
40
Lattice="9.8418 0.0 0.0 -2.460449999999999 4.261624409482844 0.0 0.0 -0.0 34.16586254" Properties=species:S:1:pos:R:3:move_mask:L:1:spacegroup_kinds:I:1:tags:I:1:forces:R:3 surface=alpha_quartz_001 coadsorbate=HF start=1 calculation_kind="Local coadsorbate relaxation; not a reaction path" host_atoms=36 energy=-283.05718654797244 pbc="T T F"
Si       2.31725181       0.00000000      12.00000000  F        0        2      -0.13289687      -0.36565082      -1.69555481
Si      -1.15862590       2.00679893      15.60606667  F        0        2      -0.13147391       0.05609781       1.27365524
Si       1.30182410       2.25482548      13.80303333  F        0        2       0.03681703      -0.15583025       1.02935736
O        1.38326499       1.13103512      12.65233746  F        1        2      -0.50346048       0.21218536      -0.22277423
O        0.28787265       1.76346018      14.95372921  F        1        2       0.45345934      -0.24345004      -0.40129465
O        3.24976236       0.63242506      16.25840413  F        1        2      -0.27550354      -0.60318297       0.17990704
O        0.78931236       3.62919935      13.15069587  F        1        2       0.42180887       0.28809782       0.53076573
O        2.74832265       2.49816423      14.45537079  F        1        2       0.00043945       0.38301760      -0.74394567
O       -1.07718501       3.13058929      16.75676254  F        1        2      -0.03535016       0.43406693       0.14779017
Si       2.28926519       0.03356113      17.46002919  T        0        1       0.01233938      -0.00397046       0.01319909
Si      -1.22169908       1.64648697      21.11088403  T        0        1       0.00430752      -0.00065715       0.00361578
Si       1.25617217       2.27711980      19.30667735  T        0        1       0.00663188      -0.00449001       0.00516515
O        1.34790721       1.21049529      18.05203000  T        1        1       0.00755592       0.00346960       0.00089648
O        0.25273793       1.69995907      20.44355462  T        1        1      -0.01025503       0.04343614       0.00039605
O        3.13828948       0.89294407      21.96679102  T        1        1       0.01150389      -0.00416837       0.00570725
O        0.70784822       3.66855194      18.65666044  T        1        1       0.02097186      -0.00520140      -0.00069602
O        2.70905179       2.56463574      19.94478653  T        1        1       0.00302216       0.01216948       0.00019064
O       -1.35376169       2.08330708      22.67304363  T        1        1      -0.00722536       0.00986008      -0.00734406
Si       7.23815181       0.00000000      12.00000000  F        0        2      -0.13209343      -0.36542207      -1.68869883
Si       3.76227409       2.00679893      15.60606667  F        0        2      -0.09526217       0.11075943       1.24212622
Si       6.22272410       2.25482548      13.80303333  F        0        2       0.02936637      -0.16786896       1.04694111
O        6.30416499       1.13103512      12.65233746  F        1        2      -0.50322345       0.20815183      -0.23183504
O        5.20877265       1.76346018      14.95372921  F        1        2       0.43299525      -0.24618999      -0.39427917
O        8.17066236       0.63242506      16.25840413  F        1        2      -0.15912325      -0.49516438       0.03356009
O        5.71021236       3.62919935      13.15069587  F        1        2       0.42135093       0.29246188       0.52114662
O        7.66922265       2.49816423      14.45537079  F        1        2       0.01485584       0.38806758      -0.74652970
O        3.84371499       3.13058929      16.75676254  F        1        2       0.06922172       0.26207278       0.11747891
Si       7.24879787      -0.00361193      17.46298650  T        0        1       0.00772073      -0.01422012      -0.01964247
Si       3.73004564       2.16192797      21.16858759  T        0        1      -0.00410298      -0.00252155      -0.00671365
Si       6.17784314       2.21508773      19.30891545  T        0        1       0.00127530      -0.01234505      -0.01086657
O        6.29054172       1.14101122      18.07721657  T        1        1      -0.01866810      -0.03877636      -0.00047873
O        5.09972481       1.71424072      20.39687953  T        1        1       0.00847368       0.00101234       0.01024170
O        8.24930239       0.06227694      21.51075952  T        1        1       0.02852055      -0.00056344       0.00187970
O        5.75023342       3.62757251      18.60429997  T        1        1       0.00427853       0.00209328      -0.00338160
O        7.62978876       2.34916540      20.02679796  T        1        1      -0.00040358      -0.00442304       0.00425165
O        3.97075866       3.45236455      22.20189421  T        1        1      -0.00933739       0.00995042      -0.00872114
F        2.91032108       0.91375178      24.51806135  T        0        0       0.00468552       0.01774637      -0.00256637
H        3.05483929       0.88773523      22.97118251  T        0        0       0.01287720      -0.00933136       0.01864490
F        4.32499883       0.91850722      26.29510597  T        0        0       0.02320613       0.02618875       0.03982061
H        3.64412698       0.91881640      25.41640547  T        0        0      -0.01930537      -0.01747772      -0.04141475
40
Lattice="9.8418 0.0 0.0 -2.460449999999999 4.261624409482844 0.0 0.0 -0.0 34.16586254" Properties=species:S:1:pos:R:3:move_mask:L:1:spacegroup_kinds:I:1:tags:I:1:forces:R:3 surface=alpha_quartz_001 coadsorbate=HF start=1 calculation_kind="Local coadsorbate relaxation; not a reaction path" host_atoms=36 energy=-283.057862862895 pbc="T T F"
Si       2.31725181       0.00000000      12.00000000  F        0        2      -0.13296252      -0.36561993      -1.69553399
Si      -1.15862590       2.00679893      15.60606667  F        0        2      -0.13086379       0.05559794       1.27281839
Si       1.30182410       2.25482548      13.80303333  F        0        2       0.03643068      -0.15611192       1.02932920
O        1.38326499       1.13103512      12.65233746  F        1        2      -0.50339584       0.21219237      -0.22280815
O        0.28787265       1.76346018      14.95372921  F        1        2       0.45377340      -0.24340025      -0.40119439
O        3.24976236       0.63242506      16.25840413  F        1        2      -0.28636941      -0.60824121       0.19665276
O        0.78931236       3.62919935      13.15069587  F        1        2       0.42191615       0.28810606       0.53078725
O        2.74832265       2.49816423      14.45537079  F        1        2       0.00047091       0.38286295      -0.74385223
O       -1.07718501       3.13058929      16.75676254  F        1        2      -0.02814951       0.43548931       0.15330014
Si       2.28939597       0.03322758      17.46077225  T        0        1       0.00844460       0.00328658       0.00981454
Si      -1.22298847       1.64591832      21.11033547  T        0        1       0.00682860       0.00315647       0.00639559
Si       1.25595103       2.27704438      19.30704641  T        0        1       0.00196515      -0.00111481       0.01055242
O        1.34551648       1.20841123      18.05357632  T        1        1       0.01816757       0.01533267       0.00278950
O        0.25215606       1.70386891      20.44561633  T        1        1      -0.01202510       0.03392762      -0.00069683
O        3.13749106       0.90326725      21.97551027  T        1        1       0.01535449      -0.01657806       0.00510402
O        0.70806034       3.66978945      18.65854947  T        1        1       0.02162042      -0.01436752      -0.01876570
O        2.70834833       2.56361983      19.94614947  T        1        1       0.00888743       0.00961081      -0.01550490
O       -1.35830127       2.07822252      22.67338151  T        1        1      -0.00697750       0.01018723      -0.00347093
Si       7.23815181       0.00000000      12.00000000  F        0        2      -0.13205912      -0.36541677      -1.68861998
Si       3.76227409       2.00679893      15.60606667  F        0        2      -0.09439825       0.11294584       1.24185960
Si       6.22272410       2.25482548      13.80303333  F        0        2       0.02962212      -0.16767214       1.04699897
O        6.30416499       1.13103512      12.65233746  F        1        2      -0.50320073       0.20808265      -0.23189258
O        5.20877265       1.76346018      14.95372921  F        1        2       0.43284982      -0.24648000      -0.39405036
O        8.17066236       0.63242506      16.25840413  F        1        2      -0.16541340      -0.49471457       0.03901059
O        5.71021236       3.62919935      13.15069587  F        1        2       0.42125932       0.29250418       0.52105878
O        7.66922265       2.49816423      14.45537079  F        1        2       0.01474492       0.38842399      -0.74643351
O        3.84371499       3.13058929      16.75676254  F        1        2       0.06621962       0.26395337       0.11779709
Si       7.24802892      -0.00294594      17.46304000  T        0        1       0.01336659      -0.02006656      -0.02635919
Si       3.73192668       2.16523798      21.16912751  T        0        1      -0.01922013      -0.00090925      -0.00464249
Si       6.17668528       2.21536629      19.30915565  T        0        1       0.00163662      -0.01695408      -0.01066753
O        6.28950588       1.14108544      18.07766675  T        1        1      -0.01452321      -0.04163859      -0.00688124
O        5.09928130       1.71159704      20.39680608  T        1        1       0.00093927       0.01264087       0.01290499
O        8.25060579       0.06012439      21.50578128  T        1        1       0.03414817       0.00135207      -0.00020283
O        5.74983580       3.62760826      18.60379440  T        1        1      -0.00030590       0.00282737       0.00256223
O        7.62848189       2.34954138      20.02709825  T        1        1       0.00428635      -0.00426837       0.00292592
O        3.97109326       3.46177900      22.19507411  T        1        1      -0.00215233       0.01188365      -0.00458435
F        2.91522583       0.93394836      24.53099664  T        0        0       0.00861833       0.01537635      -0.01157992
H        3.05863858       0.90098563      22.97965841  T        0        0       0.00810223      -0.00771695       0.02220200
F        4.34860237       0.94347701      26.29234217  T        0        0       0.03998922       0.02562268       0.05878560
H        3.65943121       0.94102598      25.42150440  T        0        0      -0.03762523      -0.01409202      -0.05590850
40
Lattice="9.8418 0.0 0.0 -2.460449999999999 4.261624409482844 0.0 0.0 -0.0 34.16586254" Properties=species:S:1:pos:R:3:move_mask:L:1:spacegroup_kinds:I:1:tags:I:1:forces:R:3 surface=alpha_quartz_001 coadsorbate=HF start=1 calculation_kind="Local coadsorbate relaxation; not a reaction path" host_atoms=36 energy=-283.0587200835357 pbc="T T F"
Si       2.31725181       0.00000000      12.00000000  F        0        2      -0.13303545      -0.36558632      -1.69563779
Si      -1.15862590       2.00679893      15.60606667  F        0        2      -0.12832347       0.05737986       1.27110363
Si       1.30182410       2.25482548      13.80303333  F        0        2       0.03601514      -0.15641664       1.02921590
O        1.38326499       1.13103512      12.65233746  F        1        2      -0.50334105       0.21223316      -0.22276300
O        0.28787265       1.76346018      14.95372921  F        1        2       0.45375507      -0.24373862      -0.40069093
O        3.24976236       0.63242506      16.25840413  F        1        2      -0.30187716      -0.61427190       0.21949189
O        0.78931236       3.62919935      13.15069587  F        1        2       0.42208388       0.28806002       0.53089635
O        2.74832265       2.49816423      14.45537079  F        1        2       0.00067323       0.38286779      -0.74354749
O       -1.07718501       3.13058929      16.75676254  F        1        2      -0.01387970       0.44270941       0.16697760
Si       2.28994617       0.03275464      17.46216067  T        0        1      -0.00003162       0.01072886      -0.00123368
Si      -1.22515546       1.64765008      21.11085505  T        0        1       0.00846461       0.00961175       0.00831351
Si       1.25530939       2.27684955      19.30813230  T        0        1      -0.00004451       0.00589115       0.01099020
O        1.34283153       1.20557656      18.05633574  T        1        1       0.03127971       0.02575942       0.00411723
O        0.25045863       1.70944414      20.44840719  T        1        1      -0.00893941       0.02211996      -0.00344396
O        3.13727892       0.91712083      21.98786142  T        1        1       0.01933828      -0.02878424       0.00405358
O        0.70975901       3.67159236      18.66074788  T        1        1       0.01445032      -0.02600654      -0.04346306
O        2.70707640       2.56273439      19.94815543  T        1        1       0.01691474       0.00224128      -0.02894136
O       -1.36269677       2.07835448      22.67400402  T        1        1      -0.00570343       0.00860094       0.00502601
Si       7.23815181       0.00000000      12.00000000  F        0        2      -0.13210091      -0.36547049      -1.68901923
Si       3.76227409       2.00679893      15.60606667  F        0        2      -0.09472025       0.11370137       1.24116207
Si       6.22272410       2.25482548      13.80303333  F        0        2       0.02976708      -0.16753923       1.04622769
O        6.30416499       1.13103512      12.65233746  F        1        2      -0.50328509       0.20821330      -0.23169199
O        5.20877265       1.76346018      14.95372921  F        1        2       0.43305250      -0.24669900      -0.39348147
O        8.17066236       0.63242506      16.25840413  F        1        2      -0.17310111      -0.49300368       0.04478096
O        5.71021236       3.62919935      13.15069587  F        1        2       0.42138807       0.29241885       0.52142484
O        7.66922265       2.49816423      14.45537079  F        1        2       0.01463545       0.38856636      -0.74570365
O        3.84371499       3.13058929      16.75676254  F        1        2       0.06001750       0.25870161       0.11180193
Si       7.24741159      -0.00268841      17.46283202  T        0        1       0.01568449      -0.02035190      -0.02269947
Si       3.73344060       2.17066944      21.17058007  T        0        1      -0.03085857       0.00124893       0.00312718
Si       6.17517039       2.21536033      19.30935803  T        0        1       0.00008681      -0.01928624      -0.00651234
O        6.28755688       1.13933460      18.07924223  T        1        1      -0.00617530      -0.03410573      -0.00935648
O        5.09864429       1.71097997      20.39803704  T        1        1      -0.00830894       0.02288498       0.01467699
O        8.25207186       0.06070099      21.50374582  T        1        1       0.03755354       0.00301331      -0.00094254
O        5.74944752       3.62738277      18.60307416  T        1        1      -0.00146768      -0.00035028       0.00631008
O        7.62623602       2.35173361      20.02826966  T        1        1       0.00837284      -0.01023438      -0.00414800
O        3.96904638       3.47554629      22.18695641  T        1        1       0.00694597       0.01216617      -0.00048383
F        2.92382833       0.95694376      24.54709496  T        0        0       0.00742392       0.01032884      -0.02050938
H        3.06577110       0.91754915      22.99218899  T        0        0       0.00195302      -0.00439273       0.01786344
F        4.37533145       0.97978168      26.29350709  T        0        0       0.04381728       0.02081095       0.06082526
H        3.67731505       0.96948405      25.42985762  T        0        0      -0.03847978      -0.00402034      -0.05411669
40
Lattice="9.8418 0.0 0.0 -2.460449999999999 4.261624409482844 0.0 0.0 -0.0 34.16586254" Properties=species:S:1:pos:R:3:move_mask:L:1:spacegroup_kinds:I:1:tags:I:1:forces:R:3 surface=alpha_quartz_001 coadsorbate=HF start=1 calculation_kind="Local coadsorbate relaxation; not a reaction path" host_atoms=36 energy=-283.059463725385 pbc="T T F"
Si       2.31725181       0.00000000      12.00000000  F        0        2      -0.13308155      -0.36556997      -1.69588439
Si      -1.15862590       2.00679893      15.60606667  F        0        2      -0.12484831       0.06121786       1.26932572
Si       1.30182410       2.25482548      13.80303333  F        0        2       0.03587788      -0.15656198       1.02895883
O        1.38326499       1.13103512      12.65233746  F        1        2      -0.50334801       0.21231372      -0.22262186
O        0.28787265       1.76346018      14.95372921  F        1        2       0.45335670      -0.24441651      -0.39984375
O        3.24976236       0.63242506      16.25840413  F        1        2      -0.31490892      -0.61715844       0.23651726
O        0.78931236       3.62919935      13.15069587  F        1        2       0.42224104       0.28794807       0.53109420
O        2.74832265       2.49816423      14.45537079  F        1        2       0.00092909       0.38308432      -0.74314323
O       -1.07718501       3.13058929      16.75676254  F        1        2       0.00083832       0.45268845       0.18271988
Si       2.29076632       0.03232267      17.46356458  T        0        1      -0.00891696       0.01365960      -0.01475115
Si      -1.22732651       1.65185914      21.11276288  T        0        1       0.00872183       0.01586080       0.00921118
Si       1.25458493       2.27659157      19.30967647  T        0        1       0.00294779       0.01308718       0.00414433
O        1.34130270       1.20303876      18.05952154  T        1        1       0.03946529       0.02824830       0.00345529
O        0.24823520       1.71477381      20.45093649  T        1        1      -0.00110140       0.01340298      -0.00671378
O        3.13816400       0.92812981      21.99885089  T        1        1       0.02058295      -0.03550220       0.00496281
O        0.71282276       3.67289708      18.66168458  T        1        1       0.00182496      -0.03377341      -0.06094587
O        2.70600122       2.56199083      19.94994058  T        1        1       0.02192820      -0.00616137      -0.03239356
O       -1.36468012       2.08587822      22.67492789  T        1        1      -0.00399577       0.00492266       0.01261927
Si       7.23815181       0.00000000      12.00000000  F        0        2      -0.13222343      -0.36556972      -1.68982219
Si       3.76227409       2.00679893      15.60606667  F        0        2      -0.09630219       0.11228663       1.24033938
Si       6.22272410       2.25482548      13.80303333  F        0        2       0.02963479      -0.16758838       1.04483487
O        6.30416499       1.13103512      12.65233746  F        1        2      -0.50345428       0.20853242      -0.23126729
O        5.20877265       1.76346018      14.95372921  F        1        2       0.43361102      -0.24672719      -0.39282596
O        8.17066236       0.63242506      16.25840413  F        1        2      -0.17855430      -0.49132916       0.04893591
O        5.71021236       3.62919935      13.15069587  F        1        2       0.42174024       0.29221577       0.52217721
O        7.66922265       2.49816423      14.45537079  F        1        2       0.01462171       0.38832326      -0.74455326
O        3.84371499       3.13058929      16.75676254  F        1        2       0.05360306       0.24721307       0.10112433
Si       7.24738232      -0.00315051      17.46246499  T        0        1       0.01199889      -0.01330171      -0.00826206
Si       3.73375369       2.17575300      21.17267172  T        0        1      -0.03075882       0.00407506       0.01219077
Si       6.17395382       2.21483906      19.30946334  T        0        1      -0.00317891      -0.01735513       0.00080825
O        6.28551931       1.13613314      18.08142167  T        1        1       0.00260535      -0.01732407      -0.00536700
O        5.09818240       1.71317042      20.40050015  T        1        1      -0.01312838       0.02518479       0.01342090
O        8.25341317       0.06486821      21.50721868  T        1        1       0.03587004       0.00331582       0.00015940
O        5.74919725       3.62684804      18.60264220  T        1        1       0.00210425      -0.00658354       0.00451401
O        7.62398703       2.35494719      20.02983568  T        1        1       0.00951602      -0.02030702      -0.01374843
O        3.96508942       3.48770996      22.18125155  T        1        1       0.01367494       0.01121459       0.00267020
F        2.93258741       0.97174781      24.55888783  T        0        0       0.00084396       0.00521439      -0.02416967
H        3.07363698       0.92978133      23.00389429  T        0        0      -0.00301366      -0.00078488       0.00418953
F        4.39231912       1.01222508      26.29912821  T        0        0       0.02924823       0.01265732       0.04103177
H        3.68936776       0.99152908      25.43806732  T        0        0      -0.01697164       0.00934764      -0.03309185
40
Lattice="9.8418 0.0 0.0 -2.460449999999999 4.261624409482844 0.0 0.0 -0.0 34.16586254" Properties=species:S:1:pos:R:3:move_mask:L:1:spacegroup_kinds:I:1:tags:I:1:forces:R:3 surface=alpha_quartz_001 coadsorbate=HF start=1 calculation_kind="Local coadsorbate relaxation; not a reaction path" host_atoms=36 energy=-283.0600163506907 pbc="T T F"
Si       2.31725181       0.00000000      12.00000000  F        0        2      -0.13308605      -0.36557819      -1.69614025
Si      -1.15862590       2.00679893      15.60606667  F        0        2      -0.12226538       0.06511976       1.26848227
Si       1.30182410       2.25482548      13.80303333  F        0        2       0.03609422      -0.15648603       1.02869595
O        1.38326499       1.13103512      12.65233746  F        1        2      -0.50341052       0.21238770      -0.22247626
O        0.28787265       1.76346018      14.95372921  F        1        2       0.45287835      -0.24508608      -0.39910871
O        3.24976236       0.63242506      16.25840413  F        1        2      -0.32102940      -0.61541623       0.24113792
O        0.78931236       3.62919935      13.15069587  F        1        2       0.42230692       0.28784092       0.53127400
O        2.74832265       2.49816423      14.45537079  F        1        2       0.00102416       0.38338044      -0.74293640
O       -1.07718501       3.13058929      16.75676254  F        1        2       0.00811312       0.46011082       0.19203716
Si       2.29120171       0.03231099      17.46424746  T        0        1      -0.01324103       0.01103316      -0.02302039
Si      -1.22872546       1.65612211      21.11509969  T        0        1       0.00895623       0.01888225       0.00899709
Si       1.25391691       2.27661305      19.31079233  T        0        1       0.00803417       0.01608725      -0.00570121
O        1.34101969       1.20194402      18.06159778  T        1        1       0.03965561       0.02280668       0.00098758
O        0.24641365       1.71847512      20.45239829  T        1        1       0.00666513       0.00964804      -0.00771110
O        3.13932693       0.93354359      22.00559857  T        1        1       0.02010391      -0.03419433       0.00400405
O        0.71540030       3.67334889      18.66102548  T        1        1      -0.00817664      -0.03409125      -0.06355315
O        2.70554711       2.56107769      19.95047877  T        1        1       0.02198128      -0.01064918      -0.02666629
O       -1.36473751       2.09512759      22.67600189  T        1        1      -0.00223196       0.00092331       0.01432454
Si       7.23815181       0.00000000      12.00000000  F        0        2      -0.13235686      -0.36565707      -1.69055598
Si       3.76227409       2.00679893      15.60606667  F        0        2      -0.09801022       0.11027427       1.23974462
Si       6.22272410       2.25482548      13.80303333  F        0        2       0.02932714      -0.16779398       1.04363778
O        6.30416499       1.13103512      12.65233746  F        1        2      -0.50360986       0.20884892      -0.23088875
O        5.20877265       1.76346018      14.95372921  F        1        2       0.43422584      -0.24664728      -0.39240344
O        8.17066236       0.63242506      16.25840413  F        1        2      -0.18048405      -0.49078871       0.05150233
O        5.71021236       3.62919935      13.15069587  F        1        2       0.42211126       0.29201827       0.52287051
O        7.66922265       2.49816423      14.45537079  F        1        2       0.01467823       0.38787061      -0.74364081
O        3.84371499       3.13058929      16.75676254  F        1        2       0.04972013       0.23502426       0.09069614
Si       7.24786107      -0.00404646      17.46218132  T        0        1       0.00545606      -0.00398406       0.00760481
Si       3.73293757       2.17872506      21.17440821  T        0        1      -0.02115822       0.00586810       0.01739850
Si       6.17320759       2.21382586      19.30956016  T        0        1      -0.00599329      -0.01275707       0.00769330
O        6.28419595       1.13291199      18.08326299  T        1        1       0.00765151      -0.00053198       0.00133124
O        5.09779451       1.71610846      20.40293552  T        1        1      -0.01298010       0.02094739       0.01066534
O        8.25518007       0.06949053      21.51304331  T        1        1       0.03063366       0.00377987       0.00175921
O        5.74918397       3.62604310      18.60260419  T        1        1       0.00724630      -0.01253774      -0.00074145
O        7.62247839       2.35707416      20.03101630  T        1        1       0.00835670      -0.02910328      -0.01935070
O        3.96139827       3.49518941      22.17812522  T        1        1       0.01619747       0.00959690       0.00515997
F        2.93937352       0.97939421      24.56453609  T        0        0      -0.00420380       0.00171803      -0.02089690
H        3.07906743       0.93600330      23.01138223  T        0        0      -0.00533399       0.00148942      -0.00892940
F        4.39908548       1.03103726      26.30607731  T        0        0       0.00610505       0.00568085       0.01016389
H        3.69516942       1.00350219      25.44370901  T        0        0       0.01004892       0.01996522      -0.00544702
40
Lattice="9.8418 0.0 0.0 -2.460449999999999 4.261624409482844 0.0 0.0 -0.0 34.16586254" Properties=species:S:1:pos:R:3:move_mask:L:1:spacegroup_kinds:I:1:tags:I:1:forces:R:3 surface=alpha_quartz_001 coadsorbate=HF start=1 calculation_kind="Local coadsorbate relaxation; not a reaction path" host_atoms=36 energy=-283.06057675998903 pbc="T T F"
Si       2.31725181       0.00000000      12.00000000  F        0        2      -0.13306636      -0.36560270      -1.69635928
Si      -1.15862590       2.00679893      15.60606667  F        0        2      -0.12101187       0.06839605       1.26858463
Si       1.30182410       2.25482548      13.80303333  F        0        2       0.03662747      -0.15624305       1.02845459
O        1.38326499       1.13103512      12.65233746  F        1        2      -0.50351257       0.21244235      -0.22237103
O        0.28787265       1.76346018      14.95372921  F        1        2       0.45253569      -0.24566148      -0.39851528
O        3.24976236       0.63242506      16.25840413  F        1        2      -0.32270094      -0.60990490       0.23652706
O        0.78931236       3.62919935      13.15069587  F        1        2       0.42228519       0.28775850       0.53140595
O        2.74832265       2.49816423      14.45537079  F        1        2       0.00085254       0.38366861      -0.74303132
O       -1.07718501       3.13058929      16.75676254  F        1        2       0.00796116       0.46424548       0.19437459
Si       2.29111589       0.03272399      17.46423610  T        0        1      -0.01298003       0.00481032      -0.02514950
Si      -1.22956418       1.65978085      21.11754675  T        0        1       0.01034227       0.01833036       0.00731688
Si       1.25332265       2.27708950      19.31139489  T        0        1       0.01247735       0.01412653      -0.01471300
O        1.34134195       1.20189198      18.06284799  T        1        1       0.03345506       0.01301111      -0.00314034
O        0.24504866       1.72197443      20.45345465  T        1        1       0.01374488       0.00777082      -0.00644020
O        3.14041666       0.93642744      22.01062941  T        1        1       0.01978110      -0.02625013       0.00024584
O        0.71712949       3.67321928      18.65914440  T        1        1      -0.01257428      -0.02836435      -0.05448584
O        2.70568439       2.55961268      19.94989009  T        1        1       0.01854275      -0.01086286      -0.01597190
O       -1.36480777       2.10287089      22.67739511  T        1        1       0.00021931      -0.00183579       0.01150197
Si       7.23815181       0.00000000      12.00000000  F        0        2      -0.13247269      -0.36571176      -1.69104630
Si       3.76227409       2.00679893      15.60606667  F        0        2      -0.09921232       0.10894630       1.23953174
Si       6.22272410       2.25482548      13.80303333  F        0        2       0.02894192      -0.16810073       1.04292559
O        6.30416499       1.13103512      12.65233746  F        1        2      -0.50370926       0.20907973      -0.23066926
O        5.20877265       1.76346018      14.95372921  F        1        2       0.43481308      -0.24659689      -0.39225674
O        8.17066236       0.63242506      16.25840413  F        1        2      -0.18116904      -0.49135858       0.05491199
O        5.71021236       3.62919935      13.15069587  F        1        2       0.42240854       0.29188177       0.52333392
O        7.66922265       2.49816423      14.45537079  F        1        2       0.01476463       0.38738771      -0.74314752
O        3.84371499       3.13058929      16.75676254  F        1        2       0.04800722       0.22391368       0.08160457
Si       7.24857311      -0.00510105      17.46208840  T        0        1      -0.00115606       0.00416874       0.01975484
Si       3.73161688       2.18045765      21.17580256  T        0        1      -0.00793278       0.00594989       0.01926538
Si       6.17253543       2.21234241      19.30979570  T        0        1      -0.00708327      -0.00718346       0.01265441
O        6.28332766       1.12990556      18.08478040  T        1        1       0.00969972       0.01249193       0.00743103
O        5.09725862       1.71851425      20.40511154  T        1        1      -0.01021785       0.01450726       0.00809889
O        8.25828432       0.07312040      21.51874568  T        1        1       0.02354726       0.00477077       0.00296450
O        5.74942359       3.62487678      18.60268485  T        1        1       0.01135589      -0.01673227      -0.00642088
O        7.62147422       2.35750162      20.03164363  T        1        1       0.00626014      -0.03445651      -0.01963333
O        3.95858099       3.50083406      22.17512267  T        1        1       0.01647797       0.00714536       0.00734591
F        2.94559830       0.98655426      24.56755521  T        0        0      -0.00574124      -0.00024296      -0.01208170
H        3.08291758       0.94041966      23.01715954  T        0        0      -0.00590096       0.00296462      -0.02100827
F        4.40366179       1.04448884      26.31217524  T        0        0      -0.01634737       0.00137726      -0.02138506
H        3.70002435       1.01311624      25.44758134  T        0        0       0.03168775       0.02596327       0.01959248
40
Lattice="9.8418 0.0 0.0 -2.460449999999999 4.261624409482844 0.0 0.0 -0.0 34.16586254" Properties=species:S:1:pos:R:3:move_mask:L:1:spacegroup_kinds:I:1:tags:I:1:forces:R:3 surface=alpha_quartz_001 coadsorbate=HF start=1 calculation_kind="Local coadsorbate relaxation; not a reaction path" host_atoms=36 energy=-283.061285343861 pbc="T T F"
Si       2.31725181       0.00000000      12.00000000  F        0        2      -0.13302787      -0.36563669      -1.69649229
Si      -1.15862590       2.00679893      15.60606667  F        0        2      -0.12152053       0.07073711       1.26968460
Si       1.30182410       2.25482548      13.80303333  F        0        2       0.03759984      -0.15583067       1.02827491
O        1.38326499       1.13103512      12.65233746  F        1        2      -0.50365627       0.21246018      -0.22235668
O        0.28787265       1.76346018      14.95372921  F        1        2       0.45248834      -0.24612303      -0.39798710
O        3.24976236       0.63242506      16.25840413  F        1        2      -0.32126172      -0.60021709       0.22326137
O        0.78931236       3.62919935      13.15069587  F        1        2       0.42215158       0.28770944       0.53144718
O        2.74832265       2.49816423      14.45537079  F        1        2       0.00025338       0.38391870      -0.74358179
O       -1.07718501       3.13058929      16.75676254  F        1        2      -0.00020782       0.46443181       0.18898941
Si       2.29049393       0.03350905      17.46352182  T        0        1      -0.00776930      -0.00399946      -0.02104492
Si      -1.22998787       1.66282793      21.12013979  T        0        1       0.01313779       0.01277037       0.00371509
Si       1.25296210       2.27816297      19.31153346  T        0        1       0.01524621       0.00679605      -0.02099449
O        1.34214579       1.20247342      18.06380024  T        1        1       0.01967895      -0.00012503      -0.00928703
O        0.24415718       1.72706815      20.45485475  T        1        1       0.02123281       0.00468607      -0.00308752
O        3.14146910       0.93950214      22.01630119  T        1        1       0.02037980      -0.01284061      -0.01079967
O        0.71815055       3.67243612      18.65581705  T        1        1      -0.00897821      -0.01621006      -0.03355827
O        2.70667873       2.55713703      19.94809933  T        1        1       0.01141877      -0.00626624      -0.00127963
O       -1.36639917       2.10727873      22.67947362  T        1        1       0.00390239      -0.00219357       0.00493869
Si       7.23815181       0.00000000      12.00000000  F        0        2      -0.13255642      -0.36571694      -1.69114963
Si       3.76227409       2.00679893      15.60606667  F        0        2      -0.09959292       0.10895164       1.24001297
Si       6.22272410       2.25482548      13.80303333  F        0        2       0.02847892      -0.16851306       1.04295631
O        6.30416499       1.13103512      12.65233746  F        1        2      -0.50370910       0.20915876      -0.23071409
O        5.20877265       1.76346018      14.95372921  F        1        2       0.43542454      -0.24664700      -0.39249014
O        8.17066236       0.63242506      16.25840413  F        1        2      -0.18247654      -0.49329277       0.06173809
O        5.71021236       3.62919935      13.15069587  F        1        2       0.42256789       0.29185796       0.52342645
O        7.66922265       2.49816423      14.45537079  F        1        2       0.01487755       0.38696740      -0.74320546
O        3.84371499       3.13058929      16.75676254  F        1        2       0.04826360       0.21430800       0.07391638
Si       7.24938355      -0.00621706      17.46228633  T        0        1      -0.00636595       0.00940678       0.02503378
Si       3.73022120       2.18186650      21.17708514  T        0        1       0.00688182       0.00652705       0.01703354
Si       6.17155958       2.21022020      19.31034000  T        0        1      -0.00539799      -0.00140131       0.01433579
O        6.28263229       1.12703424      18.08608994  T        1        1       0.00946621       0.01973034       0.01126592
O        5.09638655       1.71965239      20.40714768  T        1        1      -0.00487775       0.00817723       0.00617695
O        8.26382795       0.07505270      21.52274450  T        1        1       0.01584594       0.00654453       0.00363105
O        5.74996836       3.62313948      18.60270452  T        1        1       0.01261577      -0.01821482      -0.01078647
O        7.62072578       2.35563602      20.03161069  T        1        1       0.00418432      -0.03400115      -0.01373766
O        3.95710872       3.50763219      22.16991653  T        1        1       0.01511679       0.00245180       0.00915187
F        2.95250422       0.99759488      24.57078611  T        0        0      -0.00275095      -0.00045493       0.00206155
H        3.08645710       0.94655715      23.02345413  T        0        0      -0.00643848       0.00348545      -0.02793694
F        4.41253120       1.06208022      26.31574116  T        0        0      -0.03379232      -0.00043437      -0.04830332
H        3.70810007       1.02739795      25.45034158  T        0        0       0.04316697       0.02704211       0.03774122
40
Lattice="9.8418 0.0 0.0 -2.460449999999999 4.261624409482844 0.0 0.0 -0.0 34.16586254" Properties=species:S:1:pos:R:3:move_mask:L:1:spacegroup_kinds:I:1:tags:I:1:forces:R:3 surface=alpha_quartz_001 coadsorbate=HF start=1 calculation_kind="Local coadsorbate relaxation; not a reaction path" host_atoms=36 energy=-283.06197099216797 pbc="T T F"
Si       2.31725181       0.00000000      12.00000000  F        0        2      -0.13298373      -0.36566335      -1.69643152
Si      -1.15862590       2.00679893      15.60606667  F        0        2      -0.12421301       0.07069037       1.27151406
Si       1.30182410       2.25482548      13.80303333  F        0        2       0.03881394      -0.15538008       1.02829116
O        1.38326499       1.13103512      12.65233746  F        1        2      -0.50379553       0.21241160      -0.22249683
O        0.28787265       1.76346018      14.95372921  F        1        2       0.45290646      -0.24624036      -0.39769039
O        3.24976236       0.63242506      16.25840413  F        1        2      -0.31743074      -0.58887852       0.20492092
O        0.78931236       3.62919935      13.15069587  F        1        2       0.42191611       0.28772640       0.53132460
O        2.74832265       2.49816423      14.45537079  F        1        2      -0.00073460       0.38402746      -0.74458145
O       -1.07718501       3.13058929      16.75676254  F        1        2      -0.01500958       0.45904438       0.17616375
Si       2.28952926       0.03432979      17.46225410  T        0        1       0.00170926      -0.01125762      -0.01125069
Si      -1.22977645       1.66400243      21.12186103  T        0        1       0.01714142       0.00297974      -0.00056309
Si       1.25323678       2.27958368      19.31106361  T        0        1       0.01459702      -0.00366943      -0.02031236
O        1.34312531       1.20319781      18.06439615  T        1        1       0.00179745      -0.01137593      -0.01499016
O        0.24429894       1.73346798      20.45665722  T        1        1       0.02600549      -0.00109408       0.00146958
O        3.14215039       0.94360655      22.02214677  T        1        1       0.02134474      -0.00041136      -0.02326647
O        0.71828055       3.67112385      18.65181929  T        1        1       0.00342109      -0.00088257      -0.00696468
O        2.70856539       2.55411606      19.94552376  T        1        1       0.00246657       0.00249307       0.01099617
O       -1.37011415       2.10480124      22.68176445  T        1        1       0.00809422       0.00129511      -0.00320374
Si       7.23815181       0.00000000      12.00000000  F        0        2      -0.13255966      -0.36565106      -1.69065631
Si       3.76227409       2.00679893      15.60606667  F        0        2      -0.09872655       0.11076335       1.24139001
Si       6.22272410       2.25482548      13.80303333  F        0        2       0.02808495      -0.16889881       1.04404320
O        6.30416499       1.13103512      12.65233746  F        1        2      -0.50355869       0.20898270      -0.23112876
O        5.20877265       1.76346018      14.95372921  F        1        2       0.43589841      -0.24682085      -0.39317403
O        8.17066236       0.63242506      16.25840413  F        1        2      -0.18526086      -0.49621161       0.07163383
O        5.71021236       3.62919935      13.15069587  F        1        2       0.42245976       0.29201412       0.52294370
O        7.66922265       2.49816423      14.45537079  F        1        2       0.01498975       0.38686445      -0.74395854
O        3.84371499       3.13058929      16.75676254  F        1        2       0.05046570       0.21022004       0.07073405
Si       7.24990969      -0.00692459      17.46281374  T        0        1      -0.00665459       0.00798740       0.01797205
Si       3.72967077       2.18300928      21.17784550  T        0        1       0.01559169       0.00875390       0.01075739
Si       6.17036402       2.20802807      19.31112867  T        0        1       0.00002311       0.00190069       0.01070114
O        6.28220967       1.12534587      18.08671906  T        1        1       0.00718379       0.01598571       0.00988150
O        5.09537516       1.71832861      20.40832028  T        1        1       0.00232848       0.00569636       0.00542819
O        8.27091775       0.07382027      21.52192646  T        1        1       0.01097219       0.00773450       0.00395413
O        5.75073469       3.62122256      18.60248138  T        1        1       0.00858956      -0.01508027      -0.01064275
O        7.62040188       2.35136461      20.03074402  T        1        1       0.00367998      -0.02486092      -0.00303742
O        3.95813115       3.51503817      22.16258163  T        1        1       0.01338496      -0.00236979       0.01016027
F        2.95825866       1.01186730      24.57531195  T        0        0       0.00437849       0.00139865       0.01361694
H        3.08909160       0.95484923      23.02953570  T        0        0      -0.00751204       0.00283304      -0.02730535
F        4.42779434       1.08519922      26.31339012  T        0        0      -0.03332521       0.00080067      -0.05265790
H        3.71986188       1.04686150      25.45115149  T        0        0       0.03352018       0.02214289       0.03641581
40
Lattice="9.8418 0.0 0.0 -2.460449999999999 4.261624409482844 0.0 0.0 -0.0 34.16586254" Properties=species:S:1:pos:R:3:move_mask:L:1:spacegroup_kinds:I:1:tags:I:1:forces:R:3 surface=alpha_quartz_001 coadsorbate=HF start=1 calculation_kind="Local coadsorbate relaxation; not a reaction path" host_atoms=36 energy=-283.06237462669145 pbc="T T F"
Si       2.31725181       0.00000000      12.00000000  F        0        2      -0.13296132      -0.36566991      -1.69625552
Si      -1.15862590       2.00679893      15.60606667  F        0        2      -0.12742494       0.06832460       1.27280262
Si       1.30182410       2.25482548      13.80303333  F        0        2       0.03964830      -0.15515571       1.02844565
O        1.38326499       1.13103512      12.65233746  F        1        2      -0.50387159       0.21234108      -0.22269404
O        0.28787265       1.76346018      14.95372921  F        1        2       0.45352323      -0.24598643      -0.39764569
O        3.24976236       0.63242506      16.25840413  F        1        2      -0.31305639      -0.58151865       0.19080541
O        0.78931236       3.62919935      13.15069587  F        1        2       0.42172794       0.28777523       0.53114009
O        2.74832265       2.49816423      14.45537079  F        1        2      -0.00155600       0.38396289      -0.74542305
O       -1.07718501       3.13058929      16.75676254  F        1        2      -0.02699935       0.45100684       0.16418299
Si       2.28907304       0.03448156      17.46123453  T        0        1       0.00944413      -0.01225848      -0.00175833
Si      -1.22891064       1.66325109      21.12193865  T        0        1       0.02000068      -0.00436461      -0.00249436
Si       1.25437812       2.28043089      19.31042238  T        0        1       0.01147875      -0.01036412      -0.01361526
O        1.34398184       1.20315286      18.06480968  T        1        1      -0.01005790      -0.01424505      -0.01599876
O        0.24555503       1.73831237      20.45817910  T        1        1       0.02557776      -0.00754143       0.00449251
O        3.14279940       0.94677454      22.02533772  T        1        1       0.02047277       0.00193463      -0.03101688
O        0.71840535       3.66984758      18.64901140  T        1        1       0.01581829       0.00884682       0.01009100
O        2.71057002       2.55224857      19.94391390  T        1        1      -0.00306029       0.00985227       0.01349005
O       -1.37375578       2.09812505      22.68298254  T        1        1       0.01072073       0.00608589      -0.00879088
Si       7.23815181       0.00000000      12.00000000  F        0        2      -0.13249488      -0.36556478      -1.68993151
Si       3.76227409       2.00679893      15.60606667  F        0        2      -0.09739720       0.11279865       1.24295162
Si       6.22272410       2.25482548      13.80303333  F        0        2       0.02792605      -0.16906370       1.04546361
O        6.30416499       1.13103512      12.65233746  F        1        2      -0.50335783       0.20868799      -0.23163732
O        5.20877265       1.76346018      14.95372921  F        1        2       0.43607487      -0.24698163      -0.39390099
O        8.17066236       0.63242506      16.25840413  F        1        2      -0.18820409      -0.49826090       0.07917982
O        5.71021236       3.62919935      13.15069587  F        1        2       0.42218744       0.29224259       0.52223076
O        7.66922265       2.49816423      14.45537079  F        1        2       0.01507660       0.38712751      -0.74482770
O        3.84371499       3.13058929      16.75676254  F        1        2       0.05269805       0.21228044       0.07249064
Si       7.24991439      -0.00694526      17.46334096  T        0        1      -0.00212016       0.00173369       0.00438767
Si       3.73057780       2.18361543      21.17802914  T        0        1       0.01458542       0.01147315       0.00230716
Si       6.16973499       2.20690197      19.31170907  T        0        1       0.00591994       0.00121859       0.00455173
O        6.28214850       1.12538942      18.08654028  T        1        1       0.00495851       0.00491862       0.00468334
O        5.09514272       1.71572390      20.40843128  T        1        1       0.00781395       0.00800353       0.00527144
O        8.27599367       0.07084404      21.51737286  T        1        1       0.01113570       0.00648467       0.00429805
O        5.75138058       3.62004072      18.60203166  T        1        1       0.00204846      -0.00921126      -0.00635160
O        7.62079300       2.34724939      20.02948632  T        1        1       0.00519398      -0.01234815       0.00517933
O        3.96107339       3.51941178      22.15734505  T        1        1       0.01264838      -0.00286578       0.01103834
F        2.95957096       1.02022423      24.57899719  T        0        0       0.00937571       0.00439587       0.01314042
H        3.08997857       0.96062852      23.03236360  T        0        0      -0.00899238       0.00140187      -0.01754407
F        4.44027392       1.10216733      26.30684444  T        0        0      -0.01373663       0.00355727      -0.03110078
H        3.72830614       1.06055295      25.44988694  T        0        0       0.00923530       0.01494584       0.01836247
40
Lattice="9.8418 0.0 0.0 -2.460449999999999 4.261624409482844 0.0 0.0 -0.0 34.16586254" Properties=species:S:1:pos:R:3:move_mask:L:1:spacegroup_kinds:I:1:tags:I:1:forces:R:3 surface=alpha_quartz_001 coadsorbate=HF start=1 calculation_kind="Local coadsorbate relaxation; not a reaction path" host_atoms=36 energy=-283.0625775447613 pbc="T T F"
Si       2.31725181       0.00000000      12.00000000  F        0        2      -0.13296296      -0.36566777      -1.69613722
Si      -1.15862590       2.00679893      15.60606667  F        0        2      -0.12924346       0.06594338       1.27308444
Si       1.30182410       2.25482548      13.80303333  F        0        2       0.03991900      -0.15516713       1.02857473
O        1.38326499       1.13103512      12.65233746  F        1        2      -0.50389463       0.21230373      -0.22281399
O        0.28787265       1.76346018      14.95372921  F        1        2       0.45391690      -0.24567016      -0.39771556
O        3.24976236       0.63242506      16.25840413  F        1        2      -0.31006300      -0.57903471       0.18465355
O        0.78931236       3.62919935      13.15069587  F        1        2       0.42166589       0.28780819       0.53103979
O        2.74832265       2.49816423      14.45537079  F        1        2      -0.00190663       0.38384578      -0.74577035
O       -1.07718501       3.13058929      16.75676254  F        1        2      -0.03150037       0.44505494       0.15861686
Si       2.28922176       0.03412389      17.46083007  T        0        1       0.01200026      -0.00930593       0.00310163
Si      -1.22802936       1.66215344      21.12124967  T        0        1       0.02025098      -0.00636229      -0.00321423
Si       1.25554259       2.28049461      19.30996692  T        0        1       0.00854170      -0.01117803      -0.00725102
O        1.34434668       1.20251294      18.06501148  T        1        1      -0.01284632      -0.01171951      -0.01292661
O        0.24689628       1.74052011      20.45904746  T        1        1       0.02261717      -0.01149432       0.00450506
O        3.14341085       0.94868968      22.02651096  T        1        1       0.01845818      -0.00066680      -0.02747267
O        0.71894608       3.66914752      18.64790981  T        1        1       0.02084223       0.01133083       0.01413203
O        2.71177711       2.55173187      19.94354794  T        1        1      -0.00373325       0.01248782       0.01010896
O       -1.37574615       2.09276924      22.68312278  T        1        1       0.01159682       0.00921243      -0.00984453
Si       7.23815181       0.00000000      12.00000000  F        0        2      -0.13243142      -0.36551800      -1.68948122
Si       3.76227409       2.00679893      15.60606667  F        0        2      -0.09660066       0.11379302       1.24382014
Si       6.22272410       2.25482548      13.80303333  F        0        2       0.02792709      -0.16904851       1.04630395
O        6.30416499       1.13103512      12.65233746  F        1        2      -0.50323780       0.20849596      -0.23192809
O        5.20877265       1.76346018      14.95372921  F        1        2       0.43605471      -0.24704501      -0.39427479
O        8.17066236       0.63242506      16.25840413  F        1        2      -0.18978100      -0.49910387       0.08221246
O        5.71021236       3.62919935      13.15069587  F        1        2       0.42198852       0.29238581       0.52178256
O        7.66922265       2.49816423      14.45537079  F        1        2       0.01513380       0.38742836      -0.74523941
O        3.84371499       3.13058929      16.75676254  F        1        2       0.05322676       0.21525524       0.07471672
Si       7.24968013      -0.00668256      17.46358633  T        0        1       0.00236516      -0.00320983      -0.00469544
Si       3.73186234       2.18407708      21.17798574  T        0        1       0.00944468       0.01170385      -0.00220886
Si       6.16961330       2.20670587      19.31196112  T        0        1       0.00941376      -0.00076813       0.00056077
O        6.28226396       1.12612578      18.08609898  T        1        1       0.00379160      -0.00349134       0.00081226
O        5.09538985       1.71374736      20.40816205  T        1        1       0.01038622       0.01129364       0.00489183
O        8.27816526       0.06858116      21.51300023  T        1        1       0.01307941       0.00346838       0.00526971
O        5.75151075       3.61963991      18.60173142  T        1        1      -0.00174398      -0.00493012      -0.00228146
O        7.62126573       2.34518129      20.02872640  T        1        1       0.00753938      -0.00439719       0.00765173
O        3.96366015       3.52113208      22.15511269  T        1        1       0.01298205      -0.00062533       0.01132141
F        2.95868538       1.02408087      24.58213361  T        0        0       0.01163028       0.00619475       0.00618050
H        3.08973791       0.96376654      23.03312215  T        0        0      -0.00933335       0.00039206      -0.01266040
F        4.44826361       1.11124594      26.30121318  T        0        0       0.00347812       0.00549150      -0.00938310
H        3.73268526       1.06762584      25.44892096  T        0        0      -0.00897182       0.01051431       0.00195786
40
Lattice="9.8418 0.0 0.0 -2.460449999999999 4.261624409482844 0.0 0.0 -0.0 34.16586254" Properties=species:S:1:pos:R:3:move_mask:L:1:spacegroup_kinds:I:1:tags:I:1:forces:R:3 surface=alpha_quartz_001 coadsorbate=HF start=1 calculation_kind="Local coadsorbate relaxation; not a reaction path" host_atoms=36 energy=-283.06277787443446 pbc="T T F"
Si       2.31725181       0.00000000      12.00000000  F        0        2      -0.13297670      -0.36567314      -1.69611330
Si      -1.15862590       2.00679893      15.60606667  F        0        2      -0.13039539       0.06355846       1.27282568
Si       1.30182410       2.25482548      13.80303333  F        0        2       0.04001539      -0.15526564       1.02863606
O        1.38326499       1.13103512      12.65233746  F        1        2      -0.50392255       0.21229942      -0.22287251
O        0.28787265       1.76346018      14.95372921  F        1        2       0.45418259      -0.24535781      -0.39777258
O        3.24976236       0.63242506      16.25840413  F        1        2      -0.30652589      -0.57723172       0.17932219
O        0.78931236       3.62919935      13.15069587  F        1        2       0.42167063       0.28782204       0.53102566
O        2.74832265       2.49816423      14.45537079  F        1        2      -0.00208098       0.38371303      -0.74588629
O       -1.07718501       3.13058929      16.75676254  F        1        2      -0.03270176       0.43991124       0.15603210
Si       2.28972729       0.03352549      17.46061751  T        0        1       0.01150524      -0.00491119       0.00687955
Si      -1.22678475       1.66147025      21.12056134  T        0        1       0.01888652      -0.00634443      -0.00425350
Si       1.25691633       2.28029855      19.30948961  T        0        1       0.00649957      -0.00891190      -0.00108341
O        1.34459050       1.20154988      18.06514485  T        1        1      -0.01204645      -0.00751649      -0.00712338
O        0.24858985       1.74210834      20.45983780  T        1        1       0.01882890      -0.01427383       0.00254091
O        3.14454161       0.95072212      22.02726683  T        1        1       0.01478457      -0.00491082      -0.02425796
O        0.72018875       3.66873540      18.64714899  T        1        1       0.02122284       0.01065489       0.01374396
O        2.71289227       2.55189969      19.94349552  T        1        1      -0.00222031       0.01235080       0.00579651
O       -1.37670335       2.08913410      22.68294555  T        1        1       0.01229998       0.01134842      -0.00876736
Si       7.23815181       0.00000000      12.00000000  F        0        2      -0.13238275      -0.36550204      -1.68923097
Si       3.76227409       2.00679893      15.60606667  F        0        2      -0.09618885       0.11421335       1.24431820
Si       6.22272410       2.25482548      13.80303333  F        0        2       0.02795703      -0.16899642       1.04678235
O        6.30416499       1.13103512      12.65233746  F        1        2      -0.50317717       0.20839195      -0.23209125
O        5.20877265       1.76346018      14.95372921  F        1        2       0.43602530      -0.24707931      -0.39441605
O        8.17066236       0.63242506      16.25840413  F        1        2      -0.19085158      -0.49926916       0.08354745
O        5.71021236       3.62919935      13.15069587  F        1        2       0.42187251       0.29246285       0.52152080
O        7.66922265       2.49816423      14.45537079  F        1        2       0.01520817       0.38770846      -0.74533210
O        3.84371499       3.13058929      16.75676254  F        1        2       0.05252682       0.21660623       0.07540922
Si       7.24951998      -0.00653161      17.46370437  T        0        1       0.00599186      -0.00635299      -0.00973410
Si       3.73327433       2.18521803      21.17807324  T        0        1       0.00492900       0.01129724      -0.00573754
Si       6.16987761       2.20666179      19.31219799  T        0        1       0.01198346      -0.00207320      -0.00226850
O        6.28245503       1.12657479      18.08595774  T        1        1       0.00342512      -0.00918353      -0.00152959
O        5.09601167       1.71281299      20.40826839  T        1        1       0.01223632       0.01361348       0.00397227
O        8.28002609       0.06719257      21.50949527  T        1        1       0.01437227      -0.00069526       0.00693437
O        5.75162956       3.61919796      18.60132045  T        1        1      -0.00287441      -0.00122875       0.00149049
O        7.62196472       2.34394673      20.02827923  T        1        1       0.01010406       0.00103116       0.00704104
O        3.96587295       3.52305710      22.15371648  T        1        1       0.01342235       0.00182458       0.01120006
F        2.95809510       1.02596539      24.58544932  T        0        0       0.00839820       0.00827852      -0.00514223
H        3.08953937       0.96628179      23.03328054  T        0        0      -0.00885935      -0.00029472      -0.00663539
F        4.45416729       1.11937836      26.29711462  T        0        0       0.02029134       0.00691234       0.01281615
H        3.73562146       1.07312651      25.44882393  T        0        0      -0.02143591       0.00707388      -0.01158702
40
Lattice="9.8418 0.0 0.0 -2.460449999999999 4.261624409482844 0.0 0.0 -0.0 34.16586254" Properties=species:S:1:pos:R:3:move_mask:L:1:spacegroup_kinds:I:1:tags:I:1:forces:R:3 surface=alpha_quartz_001 coadsorbate=HF start=1 calculation_kind="Local coadsorbate relaxation; not a reaction path" host_atoms=36 energy=-283.06308442906237 pbc="T T F"
Si       2.31725181       0.00000000      12.00000000  F        0        2      -0.13300445      -0.36569026      -1.69619286
Si      -1.15862590       2.00679893      15.60606667  F        0        2      -0.13108510       0.06080333       1.27197562
Si       1.30182410       2.25482548      13.80303333  F        0        2       0.04004838      -0.15545265       1.02862311
O        1.38326499       1.13103512      12.65233746  F        1        2      -0.50397705       0.21232533      -0.22288130
O        0.28787265       1.76346018      14.95372921  F        1        2       0.45434465      -0.24498946      -0.39782860
O        3.24976236       0.63242506      16.25840413  F        1        2      -0.30122501      -0.57459077       0.17215207
O        0.78931236       3.62919935      13.15069587  F        1        2       0.42172981       0.28782326       0.53110948
O        2.74832265       2.49816423      14.45537079  F        1        2      -0.00218132       0.38353789      -0.74585522
O       -1.07718501       3.13058929      16.75676254  F        1        2      -0.03166232       0.43389109       0.15525380
Si       2.29064859       0.03261865      17.46045283  T        0        1       0.00771628       0.00139425       0.01028638
Si      -1.22487641       1.66124178      21.11987023  T        0        1       0.01517892      -0.00612893      -0.00513400
Si       1.25872176       2.27981209      19.30870618  T        0        1       0.00497169      -0.00267759       0.00622441
O        1.34458646       1.20007104      18.06505613  T        1        1      -0.00780015      -0.00180617       0.00394946
O        0.25107183       1.74407814      20.46096561  T        1        1       0.01212831      -0.01648429      -0.00195475
O        3.14663052       0.95453551      22.02942350  T        1        1       0.00851380      -0.00726653      -0.01102293
O        0.72258001       3.66850627      18.64621256  T        1        1       0.01649158       0.00769626       0.01067356
O        2.71415267       2.55237791      19.94349315  T        1        1       0.00148967       0.00952410       0.00078456
O       -1.37749600       2.08610635      22.68263946  T        1        1       0.01431325       0.01324957      -0.00654527
Si       7.23815181       0.00000000      12.00000000  F        0        2      -0.13234147      -0.36551204      -1.68912323
Si       3.76227409       2.00679893      15.60606667  F        0        2      -0.09604964       0.11428693       1.24449115
Si       6.22272410       2.25482548      13.80303333  F        0        2       0.02795230      -0.16893287       1.04698352
O        6.30416499       1.13103512      12.65233746  F        1        2      -0.50315535       0.20835508      -0.23217100
O        5.20877265       1.76346018      14.95372921  F        1        2       0.43601485      -0.24709472      -0.39436619
O        8.17066236       0.63242506      16.25840413  F        1        2      -0.19154941      -0.49952218       0.08458920
O        5.71021236       3.62919935      13.15069587  F        1        2       0.42182701       0.29249270       0.52139255
O        7.66922265       2.49816423      14.45537079  F        1        2       0.01535798       0.38797111      -0.74505976
O        3.84371499       3.13058929      16.75676254  F        1        2       0.05006017       0.21533768       0.07344074
Si       7.24945883      -0.00656446      17.46372855  T        0        1       0.00895565      -0.00809108      -0.01142999
Si       3.73494260       2.18780450      21.17843684  T        0        1       0.00110216       0.00768349      -0.00635714
Si       6.17026446       2.20639044      19.31257096  T        0        1       0.01485159      -0.00208330      -0.00441064
O        6.28272298       1.12666105      18.08605419  T        1        1       0.00305797      -0.01276535      -0.00196150
O        5.09674409       1.71255007      20.40887436  T        1        1       0.01436203       0.01413340       0.00244587
O        8.28302812       0.06618625      21.50573667  T        1        1       0.01457250      -0.00645956       0.01015170
O        5.75150809       3.61832271      18.60086806  T        1        1      -0.00071574       0.00327740       0.00496171
O        7.62274286       2.34281444      20.02815201  T        1        1       0.01413235       0.00568456       0.00317997
O        3.96845032       3.52725316      22.15149944  T        1        1       0.01373830       0.00443961       0.00952511
F        2.95931015       1.03337746      24.59265359  T        0        0       0.00653799       0.01016448      -0.01672539
H        3.08932344       0.97188015      23.03473568  T        0        0      -0.00570976      -0.00028997      -0.00820254
F        4.46662859       1.13522581      26.29303782  T        0        0       0.02837743       0.00792894       0.02835850
H        3.74211688       1.08522633      25.45077780  T        0        0      -0.02736983       0.00383727      -0.02333015
40
Lattice="9.8418 0.0 0.0 -2.460449999999999 4.261624409482844 0.0 0.0 -0.0 34.16586254" Properties=species:S:1:pos:R:3:move_mask:L:1:spacegroup_kinds:I:1:tags:I:1:forces:R:3 surface=alpha_quartz_001 coadsorbate=HF start=1 calculation_kind="Local coadsorbate relaxation; not a reaction path" host_atoms=36 energy=-283.0634668921621 pbc="T T F"
Si       2.31725181       0.00000000      12.00000000  F        0        2      -0.13304026      -0.36572210      -1.69644912
Si      -1.15862590       2.00679893      15.60606667  F        0        2      -0.13131161       0.05767237       1.27074544
Si       1.30182410       2.25482548      13.80303333  F        0        2       0.04013894      -0.15565095       1.02848589
O        1.38326499       1.13103512      12.65233746  F        1        2      -0.50407483       0.21239029      -0.22280936
O        0.28787265       1.76346018      14.95372921  F        1        2       0.45439871      -0.24466275      -0.39779150
O        3.24976236       0.63242506      16.25840413  F        1        2      -0.29286638      -0.56911566       0.15914897
O        0.78931236       3.62919935      13.15069587  F        1        2       0.42182690       0.28779711       0.53131775
O        2.74832265       2.49816423      14.45537079  F        1        2      -0.00224668       0.38339756      -0.74565844
O       -1.07718501       3.13058929      16.75676254  F        1        2      -0.02778326       0.42870571       0.15758732
Si       2.29207665       0.03147573      17.46027903  T        0        1       0.00062227       0.00735905       0.01389169
Si      -1.22136540       1.66268903      21.12003853  T        0        1       0.00952318      -0.00538399      -0.00660021
Si       1.26147182       2.27939399      19.30764589  T        0        1       0.00531790       0.00593799       0.01422760
O        1.34483944       1.19822066      18.06499789  T        1        1      -0.00100638       0.00356444       0.01870201
O        0.25499545       1.74645218      20.46235892  T        1        1       0.00428144      -0.01730371      -0.00833059
O        3.15074098       0.95777650      22.03052136  T        1        1      -0.00273129      -0.01070164      -0.00658869
O        0.72689011       3.66853435      18.64448295  T        1        1       0.00505413       0.00254211       0.00777524
O        2.71619083       2.55362730      19.94335816  T        1        1       0.00747432       0.00461254      -0.00286824
O       -1.37608036       2.08842944      22.68224786  T        1        1       0.01739063       0.01342107      -0.00337081
Si       7.23815181       0.00000000      12.00000000  F        0        2      -0.13234780      -0.36555815      -1.68929073
Si       3.76227409       2.00679893      15.60606667  F        0        2      -0.09648771       0.11351086       1.24448254
Si       6.22272410       2.25482548      13.80303333  F        0        2       0.02783943      -0.16898136       1.04680023
O        6.30416499       1.13103512      12.65233746  F        1        2      -0.50320305       0.20845618      -0.23211786
O        5.20877265       1.76346018      14.95372921  F        1        2       0.43623904      -0.24708852      -0.39409560
O        8.17066236       0.63242506      16.25840413  F        1        2      -0.19188255      -0.49905062       0.08508318
O        5.71021236       3.62919935      13.15069587  F        1        2       0.42193862       0.29242239       0.52151059
O        7.66922265       2.49816423      14.45537079  F        1        2       0.01560212       0.38815394      -0.74431935
O        3.84371499       3.13058929      16.75676254  F        1        2       0.04693530       0.20884055       0.06757211
Si       7.25005665      -0.00735684      17.46375903  T        0        1       0.00959836      -0.00685771      -0.00758799
Si       3.73679283       2.19173074      21.17935537  T        0        1       0.00357258       0.00474715      -0.00955865
Si       6.17180761       2.20554311      19.31315880  T        0        1       0.01689020       0.00100059      -0.00541656
O        6.28320905       1.12497103      18.08741854  T        1        1       0.00385475      -0.01209059      -0.00004957
O        5.09868365       1.71509251      20.41105758  T        1        1       0.01815205       0.00966754      -0.00111375
O        8.28827476       0.06757565      21.50605691  T        1        1       0.01020977      -0.01397515       0.01377717
O        5.75235609       3.61633930      18.59976888  T        1        1       0.00585528       0.00931332       0.00763532
O        7.62471051       2.34163913      20.02815986  T        1        1       0.01787327       0.00871893      -0.00379630
O        3.97043069       3.53250963      22.15032193  T        1        1       0.01308680       0.00676552       0.00819951
F        2.96255459       1.03577150      24.59811629  T        0        0      -0.01178369       0.01447154      -0.03572335
H        3.08989609       0.97544960      23.03475387  T        0        0      -0.00081886      -0.00017591      -0.00271772
F        4.47198524       1.14953419      26.29328377  T        0        0       0.04168018       0.00917735       0.04962152
H        3.74523862       1.09423322      25.45402291  T        0        0      -0.02377182      -0.00032729      -0.03030967
40
Lattice="9.8418 0.0 0.0 -2.460449999999999 4.261624409482844 0.0 0.0 -0.0 34.16586254" Properties=species:S:1:pos:R:3:move_mask:L:1:spacegroup_kinds:I:1:tags:I:1:forces:R:3 surface=alpha_quartz_001 coadsorbate=HF start=1 calculation_kind="Local coadsorbate relaxation; not a reaction path" host_atoms=36 energy=-283.06379915267246 pbc="T T F"
Si       2.31725181       0.00000000      12.00000000  F        0        2      -0.13307374      -0.36574949      -1.69673931
Si      -1.15862590       2.00679893      15.60606667  F        0        2      -0.13031161       0.05650656       1.26948497
Si       1.30182410       2.25482548      13.80303333  F        0        2       0.04014927      -0.15581199       1.02825896
O        1.38326499       1.13103512      12.65233746  F        1        2      -0.50415705       0.21246089      -0.22268107
O        0.28787265       1.76346018      14.95372921  F        1        2       0.45417989      -0.24453734      -0.39773186
O        3.24976236       0.63242506      16.25840413  F        1        2      -0.28755633      -0.56496752       0.15113251
O        0.78931236       3.62919935      13.15069587  F        1        2       0.42192873       0.28776466       0.53157376
O        2.74832265       2.49816423      14.45537079  F        1        2      -0.00216981       0.38333346      -0.74532912
O       -1.07718501       3.13058929      16.75676254  F        1        2      -0.02254043       0.42679565       0.16223460
Si       2.29316385       0.03073736      17.46029777  T        0        1      -0.00727291       0.01044253       0.01231673
Si      -1.21860150       1.66458853      21.12061131  T        0        1       0.00274504      -0.00793733      -0.00431784
Si       1.26320465       2.27895178      19.30667586  T        0        1       0.00605909       0.01473670       0.01766144
O        1.34437301       1.19686582      18.06456522  T        1        1       0.00745627       0.00586075       0.03181003
O        0.25802215       1.74823993      20.46355731  T        1        1      -0.00472194      -0.01580982      -0.01313898
O        3.15426991       0.96222128      22.03430168  T        1        1      -0.00966411      -0.00105227       0.01085380
O        0.73049348       3.66892718      18.64328718  T        1        1      -0.00823950      -0.00178580       0.00444510
O        2.71734992       2.55431456      19.94304581  T        1        1       0.01388710      -0.00125570      -0.00233024
O       -1.37510653       2.09212758      22.68214093  T        1        1       0.02217705       0.01216038      -0.00330374
Si       7.23815181       0.00000000      12.00000000  F        0        2      -0.13238704      -0.36561633      -1.68966032
Si       3.76227409       2.00679893      15.60606667  F        0        2      -0.09721330       0.11246930       1.24370317
Si       6.22272410       2.25482548      13.80303333  F        0        2       0.02763819      -0.16907129       1.04612096
O        6.30416499       1.13103512      12.65233746  F        1        2      -0.50328969       0.20864078      -0.23192426
O        5.20877265       1.76346018      14.95372921  F        1        2       0.43645349      -0.24703447      -0.39364033
O        8.17066236       0.63242506      16.25840413  F        1        2      -0.19081501      -0.49999829       0.08577599
O        5.71021236       3.62919935      13.15069587  F        1        2       0.42215404       0.29229033       0.52185777
O        7.66922265       2.49816423      14.45537079  F        1        2       0.01586293       0.38803519      -0.74328399
O        3.84371499       3.13058929      16.75676254  F        1        2       0.04374678       0.20031727       0.06004833
Si       7.25080703      -0.00833422      17.46367939  T        0        1       0.00669951      -0.00279343       0.00066682
Si       3.73764406       2.19591644      21.18031924  T        0        1       0.00889490      -0.00453286      -0.00136244
Si       6.17275783       2.20434940      19.31369304  T        0        1       0.01750155       0.00584416      -0.00359022
O        6.28366242       1.12303305      18.08866314  T        1        1       0.00329598      -0.00599425       0.00489549
O        5.09963586       1.71776913      20.41309824  T        1        1       0.01895867       0.00214840      -0.00220190
O        8.29360216       0.06923724      21.50754881  T        1        1       0.00508417      -0.01572883       0.01668438
O        5.75243665       3.61444025      18.59946249  T        1        1       0.01537944       0.01300789       0.00548838
O        7.62576380       2.34093585      20.02873872  T        1        1       0.02170715       0.00769640      -0.01112735
O        3.97170343       3.53937595      22.14783586  T        1        1       0.01148769       0.00515135       0.00334039
F        2.96877798       1.05150203      24.60760224  T        0        0      -0.00479462       0.01508689      -0.02749472
H        3.09014665       0.98373114      23.03809422  T        0        0       0.00753366       0.00190717      -0.01774830
F        4.48893811       1.17139387      26.29498429  T        0        0       0.01105319       0.00761724       0.02389591
H        3.75516282       1.11313261      25.45989844  T        0        0      -0.00382670      -0.00059691      -0.02464352
40
Lattice="9.8418 0.0 0.0 -2.460449999999999 4.261624409482844 0.0 0.0 -0.0 34.16586254" Properties=species:S:1:pos:R:3:move_mask:L:1:spacegroup_kinds:I:1:tags:I:1:forces:R:3 surface=alpha_quartz_001 coadsorbate=HF start=1 calculation_kind="Local coadsorbate relaxation; not a reaction path" host_atoms=36 energy=-283.06407457079575 pbc="T T F"
Si       2.31725181       0.00000000      12.00000000  F        0        2      -0.13307756      -0.36575287      -1.69692076
Si      -1.15862590       2.00679893      15.60606667  F        0        2      -0.12955343       0.05599444       1.26932948
Si       1.30182410       2.25482548      13.80303333  F        0        2       0.04024973      -0.15578299       1.02817075
O        1.38326499       1.13103512      12.65233746  F        1        2      -0.50418488       0.21247797      -0.22260047
O        0.28787265       1.76346018      14.95372921  F        1        2       0.45405332      -0.24460315      -0.39768138
O        3.24976236       0.63242506      16.25840413  F        1        2      -0.28477423      -0.56135104       0.14439574
O        0.78931236       3.62919935      13.15069587  F        1        2       0.42192997       0.28775232       0.53167969
O        2.74832265       2.49816423      14.45537079  F        1        2      -0.00215103       0.38345370      -0.74514366
O       -1.07718501       3.13058929      16.75676254  F        1        2      -0.01806881       0.42976674       0.16782607
Si       2.29367703       0.03061665      17.46034676  T        0        1      -0.01065859       0.00828760       0.00983722
Si      -1.21565264       1.66687306      21.12202196  T        0        1      -0.00077457      -0.00908185      -0.00266057
Si       1.26474611       2.27936080      19.30617727  T        0        1       0.00797681       0.01644926       0.01810275
O        1.34450525       1.19660260      18.06451561  T        1        1       0.01257292       0.00436754       0.03495405
O        0.26063835       1.74863829      20.46384299  T        1        1      -0.00794592      -0.01344729      -0.01287471
O        3.15727473       0.96082227      22.03246877  T        1        1      -0.01538574       0.00236305       0.00547467
O        0.73304341       3.66953239      18.64225049  T        1        1      -0.01731389      -0.00436895       0.00530285
O        2.71880412       2.55528556      19.94256360  T        1        1       0.01768398      -0.00277060      -0.00065673
O       -1.37144687       2.10071369      22.68195718  T        1        1       0.02423947       0.00887762      -0.00402642
Si       7.23815181       0.00000000      12.00000000  F        0        2      -0.13246434      -0.36564821      -1.69000338
Si       3.76227409       2.00679893      15.60606667  F        0        2      -0.09800726       0.11111116       1.24339958
Si       6.22272410       2.25482548      13.80303333  F        0        2       0.02742847      -0.16930982       1.04564679
O        6.30416499       1.13103512      12.65233746  F        1        2      -0.50336219       0.20882003      -0.23176877
O        5.20877265       1.76346018      14.95372921  F        1        2       0.43688045      -0.24697012      -0.39339949
O        8.17066236       0.63242506      16.25840413  F        1        2      -0.18987034      -0.49970460       0.08565104
O        5.71021236       3.62919935      13.15069587  F        1        2       0.42237636       0.29215346       0.52217466
O        7.66922265       2.49816423      14.45537079  F        1        2       0.01600578       0.38786413      -0.74260499
O        3.84371499       3.13058929      16.75676254  F        1        2       0.04468219       0.19280365       0.05544562
Si       7.25209701      -0.00972071      17.46381851  T        0        1       0.00270121       0.00122003       0.00707078
Si       3.73806046       2.19759263      21.18094110  T        0        1       0.01806203      -0.00567561      -0.00151693
Si       6.17491389       2.20319605      19.31402480  T        0        1       0.01562659       0.01019285      -0.00124741
O        6.28424599       1.11998462      18.09074936  T        1        1       0.00415479       0.00064334       0.00771899
O        5.10180321       1.72189774      20.41545400  T        1        1       0.02027952      -0.00570403      -0.00415141
O        8.29817939       0.07254416      21.51474474  T        1        1      -0.00267451      -0.01447859       0.01573056
O        5.75435635       3.61253434      18.59853475  T        1        1       0.02158071       0.01529337       0.00278744
O        7.62807938       2.34009553      20.02873791  T        1        1       0.02114121       0.00549465      -0.01423958
O        3.97115633       3.54071340      22.14923197  T        1        1       0.00997299       0.00293923       0.00255303
F        2.97272305       1.04824045      24.60485805  T        0        0      -0.02066092       0.01737272      -0.03082095
H        3.09090256       0.98132906      23.03596154  T        0        0       0.01195964       0.00252584      -0.01513172
F        4.48022325       1.16825216      26.30230689  T        0        0       0.00962432       0.00812337       0.02139182
H        3.75170928       1.11010392      25.46211051  T        0        0       0.00974573      -0.00169838      -0.01719425
40
Lattice="9.8418 0.0 0.0 -2.460449999999999 4.261624409482844 0.0 0.0 -0.0 34.16586254" Properties=species:S:1:pos:R:3:move_mask:L:1:spacegroup_kinds:I:1:tags:I:1:forces:R:3 surface=alpha_quartz_001 coadsorbate=HF start=1 calculation_kind="Local coadsorbate relaxation; not a reaction path" host_atoms=36 energy=-283.06435846202703 pbc="T T F"
Si       2.31725181       0.00000000      12.00000000  F        0        2      -0.13307398      -0.36573623      -1.69695130
Si      -1.15862590       2.00679893      15.60606667  F        0        2      -0.12892345       0.05636118       1.26975804
Si       1.30182410       2.25482548      13.80303333  F        0        2       0.04028079      -0.15570160       1.02816471
O        1.38326499       1.13103512      12.65233746  F        1        2      -0.50415864       0.21246283      -0.22257403
O        0.28787265       1.76346018      14.95372921  F        1        2       0.45401882      -0.24473282      -0.39763044
O        3.24976236       0.63242506      16.25840413  F        1        2      -0.28660730      -0.56105587       0.14517387
O        0.78931236       3.62919935      13.15069587  F        1        2       0.42189178       0.28775293       0.53167173
O        2.74832265       2.49816423      14.45537079  F        1        2      -0.00211691       0.38360725      -0.74500952
O       -1.07718501       3.13058929      16.75676254  F        1        2      -0.01471075       0.43492451       0.17270239
Si       2.29365957       0.03085163      17.46056992  T        0        1      -0.01041079       0.00424413       0.00496196
Si      -1.21369939       1.66808808      21.12307862  T        0        1      -0.00277376      -0.01145220       0.00060531
Si       1.26566754       2.27999161      19.30618896  T        0        1       0.00788984       0.01405023       0.01615200
O        1.34453611       1.19680290      18.06485587  T        1        1       0.01574482       0.00216113       0.03105628
O        0.26225636       1.74836480      20.46386678  T        1        1      -0.00861069      -0.01131210      -0.00869578
O        3.15867741       0.95943911      22.03132761  T        1        1      -0.01446271       0.00965123      -0.00207487
O        0.73379852       3.67002956      18.64211814  T        1        1      -0.01969923      -0.00497371       0.00596599
O        2.71999919       2.55574968      19.94207436  T        1        1       0.01911739      -0.00218320       0.00191041
O       -1.36883141       2.10676320      22.68185076  T        1        1       0.02520424       0.00593783      -0.00651069
Si       7.23815181       0.00000000      12.00000000  F        0        2      -0.13252212      -0.36564672      -1.69017895
Si       3.76227409       2.00679893      15.60606667  F        0        2      -0.09840899       0.11012177       1.24306536
Si       6.22272410       2.25482548      13.80303333  F        0        2       0.02728771      -0.16950695       1.04538270
O        6.30416499       1.13103512      12.65233746  F        1        2      -0.50338582       0.20891216      -0.23168397
O        5.20877265       1.76346018      14.95372921  F        1        2       0.43717371      -0.24689974      -0.39330086
O        8.17066236       0.63242506      16.25840413  F        1        2      -0.18874126      -0.50035304       0.08583470
O        5.71021236       3.62919935      13.15069587  F        1        2       0.42250590       0.29207202       0.52235299
O        7.66922265       2.49816423      14.45537079  F        1        2       0.01605758       0.38765297      -0.74225381
O        3.84371499       3.13058929      16.75676254  F        1        2       0.04809413       0.18975261       0.05519124
Si       7.25316171      -0.01074344      17.46403144  T        0        1      -0.00082139       0.00379835       0.00986194
Si       3.73844613       2.19799984      21.18117367  T        0        1       0.02379063      -0.00769072       0.00212176
Si       6.17670356       2.20246339      19.31417971  T        0        1       0.01351983       0.01258387       0.00046366
O        6.28487691       1.11790597      18.09219129  T        1        1       0.00376453       0.00555350       0.00838543
O        5.10357705       1.72439262      20.41680797  T        1        1       0.01719782      -0.01085910      -0.00201540
O        8.30134412       0.07445779      21.52054711  T        1        1      -0.00713974      -0.00852853       0.01267820
O        5.75598552       3.61153341      18.59822687  T        1        1       0.02429559       0.01491366      -0.00162344
O        7.63006557       2.33932228      20.02845589  T        1        1       0.01951401       0.00329864      -0.01361225
O        3.97102137       3.54086049      22.15028350  T        1        1       0.00836147      -0.00079928       0.00050909
F        2.97539212       1.04876644      24.60159128  T        0        0      -0.01232429       0.01790702      -0.01059282
H        3.09126079       0.97993034      23.03494595  T        0        0       0.01523364       0.00403143      -0.01461348
F        4.47582691       1.16582600      26.30775082  T        0        0      -0.01316967       0.00673405      -0.00647501
H        3.75042553       1.10907179      25.46308612  T        0        0       0.02111725      -0.00105348      -0.00817315
40
Lattice="9.8418 0.0 0.0 -2.460449999999999 4.261624409482844 0.0 0.0 -0.0 34.16586254" Properties=species:S:1:pos:R:3:move_mask:L:1:spacegroup_kinds:I:1:tags:I:1:forces:R:3 surface=alpha_quartz_001 coadsorbate=HF start=1 calculation_kind="Local coadsorbate relaxation; not a reaction path" host_atoms=36 energy=-283.06476142898913 pbc="T T F"
Si       2.31725181       0.00000000      12.00000000  F        0        2      -0.13305145      -0.36568320      -1.69671046
Si      -1.15862590       2.00679893      15.60606667  F        0        2      -0.12875546       0.05598732       1.27121618
Si       1.30182410       2.25482548      13.80303333  F        0        2       0.04030952      -0.15556441       1.02859759
O        1.38326499       1.13103512      12.65233746  F        1        2      -0.50404187       0.21233697      -0.22271879
O        0.28787265       1.76346018      14.95372921  F        1        2       0.45427872      -0.24478118      -0.39783981
O        3.24976236       0.63242506      16.25840413  F        1        2      -0.29240305      -0.56254883       0.15027726
O        0.78931236       3.62919935      13.15069587  F        1        2       0.42173002       0.28783737       0.53138775
O        2.74832265       2.49816423      14.45537079  F        1        2      -0.00222596       0.38388314      -0.74513718
O       -1.07718501       3.13058929      16.75676254  F        1        2      -0.01071036       0.44353167       0.17938010
Si       2.29317895       0.03147469      17.46093391  T        0        1      -0.00574660      -0.00175229      -0.00238218
Si      -1.21049534       1.66798210      21.12403677  T        0        1      -0.00485298      -0.01377612       0.00290099
Si       1.26720993       2.28145044      19.30621682  T        0        1       0.00588568       0.00693157       0.01379508
O        1.34437271       1.19746152      18.06548012  T        1        1       0.01973473       0.00003106       0.02040772
O        0.26498255       1.74792044      20.46381345  T        1        1      -0.00713218      -0.00911515      -0.00048492
O        3.15942339       0.95825211      22.02885373  T        1        1      -0.01041842       0.01668406      -0.00511149
O        0.73380944       3.67106955      18.64254109  T        1        1      -0.01835966      -0.00634752       0.00603831
O        2.72240204       2.55623077      19.94068772  T        1        1       0.01970771       0.00207862       0.00272842
O       -1.36521203       2.11153149      22.68155088  T        1        1       0.02490648       0.00308156      -0.00715586
Si       7.23815181       0.00000000      12.00000000  F        0        2      -0.13255942      -0.36559220      -1.69003028
Si       3.76227409       2.00679893      15.60606667  F        0        2      -0.09849414       0.10911386       1.24314271
Si       6.22272410       2.25482548      13.80303333  F        0        2       0.02718390      -0.16979056       1.04572834
O        6.30416499       1.13103512      12.65233746  F        1        2      -0.50332221       0.20886920      -0.23181420
O        5.20877265       1.76346018      14.95372921  F        1        2       0.43762438      -0.24679525      -0.39350766
O        8.17066236       0.63242506      16.25840413  F        1        2      -0.18783327      -0.50136837       0.08663287
O        5.71021236       3.62919935      13.15069587  F        1        2       0.42251443       0.29207400       0.52222767
O        7.66922265       2.49816423      14.45537079  F        1        2       0.01600209       0.38752952      -0.74227454
O        3.84371499       3.13058929      16.75676254  F        1        2       0.05577111       0.18957687       0.05928377
Si       7.25464168      -0.01203496      17.46453787  T        0        1      -0.00273479       0.00409721       0.00760790
Si       3.73989782       2.19815333      21.18068425  T        0        1       0.02524135      -0.00535050       0.00556672
Si       6.17968982       2.20164013      19.31443673  T        0        1       0.01086009       0.01281977       0.00116331
O        6.28601297       1.11540095      18.09410252  T        1        1       0.00324199       0.00817883       0.00565719
O        5.10657245       1.72626739      20.41809533  T        1        1       0.01280083      -0.01289851       0.00138917
O        8.30666209       0.07482472      21.52644935  T        1        1      -0.01185512       0.00144722       0.00761037
O        5.75911797       3.61038698      18.59756914  T        1        1       0.02318903       0.01304959      -0.00569600
O        7.63359680       2.33707779      20.02766998  T        1        1       0.01588091       0.00283796      -0.01008541
O        3.97198418       3.54120605      22.15031547  T        1        1       0.00675120      -0.00829575      -0.00308800
F        2.97910521       1.05111903      24.59666738  T        0        0      -0.00074915       0.01720902       0.01244538
H        3.09164688       0.97886413      23.03275598  T        0        0       0.01851713       0.00511731      -0.01592029
F        4.47111209       1.16349883      26.31291504  T        0        0      -0.03296979       0.00546422      -0.03497362
H        3.75006093       1.10890878      25.46289229  T        0        0       0.02608456      -0.00010808      -0.00025407
40
Lattice="9.8418 0.0 0.0 -2.460449999999999 4.261624409482844 0.0 0.0 -0.0 34.16586254" Properties=species:S:1:pos:R:3:move_mask:L:1:spacegroup_kinds:I:1:tags:I:1:forces:R:3 surface=alpha_quartz_001 coadsorbate=HF start=1 calculation_kind="Local coadsorbate relaxation; not a reaction path" host_atoms=36 energy=-283.0653100376671 pbc="T T F"
Si       2.31725181       0.00000000      12.00000000  F        0        2      -0.13303085      -0.36560986      -1.69629531
Si      -1.15862590       2.00679893      15.60606667  F        0        2      -0.12940277       0.05406753       1.27316299
Si       1.30182410       2.25482548      13.80303333  F        0        2       0.04037543      -0.15545206       1.02932696
O        1.38326499       1.13103512      12.65233746  F        1        2      -0.50388350       0.21215908      -0.22299416
O        0.28787265       1.76346018      14.95372921  F        1        2       0.45492326      -0.24465965      -0.39806886
O        3.24976236       0.63242506      16.25840413  F        1        2      -0.30022657      -0.56482502       0.15700271
O        0.78931236       3.62919935      13.15069587  F        1        2       0.42151540       0.28795343       0.53092633
O        2.74832265       2.49816423      14.45537079  F        1        2      -0.00248186       0.38420588      -0.74536683
O       -1.07718501       3.13058929      16.75676254  F        1        2      -0.00494343       0.45362860       0.18794847
Si       2.29287102       0.03188978      17.46148349  T        0        1       0.00192803      -0.00722158      -0.00941695
Si      -1.20544049       1.66673137      21.12465187  T        0        1      -0.00764356      -0.01286906       0.00368236
Si       1.27045544       2.28344811      19.30649097  T        0        1       0.00292705      -0.00243466       0.01160413
O        1.34464688       1.19752729      18.06729533  T        1        1       0.02428007       0.00063191       0.00569676
O        0.26976609       1.74836681      20.46447743  T        1        1      -0.00292924      -0.00762838       0.00938773
O        3.16068260       0.96019059      22.02711921  T        1        1      -0.00502871       0.01964800      -0.01401591
O        0.73448357       3.67214760      18.64298109  T        1        1      -0.01417326      -0.01013623       0.00472777
O        2.72702765       2.55718010      19.93862878  T        1        1       0.01726150       0.00766368       0.00060904
O       -1.36065185       2.11395884      22.68108718  T        1        1       0.02276352       0.00086214      -0.00555362
Si       7.23815181       0.00000000      12.00000000  F        0        2      -0.13256213      -0.36550215      -1.68957694
Si       3.76227409       2.00679893      15.60606667  F        0        2      -0.09823848       0.10768163       1.24361948
Si       6.22272410       2.25482548      13.80303333  F        0        2       0.02710147      -0.17010546       1.04668491
O        6.30416499       1.13103512      12.65233746  F        1        2      -0.50317575       0.20869662      -0.23214317
O        5.20877265       1.76346018      14.95372921  F        1        2       0.43818471      -0.24664596      -0.39396836
O        8.17066236       0.63242506      16.25840413  F        1        2      -0.18727160      -0.50291354       0.08788364
O        5.71021236       3.62919935      13.15069587  F        1        2       0.42240042       0.29216281       0.52179498
O        7.66922265       2.49816423      14.45537079  F        1        2       0.01592333       0.38757871      -0.74252261
O        3.84371499       3.13058929      16.75676254  F        1        2       0.06751389       0.19335311       0.06839962
Si       7.25641052      -0.01346455      17.46532046  T        0        1      -0.00242090       0.00255240       0.00162748
Si       3.74362952       2.19969974      21.17991625  T        0        1       0.01989247      -0.00351639       0.00719219
Si       6.18423014       2.20106021      19.31491804  T        0        1       0.00755506       0.01024279      -0.00029022
O        6.28775273       1.11291230      18.09638563  T        1        1       0.00323073       0.00762823       0.00022208
O        5.11148619       1.72770468      20.41975748  T        1        1       0.00803378      -0.01155396       0.00552134
O        8.31478055       0.07366784      21.53076805  T        1        1      -0.01531841       0.01135762       0.00205056
O        5.76357135       3.60930389      18.59668553  T        1        1       0.01854601       0.00953338      -0.00948090
O        7.63923253       2.33363808      20.02622476  T        1        1       0.01074844       0.00510386      -0.00522588
O        3.97532399       3.54398774      22.14844386  T        1        1       0.00552529      -0.01325864      -0.00684109
F        2.98369809       1.05731829      24.59369880  T        0        0       0.01643452       0.01701945       0.03823296
H        3.09243436       0.98097922      23.03085555  T        0        0       0.02196975       0.00770070      -0.00795420
F        4.47341994       1.17554553      26.31416966  T        0        0      -0.04734606       0.00153249      -0.05626505
H        3.75414797       1.11790503      25.46189252  T        0        0       0.02104294       0.00136852      -0.00132442
40
Lattice="9.8418 0.0 0.0 -2.460449999999999 4.261624409482844 0.0 0.0 -0.0 34.16586254" Properties=species:S:1:pos:R:3:move_mask:L:1:spacegroup_kinds:I:1:tags:I:1:forces:R:3 surface=alpha_quartz_001 coadsorbate=HF start=1 calculation_kind="Local coadsorbate relaxation; not a reaction path" host_atoms=36 energy=-283.06595483021147 pbc="T T F"
Si       2.31725181       0.00000000      12.00000000  F        0        2      -0.13300169      -0.36551712      -1.69563640
Si      -1.15862590       2.00679893      15.60606667  F        0        2      -0.13075343       0.05047124       1.27562803
Si       1.30182410       2.25482548      13.80303333  F        0        2       0.04045396      -0.15539752       1.03055709
O        1.38326499       1.13103512      12.65233746  F        1        2      -0.50367332       0.21189208      -0.22346308
O        0.28787265       1.76346018      14.95372921  F        1        2       0.45595713      -0.24431933      -0.39849602
O        3.24976236       0.63242506      16.25840413  F        1        2      -0.30890375      -0.56734892       0.16381722
O        0.78931236       3.62919935      13.15069587  F        1        2       0.42122354       0.28813952       0.53021561
O        2.74832265       2.49816423      14.45537079  F        1        2      -0.00291074       0.38457935      -0.74579963
O       -1.07718501       3.13058929      16.75676254  F        1        2       0.00272051       0.46475813       0.19851711
Si       2.29275596       0.03210799      17.46215429  T        0        1       0.01210002      -0.01167784      -0.01475247
Si      -1.19855663       1.66369466      21.12466507  T        0        1      -0.00979500      -0.00705486       0.00134591
Si       1.27527386       2.28591315      19.30684657  T        0        1       0.00009629      -0.01366903       0.00760792
O        1.34527292       1.19711149      18.06996124  T        1        1       0.02947043       0.00328268      -0.01224136
O        0.27655220       1.74949624      20.46564750  T        1        1       0.00306612      -0.00626293       0.02040214
O        3.16215281       0.96644909      22.02639665  T        1        1      -0.00017866       0.01729256      -0.00187838
O        0.73596632       3.67340162      18.64340861  T        1        1      -0.00925113      -0.01668701       0.00165767
O        2.73373191       2.55829881      19.93571793  T        1        1       0.01336462       0.01561714      -0.00507951
O       -1.35490371       2.11274105      22.68036744  T        1        1       0.01823017      -0.00043094       0.00092969
Si       7.23815181       0.00000000      12.00000000  F        0        2      -0.13251808      -0.36537962      -1.68875180
Si       3.76227409       2.00679893      15.60606667  F        0        2      -0.09774305       0.10570190       1.24460656
Si       6.22272410       2.25482548      13.80303333  F        0        2       0.02706744      -0.17044788       1.04839567
O        6.30416499       1.13103512      12.65233746  F        1        2      -0.50294267       0.20836608      -0.23273016
O        5.20877265       1.76346018      14.95372921  F        1        2       0.43889513      -0.24642209      -0.39475739
O        8.17066236       0.63242506      16.25840413  F        1        2      -0.18676385      -0.50455216       0.08884322
O        5.71021236       3.62919935      13.15069587  F        1        2       0.42213728       0.29236646       0.52098651
O        7.66922265       2.49816423      14.45537079  F        1        2       0.01576449       0.38782515      -0.74308301
O        3.84371499       3.13058929      16.75676254  F        1        2       0.08276505       0.20066814       0.08189396
Si       7.25840141      -0.01497676      17.46630999  T        0        1       0.00075869      -0.00129799      -0.00700791
Si       3.74978720       2.20315196      21.17868771  T        0        1       0.00759835       0.00209299       0.00394585
Si       6.19012493       2.20067087      19.31567205  T        0        1       0.00413457       0.00420752      -0.00380832
O        6.29005361       1.11054335      18.09891041  T        1        1       0.00421521       0.00397916      -0.00725318
O        5.11809160       1.72798011      20.42166013  T        1        1       0.00355766      -0.00375375       0.00866343
O        8.32636800       0.07005432      21.53222133  T        1        1      -0.01767175       0.02002444      -0.00266499
O        5.76937291       3.60828039      18.59545158  T        1        1       0.00946347       0.00307090      -0.01109466
O        7.64670192       2.32880160      20.02443075  T        1        1       0.00331175       0.00991948      -0.00076095
O        3.98143813       3.55105940      22.14283564  T        1        1       0.00417440      -0.01900695      -0.01128402
F        2.99101538       1.07371754      24.59652753  T        0        0       0.02695466       0.01481043       0.04151565
H        3.09349934       0.98914710      23.02961156  T        0        0       0.02627264       0.00960304      -0.00709277
F        4.48786101       1.20508329      26.31046699  T        0        0      -0.04412622      -0.00340801      -0.05682273
H        3.76613405       1.14061932      25.46088601  T        0        0       0.00647977       0.00396556      -0.00507051
40
Lattice="9.8418 0.0 0.0 -2.460449999999999 4.261624409482844 0.0 0.0 -0.0 34.16586254" Properties=species:S:1:pos:R:3:move_mask:L:1:spacegroup_kinds:I:1:tags:I:1:forces:R:3 surface=alpha_quartz_001 coadsorbate=HF start=1 calculation_kind="Local coadsorbate relaxation; not a reaction path" host_atoms=36 energy=-283.06634371764295 pbc="T T F"
Si       2.31725181       0.00000000      12.00000000  F        0        2      -0.13301144      -0.36550461      -1.69546697
Si      -1.15862590       2.00679893      15.60606667  F        0        2      -0.13202373       0.04768500       1.27631992
Si       1.30182410       2.25482548      13.80303333  F        0        2       0.04046638      -0.15547304       1.03097540
O        1.38326499       1.13103512      12.65233746  F        1        2      -0.50364041       0.21185797      -0.22362534
O        0.28787265       1.76346018      14.95372921  F        1        2       0.45661483      -0.24404304      -0.39841595
O        3.24976236       0.63242506      16.25840413  F        1        2      -0.30933197      -0.56751661       0.16247064
O        0.78931236       3.62919935      13.15069587  F        1        2       0.42119757       0.28815112       0.53000724
O        2.74832265       2.49816423      14.45537079  F        1        2      -0.00305995       0.38465808      -0.74571015
O       -1.07718501       3.13058929      16.75676254  F        1        2       0.00729221       0.46762257       0.20285633
Si       2.29351664       0.03146056      17.46247313  T        0        1       0.01570486      -0.01132723      -0.01101244
Si      -1.19442425       1.66190620      21.12408023  T        0        1      -0.00843261       0.00353467      -0.00078890
Si       1.27912157       2.28677506      19.30746533  T        0        1       0.00044977      -0.01793057       0.00441037
O        1.34689203       1.19581693      18.07245231  T        1        1       0.02976853       0.00736359      -0.01974082
O        0.28106043       1.75058176      20.46686641  T        1        1       0.00887323      -0.00572489       0.02278212
O        3.16378058       0.97286703      22.02772043  T        1        1       0.00063436       0.00887784      -0.00087807
O        0.73812045       3.67315719      18.64303878  T        1        1      -0.00630885      -0.02097347      -0.00023050
O        2.73857494       2.55956568      19.93444515  T        1        1       0.00720706       0.01703291      -0.00997682
O       -1.35090085       2.11059940      22.67984241  T        1        1       0.01291699      -0.00043479       0.00558772
Si       7.23815181       0.00000000      12.00000000  F        0        2      -0.13247971      -0.36535099      -1.68840576
Si       3.76227409       2.00679893      15.60606667  F        0        2      -0.09748197       0.10394875       1.24500409
Si       6.22272410       2.25482548      13.80303333  F        0        2       0.02710413      -0.17053792       1.04926048
O        6.30416499       1.13103512      12.65233746  F        1        2      -0.50286224       0.20822714      -0.23298041
O        5.20877265       1.76346018      14.95372921  F        1        2       0.43913018      -0.24627874      -0.39507166
O        8.17066236       0.63242506      16.25840413  F        1        2      -0.18544308      -0.50461762       0.08666844
O        5.71021236       3.62919935      13.15069587  F        1        2       0.42201511       0.29245864       0.52060277
O        7.66922265       2.49816423      14.45537079  F        1        2       0.01572663       0.38804595      -0.74329705
O        3.84371499       3.13058929      16.75676254  F        1        2       0.09119773       0.20677703       0.09093725
Si       7.25929684      -0.01553704      17.46673841  T        0        1       0.00295766      -0.00288216      -0.00879561
Si       3.75465687       2.20650673      21.17832444  T        0        1      -0.00347844      -0.00094010      -0.00224563
Si       6.19383309       2.20116365      19.31609132  T        0        1       0.00071647      -0.00099157      -0.00600634
O        6.29154346       1.11009764      18.09997312  T        1        1       0.00523929       0.00113159      -0.00988478
O        5.12265322       1.72800903      20.42306536  T        1        1       0.00381726       0.00310072       0.00691187
O        8.33249278       0.06806609      21.53078335  T        1        1      -0.01692389       0.01747685      -0.00309580
O        5.77249727       3.60837543      18.59485766  T        1        1       0.00314075      -0.00293560      -0.01099924
O        7.65144904       2.32710070      20.02322405  T        1        1      -0.00132168       0.01254333       0.00026069
O        3.98611816       3.55645299      22.13909658  T        1        1       0.00443683      -0.01152238      -0.00909507
F        2.99434255       1.08386712      24.60180738  T        0        0       0.02835666       0.01437406       0.03029906
H        3.09451986       0.99603432      23.03011973  T        0        0       0.02785694       0.01250431       0.00139200
F        4.50161502       1.23353361      26.30403272  T        0        0      -0.02839709      -0.00806573      -0.03853762
H        3.77552869       1.15986688      25.46000813  T        0        0      -0.00862437       0.00567894      -0.01248548
40
Lattice="9.8418 0.0 0.0 -2.460449999999999 4.261624409482844 0.0 0.0 -0.0 34.16586254" Properties=species:S:1:pos:R:3:move_mask:L:1:spacegroup_kinds:I:1:tags:I:1:forces:R:3 surface=alpha_quartz_001 coadsorbate=HF start=1 calculation_kind="Local coadsorbate relaxation; not a reaction path" host_atoms=36 energy=-283.06661317177367 pbc="T T F"
Si       2.31725181       0.00000000      12.00000000  F        0        2      -0.13302492      -0.36552773      -1.69550308
Si      -1.15862590       2.00679893      15.60606667  F        0        2      -0.13265787       0.04633260       1.27628352
Si       1.30182410       2.25482548      13.80303333  F        0        2       0.04039288      -0.15557867       1.03108133
O        1.38326499       1.13103512      12.65233746  F        1        2      -0.50367003       0.21189409      -0.22365059
O        0.28787265       1.76346018      14.95372921  F        1        2       0.45689959      -0.24388614      -0.39834118
O        3.24976236       0.63242506      16.25840413  F        1        2      -0.30558928      -0.56680998       0.15780877
O        0.78931236       3.62919935      13.15069587  F        1        2       0.42126041       0.28812709       0.53001724
O        2.74832265       2.49816423      14.45537079  F        1        2      -0.00304314       0.38458681      -0.74547421
O       -1.07718501       3.13058929      16.75676254  F        1        2       0.00897461       0.46673889       0.20325716
Si       2.29423685       0.03085661      17.46248332  T        0        1       0.01480064      -0.00991018      -0.00485308
Si      -1.19259037       1.66094626      21.12356072  T        0        1      -0.00501998       0.01160694      -0.00228132
Si       1.28105669       2.28676261      19.30780729  T        0        1       0.00195815      -0.01806200       0.00084458
O        1.34826638       1.19507830      18.07350260  T        1        1       0.02739791       0.00913737      -0.02061853
O        0.28327224       1.75085943      20.46759990  T        1        1       0.01172437      -0.00472613       0.02036421
O        3.16450745       0.97852968      22.02967022  T        1        1      -0.00054583       0.00256015       0.01790275
O        0.73936478       3.67256575      18.64268352  T        1        1      -0.00585761      -0.02238387      -0.00084715
O        2.74092628       2.56034271      19.93374554  T        1        1       0.00486379       0.01616715      -0.01129995
O       -1.34821104       2.10878901      22.67965376  T        1        1       0.00891211      -0.00010424       0.00918227
Si       7.23815181       0.00000000      12.00000000  F        0        2      -0.13245783      -0.36536915      -1.68834649
Si       3.76227409       2.00679893      15.60606667  F        0        2      -0.09749085       0.10292881       1.24498040
Si       6.22272410       2.25482548      13.80303333  F        0        2       0.02721542      -0.17052452       1.04953136
O        6.30416499       1.13103512      12.65233746  F        1        2      -0.50288235       0.20820905      -0.23304451
O        5.20877265       1.76346018      14.95372921  F        1        2       0.43914633      -0.24621307      -0.39507026
O        8.17066236       0.63242506      16.25840413  F        1        2      -0.18376169      -0.50349390       0.08323171
O        5.71021236       3.62919935      13.15069587  F        1        2       0.42198981       0.29247386       0.52050536
O        7.66922265       2.49816423      14.45537079  F        1        2       0.01567139       0.38813168      -0.74335881
O        3.84371499       3.13058929      16.75676254  F        1        2       0.09436500       0.20952192       0.09458234
Si       7.25964945      -0.01570965      17.46678627  T        0        1       0.00357097      -0.00321893      -0.00607730
Si       3.75725350       2.20948941      21.17824885  T        0        1      -0.00736919       0.00065094      -0.01014153
Si       6.19542807       2.20157674      19.31637766  T        0        1      -0.00058746      -0.00366041      -0.00666968
O        6.29235430       1.11015521      18.10038779  T        1        1       0.00575905       0.00014602      -0.00902926
O        5.12476792       1.72789278      20.42398893  T        1        1       0.00432229       0.00946155       0.00327654
O        8.33549885       0.06690616      21.52887236  T        1        1      -0.01551830       0.01359769      -0.00192917
O        5.77400050       3.60858922      18.59440767  T        1        1      -0.00068949      -0.00767917      -0.00902568
O        7.65346686       2.32691581      20.02301536  T        1        1      -0.00333706       0.01223685      -0.00056015
O        3.98867537       3.56200919      22.13527467  T        1        1       0.00337976      -0.00931512      -0.00704500
F        2.99833350       1.09544600      24.60905370  T        0        0       0.01535011       0.01159199       0.00053787
H        3.09601651       1.00337484      23.03165562  T        0        0       0.02743292       0.01182593      -0.00518374
F        4.51428388       1.25392341      26.29987854  T        0        0      -0.00703732      -0.00850807      -0.01514790
H        3.78416610       1.17572803      25.46086599  T        0        0      -0.01484731       0.00704388      -0.00988887
40
Lattice="9.8418 0.0 0.0 -2.460449999999999 4.261624409482844 0.0 0.0 -0.0 34.16586254" Properties=species:S:1:pos:R:3:move_mask:L:1:spacegroup_kinds:I:1:tags:I:1:forces:R:3 surface=alpha_quartz_001 coadsorbate=HF start=1 calculation_kind="Local coadsorbate relaxation; not a reaction path" host_atoms=36 energy=-283.06689186764424 pbc="T T F"
Si       2.31725181       0.00000000      12.00000000  F        0        2      -0.13307413      -0.36559145      -1.69590173
Si      -1.15862590       2.00679893      15.60606667  F        0        2      -0.13328458       0.04548401       1.27541153
Si       1.30182410       2.25482548      13.80303333  F        0        2       0.04026674      -0.15573160       1.03055688
O        1.38326499       1.13103512      12.65233746  F        1        2      -0.50379644       0.21209261      -0.22343785
O        0.28787265       1.76346018      14.95372921  F        1        2       0.45701284      -0.24381787      -0.39783904
O        3.24976236       0.63242506      16.25840413  F        1        2      -0.29765631      -0.56538645       0.14944623
O        0.78931236       3.62919935      13.15069587  F        1        2       0.42149124       0.28797351       0.53038334
O        2.74832265       2.49816423      14.45537079  F        1        2      -0.00281466       0.38434474      -0.74475408
O       -1.07718501       3.13058929      16.75676254  F        1        2       0.00953494       0.46252788       0.20076906
Si       2.29553231       0.02972250      17.46239123  T        0        1       0.00991632      -0.00717280       0.00403989
Si      -1.19136010       1.66198261      21.12342051  T        0        1       0.00046202       0.02006634      -0.00121968
Si       1.28302270       2.28595768      19.30843258  T        0        1       0.00444669      -0.01434653      -0.00186946
O        1.35052656       1.19384393      18.07475223  T        1        1       0.02184249       0.01086345      -0.01636468
O        0.28525427       1.75136284      20.46898135  T        1        1       0.01392125      -0.00371821       0.01305792
O        3.16595197       0.98529414      22.03376147  T        1        1      -0.00180861      -0.00284750       0.01739456
O        0.74098256       3.67088127      18.64186421  T        1        1      -0.00519596      -0.02088700      -0.00016566
O        2.74302784       2.56166506      19.93356366  T        1        1       0.00045656       0.01009701      -0.01036866
O       -1.34520688       2.10988073      22.67979703  T        1        1       0.00471136       0.00033362       0.00957878
Si       7.23815181       0.00000000      12.00000000  F        0        2      -0.13246691      -0.36543622      -1.68867262
Si       3.76227409       2.00679893      15.60606667  F        0        2      -0.09771252       0.10190603       1.24440361
Si       6.22272410       2.25482548      13.80303333  F        0        2       0.02737390      -0.17042550       1.04910964
O        6.30416499       1.13103512      12.65233746  F        1        2      -0.50300996       0.20835992      -0.23284587
O        5.20877265       1.76346018      14.95372921  F        1        2       0.43896334      -0.24621870      -0.39463398
O        8.17066236       0.63242506      16.25840413  F        1        2      -0.18144391      -0.50176411       0.07847588
O        5.71021236       3.62919935      13.15069587  F        1        2       0.42210349       0.29236236       0.52076376
O        7.66922265       2.49816423      14.45537079  F        1        2       0.01571199       0.38810791      -0.74305739
O        3.84371499       3.13058929      16.75676254  F        1        2       0.09579519       0.21134030       0.09653414
Si       7.25993779      -0.01583982      17.46668103  T        0        1       0.00186123      -0.00159108       0.00007388
Si       3.75934517       2.21330914      21.17885182  T        0        1      -0.00856300      -0.00587130      -0.01457445
Si       6.19664420       2.20220186      19.31667454  T        0        1      -0.00134378      -0.00429266      -0.00586212
O        6.29322330       1.11033823      18.10087518  T        1        1       0.00488710       0.00059142      -0.00496809
O        5.12664012       1.72931378      20.42561192  T        1        1       0.00675892       0.01154022      -0.00275829
O        8.33668958       0.06836687      21.52841468  T        1        1      -0.01365425       0.00562412      -0.00036305
O        5.77494267       3.60886253      18.59401983  T        1        1      -0.00241636      -0.01089417      -0.00787664
O        7.65497453       2.32850043      20.02296549  T        1        1      -0.00330834       0.00973219      -0.00152570
O        3.99015370       3.56761148      22.13269878  T        1        1       0.00271030       0.00131863      -0.00199779
F        3.00230565       1.10516312      24.61643835  T        0        0       0.00706277       0.01183358      -0.01676777
H        3.09914578       1.01118534      23.03538525  T        0        0       0.02531393       0.01284561      -0.00373234
F        4.52670931       1.27858219      26.29657673  T        0        0       0.00542064      -0.01020221       0.00101372
H        3.79234133       1.19314501      25.46267137  T        0        0      -0.01647551       0.00684991      -0.00945588
40
Lattice="9.8418 0.0 0.0 -2.460449999999999 4.261624409482844 0.0 0.0 -0.0 34.16586254" Properties=species:S:1:pos:R:3:move_mask:L:1:spacegroup_kinds:I:1:tags:I:1:forces:R:3 surface=alpha_quartz_001 coadsorbate=HF start=1 calculation_kind="Local coadsorbate relaxation; not a reaction path" host_atoms=36 energy=-283.0672611154677 pbc="T T F"
Si       2.31725181       0.00000000      12.00000000  F        0        2      -0.13312419      -0.36565014      -1.69632590
Si      -1.15862590       2.00679893      15.60606667  F        0        2      -0.13377335       0.04487707       1.27460326
Si       1.30182410       2.25482548      13.80303333  F        0        2       0.04008682      -0.15589270       1.03001780
O        1.38326499       1.13103512      12.65233746  F        1        2      -0.50390769       0.21228543      -0.22320741
O        0.28787265       1.76346018      14.95372921  F        1        2       0.45709085      -0.24378192      -0.39735030
O        3.24976236       0.63242506      16.25840413  F        1        2      -0.28801009      -0.56477227       0.14062974
O        0.78931236       3.62919935      13.15069587  F        1        2       0.42171534       0.28782391       0.53077038
O        2.74832265       2.49816423      14.45537079  F        1        2      -0.00249822       0.38406263      -0.74389773
O       -1.07718501       3.13058929      16.75676254  F        1        2       0.00994403       0.45810500       0.19770801
Si       2.29699795       0.02845656      17.46232518  T        0        1       0.00359659      -0.00512693       0.01030756
Si      -1.18964877       1.66396274      21.12380461  T        0        1       0.00782669       0.02429346       0.00125077
Si       1.28511865       2.28480458      19.30908249  T        0        1       0.00688662      -0.00902374      -0.00594556
O        1.35327396       1.19287296      18.07565881  T        1        1       0.01435485       0.00948923      -0.01064025
O        0.28787059       1.75144341      20.47077166  T        1        1       0.01345720      -0.00174199       0.00431236
O        3.16773384       0.99374478      22.03910698  T        1        1      -0.00177578      -0.00423115       0.02884078
O        0.74237798       3.66862792      18.64103815  T        1        1      -0.00494694      -0.01558863       0.00159472
O        2.74530519       2.56303519      19.93301646  T        1        1      -0.00122473       0.00293144      -0.00653035
O       -1.34079432       2.11363979      22.68008070  T        1        1       0.00032467       0.00085736       0.01035694
Si       7.23815181       0.00000000      12.00000000  F        0        2      -0.13249907      -0.36550468      -1.68910534
Si       3.76227409       2.00679893      15.60606667  F        0        2      -0.09839869       0.10053546       1.24374099
Si       6.22272410       2.25482548      13.80303333  F        0        2       0.02762870      -0.17035743       1.04845798
O        6.30416499       1.13103512      12.65233746  F        1        2      -0.50317523       0.20856736      -0.23259636
O        5.20877265       1.76346018      14.95372921  F        1        2       0.43889421      -0.24620350      -0.39402363
O        8.17066236       0.63242506      16.25840413  F        1        2      -0.17833223      -0.49918878       0.07267347
O        5.71021236       3.62919935      13.15069587  F        1        2       0.42225906       0.29219508       0.52113521
O        7.66922265       2.49816423      14.45537079  F        1        2       0.01570461       0.38797020      -0.74263305
O        3.84371499       3.13058929      16.75676254  F        1        2       0.09739838       0.21112596       0.09703437
Si       7.26069852      -0.01643646      17.46657959  T        0        1      -0.00120817       0.00039607       0.00716553
Si       3.76135878       2.21821551      21.17956237  T        0        1      -0.00311290      -0.00533780      -0.01780605
Si       6.19816940       2.20233923      19.31715158  T        0        1       0.00111843      -0.00272442      -0.00437088
O        6.29451468       1.10952705      18.10212919  T        1        1       0.00247446       0.00165018       0.00053891
O        5.12896726       1.73182063      20.42813443  T        1        1       0.00629299       0.01241234      -0.00961759
O        8.33922042       0.07085745      21.53022571  T        1        1      -0.01214022       0.00174919      -0.00073770
O        5.77681758       3.60831075      18.59291255  T        1        1      -0.00444971      -0.01262179      -0.00522284
O        7.65683523       2.33012483      20.02306684  T        1        1      -0.00194025       0.00503892      -0.00142902
O        3.99165417       3.57598283      22.12859442  T        1        1      -0.00099567       0.00410463       0.00104300
F        3.01094394       1.12431001      24.62579759  T        0        0      -0.01166108       0.00856874      -0.04415098
H        3.10491754       1.02323235      23.04068652  T        0        0       0.02074128       0.01046089      -0.01332039
F        4.54194269       1.30314777      26.29661803  T        0        0       0.02021975      -0.00825196       0.01781758
H        3.80388351       1.21513596      25.46680080  T        0        0      -0.01084130       0.00649928      -0.00108801
40
Lattice="9.8418 0.0 0.0 -2.460449999999999 4.261624409482844 0.0 0.0 -0.0 34.16586254" Properties=species:S:1:pos:R:3:move_mask:L:1:spacegroup_kinds:I:1:tags:I:1:forces:R:3 surface=alpha_quartz_001 coadsorbate=HF start=1 calculation_kind="Local coadsorbate relaxation; not a reaction path" host_atoms=36 energy=-283.0677017810584 pbc="T T F"
Si       2.31725181       0.00000000      12.00000000  F        0        2      -0.13320434      -0.36570508      -1.69691740
Si      -1.15862590       2.00679893      15.60606667  F        0        2      -0.13478343       0.04353763       1.27352521
Si       1.30182410       2.25482548      13.80303333  F        0        2       0.03988962      -0.15608523       1.02910887
O        1.38326499       1.13103512      12.65233746  F        1        2      -0.50403587       0.21255975      -0.22285489
O        0.28787265       1.76346018      14.95372921  F        1        2       0.45726864      -0.24371862      -0.39646016
O        3.24976236       0.63242506      16.25840413  F        1        2      -0.27701588      -0.56586317       0.13237755
O        0.78931236       3.62919935      13.15069587  F        1        2       0.42200887       0.28758713       0.53131919
O        2.74832265       2.49816423      14.45537079  F        1        2      -0.00204531       0.38368569      -0.74263338
O       -1.07718501       3.13058929      16.75676254  F        1        2       0.01109717       0.45238856       0.19401025
Si       2.29920591       0.02642937      17.46248124  T        0        1      -0.00340258      -0.00213294       0.01345433
Si      -1.18648771       1.66814299      21.12490450  T        0        1       0.01529237       0.02480459       0.00705629
Si       1.28871819       2.28305948      19.31022508  T        0        1       0.00819912      -0.00127061      -0.00796480
O        1.35738177       1.19106029      18.07757458  T        1        1       0.00495049       0.00740472      -0.00373742
O        0.29239012       1.75190060      20.47385550  T        1        1       0.01092803      -0.00020144      -0.00559562
O        3.17133027       1.00391188      22.04654721  T        1        1       0.00082814      -0.00280024       0.02051329
O        0.74453262       3.66493961      18.63986735  T        1        1      -0.00269010      -0.00564652       0.00305768
O        2.74900439       2.56510525      19.93271499  T        1        1      -0.00252333      -0.00728114      -0.00155225
O       -1.33465423       2.12225555      22.68040359  T        1        1      -0.00461020       0.00164890       0.00933730
Si       7.23815181       0.00000000      12.00000000  F        0        2      -0.13256121      -0.36557238      -1.68972400
Si       3.76227409       2.00679893      15.60606667  F        0        2      -0.09945569       0.09846585       1.24303569
Si       6.22272410       2.25482548      13.80303333  F        0        2       0.02795450      -0.17029063       1.04746305
O        6.30416499       1.13103512      12.65233746  F        1        2      -0.50337230       0.20886536      -0.23221698
O        5.20877265       1.76346018      14.95372921  F        1        2       0.43891007      -0.24617753      -0.39314830
O        8.17066236       0.63242506      16.25840413  F        1        2      -0.17503095      -0.49649523       0.06680976
O        5.71021236       3.62919935      13.15069587  F        1        2       0.42247537       0.29193441       0.52167741
O        7.66922265       2.49816423      14.45537079  F        1        2       0.01578529       0.38780142      -0.74188932
O        3.84371499       3.13058929      16.75676254  F        1        2       0.10094139       0.21118271       0.09886584
Si       7.26209522      -0.01759403      17.46666797  T        0        1      -0.00544799       0.00278254       0.01171991
Si       3.76445245       2.22432392      21.18089036  T        0        1       0.00428969      -0.00843966      -0.01480008
Si       6.20107319       2.20232701      19.31780981  T        0        1       0.00479980       0.00063057      -0.00183274
O        6.29663782       1.10772354      18.10449855  T        1        1      -0.00227240       0.00165222       0.00618103
O        5.13314460       1.73661265      20.43215081  T        1        1       0.00536625       0.00813710      -0.01742995
O        8.34289027       0.07622856      21.53569176  T        1        1      -0.01036165      -0.00089104      -0.00387008
O        5.77997060       3.60693977      18.59109485  T        1        1      -0.00620420      -0.01071962      -0.00283122
O        7.66043808       2.33220083      20.02251706  T        1        1       0.00159279      -0.00003745       0.00113438
O        3.99388142       3.58513649      22.12558057  T        1        1      -0.00603354       0.01095525       0.00398834
F        3.02154825       1.14637009      24.63336178  T        0        0      -0.01661839       0.00827153      -0.04543470
H        3.11414572       1.03763086      23.04830404  T        0        0       0.01343769       0.00868135      -0.01415282
F        4.55729405       1.33157035      26.29906199  T        0        0       0.01786000      -0.00714150       0.01843372
H        3.81632274       1.24091592      25.47189325  T        0        0      -0.00220594       0.00349274       0.00197703
40
Lattice="9.8418 0.0 0.0 -2.460449999999999 4.261624409482844 0.0 0.0 -0.0 34.16586254" Properties=species:S:1:pos:R:3:move_mask:L:1:spacegroup_kinds:I:1:tags:I:1:forces:R:3 surface=alpha_quartz_001 coadsorbate=HF start=1 calculation_kind="Local coadsorbate relaxation; not a reaction path" host_atoms=36 energy=-283.06805461292026 pbc="T T F"
Si       2.31725181       0.00000000      12.00000000  F        0        2      -0.13324826      -0.36569988      -1.69714635
Si      -1.15862590       2.00679893      15.60606667  F        0        2      -0.13585951       0.04160523       1.27330052
Si       1.30182410       2.25482548      13.80303333  F        0        2       0.03976315      -0.15618697       1.02872558
O        1.38326499       1.13103512      12.65233746  F        1        2      -0.50403994       0.21266311      -0.22270777
O        0.28787265       1.76346018      14.95372921  F        1        2       0.45754698      -0.24357309      -0.39595221
O        3.24976236       0.63242506      16.25840413  F        1        2      -0.27153952      -0.56948211       0.13099893
O        0.78931236       3.62919935      13.15069587  F        1        2       0.42210492       0.28747707       0.53151750
O        2.74832265       2.49816423      14.45537079  F        1        2      -0.00176047       0.38349402      -0.74186141
O       -1.07718501       3.13058929      16.75676254  F        1        2       0.01247497       0.44940878       0.19235988
Si       2.30075289       0.02489553      17.46283773  T        0        1      -0.00529192      -0.00023891       0.00800953
Si      -1.18259147       1.67159377      21.12618661  T        0        1       0.01748010       0.01806435       0.01205770
Si       1.29209080       2.28183809      19.31098601  T        0        1       0.00707807       0.00397643      -0.00744797
O        1.36050339       1.18988498      18.07895347  T        1        1      -0.00081641       0.00412408      -0.00101312
O        0.29720403       1.75181038      20.47636018  T        1        1       0.00648471       0.00063607      -0.00917685
O        3.17465238       1.01031139      22.05103008  T        1        1       0.00583559       0.00093015       0.01196377
O        0.74579898       3.66199311      18.63931384  T        1        1       0.00062941       0.00446618       0.00347149
O        2.75250661       2.56650880      19.93222535  T        1        1       0.00035058      -0.01234246       0.00103110
O       -1.32911286       2.13102553      22.68037412  T        1        1      -0.00738688       0.00264034       0.00977689
Si       7.23815181       0.00000000      12.00000000  F        0        2      -0.13261219      -0.36557369      -1.69002188
Si       3.76227409       2.00679893      15.60606667  F        0        2      -0.10059136       0.09644120       1.24305692
Si       6.22272410       2.25482548      13.80303333  F        0        2       0.02824637      -0.17032268       1.04695593
O        6.30416499       1.13103512      12.65233746  F        1        2      -0.50345802       0.20902866      -0.23204445
O        5.20877265       1.76346018      14.95372921  F        1        2       0.43921313      -0.24608427      -0.39262478
O        8.17066236       0.63242506      16.25840413  F        1        2      -0.17313263      -0.49449968       0.06360232
O        5.71021236       3.62919935      13.15069587  F        1        2       0.42257143       0.29175667       0.52194272
O        7.66922265       2.49816423      14.45537079  F        1        2       0.01581819       0.38773646      -0.74138450
O        3.84371499       3.13058929      16.75676254  F        1        2       0.10529520       0.21027978       0.10080980
Si       7.26375776      -0.01907264      17.46698499  T        0        1      -0.00705086       0.00315038       0.00934208
Si       3.76738743       2.22828451      21.18157259  T        0        1       0.01179762      -0.00317253      -0.00879381
Si       6.20453093       2.20175777      19.31835653  T        0        1       0.00930605       0.00370530      -0.00053238
O        6.29878683       1.10504249      18.10727921  T        1        1      -0.00673556      -0.00008059       0.00748429
O        5.13762002       1.74093108      20.43551036  T        1        1       0.00126363       0.00277458      -0.02033290
O        8.34765706       0.08065461      21.54239330  T        1        1      -0.00990895       0.00419352      -0.00944917
O        5.78389634       3.60477353      18.58876630  T        1        1      -0.00792995      -0.00555592       0.00029011
O        7.66470503       2.33249780      20.02152286  T        1        1       0.00508563      -0.00240670       0.00563712
O        3.99631712       3.59114281      22.12400083  T        1        1      -0.01104029       0.00865343       0.00307949
F        3.03126824       1.16570209      24.63482815  T        0        0      -0.01963008       0.00594636      -0.03746771
H        3.12289353       1.04837497      23.05319918  T        0        0       0.00561661       0.00471222      -0.01426197
F        4.56333802       1.33990222      26.30532689  T        0        0       0.01387710      -0.00286571       0.01443043
H        3.82383817       1.25501445      25.47602667  T        0        0       0.00419337       0.00022081       0.00237516
40
Lattice="9.8418 0.0 0.0 -2.460449999999999 4.261624409482844 0.0 0.0 -0.0 34.16586254" Properties=species:S:1:pos:R:3:move_mask:L:1:spacegroup_kinds:I:1:tags:I:1:forces:R:3 surface=alpha_quartz_001 coadsorbate=HF start=1 calculation_kind="Local coadsorbate relaxation; not a reaction path" host_atoms=36 energy=-283.0682259345416 pbc="T T F"
Si       2.31725181       0.00000000      12.00000000  F        0        2      -0.13326181      -0.36567014      -1.69712832
Si      -1.15862590       2.00679893      15.60606667  F        0        2      -0.13674363       0.03969440       1.27335880
Si       1.30182410       2.25482548      13.80303333  F        0        2       0.03975040      -0.15621499       1.02867596
O        1.38326499       1.13103512      12.65233746  F        1        2      -0.50399732       0.21266193      -0.22270057
O        0.28787265       1.76346018      14.95372921  F        1        2       0.45777692      -0.24338759      -0.39574988
O        3.24976236       0.63242506      16.25840413  F        1        2      -0.27119946      -0.57313789       0.13390797
O        0.78931236       3.62919935      13.15069587  F        1        2       0.42208875       0.28745212       0.53149372
O        2.74832265       2.49816423      14.45537079  F        1        2      -0.00169040       0.38343807      -0.74163891
O       -1.07718501       3.13058929      16.75676254  F        1        2       0.01360812       0.44824367       0.19237457
Si       2.30147964       0.02405462      17.46318162  T        0        1      -0.00340246       0.00169346       0.00166092
Si      -1.17988175       1.67345672      21.12700389  T        0        1       0.01381210       0.01167702       0.01338050
Si       1.29421229       2.28129884      19.31132301  T        0        1       0.00460162       0.00598686      -0.00414689
O        1.36195018       1.18913779      18.07982395  T        1        1      -0.00203261       0.00340290      -0.00128559
O        0.30020143       1.75169213      20.47757962  T        1        1       0.00316341       0.00005523      -0.00721666
O        3.17683875       1.01113690      22.05172812  T        1        1       0.00954912       0.00247357      -0.00183838
O        0.74637983       3.66053882      18.63929804  T        1        1       0.00364875       0.00950644       0.00177634
O        2.75454418       2.56699202      19.93229604  T        1        1       0.00367839      -0.01210524      -0.00037203
O       -1.32687698       2.13606221      22.68016029  T        1        1      -0.00728340       0.00344419       0.01035046
Si       7.23815181       0.00000000      12.00000000  F        0        2      -0.13262758      -0.36554259      -1.69002171
Si       3.76227409       2.00679893      15.60606667  F        0        2      -0.10113123       0.09542053       1.24361436
Si       6.22272410       2.25482548      13.80303333  F        0        2       0.02835812      -0.17035725       1.04693276
O        6.30416499       1.13103512      12.65233746  F        1        2      -0.50343946       0.20904857      -0.23203790
O        5.20877265       1.76346018      14.95372921  F        1        2       0.43948116      -0.24600788      -0.39253566
O        8.17066236       0.63242506      16.25840413  F        1        2      -0.17343797      -0.49421613       0.06403473
O        5.71021236       3.62919935      13.15069587  F        1        2       0.42255708       0.29170136       0.52194045
O        7.66922265       2.49816423      14.45537079  F        1        2       0.01587681       0.38783376      -0.74117908
O        3.84371499       3.13058929      16.75676254  F        1        2       0.10787449       0.21013648       0.10251892
Si       7.26465821      -0.01991552      17.46731731  T        0        1      -0.00566115       0.00215201       0.00286020
Si       3.76932301       2.22896691      21.18178980  T        0        1       0.01288803       0.00084457      -0.00403387
Si       6.20692959       2.20140450      19.31852418  T        0        1       0.01090815       0.00458196      -0.00078014
O        6.29991803       1.10341258      18.10888766  T        1        1      -0.00828554      -0.00264977       0.00475334
O        5.14041520       1.74301892      20.43673676  T        1        1      -0.00130381      -0.00156870      -0.01760028
O        8.35001702       0.08312725      21.54639237  T        1        1      -0.00915498       0.00798265      -0.01280812
O        5.78612831       3.60335110      18.58740662  T        1        1      -0.00747009      -0.00011790       0.00190988
O        7.66762694       2.33190378      20.02056811  T        1        1       0.00684659      -0.00030353       0.00827710
O        3.99800128       3.59138147      22.12525593  T        1        1      -0.01288422       0.00666607       0.00098177
F        3.03380551       1.17073181      24.63065911  T        0        0      -0.00713402       0.00613151      -0.01064632
H        3.12715123       1.05076812      23.05424316  T        0        0       0.00106439       0.00232119      -0.00654088
F        4.56022722       1.33381025      26.30976304  T        0        0      -0.00101501      -0.00135105      -0.00117697
H        3.82351164       1.25457654      25.47682288  T        0        0       0.00562372      -0.00191989      -0.00336458
40
Lattice="9.8418 0.0 0.0 -2.460449999999999 4.261624409482844 0.0 0.0 -0.0 34.16586254" Properties=species:S:1:pos:R:3:move_mask:L:1:spacegroup_kinds:I:1:tags:I:1:forces:R:3 surface=alpha_quartz_001 coadsorbate=HF start=1 calculation_kind="Local coadsorbate relaxation; not a reaction path" host_atoms=36 energy=-283.0682962790728 pbc="T T F"
Si       2.31725181       0.00000000      12.00000000  F        0        2      -0.13324799      -0.36564357      -1.69697844
Si      -1.15862590       2.00679893      15.60606667  F        0        2      -0.13706643       0.03857079       1.27358697
Si       1.30182410       2.25482548      13.80303333  F        0        2       0.03979527      -0.15619131       1.02890232
O        1.38326499       1.13103512      12.65233746  F        1        2      -0.50394733       0.21259488      -0.22278398
O        0.28787265       1.76346018      14.95372921  F        1        2       0.45785926      -0.24324879      -0.39587352
O        3.24976236       0.63242506      16.25840413  F        1        2      -0.27253520      -0.57491155       0.13632115
O        0.78931236       3.62919935      13.15069587  F        1        2       0.42201130       0.28749754       0.53134266
O        2.74832265       2.49816423      14.45537079  F        1        2      -0.00175719       0.38348224      -0.74181578
O       -1.07718501       3.13058929      16.75676254  F        1        2       0.01410398       0.44867617       0.19337837
Si       2.30146182       0.02398539      17.46331699  T        0        1      -0.00071997       0.00253791      -0.00198873
Si      -1.17863110       1.67368724      21.12733223  T        0        1       0.00898941       0.00849221       0.01164351
Si       1.29486817       2.28140064      19.31117961  T        0        1       0.00275462       0.00544345      -0.00179806
O        1.36200242       1.18919451      18.07975733  T        1        1      -0.00114363       0.00345012      -0.00246172
O        0.30127930       1.75142817      20.47759330  T        1        1       0.00187232       0.00004614      -0.00392230
O        3.17737537       1.00928189      22.05013833  T        1        1       0.01132072       0.00293047      -0.00532333
O        0.74632019       3.66055868      18.63955646  T        1        1       0.00476898       0.00960275       0.00064010
O        2.75521542       2.56675428      19.93217759  T        1        1       0.00527750      -0.00918772      -0.00297981
O       -1.32665611       2.13708064      22.68006860  T        1        1      -0.00589962       0.00356974       0.01048663
Si       7.23815181       0.00000000      12.00000000  F        0        2      -0.13262024      -0.36551322      -1.68987693
Si       3.76227409       2.00679893      15.60606667  F        0        2      -0.10127781       0.09518468       1.24423228
Si       6.22272410       2.25482548      13.80303333  F        0        2       0.02833966      -0.17039665       1.04716534
O        6.30416499       1.13103512      12.65233746  F        1        2      -0.50338798       0.20899688      -0.23212385
O        5.20877265       1.76346018      14.95372921  F        1        2       0.43965724      -0.24595543      -0.39270024
O        8.17066236       0.63242506      16.25840413  F        1        2      -0.17423010      -0.49454571       0.06534499
O        5.71021236       3.62919935      13.15069587  F        1        2       0.42250373       0.29172518       0.52180971
O        7.66922265       2.49816423      14.45537079  F        1        2       0.01589912       0.38795646      -0.74121999
O        3.84371499       3.13058929      16.75676254  F        1        2       0.10823113       0.20951276       0.10256773
Si       7.26487770      -0.02018308      17.46747801  T        0        1      -0.00308790       0.00092108      -0.00151271
Si       3.77007496       2.22795283      21.18139293  T        0        1       0.00975246       0.00330991      -0.00113294
Si       6.20800243       2.20122783      19.31844234  T        0        1       0.01020208       0.00397835      -0.00140320
O        6.30012374       1.10279384      18.10932583  T        1        1      -0.00703481      -0.00351225       0.00185925
O        5.14132431       1.74298383      20.43635660  T        1        1      -0.00174884      -0.00267652      -0.01323947
O        8.35056837       0.08347221      21.54722731  T        1        1      -0.00899076       0.00936355      -0.01286530
O        5.78677561       3.60276724      18.58695958  T        1        1      -0.00581006       0.00258584       0.00272219
O        7.66881254       2.33109909      20.02022306  T        1        1       0.00613478       0.00282072       0.00798657
O        3.99844096       3.58928125      22.12666472  T        1        1      -0.01181548       0.00430302      -0.00086846
F        3.03289358       1.16892464      24.62660839  T        0        0      -0.00139970       0.00529395       0.00114601
H        3.12756118       1.04888223      23.05285301  T        0        0       0.00007185       0.00115455      -0.00401152
F        4.55448263       1.32271744      26.31176481  T        0        0      -0.00470526      -0.00024803      -0.00605252
H        3.82033596       1.24795332      25.47612851  T        0        0       0.00288091      -0.00197058      -0.00820296
40
Lattice="9.8418 0.0 0.0 -2.460449999999999 4.261624409482844 0.0 0.0 -0.0 34.16586254" Properties=species:S:1:pos:R:3:move_mask:L:1:spacegroup_kinds:I:1:tags:I:1:forces:R:3 surface=alpha_quartz_001 coadsorbate=HF start=1 calculation_kind="Local coadsorbate relaxation; not a reaction path" host_atoms=36 energy=-283.06836681554694 pbc="T T F"
Si       2.31725181       0.00000000      12.00000000  F        0        2      -0.13323041      -0.36562608      -1.69683513
Si      -1.15862590       2.00679893      15.60606667  F        0        2      -0.13726616       0.03753929       1.27361158
Si       1.30182410       2.25482548      13.80303333  F        0        2       0.03987652      -0.15617071       1.02914840
O        1.38326499       1.13103512      12.65233746  F        1        2      -0.50391649       0.21253080      -0.22287024
O        0.28787265       1.76346018      14.95372921  F        1        2       0.45788960      -0.24310712      -0.39599795
O        3.24976236       0.63242506      16.25840413  F        1        2      -0.27294274      -0.57602179       0.13712550
O        0.78931236       3.62919935      13.15069587  F        1        2       0.42194398       0.28754299       0.53119881
O        2.74832265       2.49816423      14.45537079  F        1        2      -0.00184885       0.38349703      -0.74202545
O       -1.07718501       3.13058929      16.75676254  F        1        2       0.01492765       0.44937687       0.19493728
Si       2.30149460       0.02392844      17.46340241  T        0        1       0.00130870       0.00357443      -0.00351722
Si      -1.17747248       1.67404229      21.12776985  T        0        1       0.00306883       0.00607690       0.00794216
Si       1.29553399       2.28157147      19.31103127  T        0        1       0.00074349       0.00464983       0.00020135
O        1.36213125       1.18929737      18.07966394  T        1        1      -0.00095245       0.00368278      -0.00309342
O        0.30220888       1.75132179      20.47757087  T        1        1       0.00052219       0.00055287      -0.00044071
O        3.17800182       1.00763860      22.04853887  T        1        1       0.01224159       0.00234812      -0.00694271
O        0.74643659       3.66073686      18.63977963  T        1        1       0.00524030       0.00826174      -0.00059251
O        2.75591598       2.56638929      19.93204176  T        1        1       0.00627748      -0.00567701      -0.00515280
O       -1.32684145       2.13744093      22.68029238  T        1        1      -0.00387196       0.00309743       0.00883865
Si       7.23815181       0.00000000      12.00000000  F        0        2      -0.13260746      -0.36549550      -1.68972852
Si       3.76227409       2.00679893      15.60606667  F        0        2      -0.10136500       0.09507797       1.24492653
Si       6.22272410       2.25482548      13.80303333  F        0        2       0.02827236      -0.17042375       1.04740548
O        6.30416499       1.13103512      12.65233746  F        1        2      -0.50333964       0.20894508      -0.23220983
O        5.20877265       1.76346018      14.95372921  F        1        2       0.43980850      -0.24591187      -0.39289121
O        8.17066236       0.63242506      16.25840413  F        1        2      -0.17536998      -0.49512483       0.06711386
O        5.71021236       3.62919935      13.15069587  F        1        2       0.42245627       0.29175833       0.52167615
O        7.66922265       2.49816423      14.45537079  F        1        2       0.01593648       0.38808890      -0.74125810
O        3.84371499       3.13058929      16.75676254  F        1        2       0.10780887       0.20886441       0.10200752
Si       7.26488188      -0.02027970      17.46758856  T        0        1      -0.00001045      -0.00020278      -0.00444139
Si       3.77096624       2.22710012      21.18101656  T        0        1       0.00510188       0.00554452       0.00001150
Si       6.20899339       2.20123427      19.31832548  T        0        1       0.00764702       0.00301575      -0.00174017
O        6.30007242       1.10246575      18.10953247  T        1        1      -0.00376686      -0.00324929      -0.00084891
O        5.14198311       1.74257710      20.43560577  T        1        1      -0.00134417      -0.00242690      -0.00707210
O        8.35045283       0.08381482      21.54704547  T        1        1      -0.00763991       0.00920342      -0.01100118
O        5.78689781       3.60245509      18.58682337  T        1        1      -0.00255633       0.00457772       0.00287004
O        7.66979217       2.33059236      20.02013800  T        1        1       0.00464761       0.00652830       0.00606210
O        3.99865806       3.58757744      22.12783781  T        1        1      -0.00997016       0.00129872      -0.00356497
F        3.03124040       1.16605481      24.62344807  T        0        0       0.00399535       0.00489127       0.00963779
H        3.12755292       1.04686194      23.05134035  T        0        0      -0.00044623       0.00051290      -0.00115647
F        4.54989550       1.31478061      26.31234884  T        0        0      -0.00710861      -0.00018732      -0.00924916
H        3.81739560       1.24237047      25.47507665  T        0        0      -0.00016080      -0.00141341      -0.01208456
40
Lattice="9.8418 0.0 0.0 -2.460449999999999 4.261624409482844 0.0 0.0 -0.0 34.16586254" Properties=species:S:1:pos:R:3:move_mask:L:1:spacegroup_kinds:I:1:tags:I:1:forces:R:3 surface=alpha_quartz_001 coadsorbate=HF start=1 calculation_kind="Local coadsorbate relaxation; not a reaction path" host_atoms=36 energy=-283.0684569308656 pbc="T T F"
Si       2.31725181       0.00000000      12.00000000  F        0        2      -0.13320888      -0.36561610      -1.69669654
Si      -1.15862590       2.00679893      15.60606667  F        0        2      -0.13731088       0.03649996       1.27348014
Si       1.30182410       2.25482548      13.80303333  F        0        2       0.03998755      -0.15615886       1.02945788
O        1.38326499       1.13103512      12.65233746  F        1        2      -0.50389958       0.21246418      -0.22296592
O        0.28787265       1.76346018      14.95372921  F        1        2       0.45788333      -0.24295397      -0.39614366
O        3.24976236       0.63242506      16.25840413  F        1        2      -0.27165816      -0.57640711       0.13548786
O        0.78931236       3.62919935      13.15069587  F        1        2       0.42188149       0.28759416       0.53105075
O        2.74832265       2.49816423      14.45537079  F        1        2      -0.00195197       0.38348356      -0.74224866
O       -1.07718501       3.13058929      16.75676254  F        1        2       0.01652597       0.45080432       0.19758092
Si       2.30167553       0.02383647      17.46345319  T        0        1       0.00248964       0.00420790      -0.00351137
Si      -1.17589968       1.67499149      21.12860518  T        0        1      -0.00387855       0.00367240       0.00170837
Si       1.29654040       2.28180732      19.31086761  T        0        1      -0.00163706       0.00354008       0.00163615
O        1.36258067       1.18951126      18.07951575  T        1        1      -0.00214442       0.00307736      -0.00291022
O        0.30351919       1.75137631      20.47770366  T        1        1      -0.00085373       0.00271643       0.00290795
O        3.17911302       1.00736687      22.04769966  T        1        1       0.01260574       0.00076297      -0.00578816
O        0.74691114       3.66096295      18.63987988  T        1        1       0.00474755       0.00606798      -0.00125934
O        2.75712151       2.56583423      19.93158707  T        1        1       0.00547969      -0.00153714      -0.00732309
O       -1.32673480       2.13798210      22.68103462  T        1        1      -0.00109041       0.00198511       0.00461717
Si       7.23815181       0.00000000      12.00000000  F        0        2      -0.13259506      -0.36549026      -1.68959618
Si       3.76227409       2.00679893      15.60606667  F        0        2      -0.10155764       0.09486767       1.24572042
Si       6.22272410       2.25482548      13.80303333  F        0        2       0.02817393      -0.17045394       1.04762063
O        6.30416499       1.13103512      12.65233746  F        1        2      -0.50330333       0.20890884      -0.23228941
O        5.20877265       1.76346018      14.95372921  F        1        2       0.43999833      -0.24586830      -0.39307011
O        8.17066236       0.63242506      16.25840413  F        1        2      -0.17669123      -0.49574689       0.06901472
O        5.71021236       3.62919935      13.15069587  F        1        2       0.42242754       0.29178435       0.52155732
O        7.66922265       2.49816423      14.45537079  F        1        2       0.01597318       0.38821682      -0.74126657
O        3.84371499       3.13058929      16.75676254  F        1        2       0.10701388       0.20784317       0.10074113
Si       7.26484405      -0.02037360      17.46767034  T        0        1       0.00357405      -0.00116750      -0.00556288
Si       3.77241044       2.22698982      21.18052436  T        0        1      -0.00173060       0.00589246       0.00148425
Si       6.21040156       2.20139688      19.31821261  T        0        1       0.00290439       0.00182874      -0.00122515
O        6.29995321       1.10207706      18.10983950  T        1        1       0.00204328      -0.00092899      -0.00292487
O        5.14284895       1.74219584      20.43466806  T        1        1       0.00046250      -0.00143093       0.00123604
O        8.35023265       0.08465379      21.54629645  T        1        1      -0.00543426       0.00771036      -0.00678931
O        5.78688794       3.60221197      18.58679053  T        1        1       0.00279267       0.00600602       0.00220534
O        7.67107930       2.33053316      20.02036524  T        1        1       0.00172836       0.01056422       0.00222000
O        3.99857972       3.58716114      22.12817005  T        1        1      -0.00632539      -0.00052750      -0.00644722
F        3.03052074       1.16601765      24.62198555  T        0        0       0.00599099       0.00373419       0.01092406
H        3.12804523       1.04655589      23.05053304  T        0        0      -0.00053836       0.00081388      -0.00089761
F        4.54831081       1.31215740      26.31188489  T        0        0      -0.00461393      -0.00033669      -0.00746414
H        3.81652827       1.24084150      25.47413767  T        0        0      -0.00426059      -0.00042295      -0.01427066
40
Lattice="9.8418 0.0 0.0 -2.460449999999999 4.261624409482844 0.0 0.0 -0.0 34.16586254" Properties=species:S:1:pos:R:3:move_mask:L:1:spacegroup_kinds:I:1:tags:I:1:forces:R:3 surface=alpha_quartz_001 coadsorbate=HF start=1 calculation_kind="Local coadsorbate relaxation; not a reaction path" host_atoms=36 energy=-283.06852700950566 pbc="T T F"
Si       2.31725181       0.00000000      12.00000000  F        0        2      -0.13319897      -0.36562166      -1.69666037
Si      -1.15862590       2.00679893      15.60606667  F        0        2      -0.13711462       0.03614585       1.27321107
Si       1.30182410       2.25482548      13.80303333  F        0        2       0.04004641      -0.15618454       1.02964309
O        1.38326499       1.13103512      12.65233746  F        1        2      -0.50391041       0.21243928      -0.22301033
O        0.28787265       1.76346018      14.95372921  F        1        2       0.45785733      -0.24288548      -0.39620737
O        3.24976236       0.63242506      16.25840413  F        1        2      -0.26849253      -0.57565714       0.13140310
O        0.78931236       3.62919935      13.15069587  F        1        2       0.42187256       0.28761664       0.53100216
O        2.74832265       2.49816423      14.45537079  F        1        2      -0.00198568       0.38341732      -0.74229682
O       -1.07718501       3.13058929      16.75676254  F        1        2       0.01850203       0.45228156       0.20010440
Si       2.30206152       0.02365985      17.46345424  T        0        1       0.00120793       0.00379056      -0.00157212
Si      -1.17470422       1.67650751      21.12960472  T        0        1      -0.00762218       0.00215967      -0.00409620
Si       1.29747065       2.28187023      19.31086377  T        0        1      -0.00312083       0.00281305       0.00108944
O        1.36336152       1.18961730      18.07951840  T        1        1      -0.00486424       0.00157914      -0.00175599
O        0.30455948       1.75159091      20.47802098  T        1        1      -0.00178722       0.00572453       0.00432934
O        3.18055074       1.00961127      22.04876533  T        1        1       0.01155890      -0.00219062      -0.00393412
O        0.74770645       3.66093750      18.63970515  T        1        1       0.00311958       0.00466811      -0.00099269
O        2.75828292       2.56534348      19.93110294  T        1        1       0.00367257       0.00106827      -0.00753809
O       -1.32604067       2.13910671      22.68209195  T        1        1       0.00085677       0.00063638      -0.00054067
Si       7.23815181       0.00000000      12.00000000  F        0        2      -0.13259228      -0.36550592      -1.68957958
Si       3.76227409       2.00679893      15.60606667  F        0        2      -0.10180026       0.09460129       1.24613120
Si       6.22272410       2.25482548      13.80303333  F        0        2       0.02812326      -0.17046020       1.04764190
O        6.30416499       1.13103512      12.65233746  F        1        2      -0.50331106       0.20892051      -0.23230452
O        5.20877265       1.76346018      14.95372921  F        1        2       0.44012573      -0.24585771      -0.39308401
O        8.17066236       0.63242506      16.25840413  F        1        2      -0.17753754      -0.49600155       0.06991074
O        5.71021236       3.62919935      13.15069587  F        1        2       0.42244288       0.29177825       0.52154363
O        7.66922265       2.49816423      14.45537079  F        1        2       0.01597150       0.38824340      -0.74121646
O        3.84371499       3.13058929      16.75676254  F        1        2       0.10669605       0.20749370       0.09984556
Si       7.26483107      -0.02043338      17.46768776  T        0        1       0.00509251      -0.00122015      -0.00357706
Si       3.77378462       2.22834478      21.18038648  T        0        1      -0.00503921       0.00570576      -0.00026275
Si       6.21156316       2.20171124      19.31824374  T        0        1      -0.00154383       0.00137695      -0.00008382
O        6.29991446       1.10179231      18.11025465  T        1        1       0.00750905       0.00252405      -0.00289479
O        5.14357789       1.74243151      20.43426859  T        1        1       0.00215730       0.00005842       0.00755915
O        8.35001998       0.08605727      21.54572275  T        1        1      -0.00270207       0.00588005      -0.00239797
O        5.78683808       3.60220646      18.58687459  T        1        1       0.00741823       0.00592148       0.00061267
O        7.67204053       2.33131587      20.02092574  T        1        1      -0.00080590       0.01228730      -0.00143599
O        3.99822730       3.58960074      22.12684870  T        1        1      -0.00365782      -0.00110447      -0.00806950
F        3.03214247       1.17091576      24.62368962  T        0        0       0.00298914       0.00266334       0.00419679
H        3.12961405       1.04959107      23.05145791  T        0        0      -0.00101906       0.00140926      -0.00069073
F        4.55243378       1.32002038      26.31053936  T        0        0      -0.00050434      -0.00089425      -0.00390160
H        3.81957205       1.24716695      25.47399198  T        0        0      -0.00460969       0.00037954      -0.01012069
40
Lattice="9.8418 0.0 0.0 -2.460449999999999 4.261624409482844 0.0 0.0 -0.0 34.16586254" Properties=species:S:1:pos:R:3:move_mask:L:1:spacegroup_kinds:I:1:tags:I:1:forces:R:3 surface=alpha_quartz_001 coadsorbate=HF start=1 calculation_kind="Local coadsorbate relaxation; not a reaction path" host_atoms=36 energy=-283.0685676196285 pbc="T T F"
Si       2.31725181       0.00000000      12.00000000  F        0        2      -0.13320293      -0.36563267      -1.69670460
Si      -1.15862590       2.00679893      15.60606667  F        0        2      -0.13680178       0.03638213       1.27311234
Si       1.30182410       2.25482548      13.80303333  F        0        2       0.04000590      -0.15623151       1.02968786
O        1.38326499       1.13103512      12.65233746  F        1        2      -0.50392499       0.21244903      -0.22300444
O        0.28787265       1.76346018      14.95372921  F        1        2       0.45785062      -0.24289852      -0.39625119
O        3.24976236       0.63242506      16.25840413  F        1        2      -0.26574141      -0.57432459       0.12765822
O        0.78931236       3.62919935      13.15069587  F        1        2       0.42189987       0.28761815       0.53103316
O        2.74832265       2.49816423      14.45537079  F        1        2      -0.00194566       0.38336895      -0.74221060
O       -1.07718501       3.13058929      16.75676254  F        1        2       0.01993735       0.45329243       0.20153974
Si       2.30234293       0.02357677      17.46341509  T        0        1      -0.00114570       0.00245804       0.00033440
Si      -1.17426286       1.67782872      21.13032334  T        0        1      -0.00709730       0.00221021      -0.00675717
Si       1.29785517       2.28183153      19.31087025  T        0        1      -0.00330990       0.00241648      -0.00043643
O        1.36381948       1.18965357      18.07949287  T        1        1      -0.00685910       0.00005718      -0.00048631
O        0.30495328       1.75181381      20.47826697  T        1        1      -0.00159979       0.00841796       0.00355928
O        3.18157352       1.01258770      22.05072762  T        1        1       0.01000254      -0.00411167      -0.00200117
O        0.74834536       3.66088047      18.63942610  T        1        1       0.00113150       0.00427670      -0.00008284
O        2.75890724       2.56497901      19.93061415  T        1        1       0.00116077       0.00149748      -0.00707116
O       -1.32502306       2.14041340      22.68291599  T        1        1       0.00131594      -0.00018817      -0.00401561
Si       7.23815181       0.00000000      12.00000000  F        0        2      -0.13259730      -0.36552542      -1.68964623
Si       3.76227409       2.00679893      15.60606667  F        0        2      -0.10195422       0.09440478       1.24601034
Si       6.22272410       2.25482548      13.80303333  F        0        2       0.02814382      -0.17045191       1.04753120
O        6.30416499       1.13103512      12.65233746  F        1        2      -0.50334620       0.20895897      -0.23227145
O        5.20877265       1.76346018      14.95372921  F        1        2       0.44014895      -0.24587932      -0.39297147
O        8.17066236       0.63242506      16.25840413  F        1        2      -0.17736296      -0.49589999       0.06933366
O        5.71021236       3.62919935      13.15069587  F        1        2       0.42248166       0.29174880       0.52160366
O        7.66922265       2.49816423      14.45537079  F        1        2       0.01592786       0.38818173      -0.74116227
O        3.84371499       3.13058929      16.75676254  F        1        2       0.10737593       0.20805981       0.10008884
Si       7.26492518      -0.02049556      17.46767018  T        0        1       0.00417381      -0.00059708      -0.00059490
Si       3.77444164       2.23003793      21.18036169  T        0        1      -0.00519360       0.00279763      -0.00152615
Si       6.21210542       2.20197507      19.31837110  T        0        1      -0.00355307       0.00166952       0.00117889
O        6.30009799       1.10167465      18.11061194  T        1        1       0.00977901       0.00523677      -0.00126518
O        5.14391404       1.74301470      20.43441429  T        1        1       0.00386420       0.00083913       0.00887384
O        8.35002656       0.08738019      21.54578943  T        1        1      -0.00160726       0.00410854       0.00024259
O        5.78692676       3.60235606      18.58698688  T        1        1       0.00903409       0.00467454      -0.00113296
O        7.67237994       2.33240544      20.02152644  T        1        1      -0.00214502       0.01149444      -0.00324470
O        3.99759518       3.59270783      22.12483944  T        1        1      -0.00209757       0.00164807      -0.00706279
F        3.03506384       1.17788636      24.62650692  T        0        0      -0.00188402       0.00176726      -0.00386647
H        3.13121133       1.05376770      23.05332577  T        0        0      -0.00092678       0.00234425      -0.00298650
F        4.55869447       1.33154711      26.30931298  T        0        0       0.00316285      -0.00130522      -0.00067042
H        3.82424533       1.25647015      25.47439177  T        0        0      -0.00310011       0.00066707      -0.00436502
40
Lattice="9.8418 0.0 0.0 -2.460449999999999 4.261624409482844 0.0 0.0 -0.0 34.16586254" Properties=species:S:1:pos:R:3:move_mask:L:1:spacegroup_kinds:I:1:tags:I:1:forces:R:3 surface=alpha_quartz_001 coadsorbate=HF start=1 calculation_kind="Local coadsorbate relaxation; not a reaction path" host_atoms=36 energy=-283.06860078732456 pbc="T T F"
Si       2.31725181       0.00000000      12.00000000  F        0        2      -0.13321183      -0.36564073      -1.69674707
Si      -1.15862590       2.00679893      15.60606667  F        0        2      -0.13650479       0.03673483       1.27319806
Si       1.30182410       2.25482548      13.80303333  F        0        2       0.03990305      -0.15628964       1.02971852
O        1.38326499       1.13103512      12.65233746  F        1        2      -0.50392640       0.21245901      -0.22299744
O        0.28787265       1.76346018      14.95372921  F        1        2       0.45788842      -0.24292674      -0.39633287
O        3.24976236       0.63242506      16.25840413  F        1        2      -0.26399106      -0.57301366       0.12508044
O        0.78931236       3.62919935      13.15069587  F        1        2       0.42192759       0.28762345       0.53106651
O        2.74832265       2.49816423      14.45537079  F        1        2      -0.00188317       0.38334751      -0.74209950
O       -1.07718501       3.13058929      16.75676254  F        1        2       0.02105049       0.45406875       0.20242490
Si       2.30248876       0.02358372      17.46337506  T        0        1      -0.00355923       0.00105263       0.00160697
Si      -1.17419030       1.67888926      21.13081974  T        0        1      -0.00496225       0.00250557      -0.00760991
Si       1.29790306       2.28180062      19.31083015  T        0        1      -0.00294197       0.00213191      -0.00226246
O        1.36392908       1.18966140      18.07942221  T        1        1      -0.00790672      -0.00108443       0.00043572
O        0.30500902       1.75208626      20.47843473  T        1        1      -0.00116572       0.01030011       0.00234472
O        3.18243336       1.01542362      22.05262885  T        1        1       0.00809340      -0.00551711      -0.00236701
O        0.74878211       3.66092528      18.63919639  T        1        1      -0.00079295       0.00407193       0.00060761
O        2.75919381       2.56464095      19.93009077  T        1        1      -0.00040992       0.00122710      -0.00592321
O       -1.32403731       2.14155879      22.68353060  T        1        1       0.00108268      -0.00060983      -0.00598036
Si       7.23815181       0.00000000      12.00000000  F        0        2      -0.13259928      -0.36553884      -1.68970088
Si       3.76227409       2.00679893      15.60606667  F        0        2      -0.10201199       0.09428380       1.24565047
Si       6.22272410       2.25482548      13.80303333  F        0        2       0.02821648      -0.17043469       1.04744006
O        6.30416499       1.13103512      12.65233746  F        1        2      -0.50338114       0.20898574      -0.23224741
O        5.20877265       1.76346018      14.95372921  F        1        2       0.44011881      -0.24591394      -0.39282997
O        8.17066236       0.63242506      16.25840413  F        1        2      -0.17667088      -0.49562918       0.06797372
O        5.71021236       3.62919935      13.15069587  F        1        2       0.42250750       0.29172327       0.52165138
O        7.66922265       2.49816423      14.45537079  F        1        2       0.01585488       0.38810022      -0.74114534
O        3.84371499       3.13058929      16.75676254  F        1        2       0.10884944       0.20948192       0.10139381
Si       7.26509218      -0.02055970      17.46766085  T        0        1       0.00221606       0.00016752       0.00207863
Si       3.77468626       2.23170307      21.18035747  T        0        1      -0.00286291       0.00098304      -0.00397732
Si       6.21231087       2.20219219      19.31856504  T        0        1      -0.00370909       0.00233583       0.00171379
O        6.30046589       1.10168135      18.11093379  T        1        1       0.00993016       0.00671894       0.00055317
O        5.14405910       1.74364117      20.43478875  T        1        1       0.00453676       0.00194763       0.00797128
O        8.35020543       0.08845816      21.54613824  T        1        1      -0.00105527       0.00303407       0.00147476
O        5.78718973       3.60257158      18.58706687  T        1        1       0.00848590       0.00292243      -0.00258956
O        7.67240152       2.33347419      20.02209642  T        1        1      -0.00239555       0.00983726      -0.00371137
O        3.99696271       3.59604563      22.12248655  T        1        1      -0.00188852       0.00345820      -0.00565171
F        3.03827394       1.18489356      24.62909095  T        0        0      -0.00601066       0.00121008      -0.00942412
H        3.13270682       1.05798253      23.05505420  T        0        0      -0.00099846       0.00269884      -0.00263046
F        4.56490734       1.34296816      26.30839879  T        0        0       0.00419391      -0.00173199      -0.00026046
H        3.82894874       1.26575181      25.47485118  T        0        0      -0.00001577       0.00091920       0.00210392
40
Lattice="9.8418 0.0 0.0 -2.460449999999999 4.261624409482844 0.0 0.0 -0.0 34.16586254" Properties=species:S:1:pos:R:3:move_mask:L:1:spacegroup_kinds:I:1:tags:I:1:forces:R:3 surface=alpha_quartz_001 coadsorbate=HF start=1 calculation_kind="Local coadsorbate relaxation; not a reaction path" host_atoms=36 energy=-283.0686474185835 pbc="T T F"
Si       2.31725181       0.00000000      12.00000000  F        0        2      -0.13322552      -0.36564378      -1.69676664
Si      -1.15862590       2.00679893      15.60606667  F        0        2      -0.13622433       0.03687930       1.27356130
Si       1.30182410       2.25482548      13.80303333  F        0        2       0.03970849      -0.15637111       1.02981386
O        1.38326499       1.13103512      12.65233746  F        1        2      -0.50390318       0.21245760      -0.22300726
O        0.28787265       1.76346018      14.95372921  F        1        2       0.45800376      -0.24292619      -0.39653692
O        3.24976236       0.63242506      16.25840413  F        1        2      -0.26314905      -0.57145651       0.12320424
O        0.78931236       3.62919935      13.15069587  F        1        2       0.42194650       0.28764853       0.53107250
O        2.74832265       2.49816423      14.45537079  F        1        2      -0.00179809       0.38337554      -0.74199286
O       -1.07718501       3.13058929      16.75676254  F        1        2       0.02231447       0.45507128       0.20345081
Si       2.30247487       0.02373044      17.46332732  T        0        1      -0.00590941      -0.00053925       0.00230204
Si      -1.17412990       1.68012607      21.13131041  T        0        1      -0.00158604       0.00307999      -0.00734515
Si       1.29777651       2.28189751      19.31060990  T        0        1      -0.00211233       0.00171979      -0.00405292
O        1.36358470       1.18972342      18.07916966  T        1        1      -0.00787128      -0.00212055       0.00131486
O        0.30507070       1.75263879      20.47863578  T        1        1      -0.00039578       0.01211594       0.00058063
O        3.18358699       1.01854889      22.05465179  T        1        1       0.00513081      -0.00621008      -0.00197231
O        0.74916251       3.66127475      18.63900744  T        1        1      -0.00331289       0.00331371       0.00097293
O        2.75950934       2.56410472      19.92910357  T        1        1      -0.00236119       0.00067976      -0.00497648
O       -1.32278603       2.14292021      22.68417162  T        1        1       0.00053249      -0.00065219      -0.00749154
Si       7.23815181       0.00000000      12.00000000  F        0        2      -0.13259387      -0.36554373      -1.68971838
Si       3.76227409       2.00679893      15.60606667  F        0        2      -0.10198649       0.09416286       1.24504120
Si       6.22272410       2.25482548      13.80303333  F        0        2       0.02835395      -0.17041149       1.04741881
O        6.30416499       1.13103512      12.65233746  F        1        2      -0.50341398       0.20899475      -0.23224834
O        5.20877265       1.76346018      14.95372921  F        1        2       0.44004747      -0.24596598      -0.39265994
O        8.17066236       0.63242506      16.25840413  F        1        2      -0.17517879      -0.49512702       0.06529938
O        5.71021236       3.62919935      13.15069587  F        1        2       0.42251482       0.29170041       0.52165998
O        7.66922265       2.49816423      14.45537079  F        1        2       0.01574141       0.38802405      -0.74117793
O        3.84371499       3.13058929      16.75676254  F        1        2       0.11175404       0.21228427       0.10440415
Si       7.26542598      -0.02068897      17.46768663  T        0        1      -0.00062012       0.00099858       0.00422995
Si       3.77484380       2.23356464      21.18005333  T        0        1      -0.00023757      -0.00279750      -0.00565349
Si       6.21257002       2.20245810      19.31882948  T        0        1      -0.00261495       0.00316824       0.00183346
O        6.30123755       1.10177696      18.11134726  T        1        1       0.00839690       0.00729662       0.00263112
O        5.14429764       1.74435282      20.43528600  T        1        1       0.00568598       0.00364475       0.00495931
O        8.35064094       0.08976555      21.54676720  T        1        1      -0.00116539       0.00148667       0.00225189
O        5.78785709       3.60286635      18.58706647  T        1        1       0.00586070       0.00051197      -0.00407681
O        7.67243008       2.33480622      20.02276138  T        1        1      -0.00211007       0.00772281      -0.00347529
O        3.99600317       3.59985910      22.11934492  T        1        1      -0.00145869       0.00688213      -0.00319716
F        3.04238292       1.19375235      24.63141612  T        0        0      -0.00979458       0.00048489      -0.01312911
H        3.13438536       1.06305697      23.05695775  T        0        0      -0.00042960       0.00304563      -0.00407609
F        4.57207034       1.35619891      26.30728248  T        0        0       0.00503127      -0.00213157      -0.00014849
H        3.83462609       1.27686296      25.47511481  T        0        0       0.00243012       0.00114689       0.00770070
40
Lattice="9.8418 0.0 0.0 -2.460449999999999 4.261624409482844 0.0 0.0 -0.0 34.16586254" Properties=species:S:1:pos:R:3:move_mask:L:1:spacegroup_kinds:I:1:tags:I:1:forces:R:3 surface=alpha_quartz_001 coadsorbate=HF start=1 calculation_kind="Local coadsorbate relaxation; not a reaction path" host_atoms=36 energy=-283.0687156756622 pbc="T T F"
Si       2.31725181       0.00000000      12.00000000  F        0        2      -0.13324074      -0.36563686      -1.69670738
Si      -1.15862590       2.00679893      15.60606667  F        0        2      -0.13608137       0.03642401       1.27425420
Si       1.30182410       2.25482548      13.80303333  F        0        2       0.03941217      -0.15647999       1.03006765
O        1.38326499       1.13103512      12.65233746  F        1        2      -0.50383836       0.21242357      -0.22306803
O        0.28787265       1.76346018      14.95372921  F        1        2       0.45824328      -0.24284692      -0.39691343
O        3.24976236       0.63242506      16.25840413  F        1        2      -0.26376739      -0.56990286       0.12260662
O        0.78931236       3.62919935      13.15069587  F        1        2       0.42193490       0.28771211       0.53099711
O        2.74832265       2.49816423      14.45537079  F        1        2      -0.00170218       0.38347767      -0.74194048
O       -1.07718501       3.13058929      16.75676254  F        1        2       0.02393513       0.45657114       0.20501939
Si       2.30225709       0.02403631      17.46329810  T        0        1      -0.00762737      -0.00169219       0.00185149
Si      -1.17384885       1.68161409      21.13173648  T        0        1       0.00209021       0.00299569      -0.00631085
Si       1.29762783       2.28224971      19.31014751  T        0        1      -0.00095068       0.00127848      -0.00556293
O        1.36271126       1.18987645      18.07872508  T        1        1      -0.00663698      -0.00289816       0.00200898
O        0.30541375       1.75376686      20.47898812  T        1        1       0.00028991       0.01304140      -0.00112385
O        3.18552824       1.02168621      22.05628520  T        1        1       0.00054965      -0.00655131      -0.00520389
O        0.74948123       3.66207477      18.63893510  T        1        1      -0.00623017       0.00144684       0.00044323
O        2.76010307       2.56334178      19.92741211  T        1        1      -0.00347162       0.00014113      -0.00330262
O       -1.32143788       2.14419413      22.68482411  T        1        1      -0.00020093      -0.00008049      -0.00807343
Si       7.23815181       0.00000000      12.00000000  F        0        2      -0.13257030      -0.36553319      -1.68963165
Si       3.76227409       2.00679893      15.60606667  F        0        2      -0.10190373       0.09393741       1.24421411
Si       6.22272410       2.25482548      13.80303333  F        0        2       0.02858843      -0.17037266       1.04757114
O        6.30416499       1.13103512      12.65233746  F        1        2      -0.50343160       0.20895750      -0.23231558
O        5.20877265       1.76346018      14.95372921  F        1        2       0.43994209      -0.24602520      -0.39247743
O        8.17066236       0.63242506      16.25840413  F        1        2      -0.17273073      -0.49420668       0.06077790
O        5.71021236       3.62919935      13.15069587  F        1        2       0.42247252       0.29169707       0.52156515
O        7.66922265       2.49816423      14.45537079  F        1        2       0.01557806       0.38800018      -0.74129802
O        3.84371499       3.13058929      16.75676254  F        1        2       0.11639350       0.21700612       0.10971473
Si       7.26596116      -0.02089824      17.46776555  T        0        1      -0.00379419       0.00180049       0.00518129
Si       3.77516314       2.23563943      21.17931440  T        0        1       0.00327528      -0.00540794      -0.00812449
Si       6.21311939       2.20286112      19.31916081  T        0        1       0.00005485       0.00409920       0.00070734
O        6.30259175       1.10201571      18.11190439  T        1        1       0.00503609       0.00620935       0.00428833
O        5.14491981       1.74508094      20.43583157  T        1        1       0.00597519       0.00711497       0.00089484
O        8.35133158       0.09129277      21.54730298  T        1        1      -0.00091887       0.00012358       0.00239926
O        5.78913716       3.60325309      18.58686835  T        1        1       0.00075258      -0.00243810      -0.00518898
O        7.67272576       2.33648534      20.02344481  T        1        1      -0.00089822       0.00566699      -0.00256376
O        3.99488361       3.60443321      22.11519678  T        1        1      -0.00139606       0.00841699      -0.00125087
F        3.04697805       1.20387175      24.63288569  T        0        0      -0.01195763      -0.00026830      -0.01301888
H        3.13635903       1.06880174      23.05829843  T        0        0       0.00005978       0.00265969      -0.00100173
F        4.57944196       1.36977940      26.30592500  T        0        0       0.00401601      -0.00261651      -0.00207172
H        3.84065198       1.28870647      25.47489705  T        0        0       0.00474950       0.00175577       0.01258727
40
Lattice="9.8418 0.0 0.0 -2.460449999999999 4.261624409482844 0.0 0.0 -0.0 34.16586254" Properties=species:S:1:pos:R:3:move_mask:L:1:spacegroup_kinds:I:1:tags:I:1:forces:R:3 surface=alpha_quartz_001 coadsorbate=HF start=1 calculation_kind="Local coadsorbate relaxation; not a reaction path" host_atoms=36 energy=-283.0687943279737 pbc="T T F"
Si       2.31725181       0.00000000      12.00000000  F        0        2      -0.13325323      -0.36561828      -1.69656547
Si      -1.15862590       2.00679893      15.60606667  F        0        2      -0.13629218       0.03496434       1.27515736
Si       1.30182410       2.25482548      13.80303333  F        0        2       0.03908071      -0.15657818       1.03044007
O        1.38326499       1.13103512      12.65233746  F        1        2      -0.50373737       0.21236149      -0.22316990
O        0.28787265       1.76346018      14.95372921  F        1        2       0.45857495      -0.24265693      -0.39739254
O        3.24976236       0.63242506      16.25840413  F        1        2      -0.26648442      -0.56895457       0.12413382
O        0.78931236       3.62919935      13.15069587  F        1        2       0.42188476       0.28780396       0.53083360
O        2.74832265       2.49816423      14.45537079  F        1        2      -0.00162202       0.38367017      -0.74199814
O       -1.07718501       3.13058929      16.75676254  F        1        2       0.02537928       0.45829278       0.20687855
Si       2.30178350       0.02448132      17.46329953  T        0        1      -0.00707645      -0.00160400      -0.00001334
Si      -1.17317928       1.68309405      21.13187900  T        0        1       0.00457714       0.00242543      -0.00422673
Si       1.29762474       2.28293087      19.30945269  T        0        1       0.00029697       0.00096112      -0.00531899
O        1.36135946       1.19016002      18.07812384  T        1        1      -0.00399453      -0.00303015       0.00233059
O        0.30627403       1.75548278      20.47952698  T        1        1       0.00065362       0.01211865      -0.00241402
O        3.18805310       1.02295246      22.05627599  T        1        1      -0.00505074      -0.00522277      -0.00500911
O        0.74959964       3.66330835      18.63906439  T        1        1      -0.00849743      -0.00146540      -0.00130031
O        2.76110027       2.56253734      19.92516527  T        1        1      -0.00407021      -0.00020928      -0.00238768
O       -1.32043151       2.14514194      22.68518551  T        1        1      -0.00082998       0.00131925      -0.00731344
Si       7.23815181       0.00000000      12.00000000  F        0        2      -0.13252963      -0.36550288      -1.68943413
Si       3.76227409       2.00679893      15.60606667  F        0        2      -0.10178458       0.09360091       1.24339574
Si       6.22272410       2.25482548      13.80303333  F        0        2       0.02887295      -0.17032632       1.04791827
O        6.30416499       1.13103512      12.65233746  F        1        2      -0.50342062       0.20887256      -0.23244444
O        5.20877265       1.76346018      14.95372921  F        1        2       0.43982061      -0.24607422      -0.39234501
O        8.17066236       0.63242506      16.25840413  F        1        2      -0.16954364      -0.49284673       0.05475870
O        5.71021236       3.62919935      13.15069587  F        1        2       0.42237685       0.29171675       0.52135840
O        7.66922265       2.49816423      14.45537079  F        1        2       0.01542202       0.38809786      -0.74149422
O        3.84371499       3.13058929      16.75676254  F        1        2       0.12179385       0.22272672       0.11645784
Si       7.26661057      -0.02116634      17.46789317  T        0        1      -0.00582115       0.00207995       0.00314141
Si       3.77575260       2.23684072      21.17796019  T        0        1       0.00421294      -0.00823444      -0.00788838
Si       6.21414352       2.20338376      19.31935118  T        0        1       0.00342893       0.00452410      -0.00120112
O        6.30437432       1.10238334      18.11243309  T        1        1       0.00031248       0.00302410       0.00457819
O        5.14611467       1.74556924      20.43609496  T        1        1       0.00640623       0.01108388      -0.00354841
O        8.35191851       0.09287185      21.54754585  T        1        1      -0.00053234      -0.00121093       0.00177191
O        5.79092059       3.60362048      18.58637206  T        1        1      -0.00587281      -0.00446613      -0.00523907
O        7.67354898       2.33820673      20.02375829  T        1        1       0.00105453       0.00471776      -0.00131950
O        3.99375233       3.60725051      22.11178054  T        1        1      -0.00057383       0.00960013      -0.00010301
F        3.04982900       1.21109685      24.63177988  T        0        0      -0.01087785      -0.00098321      -0.00799362
H        3.13778890       1.07256733      23.05818696  T        0        0       0.00112677       0.00154086      -0.00137480
F        4.58312197       1.37681485      26.30441942  T        0        0       0.00341094      -0.00272580      -0.00296287
H        3.84406710       1.29574735      25.47364868  T        0        0       0.00317847       0.00220746       0.01130380
40
Lattice="9.8418 0.0 0.0 -2.460449999999999 4.261624409482844 0.0 0.0 -0.0 34.16586254" Properties=species:S:1:pos:R:3:move_mask:L:1:spacegroup_kinds:I:1:tags:I:1:forces:R:3 surface=alpha_quartz_001 coadsorbate=HF start=1 calculation_kind="Local coadsorbate relaxation; not a reaction path" host_atoms=36 energy=-283.0688604743481 pbc="T T F"
Si       2.31725181       0.00000000      12.00000000  F        0        2      -0.13325614      -0.36560058      -1.69640733
Si      -1.15862590       2.00679893      15.60606667  F        0        2      -0.13680170       0.03313213       1.27575556
Si       1.30182410       2.25482548      13.80303333  F        0        2       0.03888033      -0.15661593       1.03075077
O        1.38326499       1.13103512      12.65233746  F        1        2      -0.50365240       0.21230538      -0.22326358
O        0.28787265       1.76346018      14.95372921  F        1        2       0.45883994      -0.24244677      -0.39770613
O        3.24976236       0.63242506      16.25840413  F        1        2      -0.26988369      -0.56896849       0.12675549
O        0.78931236       3.62919935      13.15069587  F        1        2       0.42182270       0.28787674       0.53065804
O        2.74832265       2.49816423      14.45537079  F        1        2      -0.00158200       0.38386903      -0.74213067
O       -1.07718501       3.13058929      16.75676254  F        1        2       0.02597875       0.45962944       0.20829418
Si       2.30130292       0.02483629      17.46333627  T        0        1      -0.00444105      -0.00012754      -0.00243789
Si      -1.17235175       1.68401220      21.13153193  T        0        1       0.00415821       0.00107441      -0.00239901
Si       1.29795687       2.28370683      19.30888474  T        0        1       0.00078593       0.00088552      -0.00375634
O        1.36031183       1.19045429      18.07774800  T        1        1      -0.00171231      -0.00254019       0.00199520
O        0.30740675       1.75722915      20.48007812  T        1        1       0.00037188       0.00879209      -0.00223159
O        3.19037550       1.02124456      22.05407427  T        1        1      -0.00915531      -0.00319001      -0.00929451
O        0.74951379       3.66437485      18.63928933  T        1        1      -0.00846597      -0.00397529      -0.00329709
O        2.76225869       2.56219416      19.92333140  T        1        1      -0.00284170      -0.00045731      -0.00108233
O       -1.32037259       2.14517600      22.68498839  T        1        1      -0.00122014       0.00296673      -0.00503207
Si       7.23815181       0.00000000      12.00000000  F        0        2      -0.13248861      -0.36547179      -1.68922613
Si       3.76227409       2.00679893      15.60606667  F        0        2      -0.10179732       0.09316280       1.24291609
Si       6.22272410       2.25482548      13.80303333  F        0        2       0.02910328      -0.17027508       1.04827377
O        6.30416499       1.13103512      12.65233746  F        1        2      -0.50339446       0.20878292      -0.23256924
O        5.20877265       1.76346018      14.95372921  F        1        2       0.43972909      -0.24608430      -0.39227573
O        8.17066236       0.63242506      16.25840413  F        1        2      -0.16686007      -0.49136002       0.04932029
O        5.71021236       3.62919935      13.15069587  F        1        2       0.42227066       0.29174884       0.52114097
O        7.66922265       2.49816423      14.45537079  F        1        2       0.01534316       0.38828113      -0.74167181
O        3.84371499       3.13058929      16.75676254  F        1        2       0.12499298       0.22668221       0.12122227
Si       7.26703478      -0.02134346      17.46796819  T        0        1      -0.00546691       0.00195857      -0.00054371
Si       3.77651873       2.23652078      21.17662344  T        0        1       0.00339355      -0.00636241      -0.00655803
Si       6.21534303       2.20392778      19.31924405  T        0        1       0.00577133       0.00436732      -0.00333289
O        6.30581470       1.10278376      18.11267990  T        1        1      -0.00348859      -0.00067821       0.00312547
O        5.14761588       1.74568223      20.43592622  T        1        1       0.00499621       0.01396689      -0.00481488
O        8.35178519       0.09386267      21.54696664  T        1        1       0.00107059      -0.00087411       0.00045696
O        5.79234346       3.60385776      18.58574961  T        1        1      -0.01028954      -0.00446787      -0.00401622
O        7.67471628       2.33952375      20.02341824  T        1        1       0.00298614       0.00500414      -0.00063831
O        3.99327544       3.60701405      22.11087591  T        1        1      -0.00020344       0.00622025      -0.00165823
F        3.04859905       1.21014381      24.62826389  T        0        0      -0.00656770      -0.00102447      -0.00010062
H        3.13794039       1.07179582      23.05579872  T        0        0       0.00123539      -0.00029714       0.00405999
F        4.57996054       1.37161463      26.30362095  T        0        0       0.00154188      -0.00253945      -0.00449087
H        3.84193905       1.29249209      25.47182004  T        0        0       0.00029704       0.00265043       0.00621015
40
Lattice="9.8418 0.0 0.0 -2.460449999999999 4.261624409482844 0.0 0.0 -0.0 34.16586254" Properties=species:S:1:pos:R:3:move_mask:L:1:spacegroup_kinds:I:1:tags:I:1:forces:R:3 surface=alpha_quartz_001 coadsorbate=HF start=1 calculation_kind="Local coadsorbate relaxation; not a reaction path" host_atoms=36 energy=-283.0689078596433 pbc="T T F"
Si       2.31725181       0.00000000      12.00000000  F        0        2      -0.13325573      -0.36559586      -1.69634888
Si      -1.15862590       2.00679893      15.60606667  F        0        2      -0.13734497       0.03173319       1.27587422
Si       1.30182410       2.25482548      13.80303333  F        0        2       0.03883876      -0.15658937       1.03081128
O        1.38326499       1.13103512      12.65233746  F        1        2      -0.50362234       0.21229992      -0.22328031
O        0.28787265       1.76346018      14.95372921  F        1        2       0.45893875      -0.24231852      -0.39773653
O        3.24976236       0.63242506      16.25840413  F        1        2      -0.27245993      -0.56933942       0.12882444
O        0.78931236       3.62919935      13.15069587  F        1        2       0.42179700       0.28789069       0.53058294
O        2.74832265       2.49816423      14.45537079  F        1        2      -0.00155771       0.38400771      -0.74223168
O       -1.07718501       3.13058929      16.75676254  F        1        2       0.02554740       0.46017727       0.20868996
Si       2.30097031       0.02502285      17.46335914  T        0        1      -0.00111822       0.00143739      -0.00379026
Si      -1.17175026       1.68450189      21.13093147  T        0        1       0.00205232       0.00046712      -0.00079458
Si       1.29843053       2.28431364      19.30861309  T        0        1       0.00056420       0.00072594      -0.00150431
O        1.35985570       1.19065658      18.07769144  T        1        1      -0.00047906      -0.00189664       0.00123546
O        0.30833023       1.75847588      20.48046068  T        1        1      -0.00007745       0.00471925      -0.00140294
O        3.19175948       1.01702709      22.05053944  T        1        1      -0.01104444       0.00012339      -0.00526097
O        0.74934286       3.66493270      18.63942429  T        1        1      -0.00656964      -0.00500605      -0.00449519
O        2.76317955       2.56230236      19.92243555  T        1        1      -0.00156482      -0.00066522      -0.00079328
O       -1.32092217       2.14524424      22.68435750  T        1        1      -0.00149946       0.00396595      -0.00289595
Si       7.23815181       0.00000000      12.00000000  F        0        2      -0.13246879      -0.36545766      -1.68914905
Si       3.76227409       2.00679893      15.60606667  F        0        2      -0.10191304       0.09283872       1.24275914
Si       6.22272410       2.25482548      13.80303333  F        0        2       0.02921655      -0.17023126       1.04841806
O        6.30416499       1.13103512      12.65233746  F        1        2      -0.50338376       0.20874921      -0.23260307
O        5.20877265       1.76346018      14.95372921  F        1        2       0.43965562      -0.24608090      -0.39222908
O        8.17066236       0.63242506      16.25840413  F        1        2      -0.16509334      -0.49004831       0.04551133
O        5.71021236       3.62919935      13.15069587  F        1        2       0.42221897       0.29175833       0.52104812
O        7.66922265       2.49816423      14.45537079  F        1        2       0.01535810       0.38845632      -0.74174937
O        3.84371499       3.13058929      16.75676254  F        1        2       0.12522264       0.22786952       0.12270522
Si       7.26713089      -0.02137159      17.46794507  T        0        1      -0.00368261       0.00153146      -0.00420768
Si       3.77711924       2.23470118      21.17564435  T        0        1       0.00005855      -0.00409165      -0.00268044
Si       6.21636416       2.20440479      19.31882938  T        0        1       0.00588739       0.00374198      -0.00398882
O        6.30652736       1.10313127      18.11256273  T        1        1      -0.00539265      -0.00310473       0.00115858
O        5.14896768       1.74563035      20.43543665  T        1        1       0.00388015       0.01373307      -0.00382769
O        8.35072300       0.09458252      21.54634030  T        1        1       0.00259417      -0.00004342      -0.00082544
O        5.79292667       3.60397950      18.58524835  T        1        1      -0.01104471      -0.00252269      -0.00244786
O        7.67579682       2.34046921      20.02261177  T        1        1       0.00408828       0.00559545      -0.00085490
O        3.99311749       3.60339332      22.11290043  T        1        1       0.00049482       0.00335142      -0.00383295
F        3.04391999       1.20196777      24.62350344  T        0        0      -0.00180602      -0.00038141       0.00547626
H        3.13678665       1.06686657      23.05248798  T        0        0       0.00151834      -0.00213002       0.00090234
F        4.57137143       1.35748224      26.30336530  T        0        0       0.00125155      -0.00196095      -0.00381633
H        3.83536341       1.28123484      25.46977815  T        0        0      -0.00380487       0.00229078      -0.00124981
40
Lattice="9.8418 0.0 0.0 -2.460449999999999 4.261624409482844 0.0 0.0 -0.0 34.16586254" Properties=species:S:1:pos:R:3:move_mask:L:1:spacegroup_kinds:I:1:tags:I:1:forces:R:3 surface=alpha_quartz_001 coadsorbate=HF start=1 calculation_kind="Local coadsorbate relaxation; not a reaction path" host_atoms=36 energy=-283.0689373174724 pbc="T T F"
Si       2.31725181       0.00000000      12.00000000  F        0        2      -0.13325676      -0.36561047      -1.69640718
Si      -1.15862590       2.00679893      15.60606667  F        0        2      -0.13760150       0.03139498       1.27560074
Si       1.30182410       2.25482548      13.80303333  F        0        2       0.03889192      -0.15654048       1.03066848
O        1.38326499       1.13103512      12.65233746  F        1        2      -0.50364870       0.21234232      -0.22322921
O        0.28787265       1.76346018      14.95372921  F        1        2       0.45889163      -0.24232668      -0.39755484
O        3.24976236       0.63242506      16.25840413  F        1        2      -0.27308033      -0.56922901       0.12887438
O        0.78931236       3.62919935      13.15069587  F        1        2       0.42182121       0.28785767       0.53062526
O        2.74832265       2.49816423      14.45537079  F        1        2      -0.00152338       0.38405282      -0.74222961
O       -1.07718501       3.13058929      16.75676254  F        1        2       0.02461186       0.46027442       0.20828662
Si       2.30085652       0.02507273      17.46333371  T        0        1       0.00068928       0.00192391      -0.00357279
Si      -1.17145725       1.68477078      21.13040186  T        0        1       0.00006160       0.00023224      -0.00061272
Si       1.29889195       2.28467745      19.30860766  T        0        1      -0.00012122       0.00025542      -0.00042068
O        1.35998621       1.19076575      18.07787539  T        1        1      -0.00081915      -0.00165817       0.00041067
O        0.30886677       1.75918975      20.48066308  T        1        1      -0.00013280       0.00153934      -0.00052874
O        3.19228334       1.01369005      22.04788900  T        1        1      -0.01034282       0.00285189      -0.00696576
O        0.74921611       3.66497893      18.63935239  T        1        1      -0.00388958      -0.00453298      -0.00408090
O        2.76378472       2.56269933      19.92221004  T        1        1      -0.00026164      -0.00136212       0.00056948
O       -1.32146902       2.14530303      22.68376381  T        1        1      -0.00189754       0.00407963      -0.00132257
Si       7.23815181       0.00000000      12.00000000  F        0        2      -0.13247130      -0.36547080      -1.68922701
Si       3.76227409       2.00679893      15.60606667  F        0        2      -0.10214304       0.09266434       1.24263012
Si       6.22272410       2.25482548      13.80303333  F        0        2       0.02926616      -0.17019058       1.04828793
O        6.30416499       1.13103512      12.65233746  F        1        2      -0.50341266       0.20878413      -0.23254589
O        5.20877265       1.76346018      14.95372921  F        1        2       0.43959786      -0.24609200      -0.39209539
O        8.17066236       0.63242506      16.25840413  F        1        2      -0.16427770      -0.48894119       0.04332203
O        5.71021236       3.62919935      13.15069587  F        1        2       0.42223822       0.29173455       0.52110675
O        7.66922265       2.49816423      14.45537079  F        1        2       0.01539494       0.38852190      -0.74172392
O        3.84371499       3.13058929      16.75676254  F        1        2       0.12331717       0.22681728       0.12130905
Si       7.26700624      -0.02130980      17.46781895  T        0        1      -0.00212818       0.00154195      -0.00481331
Si       3.77750058       2.23321489      21.17527103  T        0        1      -0.00191224      -0.00001181       0.00029576
Si       6.21703291       2.20478656      19.31841327  T        0        1       0.00439893       0.00340659      -0.00346636
O        6.30662169       1.10328336      18.11241159  T        1        1      -0.00535834      -0.00306796      -0.00002430
O        5.14991623       1.74584670      20.43511490  T        1        1       0.00162642       0.01173553      -0.00091371
O        8.34958305       0.09500277      21.54565886  T        1        1       0.00404547       0.00153679      -0.00149189
O        5.79279890       3.60402761      18.58495935  T        1        1      -0.00854026      -0.00058181      -0.00139765
O        7.67655084       2.34127764      20.02187987  T        1        1       0.00393905       0.00511385      -0.00189758
O        3.99318124       3.60041728      22.11512087  T        1        1       0.00040224      -0.00112971      -0.00644285
F        3.03949184       1.19360638      24.62071087  T        0        0       0.00088502       0.00066678       0.00632977
H        3.13564826       1.06219476      23.04983873  T        0        0       0.00097345      -0.00298152       0.00286153
F        4.56400054       1.34541662      26.30365385  T        0        0       0.00061531      -0.00144807      -0.00393858
H        3.82938140       1.27100034      25.46874809  T        0        0      -0.00484859       0.00184704      -0.00427514
40
Lattice="9.8418 0.0 0.0 -2.460449999999999 4.261624409482844 0.0 0.0 -0.0 34.16586254" Properties=species:S:1:pos:R:3:move_mask:L:1:spacegroup_kinds:I:1:tags:I:1:forces:R:3 surface=alpha_quartz_001 coadsorbate=HF start=1 calculation_kind="Local coadsorbate relaxation; not a reaction path" host_atoms=36 energy=-283.0689620120769 pbc="T T F"
Si       2.31725181       0.00000000      12.00000000  F        0        2      -0.13326559      -0.36563677      -1.69655282
Si      -1.15862590       2.00679893      15.60606667  F        0        2      -0.13764024       0.03166825       1.27523557
Si       1.30182410       2.25482548      13.80303333  F        0        2       0.03893481      -0.15650315       1.03041716
O        1.38326499       1.13103512      12.65233746  F        1        2      -0.50370074       0.21241581      -0.22313472
O        0.28787265       1.76346018      14.95372921  F        1        2       0.45880544      -0.24241048      -0.39731880
O        3.24976236       0.63242506      16.25840413  F        1        2      -0.27258502      -0.56842801       0.12752579
O        0.78931236       3.62919935      13.15069587  F        1        2       0.42188352       0.28780389       0.53074723
O        2.74832265       2.49816423      14.45537079  F        1        2      -0.00146757       0.38404762      -0.74214369
O       -1.07718501       3.13058929      16.75676254  F        1        2       0.02350671       0.46007527       0.20736486
Si       2.30081996       0.02510826      17.46325173  T        0        1       0.00117100       0.00127856      -0.00207455
Si      -1.17129044       1.68529565      21.13015111  T        0        1      -0.00077663       0.00081998      -0.00069746
Si       1.29922331       2.28490513      19.30864069  T        0        1      -0.00060284      -0.00044387      -0.00010085
O        1.36021436       1.19081408      18.07807152  T        1        1      -0.00167543      -0.00176115      -0.00020459
O        0.30919422       1.75976078      20.48083849  T        1        1       0.00026253      -0.00049886      -0.00021863
O        3.19247470       1.01214611      22.04661040  T        1        1      -0.00924997       0.00518517      -0.00140934
O        0.74914639       3.66484633      18.63912956  T        1        1      -0.00147258      -0.00327396      -0.00283308
O        2.76420534       2.56299577      19.92208517  T        1        1      -0.00013722      -0.00198437       0.00112464
O       -1.32156782       2.14605452      22.68341388  T        1        1      -0.00233647       0.00367630      -0.00075275
Si       7.23815181       0.00000000      12.00000000  F        0        2      -0.13248664      -0.36549932      -1.68940327
Si       3.76227409       2.00679893      15.60606667  F        0        2      -0.10234851       0.09271749       1.24236588
Si       6.22272410       2.25482548      13.80303333  F        0        2       0.02931951      -0.17015015       1.04799798
O        6.30416499       1.13103512      12.65233746  F        1        2      -0.50347342       0.20886355      -0.23243540
O        5.20877265       1.76346018      14.95372921  F        1        2       0.43952839      -0.24614939      -0.39186655
O        8.17066236       0.63242506      16.25840413  F        1        2      -0.16382755      -0.48772884       0.04155510
O        5.71021236       3.62919935      13.15069587  F        1        2       0.42230304       0.29168150       0.52125721
O        7.66922265       2.49816423      14.45537079  F        1        2       0.01541158       0.38851352      -0.74165943
O        3.84371499       3.13058929      16.75676254  F        1        2       0.12118243       0.22541086       0.11927341
Si       7.26686820      -0.02124124      17.46766515  T        0        1      -0.00147720       0.00159290      -0.00363797
Si       3.77775253       2.23257777      21.17510997  T        0        1      -0.00322204       0.00227894       0.00254195
Si       6.21757921       2.20516505      19.31808319  T        0        1       0.00196367       0.00315383      -0.00187993
O        6.30655667       1.10327428      18.11242580  T        1        1      -0.00461405      -0.00169667      -0.00026322
O        5.15063816       1.74658325      20.43506294  T        1        1       0.00041832       0.00841254       0.00134633
O        8.34885399       0.09570334      21.54552229  T        1        1       0.00467866       0.00257947      -0.00164865
O        5.79254917       3.60405982      18.58471711  T        1        1      -0.00506264       0.00111899      -0.00091266
O        7.67711570       2.34221595      20.02140840  T        1        1       0.00324723       0.00362144      -0.00314047
O        3.99301221       3.59902927      22.11629109  T        1        1       0.00035820      -0.00283976      -0.00748843
F        3.03718336       1.18956275      24.61991989  T        0        0       0.00098914       0.00151730       0.00292020
H        3.13523421       1.05993890      23.04874447  T        0        0       0.00078764      -0.00338205      -0.00248833
F        4.56078461       1.34069125      26.30356126  T        0        0       0.00127526      -0.00094817      -0.00277873
H        3.82653564       1.26672662      25.46834950  T        0        0      -0.00460474       0.00090179      -0.00462897
40
Lattice="9.8418 0.0 0.0 -2.460449999999999 4.261624409482844 0.0 0.0 -0.0 34.16586254" Properties=species:S:1:pos:R:3:move_mask:L:1:spacegroup_kinds:I:1:tags:I:1:forces:R:3 surface=alpha_quartz_001 coadsorbate=HF start=1 calculation_kind="Local coadsorbate relaxation; not a reaction path" host_atoms=36 energy=-283.0689895870382 pbc="T T F"
Si       2.31725181       0.00000000      12.00000000  F        0        2      -0.13328402      -0.36567706      -1.69677048
Si      -1.15862590       2.00679893      15.60606667  F        0        2      -0.13752211       0.03238109       1.27483563
Si       1.30182410       2.25482548      13.80303333  F        0        2       0.03893509      -0.15648901       1.03010621
O        1.38326499       1.13103512      12.65233746  F        1        2      -0.50377143       0.21251718      -0.22301078
O        0.28787265       1.76346018      14.95372921  F        1        2       0.45872614      -0.24255061      -0.39706310
O        3.24976236       0.63242506      16.25840413  F        1        2      -0.27144459      -0.56669619       0.12498263
O        0.78931236       3.62919935      13.15069587  F        1        2       0.42198111       0.28773946       0.53092749
O        2.74832265       2.49816423      14.45537079  F        1        2      -0.00137815       0.38402637      -0.74199355
O       -1.07718501       3.13058929      16.75676254  F        1        2       0.02203218       0.45948197       0.20578083
Si       2.30077832       0.02518435      17.46310348  T        0        1       0.00063536      -0.00030527       0.00012661
Si      -1.17106337       1.68619472      21.13006680  T        0        1      -0.00067848       0.00180518      -0.00111548
Si       1.29951953       2.28513454      19.30857836  T        0        1      -0.00097925      -0.00145798      -0.00070057
O        1.36035219       1.19079446      18.07824933  T        1        1      -0.00279266      -0.00201907      -0.00086522
O        0.30953984       1.76060707      20.48106754  T        1        1       0.00120433      -0.00236554       0.00004069
O        3.19269039       1.01274896      22.04656899  T        1        1      -0.00740065       0.00650227      -0.00139579
O        0.74911882       3.66466387      18.63871552  T        1        1       0.00117259      -0.00132621      -0.00066511
O        2.76468854       2.56313181      19.92163571  T        1        1      -0.00052377      -0.00262191       0.00159364
O       -1.32119706       2.14718594      22.68328440  T        1        1      -0.00298012       0.00313363      -0.00036656
Si       7.23815181       0.00000000      12.00000000  F        0        2      -0.13250648      -0.36554431      -1.68965671
Si       3.76227409       2.00679893      15.60606667  F        0        2      -0.10260399       0.09289333       1.24180505
Si       6.22272410       2.25482548      13.80303333  F        0        2       0.02944830      -0.17008503       1.04757228
O        6.30416499       1.13103512      12.65233746  F        1        2      -0.50357384       0.20897941      -0.23228809
O        5.20877265       1.76346018      14.95372921  F        1        2       0.43942841      -0.24626404      -0.39146984
O        8.17066236       0.63242506      16.25840413  F        1        2      -0.16338451      -0.48595502       0.03908941
O        5.71021236       3.62919935      13.15069587  F        1        2       0.42239952       0.29160049       0.52147299
O        7.66922265       2.49816423      14.45537079  F        1        2       0.01537585       0.38845250      -0.74159457
O        3.84371499       3.13058929      16.75676254  F        1        2       0.11885556       0.22407359       0.11693290
Si       7.26674913      -0.02117638      17.46746070  T        0        1      -0.00154178       0.00191441      -0.00044356
Si       3.77805548       2.23308863      21.17493570  T        0        1      -0.00291483       0.00460877       0.00317738
Si       6.21826119       2.20571283      19.31784097  T        0        1      -0.00117004       0.00291052       0.00013930
O        6.30656662       1.10316355      18.11272071  T        1        1      -0.00364012       0.00075799       0.00013679
O        5.15145980       1.74805955      20.43532101  T        1        1      -0.00114675       0.00382699       0.00368390
O        8.34872346       0.09669885      21.54550711  T        1        1       0.00512567       0.00375416      -0.00157424
O        5.79235327       3.60412262      18.58437732  T        1        1      -0.00045739       0.00252939      -0.00060126
O        7.67776439       2.34361835      20.02114608  T        1        1       0.00197577       0.00080484      -0.00473268
O        3.99266527       3.60006781      22.11559725  T        1        1      -0.00020645      -0.00364847      -0.00695539
F        3.03710996       1.19017738      24.62097106  T        0        0      -0.00076591       0.00218061      -0.00247580
H        3.13580226       1.06047832      23.04863340  T        0        0      -0.00009297      -0.00319390      -0.00268954
F        4.56183905       1.34335977      26.30307415  T        0        0       0.00156370      -0.00053267      -0.00202920
H        3.82684610       1.26854788      25.46851528  T        0        0      -0.00209926      -0.00014185      -0.00194623
