36
Lattice="11.518769465528859 0.0 0.0 3.839589821842953 6.650364651656328 0.0 0.0 0.0 32.62128289467409" Properties=species:S:1:pos:R:3:move_mask:L:1:tags:I:1:forces:R:3 energy=-167.1971803444898 pbc="T T F"
Si       1.91979491       1.10839411      12.00000000  F        6       0.00000001       0.00000005       0.17453865
Si       5.75938473       1.10839411      12.00000000  F        6      -0.00000000       0.00000005       0.17453865
Si       9.59897455       1.10839411      12.00000000  F        6      -0.00000002       0.00000003       0.17453865
Si       3.83958982       4.43357643      12.00000000  F        6      -0.00000001      -0.00000005       0.17453865
Si       7.67917964       4.43357643      12.00000000  F        6      -0.00000002      -0.00000004       0.17453865
Si      11.51876947       4.43357643      12.00000000  F        6       0.00000005      -0.00000003       0.17453865
Si       1.91979491       1.10839411      14.35125897  F        5       0.00000000      -0.00000003      -0.36100011
Si       5.75938473       1.10839411      14.35125897  F        5      -0.00000000      -0.00000002      -0.36100011
Si       9.59897455       1.10839411      14.35125897  F        5       0.00000003      -0.00000001      -0.36100011
Si       3.83958982       4.43357643      14.35125897  F        5       0.00000000       0.00000004      -0.36100013
Si       7.67917964       4.43357643      14.35125897  F        5      -0.00000001       0.00000004      -0.36100013
Si      11.51876947       4.43357643      14.35125897  F        5      -0.00000008       0.00000006      -0.36100013
Si      -0.00000000       2.21678822      15.13501196  F        4      -0.00000003      -0.00000009       0.14805730
Si       3.83958982       2.21678822      15.13501196  F        4       0.00000000      -0.00000008       0.14805731
Si       7.67917964       2.21678822      15.13501196  F        4       0.00000000      -0.00000008       0.14805731
Si       1.91979491       5.54197054      15.13501196  F        4       0.00000002       0.00000007       0.14805722
Si       5.75938473       5.54197054      15.13501196  F        4       0.00000001       0.00000005       0.14805721
Si       9.59897455       5.54197054      15.13501196  F        4       0.00000006       0.00000003       0.14805719
Si      -0.00000000       2.21678822      17.51842541  T        3      -0.00000000       0.00000000       0.01218568
Si       3.83958982       2.21678822      17.51842541  T        3       0.00000000       0.00000000       0.01218566
Si       7.67917964       2.21678822      17.51842541  T        3      -0.00000000       0.00000001       0.01218567
Si       1.91979491       5.54197054      17.51842541  T        3       0.00000000      -0.00000000       0.01218565
Si       5.75938473       5.54197054      17.51842541  T        3       0.00000000      -0.00000001       0.01218564
Si       9.59897455       5.54197054      17.51842541  T        3      -0.00000000      -0.00000000       0.01218564
Si      -0.00000000      -0.00000001      18.34176302  T        2       0.00000002      -0.00000013       0.03574646
Si       3.83958982      -0.00000001      18.34176302  T        2      -0.00000000      -0.00000011       0.03574645
Si       7.67917964      -0.00000001      18.34176302  T        2      -0.00000002      -0.00000011       0.03574646
Si       1.91979491       3.32518233      18.34176302  T        2       0.00000002       0.00000010       0.03574645
Si       5.75938473       3.32518233      18.34176302  T        2      -0.00000000       0.00000011       0.03574644
Si       9.59897455       3.32518233      18.34176302  T        2      -0.00000002       0.00000012       0.03574645
Si       0.00000007      -0.00000036      20.66763486  T        1       0.00000066      -0.00000499      -0.00952790
Si       3.83958982      -0.00000033      20.66763486  T        1       0.00000002      -0.00000462      -0.00952788
Si       7.67917957      -0.00000029      20.66763486  T        1      -0.00000064      -0.00000427      -0.00952790
Si       1.91979498       3.32518262      20.66763486  T        1       0.00000064       0.00000427      -0.00952790
Si       5.75938473       3.32518266      20.66763486  T        1      -0.00000002       0.00000463      -0.00952788
Si       9.59897448       3.32518270      20.66763486  T        1      -0.00000066       0.00000499      -0.00952790
