37
Lattice="11.518769465528859 0.0 0.0 0.0 7.679179643685906 0.0 0.0 0.0 26.7875" Properties=species:S:1:pos:R:3:move_mask:L:1:tags:I:1 pbc="T T F"
Si       0.00000000       0.00000000      10.00000000  F        6
Si       3.83958982       0.00000000      10.00000000  F        6
Si       7.67917964       0.00000000      10.00000000  F        6
Si       0.00000000       3.83958982      10.00000000  F        6
Si       3.83958982       3.83958982      10.00000000  F        6
Si       7.67917964       3.83958982      10.00000000  F        6
Si       1.91979491       0.00000000      11.35750000  F        5
Si       5.75938473       0.00000000      11.35750000  F        5
Si       9.59897455       0.00000000      11.35750000  F        5
Si       1.91979491       3.83958982      11.35750000  F        5
Si       5.75938473       3.83958982      11.35750000  F        5
Si       9.59897455       3.83958982      11.35750000  F        5
Si       1.91979491       1.91979491      12.71500000  F        4
Si       5.75938473       1.91979491      12.71500000  F        4
Si       9.59897455       1.91979491      12.71500000  F        4
Si       1.91979491       5.75938473      12.71500000  F        4
Si       5.75938473       5.75938473      12.71500000  F        4
Si       9.59897455       5.75938473      12.71500000  F        4
Si       0.00000000       1.91979491      14.07250000  F        3
Si       3.83958982       1.91979491      14.07250000  F        3
Si       7.67917964       1.91979491      14.07250000  F        3
Si       0.00000000       5.75938473      14.07250000  F        3
Si       3.83958982       5.75938473      14.07250000  F        3
Si       7.67917964       5.75938473      14.07250000  F        3
Si       0.00000000       0.00000000      15.43000000  F        2
Si       3.83958982       0.00000000      15.43000000  F        2
Si       7.67917964       0.00000000      15.43000000  F        2
Si       0.00000000       3.83958982      15.43000000  F        2
Si       3.83958982       3.83958982      15.43000000  F        2
Si       7.67917964       3.83958982      15.43000000  F        2
Si       1.91979491       0.00000000      16.78750000  F        1
Si       5.75938473       0.00000000      16.78750000  F        1
Si       9.59897455       0.00000000      16.78750000  F        1
Si       1.91979491       3.83958982      16.78750000  F        1
Si       5.75938473       3.83958982      16.78750000  F        1
Si       9.59897455       3.83958982      16.78750000  F        1
Cl       2.41185171       1.91984109      17.79113820  T        0
37
Lattice="11.518769465528859 0.0 0.0 0.0 7.679179643685906 0.0 0.0 0.0 26.7875" Properties=species:S:1:pos:R:3:move_mask:L:1:tags:I:1 pbc="T T F"
Si       0.00000000       0.00000000      10.00000000  F        6
Si       3.83958982       0.00000000      10.00000000  F        6
Si       7.67917964       0.00000000      10.00000000  F        6
Si       0.00000000       3.83958982      10.00000000  F        6
Si       3.83958982       3.83958982      10.00000000  F        6
Si       7.67917964       3.83958982      10.00000000  F        6
Si       1.91979491       0.00000000      11.35750000  F        5
Si       5.75938473       0.00000000      11.35750000  F        5
Si       9.59897455       0.00000000      11.35750000  F        5
Si       1.91979491       3.83958982      11.35750000  F        5
Si       5.75938473       3.83958982      11.35750000  F        5
Si       9.59897455       3.83958982      11.35750000  F        5
Si       1.91979491       1.91979491      12.71500000  F        4
Si       5.75938473       1.91979491      12.71500000  F        4
Si       9.59897455       1.91979491      12.71500000  F        4
Si       1.91979491       5.75938473      12.71500000  F        4
Si       5.75938473       5.75938473      12.71500000  F        4
Si       9.59897455       5.75938473      12.71500000  F        4
Si       0.00000000       1.91979491      14.07250000  F        3
Si       3.83958982       1.91979491      14.07250000  F        3
Si       7.67917964       1.91979491      14.07250000  F        3
Si       0.00000000       5.75938473      14.07250000  F        3
Si       3.83958982       5.75938473      14.07250000  F        3
Si       7.67917964       5.75938473      14.07250000  F        3
Si       0.00000000       0.00000000      15.43000000  F        2
Si       3.83958982       0.00000000      15.43000000  F        2
Si       7.67917964       0.00000000      15.43000000  F        2
Si       0.00000000       3.83958982      15.43000000  F        2
Si       3.83958982       3.83958982      15.43000000  F        2
Si       7.67917964       3.83958982      15.43000000  F        2
Si       1.91979491       0.00000000      16.78750000  F        1
Si       5.75938473       0.00000000      16.78750000  F        1
Si       9.59897455       0.00000000      16.78750000  F        1
Si       1.91979491       3.83958982      16.78750000  F        1
Si       5.75938473       3.83958982      16.78750000  F        1
Si       9.59897455       3.83958982      16.78750000  F        1
Cl       2.87641137       1.91980449      17.81059143  T        0
37
Lattice="11.518769465528859 0.0 0.0 0.0 7.679179643685906 0.0 0.0 0.0 26.7875" Properties=species:S:1:pos:R:3:move_mask:L:1:tags:I:1 pbc="T T F"
Si       0.00000000       0.00000000      10.00000000  F        6
Si       3.83958982       0.00000000      10.00000000  F        6
Si       7.67917964       0.00000000      10.00000000  F        6
Si       0.00000000       3.83958982      10.00000000  F        6
Si       3.83958982       3.83958982      10.00000000  F        6
Si       7.67917964       3.83958982      10.00000000  F        6
Si       1.91979491       0.00000000      11.35750000  F        5
Si       5.75938473       0.00000000      11.35750000  F        5
Si       9.59897455       0.00000000      11.35750000  F        5
Si       1.91979491       3.83958982      11.35750000  F        5
Si       5.75938473       3.83958982      11.35750000  F        5
Si       9.59897455       3.83958982      11.35750000  F        5
Si       1.91979491       1.91979491      12.71500000  F        4
Si       5.75938473       1.91979491      12.71500000  F        4
Si       9.59897455       1.91979491      12.71500000  F        4
Si       1.91979491       5.75938473      12.71500000  F        4
Si       5.75938473       5.75938473      12.71500000  F        4
Si       9.59897455       5.75938473      12.71500000  F        4
Si       0.00000000       1.91979491      14.07250000  F        3
Si       3.83958982       1.91979491      14.07250000  F        3
Si       7.67917964       1.91979491      14.07250000  F        3
Si       0.00000000       5.75938473      14.07250000  F        3
Si       3.83958982       5.75938473      14.07250000  F        3
Si       7.67917964       5.75938473      14.07250000  F        3
Si       0.00000000       0.00000000      15.43000000  F        2
Si       3.83958982       0.00000000      15.43000000  F        2
Si       7.67917964       0.00000000      15.43000000  F        2
Si       0.00000000       3.83958982      15.43000000  F        2
Si       3.83958982       3.83958982      15.43000000  F        2
Si       7.67917964       3.83958982      15.43000000  F        2
Si       1.91979491       0.00000000      16.78750000  F        1
Si       5.75938473       0.00000000      16.78750000  F        1
Si       9.59897455       0.00000000      16.78750000  F        1
Si       1.91979491       3.83958982      16.78750000  F        1
Si       5.75938473       3.83958982      16.78750000  F        1
Si       9.59897455       3.83958982      16.78750000  F        1
Cl       3.36388483       1.91984717      17.97496180  T        0
37
Lattice="11.518769465528859 0.0 0.0 0.0 7.679179643685906 0.0 0.0 0.0 26.7875" Properties=species:S:1:pos:R:3:move_mask:L:1:tags:I:1 pbc="T T F"
Si       0.00000000       0.00000000      10.00000000  F        6
Si       3.83958982       0.00000000      10.00000000  F        6
Si       7.67917964       0.00000000      10.00000000  F        6
Si       0.00000000       3.83958982      10.00000000  F        6
Si       3.83958982       3.83958982      10.00000000  F        6
Si       7.67917964       3.83958982      10.00000000  F        6
Si       1.91979491       0.00000000      11.35750000  F        5
Si       5.75938473       0.00000000      11.35750000  F        5
Si       9.59897455       0.00000000      11.35750000  F        5
Si       1.91979491       3.83958982      11.35750000  F        5
Si       5.75938473       3.83958982      11.35750000  F        5
Si       9.59897455       3.83958982      11.35750000  F        5
Si       1.91979491       1.91979491      12.71500000  F        4
Si       5.75938473       1.91979491      12.71500000  F        4
Si       9.59897455       1.91979491      12.71500000  F        4
Si       1.91979491       5.75938473      12.71500000  F        4
Si       5.75938473       5.75938473      12.71500000  F        4
Si       9.59897455       5.75938473      12.71500000  F        4
Si       0.00000000       1.91979491      14.07250000  F        3
Si       3.83958982       1.91979491      14.07250000  F        3
Si       7.67917964       1.91979491      14.07250000  F        3
Si       0.00000000       5.75938473      14.07250000  F        3
Si       3.83958982       5.75938473      14.07250000  F        3
Si       7.67917964       5.75938473      14.07250000  F        3
Si       0.00000000       0.00000000      15.43000000  F        2
Si       3.83958982       0.00000000      15.43000000  F        2
Si       7.67917964       0.00000000      15.43000000  F        2
Si       0.00000000       3.83958982      15.43000000  F        2
Si       3.83958982       3.83958982      15.43000000  F        2
Si       7.67917964       3.83958982      15.43000000  F        2
Si       1.91979491       0.00000000      16.78750000  F        1
Si       5.75938473       0.00000000      16.78750000  F        1
Si       9.59897455       0.00000000      16.78750000  F        1
Si       1.91979491       3.83958982      16.78750000  F        1
Si       5.75938473       3.83958982      16.78750000  F        1
Si       9.59897455       3.83958982      16.78750000  F        1
Cl       3.85246068       1.91978786      18.04669812  T        0
37
Lattice="11.518769465528859 0.0 0.0 0.0 7.679179643685906 0.0 0.0 0.0 26.7875" Properties=species:S:1:pos:R:3:move_mask:L:1:tags:I:1 pbc="T T F"
Si       0.00000000       0.00000000      10.00000000  F        6
Si       3.83958982       0.00000000      10.00000000  F        6
Si       7.67917964       0.00000000      10.00000000  F        6
Si       0.00000000       3.83958982      10.00000000  F        6
Si       3.83958982       3.83958982      10.00000000  F        6
Si       7.67917964       3.83958982      10.00000000  F        6
Si       1.91979491       0.00000000      11.35750000  F        5
Si       5.75938473       0.00000000      11.35750000  F        5
Si       9.59897455       0.00000000      11.35750000  F        5
Si       1.91979491       3.83958982      11.35750000  F        5
Si       5.75938473       3.83958982      11.35750000  F        5
Si       9.59897455       3.83958982      11.35750000  F        5
Si       1.91979491       1.91979491      12.71500000  F        4
Si       5.75938473       1.91979491      12.71500000  F        4
Si       9.59897455       1.91979491      12.71500000  F        4
Si       1.91979491       5.75938473      12.71500000  F        4
Si       5.75938473       5.75938473      12.71500000  F        4
Si       9.59897455       5.75938473      12.71500000  F        4
Si       0.00000000       1.91979491      14.07250000  F        3
Si       3.83958982       1.91979491      14.07250000  F        3
Si       7.67917964       1.91979491      14.07250000  F        3
Si       0.00000000       5.75938473      14.07250000  F        3
Si       3.83958982       5.75938473      14.07250000  F        3
Si       7.67917964       5.75938473      14.07250000  F        3
Si       0.00000000       0.00000000      15.43000000  F        2
Si       3.83958982       0.00000000      15.43000000  F        2
Si       7.67917964       0.00000000      15.43000000  F        2
Si       0.00000000       3.83958982      15.43000000  F        2
Si       3.83958982       3.83958982      15.43000000  F        2
Si       7.67917964       3.83958982      15.43000000  F        2
Si       1.91979491       0.00000000      16.78750000  F        1
Si       5.75938473       0.00000000      16.78750000  F        1
Si       9.59897455       0.00000000      16.78750000  F        1
Si       1.91979491       3.83958982      16.78750000  F        1
Si       5.75938473       3.83958982      16.78750000  F        1
Si       9.59897455       3.83958982      16.78750000  F        1
Cl       4.34043038       1.91985020      17.96478705  T        0
37
Lattice="11.518769465528859 0.0 0.0 0.0 7.679179643685906 0.0 0.0 0.0 26.7875" Properties=species:S:1:pos:R:3:move_mask:L:1:tags:I:1 pbc="T T F"
Si       0.00000000       0.00000000      10.00000000  F        6
Si       3.83958982       0.00000000      10.00000000  F        6
Si       7.67917964       0.00000000      10.00000000  F        6
Si       0.00000000       3.83958982      10.00000000  F        6
Si       3.83958982       3.83958982      10.00000000  F        6
Si       7.67917964       3.83958982      10.00000000  F        6
Si       1.91979491       0.00000000      11.35750000  F        5
Si       5.75938473       0.00000000      11.35750000  F        5
Si       9.59897455       0.00000000      11.35750000  F        5
Si       1.91979491       3.83958982      11.35750000  F        5
Si       5.75938473       3.83958982      11.35750000  F        5
Si       9.59897455       3.83958982      11.35750000  F        5
Si       1.91979491       1.91979491      12.71500000  F        4
Si       5.75938473       1.91979491      12.71500000  F        4
Si       9.59897455       1.91979491      12.71500000  F        4
Si       1.91979491       5.75938473      12.71500000  F        4
Si       5.75938473       5.75938473      12.71500000  F        4
Si       9.59897455       5.75938473      12.71500000  F        4
Si       0.00000000       1.91979491      14.07250000  F        3
Si       3.83958982       1.91979491      14.07250000  F        3
Si       7.67917964       1.91979491      14.07250000  F        3
Si       0.00000000       5.75938473      14.07250000  F        3
Si       3.83958982       5.75938473      14.07250000  F        3
Si       7.67917964       5.75938473      14.07250000  F        3
Si       0.00000000       0.00000000      15.43000000  F        2
Si       3.83958982       0.00000000      15.43000000  F        2
Si       7.67917964       0.00000000      15.43000000  F        2
Si       0.00000000       3.83958982      15.43000000  F        2
Si       3.83958982       3.83958982      15.43000000  F        2
Si       7.67917964       3.83958982      15.43000000  F        2
Si       1.91979491       0.00000000      16.78750000  F        1
Si       5.75938473       0.00000000      16.78750000  F        1
Si       9.59897455       0.00000000      16.78750000  F        1
Si       1.91979491       3.83958982      16.78750000  F        1
Si       5.75938473       3.83958982      16.78750000  F        1
Si       9.59897455       3.83958982      16.78750000  F        1
Cl       4.82507149       1.91980557      17.80528764  T        0
37
Lattice="11.518769465528859 0.0 0.0 0.0 7.679179643685906 0.0 0.0 0.0 26.7875" Properties=species:S:1:pos:R:3:move_mask:L:1:tags:I:1 pbc="T T F"
Si       0.00000000       0.00000000      10.00000000  F        6
Si       3.83958982       0.00000000      10.00000000  F        6
Si       7.67917964       0.00000000      10.00000000  F        6
Si       0.00000000       3.83958982      10.00000000  F        6
Si       3.83958982       3.83958982      10.00000000  F        6
Si       7.67917964       3.83958982      10.00000000  F        6
Si       1.91979491       0.00000000      11.35750000  F        5
Si       5.75938473       0.00000000      11.35750000  F        5
Si       9.59897455       0.00000000      11.35750000  F        5
Si       1.91979491       3.83958982      11.35750000  F        5
Si       5.75938473       3.83958982      11.35750000  F        5
Si       9.59897455       3.83958982      11.35750000  F        5
Si       1.91979491       1.91979491      12.71500000  F        4
Si       5.75938473       1.91979491      12.71500000  F        4
Si       9.59897455       1.91979491      12.71500000  F        4
Si       1.91979491       5.75938473      12.71500000  F        4
Si       5.75938473       5.75938473      12.71500000  F        4
Si       9.59897455       5.75938473      12.71500000  F        4
Si       0.00000000       1.91979491      14.07250000  F        3
Si       3.83958982       1.91979491      14.07250000  F        3
Si       7.67917964       1.91979491      14.07250000  F        3
Si       0.00000000       5.75938473      14.07250000  F        3
Si       3.83958982       5.75938473      14.07250000  F        3
Si       7.67917964       5.75938473      14.07250000  F        3
Si       0.00000000       0.00000000      15.43000000  F        2
Si       3.83958982       0.00000000      15.43000000  F        2
Si       7.67917964       0.00000000      15.43000000  F        2
Si       0.00000000       3.83958982      15.43000000  F        2
Si       3.83958982       3.83958982      15.43000000  F        2
Si       7.67917964       3.83958982      15.43000000  F        2
Si       1.91979491       0.00000000      16.78750000  F        1
Si       5.75938473       0.00000000      16.78750000  F        1
Si       9.59897455       0.00000000      16.78750000  F        1
Si       1.91979491       3.83958982      16.78750000  F        1
Si       5.75938473       3.83958982      16.78750000  F        1
Si       9.59897455       3.83958982      16.78750000  F        1
Cl       5.29164824       1.91984631      17.79423076  T        0
37
Lattice="11.518769465528859 0.0 0.0 0.0 7.679179643685906 0.0 0.0 0.0 26.7875" Properties=species:S:1:pos:R:3:move_mask:L:1:tags:I:1 pbc="T T F"
Si       0.00000000       0.00000000      10.00000000  F        6
Si       3.83958982       0.00000000      10.00000000  F        6
Si       7.67917964       0.00000000      10.00000000  F        6
Si       0.00000000       3.83958982      10.00000000  F        6
Si       3.83958982       3.83958982      10.00000000  F        6
Si       7.67917964       3.83958982      10.00000000  F        6
Si       1.91979491       0.00000000      11.35750000  F        5
Si       5.75938473       0.00000000      11.35750000  F        5
Si       9.59897455       0.00000000      11.35750000  F        5
Si       1.91979491       3.83958982      11.35750000  F        5
Si       5.75938473       3.83958982      11.35750000  F        5
Si       9.59897455       3.83958982      11.35750000  F        5
Si       1.91979491       1.91979491      12.71500000  F        4
Si       5.75938473       1.91979491      12.71500000  F        4
Si       9.59897455       1.91979491      12.71500000  F        4
Si       1.91979491       5.75938473      12.71500000  F        4
Si       5.75938473       5.75938473      12.71500000  F        4
Si       9.59897455       5.75938473      12.71500000  F        4
Si       0.00000000       1.91979491      14.07250000  F        3
Si       3.83958982       1.91979491      14.07250000  F        3
Si       7.67917964       1.91979491      14.07250000  F        3
Si       0.00000000       5.75938473      14.07250000  F        3
Si       3.83958982       5.75938473      14.07250000  F        3
Si       7.67917964       5.75938473      14.07250000  F        3
Si       0.00000000       0.00000000      15.43000000  F        2
Si       3.83958982       0.00000000      15.43000000  F        2
Si       7.67917964       0.00000000      15.43000000  F        2
Si       0.00000000       3.83958982      15.43000000  F        2
Si       3.83958982       3.83958982      15.43000000  F        2
Si       7.67917964       3.83958982      15.43000000  F        2
Si       1.91979491       0.00000000      16.78750000  F        1
Si       5.75938473       0.00000000      16.78750000  F        1
Si       9.59897455       0.00000000      16.78750000  F        1
Si       1.91979491       3.83958982      16.78750000  F        1
Si       5.75938473       3.83958982      16.78750000  F        1
Si       9.59897455       3.83958982      16.78750000  F        1
Cl       5.77146201       1.91989798      17.82598858  T        0
37
Lattice="11.518769465528859 0.0 0.0 0.0 7.679179643685906 0.0 0.0 0.0 26.7875" Properties=species:S:1:pos:R:3:move_mask:L:1:tags:I:1 pbc="T T F"
Si       0.00000000       0.00000000      10.00000000  F        6
Si       3.83958982       0.00000000      10.00000000  F        6
Si       7.67917964       0.00000000      10.00000000  F        6
Si       0.00000000       3.83958982      10.00000000  F        6
Si       3.83958982       3.83958982      10.00000000  F        6
Si       7.67917964       3.83958982      10.00000000  F        6
Si       1.91979491       0.00000000      11.35750000  F        5
Si       5.75938473       0.00000000      11.35750000  F        5
Si       9.59897455       0.00000000      11.35750000  F        5
Si       1.91979491       3.83958982      11.35750000  F        5
Si       5.75938473       3.83958982      11.35750000  F        5
Si       9.59897455       3.83958982      11.35750000  F        5
Si       1.91979491       1.91979491      12.71500000  F        4
Si       5.75938473       1.91979491      12.71500000  F        4
Si       9.59897455       1.91979491      12.71500000  F        4
Si       1.91979491       5.75938473      12.71500000  F        4
Si       5.75938473       5.75938473      12.71500000  F        4
Si       9.59897455       5.75938473      12.71500000  F        4
Si       0.00000000       1.91979491      14.07250000  F        3
Si       3.83958982       1.91979491      14.07250000  F        3
Si       7.67917964       1.91979491      14.07250000  F        3
Si       0.00000000       5.75938473      14.07250000  F        3
Si       3.83958982       5.75938473      14.07250000  F        3
Si       7.67917964       5.75938473      14.07250000  F        3
Si       0.00000000       0.00000000      15.43000000  F        2
Si       3.83958982       0.00000000      15.43000000  F        2
Si       7.67917964       0.00000000      15.43000000  F        2
Si       0.00000000       3.83958982      15.43000000  F        2
Si       3.83958982       3.83958982      15.43000000  F        2
Si       7.67917964       3.83958982      15.43000000  F        2
Si       1.91979491       0.00000000      16.78750000  F        1
Si       5.75938473       0.00000000      16.78750000  F        1
Si       9.59897455       0.00000000      16.78750000  F        1
Si       1.91979491       3.83958982      16.78750000  F        1
Si       5.75938473       3.83958982      16.78750000  F        1
Si       9.59897455       3.83958982      16.78750000  F        1
Cl       6.25144153       1.91984109      17.79113820  T        0
