37
Lattice="11.518769465528859 0.0 0.0 0.0 7.679179643685906 0.0 0.0 0.0 26.7875" Properties=species:S:1:pos:R:3:move_mask:L:1:tags:I:1:forces:R:3 energy=-184.0960437832498 pbc="T T F"
Si       0.00000000       0.00000000      10.00000000  F        6      -0.00145529      -0.00061698       0.25461487
Si       3.83958982       0.00000000      10.00000000  F        6       0.00150924      -0.00234204       0.25203155
Si       7.67917964       0.00000000      10.00000000  F        6      -0.00029873       0.00003927       0.25099606
Si       0.00000000       3.83958982      10.00000000  F        6      -0.00145538       0.00061696       0.25461468
Si       3.83958982       3.83958982      10.00000000  F        6       0.00150927       0.00234198       0.25203121
Si       7.67917964       3.83958982      10.00000000  F        6      -0.00029865      -0.00003927       0.25099589
Si       1.91979491       0.00000000      11.35750000  F        5       0.00065267       0.00544575      -0.51623809
Si       5.75938473       0.00000000      11.35750000  F        5      -0.01641608       0.00791567      -0.50433209
Si       9.59897455       0.00000000      11.35750000  F        5       0.00838539       0.00150247      -0.52627548
Si       1.91979491       3.83958982      11.35750000  F        5       0.00065227      -0.00544561      -0.51623981
Si       5.75938473       3.83958982      11.35750000  F        5      -0.01641522      -0.00791546      -0.50433284
Si       9.59897455       3.83958982      11.35750000  F        5       0.00838466      -0.00150258      -0.52627670
Si       1.91979491       1.91979491      12.71500000  F        4      -0.00171861       0.00000098       0.16778580
Si       5.75938473       1.91979491      12.71500000  F        4      -0.00742281      -0.00000070       0.14110552
Si       9.59897455       1.91979491      12.71500000  F        4      -0.00334336      -0.00000085       0.14593546
Si       1.91979491       5.75938473      12.71500000  F        4       0.02423340       0.00000201       0.03035798
Si       5.75938473       5.75938473      12.71500000  F        4       0.00879983       0.00000221       0.15136029
Si       9.59897455       5.75938473      12.71500000  F        4      -0.01189963       0.00000062       0.15132166
Si       0.00000000       1.91979491      14.07250000  F        3      -0.03169281      -0.00000040      -0.29072040
Si       3.83958982       1.91979491      14.07250000  F        3      -0.01609298       0.00000521      -0.19766335
Si       7.67917964       1.91979491      14.07250000  F        3       0.01336152       0.00000070      -0.13725371
Si       0.00000000       5.75938473      14.07250000  F        3       0.07429008      -0.00000683      -0.02786868
Si       3.83958982       5.75938473      14.07250000  F        3       0.01199226      -0.00000956      -0.09564458
Si       7.67917964       5.75938473      14.07250000  F        3      -0.04006355      -0.00000180      -0.09692093
Si       0.00000000       0.00000000      15.43000000  F        2      -0.23488285       0.21855260       0.41962812
Si       3.83958982       0.00000000      15.43000000  F        2       0.24259633      -0.01359573       0.30857604
Si       7.67917964       0.00000000      15.43000000  F        2       0.01917646      -0.00166536       0.48068270
Si       0.00000000       3.83958982      15.43000000  F        2      -0.23488707      -0.21855304       0.41962796
Si       3.83958982       3.83958982      15.43000000  F        2       0.24261570       0.01362607       0.30854632
Si       7.67917964       3.83958982      15.43000000  F        2       0.01917131       0.00166627       0.48068620
Si       1.91979491       0.00000000      16.78750000  F        1       0.08877073      -0.50654576       0.03339351
Si       5.75938473       0.00000000      16.78750000  F        1      -0.03122075      -0.04897917      -0.19077882
Si       9.59897455       0.00000000      16.78750000  F        1      -0.08706842      -0.01879915      -0.23299654
Si       1.91979491       3.83958982      16.78750000  F        1       0.08870781       0.50687845       0.03323195
Si       5.75938473       3.83958982      16.78750000  F        1      -0.03121990       0.04897751      -0.19078786
Si       9.59897455       3.83958982      16.78750000  F        1      -0.08707653       0.01880008      -0.23299630
Cl       2.41185171       1.91984109      17.79113820  T        0       0.00011970      -0.00035453      -0.00019759
