32
Lattice="7.6044 0.0 0.0 -3.802199999999998 6.585603580538386 0.0 0.0 -0.0 28.35945" Properties=species:S:1:pos:R:3:move_mask:L:1:spacegroup_kinds:I:1:tags:I:1:forces:R:3 surface=beta_Si3N4_001 coadsorbate=HF start=1 calculation_kind="Local coadsorbate relaxation; not a reaction path" host_atoms=28 energy=-228.841923036955 pbc="T T F"
Si       5.18010587       1.14956320      12.00000000  F        0        2       1.68813572       1.17015346       1.61110572
Si      -1.37790587       5.43604038      13.45315000  F        0        2      -0.08198016       0.59019869      -1.80487342
Si       4.01879613       3.91132168      12.00000000  F        0        2      -1.83131145       0.86541539       1.57709717
Si      -0.21659613       2.67428190      13.45315000  F        0        2      -0.38945624      -0.38537907      -1.39116052
Si       2.20769800       1.52471870      12.00000000  F        0        2       0.15998734      -2.02929056       1.59603869
Si       1.59450200       5.06088488      13.45315000  F        0        2       0.51194691      -0.25042037      -1.85310571
N       -1.02370433       2.17482973      12.00000000  F        1        2      -0.65195714      -0.63750412       0.16361693
N        4.82590433       4.41077385      13.45315000  F        1        2       0.14091025      -0.01385730       0.43749263
N        2.43059437       4.61163476      12.00000000  F        1        2       0.89368756      -0.23203966       0.15279327
N        1.37160563       1.97396882      13.45315000  F        1        2      -0.00858576       0.11199345       0.30975933
N       -1.40689004       6.38474267      12.00000000  F        1        2      -0.21511014       0.88203105       0.12701173
N        5.20909004       0.20086091      13.45315000  F        1        2      -0.11459342      -0.09991579       0.34337784
N        3.80216198       2.19517924      12.00000000  F        2        2      -0.01709160      -0.02053363      -1.82157581
N        0.00003802       4.39042434      13.45315000  F        2        2      -0.06038963       0.06868837       0.56794709
Si       5.19650830       1.17861110      15.00025236  T        0        1       0.01140056       0.00864769       0.00012661
Si      -1.48160926       5.21888854      16.20656796  T        0        1       0.00389337      -0.00206726       0.00065012
Si       3.98120217       3.91925598      14.99796958  T        0        1      -0.00134165      -0.00230926      -0.00675665
Si      -0.01561829       2.66263996      16.28966181  T        0        1      -0.00764434      -0.00409819      -0.00027631
Si       2.21948132       1.51599013      14.99632466  T        0        1      -0.01045524       0.00174900       0.00391695
Si       1.42444017       5.23649631      16.19604270  T        0        1       0.00133114      -0.00260053       0.00093343
N       -1.03098059       2.26594798      14.97539946  T        1        1      -0.00283474       0.01070502      -0.00986803
N        4.69487054       4.46709277      16.42318316  T        1        1      -0.00198122       0.00461429      -0.00646952
N        2.35352838       4.55775438      14.95031890  T        1        1       0.00336828      -0.01009809       0.01245977
N        1.42974613       1.91216309      16.41688432  T        1        1      -0.00642648       0.00601199       0.00256450
N       -1.31919426       6.35632623      14.95145719  T        1        1      -0.01032966       0.00290346      -0.00158292
N        5.23947870       0.26150503      16.40647528  T        1        1      -0.00766328      -0.00027432      -0.00057940
N        3.80727326       2.20366068      14.85398485  T        2        1      -0.00585598      -0.00767404      -0.00536532
N       -0.01667376       4.38348978      16.63966166  T        2        1       0.00241567      -0.01486100      -0.00128828
F       -0.85467712       2.21196785      17.95547019  T        0        0      -0.00026096       0.00208685       0.00888069
H       -0.35007829       2.79945072      18.58231111  T        0        0       0.00203054      -0.00250773      -0.01226800
F        0.55560960       3.75338153      19.50525933  T        0        0      -0.00982871      -0.01100653       0.00149600
H        0.45192408       3.57374648      20.43002202  T        0        0       0.01599049       0.00123872      -0.00209861
