32
Lattice="7.6044 0.0 0.0 -3.802199999999998 6.585603580538386 0.0 0.0 -0.0 28.35945" Properties=species:S:1:pos:R:3:move_mask:L:1:spacegroup_kinds:I:1:tags:I:1:forces:R:3 surface=beta_Si3N4_001 coadsorbate=HF start=1 calculation_kind="Local coadsorbate relaxation; not a reaction path" host_atoms=28 energy=-228.8419230369335 pbc="T T F"
Si       5.18010587       1.14956320      12.00000000  F        0        2       1.68813573       1.17015347       1.61110572
Si      -1.37790587       5.43604038      13.45315000  F        0        2      -0.08198016       0.59019867      -1.80487344
Si       4.01879613       3.91132168      12.00000000  F        0        2      -1.83131145       0.86541540       1.57709718
Si      -0.21659613       2.67428190      13.45315000  F        0        2      -0.38945623      -0.38537907      -1.39116052
Si       2.20769800       1.52471870      12.00000000  F        0        2       0.15998733      -2.02929056       1.59603871
Si       1.59450200       5.06088488      13.45315000  F        0        2       0.51194691      -0.25042038      -1.85310568
N       -1.02370433       2.17482973      12.00000000  F        1        2      -0.65195715      -0.63750412       0.16361692
N        4.82590433       4.41077385      13.45315000  F        1        2       0.14091023      -0.01385731       0.43749264
N        2.43059437       4.61163476      12.00000000  F        1        2       0.89368755      -0.23203965       0.15279328
N        1.37160563       1.97396882      13.45315000  F        1        2      -0.00858574       0.11199345       0.30975935
N       -1.40689004       6.38474267      12.00000000  F        1        2      -0.21511014       0.88203106       0.12701173
N        5.20909004       0.20086091      13.45315000  F        1        2      -0.11459343      -0.09991579       0.34337785
N        3.80216198       2.19517924      12.00000000  F        2        2      -0.01709160      -0.02053363      -1.82157581
N        0.00003802       4.39042434      13.45315000  F        2        2      -0.06038961       0.06868837       0.56794708
Si       5.19650830       1.17861110      15.00025236  T        0        1       0.01140061       0.00864762       0.00012670
Si      -1.48160926       5.21888854      16.20656796  T        0        1       0.00389355      -0.00206732       0.00065017
Si       3.98120217       3.91925598      14.99796958  T        0        1      -0.00134157      -0.00230914      -0.00675657
Si      -0.01561829       2.66263996      16.28966181  T        0        1      -0.00764443      -0.00409818      -0.00027641
Si       2.21948132       1.51599013      14.99632466  T        0        1      -0.01045528       0.00174893       0.00391687
Si       1.42444017       5.23649631      16.19604270  T        0        1       0.00133110      -0.00260068       0.00093343
N       -1.03098059       2.26594798      14.97539946  T        1        1      -0.00283465       0.01070504      -0.00986790
N        4.69487054       4.46709277      16.42318316  T        1        1      -0.00198139       0.00461420      -0.00646959
N        2.35352838       4.55775438      14.95031890  T        1        1       0.00336830      -0.01009812       0.01245968
N        1.42974613       1.91216309      16.41688432  T        1        1      -0.00642648       0.00601196       0.00256453
N       -1.31919426       6.35632623      14.95145719  T        1        1      -0.01032964       0.00290363      -0.00158291
N        5.23947870       0.26150503      16.40647528  T        1        1      -0.00766331      -0.00027408      -0.00057947
N        3.80727326       2.20366068      14.85398485  T        2        1      -0.00585600      -0.00767411      -0.00536533
N       -0.01667376       4.38348978      16.63966166  T        2        1       0.00241563      -0.01486092      -0.00128829
F       -0.85467712       2.21196785      17.95547019  T        0        0      -0.00026092       0.00208690       0.00888077
H       -0.35007829       2.79945072      18.58231111  T        0        0       0.00203049      -0.00250780      -0.01226808
F        0.55560960       3.75338153      19.50525933  T        0        0      -0.00982868      -0.01100648       0.00149580
H        0.45192408       3.57374648      20.43002202  T        0        0       0.01599046       0.00123868      -0.00209842
