38
Lattice="9.8418 0.0 0.0 -2.460449999999999 4.261624409482844 0.0 0.0 -0.0 34.16586254" Properties=species:S:1:pos:R:3:move_mask:L:1:spacegroup_kinds:I:1:tags:I:1:forces:R:3 spacegroup="P 32 2 1" unit_cell=conventional surface=alpha_quartz_001 species=F2 height_A=6.5 substrate_atoms=36 calculation_kind="Rigid approach energy evaluation; not NEB or TS" energy=-268.1658627472209 pbc="T T F"
Si       2.31725181       0.00000000      12.00000000  F        0        2      -0.13649157      -0.37989802      -1.75845993
Si      -1.15862590       2.00679893      15.60606667  F        0        2      -0.14269403       0.05752763       1.16918857
Si       1.30182410       2.25482548      13.80303333  F        0        2       0.03365952      -0.16390327       0.98673449
O        1.38326499       1.13103512      12.65233746  F        1        2      -0.52978608       0.24144030      -0.19587315
O        0.28787265       1.76346018      14.95372921  F        1        2       0.43595743      -0.25102752      -0.36263200
O        3.24976236       0.63242506      16.25840413  F        1        2       0.32131471      -0.09409926      -0.78723906
O        0.78931236       3.62919935      13.15069587  F        1        2       0.45451070       0.27117013       0.57270972
O        2.74832265       2.49816423      14.45537079  F        1        2       0.00844212       0.38365658      -0.73059487
O       -1.07718501       3.13058929      16.75676254  F        1        2      -0.43600604      -0.29499103      -0.45509614
Si       2.31725181       0.00000000      17.40910000  F        0        1       0.03135151       0.03049999       1.06444548
Si      -1.15862590       2.00679893      21.01516667  F        0        1       0.20544838       0.24346044      -0.24892525
Si       1.30182410       2.25482548      19.21213333  F        0        1      -0.04671737       0.03282568       0.51671959
O        1.38326499       1.13103512      18.06143746  F        1        1      -0.25708786      -0.13270469      -0.58762912
O        0.28787265       1.76346018      20.36282921  F        1        1       0.49053214      -0.17439019      -0.26449994
O        3.24976236       0.63242506      21.66750413  F        1        1      -0.36047522      -0.95065507       0.88300299
O        0.78931236       3.62919935      18.55979587  F        1        1       0.02140854       0.42052298      -0.24199233
O        2.74832265       2.49816423      19.86447079  F        1        1      -0.05603693       0.34620394      -0.75998076
O       -1.07718501       3.13058929      22.16586254  F        1        1      -0.03732994       0.41436138       1.20012171
Si       7.23815181       0.00000000      12.00000000  F        0        2      -0.13649157      -0.37989802      -1.75845993
Si       3.76227409       2.00679893      15.60606667  F        0        2      -0.14269403       0.05752763       1.16918857
Si       6.22272410       2.25482548      13.80303333  F        0        2       0.03365952      -0.16390327       0.98673449
O        6.30416499       1.13103512      12.65233746  F        1        2      -0.52978608       0.24144030      -0.19587315
O        5.20877265       1.76346018      14.95372921  F        1        2       0.43595743      -0.25102752      -0.36263200
O        8.17066236       0.63242506      16.25840413  F        1        2       0.32131471      -0.09409926      -0.78723906
O        5.71021236       3.62919935      13.15069587  F        1        2       0.45451070       0.27117013       0.57270972
O        7.66922265       2.49816423      14.45537079  F        1        2       0.00844212       0.38365658      -0.73059487
O        3.84371499       3.13058929      16.75676254  F        1        2      -0.43600604      -0.29499103      -0.45509614
Si       7.23815181       0.00000000      17.40910000  F        0        1       0.03135151       0.03049999       1.06444548
Si       3.76227409       2.00679893      21.01516667  F        0        1       0.20544838       0.24346044      -0.24892525
Si       6.22272410       2.25482548      19.21213333  F        0        1      -0.04671737       0.03282568       0.51671959
O        6.30416499       1.13103512      18.06143746  F        1        1      -0.25708786      -0.13270469      -0.58762912
O        5.20877265       1.76346018      20.36282921  F        1        1       0.49053214      -0.17439019      -0.26449994
O        8.17066236       0.63242506      21.66750413  F        1        1      -0.36047522      -0.95065507       0.88300299
O        5.71021236       3.62919935      18.55979587  F        1        1       0.02140854       0.42052298      -0.24199233
O        7.66922265       2.49816423      19.86447079  F        1        1      -0.05603693       0.34620394      -0.75998076
O        3.84371499       3.13058929      22.16586254  F        1        1      -0.03732994       0.41436138       1.20012171
F        3.76227409       2.00679893      28.66586254  F        0        0       0.00000000      -0.00000000       0.00179881
F        3.76227409       2.00679893      30.14643827  F        0        0       0.00000000       0.00000000      -0.00179881
38
Lattice="9.8418 0.0 0.0 -2.460449999999999 4.261624409482844 0.0 0.0 -0.0 34.16586254" Properties=species:S:1:pos:R:3:move_mask:L:1:spacegroup_kinds:I:1:tags:I:1:forces:R:3 spacegroup="P 32 2 1" unit_cell=conventional surface=alpha_quartz_001 species=F2 height_A=5.0 substrate_atoms=36 calculation_kind="Rigid approach energy evaluation; not NEB or TS" energy=-268.1658627472209 pbc="T T F"
Si       2.31725181       0.00000000      12.00000000  F        0        2      -0.13649157      -0.37989802      -1.75845993
Si      -1.15862590       2.00679893      15.60606667  F        0        2      -0.14269403       0.05752763       1.16918857
Si       1.30182410       2.25482548      13.80303333  F        0        2       0.03365952      -0.16390327       0.98673449
O        1.38326499       1.13103512      12.65233746  F        1        2      -0.52978608       0.24144030      -0.19587315
O        0.28787265       1.76346018      14.95372921  F        1        2       0.43595743      -0.25102752      -0.36263200
O        3.24976236       0.63242506      16.25840413  F        1        2       0.32131471      -0.09409926      -0.78723906
O        0.78931236       3.62919935      13.15069587  F        1        2       0.45451070       0.27117013       0.57270972
O        2.74832265       2.49816423      14.45537079  F        1        2       0.00844212       0.38365658      -0.73059487
O       -1.07718501       3.13058929      16.75676254  F        1        2      -0.43600604      -0.29499103      -0.45509614
Si       2.31725181       0.00000000      17.40910000  F        0        1       0.03135151       0.03049999       1.06444548
Si      -1.15862590       2.00679893      21.01516667  F        0        1       0.20544838       0.24346044      -0.24892525
Si       1.30182410       2.25482548      19.21213333  F        0        1      -0.04671737       0.03282568       0.51671959
O        1.38326499       1.13103512      18.06143746  F        1        1      -0.25708786      -0.13270469      -0.58762912
O        0.28787265       1.76346018      20.36282921  F        1        1       0.49053214      -0.17439019      -0.26449994
O        3.24976236       0.63242506      21.66750413  F        1        1      -0.36047522      -0.95065507       0.88300299
O        0.78931236       3.62919935      18.55979587  F        1        1       0.02140854       0.42052298      -0.24199233
O        2.74832265       2.49816423      19.86447079  F        1        1      -0.05603693       0.34620394      -0.75998076
O       -1.07718501       3.13058929      22.16586254  F        1        1      -0.03732994       0.41436138       1.20012171
Si       7.23815181       0.00000000      12.00000000  F        0        2      -0.13649157      -0.37989802      -1.75845993
Si       3.76227409       2.00679893      15.60606667  F        0        2      -0.14269403       0.05752763       1.16918857
Si       6.22272410       2.25482548      13.80303333  F        0        2       0.03365952      -0.16390327       0.98673449
O        6.30416499       1.13103512      12.65233746  F        1        2      -0.52978608       0.24144030      -0.19587315
O        5.20877265       1.76346018      14.95372921  F        1        2       0.43595743      -0.25102752      -0.36263200
O        8.17066236       0.63242506      16.25840413  F        1        2       0.32131471      -0.09409926      -0.78723906
O        5.71021236       3.62919935      13.15069587  F        1        2       0.45451070       0.27117013       0.57270972
O        7.66922265       2.49816423      14.45537079  F        1        2       0.00844212       0.38365658      -0.73059487
O        3.84371499       3.13058929      16.75676254  F        1        2      -0.43600604      -0.29499103      -0.45509614
Si       7.23815181       0.00000000      17.40910000  F        0        1       0.03135151       0.03049999       1.06444548
Si       3.76227409       2.00679893      21.01516667  F        0        1       0.20544838       0.24346044      -0.24892525
Si       6.22272410       2.25482548      19.21213333  F        0        1      -0.04671737       0.03282568       0.51671959
O        6.30416499       1.13103512      18.06143746  F        1        1      -0.25708786      -0.13270469      -0.58762912
O        5.20877265       1.76346018      20.36282921  F        1        1       0.49053214      -0.17439019      -0.26449994
O        8.17066236       0.63242506      21.66750413  F        1        1      -0.36047522      -0.95065507       0.88300299
O        5.71021236       3.62919935      18.55979587  F        1        1       0.02140854       0.42052298      -0.24199233
O        7.66922265       2.49816423      19.86447079  F        1        1      -0.05603693       0.34620394      -0.75998076
O        3.84371499       3.13058929      22.16586254  F        1        1      -0.03732994       0.41436138       1.20012171
F        3.76227409       2.00679893      27.16586254  F        0        0       0.00000000       0.00000000       0.00179881
F        3.76227409       2.00679893      28.64643827  F        0        0       0.00000000       0.00000000      -0.00179881
38
Lattice="9.8418 0.0 0.0 -2.460449999999999 4.261624409482844 0.0 0.0 -0.0 34.16586254" Properties=species:S:1:pos:R:3:move_mask:L:1:spacegroup_kinds:I:1:tags:I:1:forces:R:3 spacegroup="P 32 2 1" unit_cell=conventional surface=alpha_quartz_001 species=F2 height_A=4.0 substrate_atoms=36 calculation_kind="Rigid approach energy evaluation; not NEB or TS" energy=-268.1362465458916 pbc="T T F"
Si       2.31725181       0.00000000      12.00000000  F        0        2      -0.13649108      -0.37989895      -1.75845247
Si      -1.15862590       2.00679893      15.60606667  F        0        2      -0.14268340       0.05745154       1.16867620
Si       1.30182410       2.25482548      13.80303333  F        0        2       0.03364109      -0.16390947       0.98673373
O        1.38326499       1.13103512      12.65233746  F        1        2      -0.52978335       0.24143838      -0.19588248
O        0.28787265       1.76346018      14.95372921  F        1        2       0.43598472      -0.25099744      -0.36254931
O        3.24976236       0.63242506      16.25840413  F        1        2       0.32112449      -0.09433851      -0.78645401
O        0.78931236       3.62919935      13.15069587  F        1        2       0.45451136       0.27117393       0.57269983
O        2.74832265       2.49816423      14.45537079  F        1        2       0.00845961       0.38365069      -0.73051401
O       -1.07718501       3.13058929      16.75676254  F        1        2      -0.43568489      -0.29469867      -0.45424028
Si       2.31725181       0.00000000      17.40910000  F        0        1       0.03095922       0.03037598       1.06236571
Si      -1.15862590       2.00679893      21.01516667  F        0        1       0.20271454       0.24002025      -0.24767814
Si       1.30182410       2.25482548      19.21213333  F        0        1      -0.04902162       0.03247964       0.51504257
O        1.38326499       1.13103512      18.06143746  F        1        1      -0.25695180      -0.13160541      -0.58629315
O        0.28787265       1.76346018      20.36282921  F        1        1       0.49141359      -0.17472069      -0.26443285
O        3.24976236       0.63242506      21.66750413  F        1        1      -0.36255543      -0.95588089       0.87617734
O        0.78931236       3.62919935      18.55979587  F        1        1       0.02302360       0.42006459      -0.23974795
O        2.74832265       2.49816423      19.86447079  F        1        1      -0.05451180       0.34561010      -0.76424830
O       -1.07718501       3.13058929      22.16586254  F        1        1      -0.03608582       0.41494648       1.19965794
Si       7.23815181       0.00000000      12.00000000  F        0        2      -0.13649128      -0.37989773      -1.75845086
Si       3.76227409       2.00679893      15.60606667  F        0        2      -0.14265199       0.05744460       1.16853871
Si       6.22272410       2.25482548      13.80303333  F        0        2       0.03368443      -0.16389310       0.98672352
O        6.30416499       1.13103512      12.65233746  F        1        2      -0.52978709       0.24143870      -0.19588495
O        5.20877265       1.76346018      14.95372921  F        1        2       0.43593058      -0.25100875      -0.36249943
O        8.17066236       0.63242506      16.25840413  F        1        2       0.32109429      -0.09424887      -0.78665050
O        5.71021236       3.62919935      13.15069587  F        1        2       0.45450670       0.27116976       0.57269964
O        7.66922265       2.49816423      14.45537079  F        1        2       0.00843458       0.38365255      -0.73056199
O        3.84371499       3.13058929      16.75676254  F        1        2      -0.43601738      -0.29494834      -0.45410894
Si       7.23815181       0.00000000      17.40910000  F        0        1       0.03185395       0.03010946       1.06220409
Si       3.76227409       2.00679893      21.01516667  F        0        1       0.20481894       0.21723660      -0.27655475
Si       6.22272410       2.25482548      19.21213333  F        0        1      -0.04524313       0.03477268       0.51536631
O        6.30416499       1.13103512      18.06143746  F        1        1      -0.25793892      -0.13297615      -0.58501865
O        5.20877265       1.76346018      20.36282921  F        1        1       0.49253578      -0.17872355      -0.26651765
O        8.17066236       0.63242506      21.66750413  F        1        1      -0.35678379      -0.94536981       0.88293613
O        5.71021236       3.62919935      18.55979587  F        1        1       0.02164360       0.41961634      -0.24125691
O        7.66922265       2.49816423      19.86447079  F        1        1      -0.05812952       0.34595841      -0.75952699
O        3.84371499       3.13058929      22.16586254  F        1        1      -0.04126359       0.44546573       1.26325333
F        3.76227409       2.00679893      26.16586254  F        0        0       0.00114484      -0.02369693       0.16430504
F        3.76227409       2.00679893      27.64643827  F        0        0       0.00059599       0.02673682      -0.18985550
38
Lattice="9.8418 0.0 0.0 -2.460449999999999 4.261624409482844 0.0 0.0 -0.0 34.16586254" Properties=species:S:1:pos:R:3:move_mask:L:1:spacegroup_kinds:I:1:tags:I:1:forces:R:3 spacegroup="P 32 2 1" unit_cell=conventional surface=alpha_quartz_001 species=F2 height_A=3.25 substrate_atoms=36 calculation_kind="Rigid approach energy evaluation; not NEB or TS" energy=-268.356389295033 pbc="T T F"
Si       2.31725181       0.00000000      12.00000000  F        0        2      -0.13649218      -0.37989981      -1.75845919
Si      -1.15862590       2.00679893      15.60606667  F        0        2      -0.14294124       0.05698426       1.16720330
Si       1.30182410       2.25482548      13.80303333  F        0        2       0.03356460      -0.16392148       0.98656896
O        1.38326499       1.13103512      12.65233746  F        1        2      -0.52977911       0.24143666      -0.19586700
O        0.28787265       1.76346018      14.95372921  F        1        2       0.43618684      -0.25089594      -0.36207405
O        3.24976236       0.63242506      16.25840413  F        1        2       0.32062469      -0.09501494      -0.78366858
O        0.78931236       3.62919935      13.15069587  F        1        2       0.45451781       0.27117721       0.57270169
O        2.74832265       2.49816423      14.45537079  F        1        2       0.00857736       0.38367096      -0.73005385
O       -1.07718501       3.13058929      16.75676254  F        1        2      -0.43434272      -0.29356779      -0.45152841
Si       2.31725181       0.00000000      17.40910000  F        0        1       0.02880259       0.03147060       1.05594065
Si      -1.15862590       2.00679893      21.01516667  F        0        1       0.19966107       0.23509069      -0.25090133
Si       1.30182410       2.25482548      19.21213333  F        0        1      -0.05853302       0.02415671       0.50093370
O        1.38326499       1.13103512      18.06143746  F        1        1      -0.25710676      -0.12791771      -0.57907216
O        0.28787265       1.76346018      20.36282921  F        1        1       0.49925254      -0.16832135      -0.26404456
O        3.24976236       0.63242506      21.66750413  F        1        1      -0.35068407      -0.90843504       0.95594286
O        0.78931236       3.62919935      18.55979587  F        1        1       0.02999825       0.41703652      -0.22749292
O        2.74832265       2.49816423      19.86447079  F        1        1      -0.02886736       0.35460006      -0.70573738
O       -1.07718501       3.13058929      22.16586254  F        1        1      -0.03569412       0.41534784       1.19947337
Si       7.23815181       0.00000000      12.00000000  F        0        2      -0.13649931      -0.37989261      -1.75848188
Si       3.76227409       2.00679893      15.60606667  F        0        2      -0.14240596       0.05687842       1.16604521
Si       6.22272410       2.25482548      13.80303333  F        0        2       0.03377215      -0.16386401       0.98657225
O        6.30416499       1.13103512      12.65233746  F        1        2      -0.52978785       0.24145310      -0.19588972
O        5.20877265       1.76346018      14.95372921  F        1        2       0.43580652      -0.25087558      -0.36189005
O        8.17066236       0.63242506      16.25840413  F        1        2       0.32043919      -0.09463106      -0.78508780
O        5.71021236       3.62919935      13.15069587  F        1        2       0.45450347       0.27115097       0.57273034
O        7.66922265       2.49816423      14.45537079  F        1        2       0.00837113       0.38364479      -0.73050002
O        3.84371499       3.13058929      16.75676254  F        1        2      -0.43641326      -0.29465132      -0.45159147
Si       7.23815181       0.00000000      17.40910000  F        0        1       0.03281613       0.02985944       1.05553520
Si       3.76227409       2.00679893      21.01516667  F        0        1       0.22200597       0.15364096      -0.26659835
Si       6.22272410       2.25482548      19.21213333  F        0        1      -0.04252195       0.03292133       0.50881502
O        6.30416499       1.13103512      18.06143746  F        1        1      -0.25934020      -0.13425603      -0.57539493
O        5.20877265       1.76346018      20.36282921  F        1        1       0.45037545      -0.16285205      -0.22476595
O        8.17066236       0.63242506      21.66750413  F        1        1      -0.34543485      -0.93441417       0.87809506
O        5.71021236       3.62919935      18.55979587  F        1        1       0.02166512       0.41703960      -0.23416166
O        7.66922265       2.49816423      19.86447079  F        1        1      -0.06265528       0.34598073      -0.75705130
O        3.84371499       3.13058929      22.16586254  F        1        1      -0.06525337       0.31495782       1.62793788
F        3.76227409       2.00679893      25.41586254  F        0        0       0.01251949       0.17294017       0.21903276
F        3.76227409       2.00679893      26.89643827  F        0        0      -0.00870772      -0.04802796      -0.80321567
38
Lattice="9.8418 0.0 0.0 -2.460449999999999 4.261624409482844 0.0 0.0 -0.0 34.16586254" Properties=species:S:1:pos:R:3:move_mask:L:1:spacegroup_kinds:I:1:tags:I:1:forces:R:3 spacegroup="P 32 2 1" unit_cell=conventional surface=alpha_quartz_001 species=F2 height_A=2.75 substrate_atoms=36 calculation_kind="Rigid approach energy evaluation; not NEB or TS" energy=-268.6808792555899 pbc="T T F"
Si       2.31725181       0.00000000      12.00000000  F        0        2      -0.13651000      -0.37989996      -1.75854286
Si      -1.15862590       2.00679893      15.60606667  F        0        2      -0.14277868       0.05703763       1.16612880
Si       1.30182410       2.25482548      13.80303333  F        0        2       0.03340861      -0.16395037       0.98629780
O        1.38326499       1.13103512      12.65233746  F        1        2      -0.52975906       0.24147778      -0.19576518
O        0.28787265       1.76346018      14.95372921  F        1        2       0.43613115      -0.25083467      -0.36185462
O        3.24976236       0.63242506      16.25840413  F        1        2       0.32066029      -0.09507688      -0.78271618
O        0.78931236       3.62919935      13.15069587  F        1        2       0.45457837       0.27115045       0.57277021
O        2.74832265       2.49816423      14.45537079  F        1        2       0.00879885       0.38373925      -0.72973574
O       -1.07718501       3.13058929      16.75676254  F        1        2      -0.43396655      -0.29319459      -0.45039095
Si       2.31725181       0.00000000      17.40910000  F        0        1       0.02879290       0.03236564       1.05231555
Si      -1.15862590       2.00679893      21.01516667  F        0        1       0.19315586       0.22227966      -0.24623488
Si       1.30182410       2.25482548      19.21213333  F        0        1      -0.07750557       0.01861788       0.48386247
O        1.38326499       1.13103512      18.06143746  F        1        1      -0.25667775      -0.12676205      -0.57592667
O        0.28787265       1.76346018      20.36282921  F        1        1       0.50734096      -0.16285202      -0.26194121
O        3.24976236       0.63242506      21.66750413  F        1        1      -0.32200079      -0.82452186       1.01386029
O        0.78931236       3.62919935      18.55979587  F        1        1       0.03057875       0.41592558      -0.22199644
O        2.74832265       2.49816423      19.86447079  F        1        1       0.00455091       0.35826254      -0.64400131
O       -1.07718501       3.13058929      22.16586254  F        1        1      -0.01576990       0.43906313       1.21270300
Si       7.23815181       0.00000000      12.00000000  F        0        2      -0.13652560      -0.37987652      -1.75861458
Si       3.76227409       2.00679893      15.60606667  F        0        2      -0.14262132       0.05637136       1.16454624
Si       6.22272410       2.25482548      13.80303333  F        0        2       0.03393565      -0.16381123       0.98618827
O        6.30416499       1.13103512      12.65233746  F        1        2      -0.52981865       0.24151643      -0.19578217
O        5.20877265       1.76346018      14.95372921  F        1        2       0.43566172      -0.25076048      -0.36144247
O        8.17066236       0.63242506      16.25840413  F        1        2       0.31991286      -0.09507012      -0.78449467
O        5.71021236       3.62919935      13.15069587  F        1        2       0.45453518       0.27106821       0.57285378
O        7.66922265       2.49816423      14.45537079  F        1        2       0.00836438       0.38357095      -0.73028885
O        3.84371499       3.13058929      16.75676254  F        1        2      -0.43663036      -0.29493825      -0.45044051
Si       7.23815181       0.00000000      17.40910000  F        0        1       0.03333145       0.02825339       1.05187873
Si       3.76227409       2.00679893      21.01516667  F        0        1       0.22081654       0.02269727      -0.40002477
Si       6.22272410       2.25482548      19.21213333  F        0        1      -0.02847786       0.03382699       0.49697184
O        6.30416499       1.13103512      18.06143746  F        1        1      -0.25977306      -0.13459045      -0.57127022
O        5.20877265       1.76346018      20.36282921  F        1        1       0.39737118      -0.14731727      -0.15420420
O        8.17066236       0.63242506      21.66750413  F        1        1      -0.34757822      -0.93534640       0.90356989
O        5.71021236       3.62919935      18.55979587  F        1        1       0.02082379       0.41613133      -0.23116227
O        7.66922265       2.49816423      19.86447079  F        1        1      -0.06595713       0.34695224      -0.75582007
O        3.84371499       3.13058929      22.16586254  F        1        1      -0.08451401       0.35521910       1.56046617
F        3.76227409       2.00679893      24.91586254  F        0        0       0.00511650       0.19702248       0.51958663
F        3.76227409       2.00679893      26.39643827  F        0        0      -0.00100139      -0.09374618      -1.12134884
38
Lattice="9.8418 0.0 0.0 -2.460449999999999 4.261624409482844 0.0 0.0 -0.0 34.16586254" Properties=species:S:1:pos:R:3:move_mask:L:1:spacegroup_kinds:I:1:tags:I:1:forces:R:3 spacegroup="P 32 2 1" unit_cell=conventional surface=alpha_quartz_001 species=F2 height_A=2.25 substrate_atoms=36 calculation_kind="Rigid approach energy evaluation; not NEB or TS" energy=-268.91006377771976 pbc="T T F"
Si       2.31725181       0.00000000      12.00000000  F        0        2      -0.13650035      -0.37989634      -1.75844397
Si      -1.15862590       2.00679893      15.60606667  F        0        2      -0.14327954       0.05622111       1.16431413
Si       1.30182410       2.25482548      13.80303333  F        0        2       0.03349208      -0.16396168       0.98639312
O        1.38326499       1.13103512      12.65233746  F        1        2      -0.52974245       0.24145312      -0.19587125
O        0.28787265       1.76346018      14.95372921  F        1        2       0.43641180      -0.25058495      -0.36151645
O        3.24976236       0.63242506      16.25840413  F        1        2       0.32008222      -0.09602308      -0.78085960
O        0.78931236       3.62919935      13.15069587  F        1        2       0.45455101       0.27117659       0.57267336
O        2.74832265       2.49816423      14.45537079  F        1        2       0.00853485       0.38362258      -0.72985269
O       -1.07718501       3.13058929      16.75676254  F        1        2      -0.43285655      -0.29245466      -0.44772342
Si       2.31725181       0.00000000      17.40910000  F        0        1       0.02393982       0.03245596       1.04471938
Si      -1.15862590       2.00679893      21.01516667  F        0        1       0.17990674       0.18774386      -0.22332057
Si       1.30182410       2.25482548      19.21213333  F        0        1      -0.08042066       0.01211622       0.47222853
O        1.38326499       1.13103512      18.06143746  F        1        1      -0.25685204      -0.12659754      -0.57436220
O        0.28787265       1.76346018      20.36282921  F        1        1       0.52547188      -0.16213141      -0.26222704
O        3.24976236       0.63242506      21.66750413  F        1        1      -0.30398519      -0.86440036       0.98245759
O        0.78931236       3.62919935      18.55979587  F        1        1       0.02876038       0.41854939      -0.21536012
O        2.74832265       2.49816423      19.86447079  F        1        1       0.04761307       0.34068925      -0.57855312
O       -1.07718501       3.13058929      22.16586254  F        1        1      -0.01824539       0.45659918       1.21093748
Si       7.23815181       0.00000000      12.00000000  F        0        2      -0.13651418      -0.37988222      -1.75846938
Si       3.76227409       2.00679893      15.60606667  F        0        2      -0.14207844       0.05695989       1.16354068
Si       6.22272410       2.25482548      13.80303333  F        0        2       0.03396506      -0.16387314       0.98652163
O        6.30416499       1.13103512      12.65233746  F        1        2      -0.52981633       0.24146851      -0.19593322
O        5.20877265       1.76346018      14.95372921  F        1        2       0.43572969      -0.25069148      -0.36149455
O        8.17066236       0.63242506      16.25840413  F        1        2       0.31980433      -0.09524813      -0.78379128
O        5.71021236       3.62919935      13.15069587  F        1        2       0.45450076       0.27111126       0.57267674
O        7.66922265       2.49816423      14.45537079  F        1        2       0.00837621       0.38360433      -0.73028180
O        3.84371499       3.13058929      16.75676254  F        1        2      -0.43684027      -0.29654215      -0.44789068
Si       7.23815181       0.00000000      17.40910000  F        0        1       0.03221246       0.03267148       1.04467725
Si       3.76227409       2.00679893      21.01516667  F        0        1       0.17347381      -0.01368261      -0.59351566
Si       6.22272410       2.25482548      19.21213333  F        0        1      -0.01367086       0.02408586       0.48358472
O        6.30416499       1.13103512      18.06143746  F        1        1      -0.25818668      -0.13027606      -0.57522083
O        5.20877265       1.76346018      20.36282921  F        1        1       0.37666906      -0.13631224      -0.14502701
O        8.17066236       0.63242506      21.66750413  F        1        1      -0.30009162      -0.86605185       0.87000207
O        5.71021236       3.62919935      18.55979587  F        1        1       0.01801563       0.41414721      -0.22402419
O        7.66922265       2.49816423      19.86447079  F        1        1      -0.06715401       0.35404648      -0.75834041
O        3.84371499       3.13058929      22.16586254  F        1        1      -0.11369929       0.51579485       1.35161011
F        3.76227409       2.00679893      24.41586254  F        0        0      -0.02700528       0.06928079      -0.53756183
F        3.76227409       2.00679893      25.89643827  F        0        0       0.01542827      -0.09518801       0.33330447
38
Lattice="9.8418 0.0 0.0 -2.460449999999999 4.261624409482844 0.0 0.0 -0.0 34.16586254" Properties=species:S:1:pos:R:3:move_mask:L:1:spacegroup_kinds:I:1:tags:I:1:forces:R:3 spacegroup="P 32 2 1" unit_cell=conventional surface=alpha_quartz_001 species=F2 height_A=1.9 substrate_atoms=36 calculation_kind="Rigid approach energy evaluation; not NEB or TS" energy=-268.894889230985 pbc="T T F"
Si       2.31725181       0.00000000      12.00000000  F        0        2      -0.13647343      -0.37988674      -1.75816833
Si      -1.15862590       2.00679893      15.60606667  F        0        2      -0.14449397       0.05468348       1.16135950
Si       1.30182410       2.25482548      13.80303333  F        0        2       0.03388315      -0.16392286       0.98646751
O        1.38326499       1.13103512      12.65233746  F        1        2      -0.52972755       0.24135571      -0.19616593
O        0.28787265       1.76346018      14.95372921  F        1        2       0.43678409      -0.25030450      -0.36085786
O        3.24976236       0.63242506      16.25840413  F        1        2       0.31958108      -0.09663991      -0.77806967
O        0.78931236       3.62919935      13.15069587  F        1        2       0.45447587       0.27129086       0.57246131
O        2.74832265       2.49816423      14.45537079  F        1        2       0.00835579       0.38331342      -0.72936081
O       -1.07718501       3.13058929      16.75676254  F        1        2      -0.43169516      -0.29095221      -0.44410253
Si       2.31725181       0.00000000      17.40910000  F        0        1       0.01924242       0.03098799       1.03438321
Si      -1.15862590       2.00679893      21.01516667  F        0        1       0.18407155       0.16967525      -0.21885523
Si       1.30182410       2.25482548      19.21213333  F        0        1      -0.10219896       0.00792175       0.45112766
O        1.38326499       1.13103512      18.06143746  F        1        1      -0.25509812      -0.12094848      -0.56758931
O        0.28787265       1.76346018      20.36282921  F        1        1       0.52624044      -0.16559208      -0.25785060
O        3.24976236       0.63242506      21.66750413  F        1        1      -0.27789958      -1.00279993       0.88928243
O        0.78931236       3.62919935      18.55979587  F        1        1       0.03206045       0.41882452      -0.20650281
O        2.74832265       2.49816423      19.86447079  F        1        1       0.10509930       0.33765259      -0.51108619
O       -1.07718501       3.13058929      22.16586254  F        1        1      -0.04788120       0.43081976       1.18480209
Si       7.23815181       0.00000000      12.00000000  F        0        2      -0.13644410      -0.37991367      -1.75798158
Si       3.76227409       2.00679893      15.60606667  F        0        2      -0.14096674       0.05721093       1.16007226
Si       6.22272410       2.25482548      13.80303333  F        0        2       0.03408092      -0.16389028       0.98700251
O        6.30416499       1.13103512      12.65233746  F        1        2      -0.52980294       0.24127172      -0.19628213
O        5.20877265       1.76346018      14.95372921  F        1        2       0.43530201      -0.25056143      -0.36090488
O        8.17066236       0.63242506      16.25840413  F        1        2       0.31986697      -0.09590624      -0.78262609
O        5.71021236       3.62919935      13.15069587  F        1        2       0.45432648       0.27127435       0.57233627
O        7.66922265       2.49816423      14.45537079  F        1        2       0.00848355       0.38362722      -0.73015914
O        3.84371499       3.13058929      16.75676254  F        1        2      -0.43776615      -0.29965304      -0.44008719
Si       7.23815181       0.00000000      17.40910000  F        0        1       0.03014593       0.04248195       1.03776366
Si       3.76227409       2.00679893      21.01516667  F        0        1       0.12913041      -0.07793274      -1.03764040
Si       6.22272410       2.25482548      19.21213333  F        0        1      -0.00333704       0.01738217       0.45318106
O        6.30416499       1.13103512      18.06143746  F        1        1      -0.25772034      -0.12550605      -0.57453775
O        5.20877265       1.76346018      20.36282921  F        1        1       0.35218376      -0.13883858      -0.14129620
O        8.17066236       0.63242506      21.66750413  F        1        1      -0.22911088      -0.77266250       0.82483220
O        5.71021236       3.62919935      18.55979587  F        1        1       0.01531461       0.41104456      -0.21363339
O        7.66922265       2.49816423      19.86447079  F        1        1      -0.06372254       0.35648561      -0.75004954
O        3.84371499       3.13058929      22.16586254  F        1        1      -0.12142669       0.53952037       1.37277021
F        3.76227409       2.00679893      24.06586254  F        0        0      -0.07710420       0.28389583      -1.18657862
F        3.76227409       2.00679893      25.54643827  F        0        0       0.02424080      -0.17480878       1.51254429
38
Lattice="9.8418 0.0 0.0 -2.460449999999999 4.261624409482844 0.0 0.0 -0.0 34.16586254" Properties=species:S:1:pos:R:3:move_mask:L:1:spacegroup_kinds:I:1:tags:I:1:forces:R:3 spacegroup="P 32 2 1" unit_cell=conventional surface=alpha_quartz_001 species=F2 height_A=1.6 substrate_atoms=36 calculation_kind="Rigid approach energy evaluation; not NEB or TS" energy=-268.6678151130638 pbc="T T F"
Si       2.31725181       0.00000000      12.00000000  F        0        2      -0.13646920      -0.37985541      -1.75813285
Si      -1.15862590       2.00679893      15.60606667  F        0        2      -0.14554370       0.05343614       1.15749335
Si       1.30182410       2.25482548      13.80303333  F        0        2       0.03454264      -0.16365675       0.98534779
O        1.38326499       1.13103512      12.65233746  F        1        2      -0.52973933       0.24135583      -0.19608843
O        0.28787265       1.76346018      14.95372921  F        1        2       0.43610203      -0.25041874      -0.35971030
O        3.24976236       0.63242506      16.25840413  F        1        2       0.31973344      -0.09703085      -0.77659167
O        0.78931236       3.62919935      13.15069587  F        1        2       0.45446735       0.27130405       0.57265897
O        2.74832265       2.49816423      14.45537079  F        1        2       0.00863338       0.38296029      -0.72843482
O       -1.07718501       3.13058929      16.75676254  F        1        2      -0.43224014      -0.29034202      -0.44255597
Si       2.31725181       0.00000000      17.40910000  F        0        1       0.01801962       0.02965469       1.02617809
Si      -1.15862590       2.00679893      21.01516667  F        0        1       0.19720925       0.16274700      -0.21268892
Si       1.30182410       2.25482548      19.21213333  F        0        1      -0.16571806      -0.00427496       0.41006581
O        1.38326499       1.13103512      18.06143746  F        1        1      -0.24860986      -0.10923530      -0.55302904
O        0.28787265       1.76346018      20.36282921  F        1        1       0.54404382      -0.16415109      -0.24255097
O        3.24976236       0.63242506      21.66750413  F        1        1      -0.28302466      -1.18826612       0.79016645
O        0.78931236       3.62919935      18.55979587  F        1        1       0.04305080       0.41340944      -0.19392189
O        2.74832265       2.49816423      19.86447079  F        1        1       0.15265485       0.40192490      -0.49242372
O       -1.07718501       3.13058929      22.16586254  F        1        1      -0.07125216       0.40898834       1.18095594
Si       7.23815181       0.00000000      12.00000000  F        0        2      -0.13642514      -0.37993915      -1.75776718
Si       3.76227409       2.00679893      15.60606667  F        0        2      -0.14001839       0.05800494       1.15665711
Si       6.22272410       2.25482548      13.80303333  F        0        2       0.03421189      -0.16379707       0.98635059
O        6.30416499       1.13103512      12.65233746  F        1        2      -0.52983587       0.24119127      -0.19625688
O        5.20877265       1.76346018      14.95372921  F        1        2       0.43440213      -0.25060230      -0.36003281
O        8.17066236       0.63242506      16.25840413  F        1        2       0.32073230      -0.09684637      -0.78306657
O        5.71021236       3.62919935      13.15069587  F        1        2       0.45425174       0.27133020       0.57240911
O        7.66922265       2.49816423      14.45537079  F        1        2       0.00927685       0.38352086      -0.72902499
O        3.84371499       3.13058929      16.75676254  F        1        2      -0.43906732      -0.30307598      -0.43123837
Si       7.23815181       0.00000000      17.40910000  F        0        1       0.02706384       0.05134337       1.03230807
Si       3.76227409       2.00679893      21.01516667  F        0        1       0.14842719      -0.21102660      -1.39525007
Si       6.22272410       2.25482548      19.21213333  F        0        1       0.01650274       0.02780904       0.40166689
O        6.30416499       1.13103512      18.06143746  F        1        1      -0.26068745      -0.12119389      -0.56542680
O        5.20877265       1.76346018      20.36282921  F        1        1       0.29819454      -0.13840567      -0.06351311
O        8.17066236       0.63242506      21.66750413  F        1        1      -0.17721694      -0.70315123       0.79454185
O        5.71021236       3.62919935      18.55979587  F        1        1       0.00933553       0.40252580      -0.19718381
O        7.66922265       2.49816423      19.86447079  F        1        1      -0.06280649       0.35666928      -0.73923495
O        3.84371499       3.13058929      22.16586254  F        1        1      -0.12254852       0.99804305       0.81327844
F        3.76227409       2.00679893      23.76586254  F        0        0      -0.10982837       0.18388264      -0.15580097
F        3.76227409       2.00679893      25.24643827  F        0        0       0.03017567      -0.32483162       1.44984667
38
Lattice="9.8418 0.0 0.0 -2.460449999999999 4.261624409482844 0.0 0.0 -0.0 34.16586254" Properties=species:S:1:pos:R:3:move_mask:L:1:spacegroup_kinds:I:1:tags:I:1:forces:R:3 spacegroup="P 32 2 1" unit_cell=conventional surface=alpha_quartz_001 species=F2 height_A=1.3 substrate_atoms=36 calculation_kind="Rigid approach energy evaluation; not NEB or TS" energy=-268.17430881608993 pbc="T T F"
Si       2.31725181       0.00000000      12.00000000  F        0        2      -0.13657976      -0.37979382      -1.75917708
Si      -1.15862590       2.00679893      15.60606667  F        0        2      -0.14557729       0.05308794       1.14351774
Si       1.30182410       2.25482548      13.80303333  F        0        2       0.03550827      -0.16274547       0.97881355
O        1.38326499       1.13103512      12.65233746  F        1        2      -0.52984644       0.24167532      -0.19458299
O        0.28787265       1.76346018      14.95372921  F        1        2       0.43255981      -0.25131297      -0.35428088
O        3.24976236       0.63242506      16.25840413  F        1        2       0.31901962      -0.09977664      -0.77024642
O        0.78931236       3.62919935      13.15069587  F        1        2       0.45458022       0.27093136       0.57446076
O        2.74832265       2.49816423      14.45537079  F        1        2       0.01091000       0.38242649      -0.72369386
O       -1.07718501       3.13058929      16.75676254  F        1        2      -0.43301616      -0.28862322      -0.43685145
Si       2.31725181       0.00000000      17.40910000  F        0        1       0.01438662       0.03505006       1.00832488
Si      -1.15862590       2.00679893      21.01516667  F        0        1       0.23049810       0.19324064      -0.24065710
Si       1.30182410       2.25482548      19.21213333  F        0        1      -0.20983689      -0.03190832       0.38351281
O        1.38326499       1.13103512      18.06143746  F        1        1      -0.23962454      -0.09515711      -0.53418851
O        0.28787265       1.76346018      20.36282921  F        1        1       0.58718260      -0.15260998      -0.19794542
O        3.24976236       0.63242506      21.66750413  F        1        1      -0.37097057      -1.43131684       0.37138608
O        0.78931236       3.62919935      18.55979587  F        1        1       0.06387585       0.41249093      -0.16911506
O        2.74832265       2.49816423      19.86447079  F        1        1       0.25007824       0.47914197      -0.27428881
O       -1.07718501       3.13058929      22.16586254  F        1        1      -0.08925902       0.38456602       1.18897617
Si       7.23815181       0.00000000      12.00000000  F        0        2      -0.13662491      -0.37992309      -1.75895274
Si       3.76227409       2.00679893      15.60606667  F        0        2      -0.13915836       0.05971243       1.14559301
Si       6.22272410       2.25482548      13.80303333  F        0        2       0.03459946      -0.16314624       0.98007946
O        6.30416499       1.13103512      12.65233746  F        1        2      -0.53000665       0.24160038      -0.19474874
O        5.20877265       1.76346018      14.95372921  F        1        2       0.43196833      -0.25091397      -0.35550055
O        8.17066236       0.63242506      16.25840413  F        1        2       0.32175628      -0.09985674      -0.77986664
O        5.71021236       3.62919935      13.15069587  F        1        2       0.45447051       0.27094454       0.57434745
O        7.66922265       2.49816423      14.45537079  F        1        2       0.01194667       0.38283763      -0.72328365
O        3.84371499       3.13058929      16.75676254  F        1        2      -0.43958679      -0.30118057      -0.42480780
Si       7.23815181       0.00000000      17.40910000  F        0        1       0.02129844       0.05775143       1.01731124
Si       3.76227409       2.00679893      21.01516667  F        0        1       0.21757483      -0.51572619      -1.62904469
Si       6.22272410       2.25482548      19.21213333  F        0        1       0.00521269       0.03137395       0.37145968
O        6.30416499       1.13103512      18.06143746  F        1        1      -0.26308645      -0.11948418      -0.54116410
O        5.20877265       1.76346018      20.36282921  F        1        1       0.16557064      -0.10577870       0.14313047
O        8.17066236       0.63242506      21.66750413  F        1        1      -0.18140079      -0.69102093       0.78527098
O        5.71021236       3.62919935      18.55979587  F        1        1       0.00394878       0.39417382      -0.18064038
O        7.66922265       2.49816423      19.86447079  F        1        1      -0.05915754       0.34810947      -0.71046205
O        3.84371499       3.13058929      22.16586254  F        1        1      -0.12596240       1.73300077       0.39051914
F        3.76227409       2.00679893      23.46586254  F        0        0      -0.08296793      -0.15855464       0.94035839
F        3.76227409       2.00679893      24.94643827  F        0        0       0.04571653      -0.29328552       0.95643710
