37
Lattice="11.518769465528859 0.0 0.0 0.0 7.679179643685906 0.0 0.0 0.0 26.7875" Properties=species:S:1:pos:R:3:move_mask:L:1:tags:I:1:forces:R:3 energy=-184.0960437832498 pbc="T T F"
Si       0.00000000       0.00000000      10.00000000  F        6      -0.00145529      -0.00061698       0.25461487
Si       3.83958982       0.00000000      10.00000000  F        6       0.00150924      -0.00234204       0.25203155
Si       7.67917964       0.00000000      10.00000000  F        6      -0.00029873       0.00003927       0.25099606
Si       0.00000000       3.83958982      10.00000000  F        6      -0.00145538       0.00061696       0.25461468
Si       3.83958982       3.83958982      10.00000000  F        6       0.00150927       0.00234198       0.25203121
Si       7.67917964       3.83958982      10.00000000  F        6      -0.00029865      -0.00003927       0.25099589
Si       1.91979491       0.00000000      11.35750000  F        5       0.00065267       0.00544575      -0.51623809
Si       5.75938473       0.00000000      11.35750000  F        5      -0.01641608       0.00791567      -0.50433209
Si       9.59897455       0.00000000      11.35750000  F        5       0.00838539       0.00150247      -0.52627548
Si       1.91979491       3.83958982      11.35750000  F        5       0.00065227      -0.00544561      -0.51623981
Si       5.75938473       3.83958982      11.35750000  F        5      -0.01641522      -0.00791546      -0.50433284
Si       9.59897455       3.83958982      11.35750000  F        5       0.00838466      -0.00150258      -0.52627670
Si       1.91979491       1.91979491      12.71500000  F        4      -0.00171861       0.00000098       0.16778580
Si       5.75938473       1.91979491      12.71500000  F        4      -0.00742281      -0.00000070       0.14110552
Si       9.59897455       1.91979491      12.71500000  F        4      -0.00334336      -0.00000085       0.14593546
Si       1.91979491       5.75938473      12.71500000  F        4       0.02423340       0.00000201       0.03035798
Si       5.75938473       5.75938473      12.71500000  F        4       0.00879983       0.00000221       0.15136029
Si       9.59897455       5.75938473      12.71500000  F        4      -0.01189963       0.00000062       0.15132166
Si       0.00000000       1.91979491      14.07250000  F        3      -0.03169281      -0.00000040      -0.29072040
Si       3.83958982       1.91979491      14.07250000  F        3      -0.01609298       0.00000521      -0.19766335
Si       7.67917964       1.91979491      14.07250000  F        3       0.01336152       0.00000070      -0.13725371
Si       0.00000000       5.75938473      14.07250000  F        3       0.07429008      -0.00000683      -0.02786868
Si       3.83958982       5.75938473      14.07250000  F        3       0.01199226      -0.00000956      -0.09564458
Si       7.67917964       5.75938473      14.07250000  F        3      -0.04006355      -0.00000180      -0.09692093
Si       0.00000000       0.00000000      15.43000000  F        2      -0.23488285       0.21855260       0.41962812
Si       3.83958982       0.00000000      15.43000000  F        2       0.24259633      -0.01359573       0.30857604
Si       7.67917964       0.00000000      15.43000000  F        2       0.01917646      -0.00166536       0.48068270
Si       0.00000000       3.83958982      15.43000000  F        2      -0.23488707      -0.21855304       0.41962796
Si       3.83958982       3.83958982      15.43000000  F        2       0.24261570       0.01362607       0.30854632
Si       7.67917964       3.83958982      15.43000000  F        2       0.01917131       0.00166627       0.48068620
Si       1.91979491       0.00000000      16.78750000  F        1       0.08877073      -0.50654576       0.03339351
Si       5.75938473       0.00000000      16.78750000  F        1      -0.03122075      -0.04897917      -0.19077882
Si       9.59897455       0.00000000      16.78750000  F        1      -0.08706842      -0.01879915      -0.23299654
Si       1.91979491       3.83958982      16.78750000  F        1       0.08870781       0.50687845       0.03323195
Si       5.75938473       3.83958982      16.78750000  F        1      -0.03121990       0.04897751      -0.19078786
Si       9.59897455       3.83958982      16.78750000  F        1      -0.08707653       0.01880008      -0.23299630
Cl       2.41185171       1.91984109      17.79113820  T        0       0.00011970      -0.00035453      -0.00019759
37
Lattice="11.518769465528859 0.0 0.0 0.0 7.679179643685906 0.0 0.0 0.0 26.7875" Properties=species:S:1:pos:R:3:move_mask:L:1:tags:I:1:forces:R:3 energy=-183.95753653374794 pbc="T T F"
Si       0.00000000       0.00000000      10.00000000  F        6      -0.00086569      -0.00001197       0.25467795
Si       3.83958982       0.00000000      10.00000000  F        6       0.00108777      -0.00276106       0.25100653
Si       7.67917964       0.00000000      10.00000000  F        6      -0.00051114       0.00025362       0.25053933
Si       0.00000000       3.83958982      10.00000000  F        6      -0.00086575       0.00001197       0.25467775
Si       3.83958982       3.83958982      10.00000000  F        6       0.00108778       0.00276103       0.25100628
Si       7.67917964       3.83958982      10.00000000  F        6      -0.00051110      -0.00025362       0.25053920
Si       1.91979491       0.00000000      11.35750000  F        5       0.00310966       0.00712051      -0.51523582
Si       5.75938473       0.00000000      11.35750000  F        5      -0.01776066       0.00508668      -0.50242121
Si       9.59897455       0.00000000      11.35750000  F        5       0.00734127       0.00154137      -0.52911748
Si       1.91979491       3.83958982      11.35750000  F        5       0.00310960      -0.00712045      -0.51523634
Si       5.75938473       3.83958982      11.35750000  F        5      -0.01776031      -0.00508659      -0.50242147
Si       9.59897455       3.83958982      11.35750000  F        5       0.00734086      -0.00154143      -0.52911819
Si       1.91979491       1.91979491      12.71500000  F        4       0.00328009       0.00000008       0.16264334
Si       5.75938473       1.91979491      12.71500000  F        4      -0.01686293      -0.00000019       0.13957832
Si       9.59897455       1.91979491      12.71500000  F        4       0.00981317      -0.00000049       0.14747257
Si       1.91979491       5.75938473      12.71500000  F        4       0.03682210       0.00000139       0.07149727
Si       5.75938473       5.75938473      12.71500000  F        4       0.00575004       0.00000089       0.14375254
Si       9.59897455       5.75938473      12.71500000  F        4      -0.02163941       0.00000030       0.14282514
Si       0.00000000       1.91979491      14.07250000  F        3      -0.06143544      -0.00000060      -0.28540545
Si       3.83958982       1.91979491      14.07250000  F        3      -0.01966151       0.00000254      -0.19444616
Si       7.67917964       1.91979491      14.07250000  F        3       0.03254185       0.00000039      -0.14248839
Si       0.00000000       5.75938473      14.07250000  F        3       0.10672723      -0.00000315      -0.00450280
Si       3.83958982       5.75938473      14.07250000  F        3       0.02101672      -0.00000481      -0.13618235
Si       7.67917964       5.75938473      14.07250000  F        3      -0.04450563      -0.00000039      -0.06991416
Si       0.00000000       0.00000000      15.43000000  F        2      -0.24818365       0.23796126       0.37007655
Si       3.83958982       0.00000000      15.43000000  F        2       0.17711365      -0.16512483       0.19741183
Si       7.67917964       0.00000000      15.43000000  F        2       0.02424988      -0.02639175       0.48885649
Si       0.00000000       3.83958982      15.43000000  F        2      -0.24819052      -0.23796587       0.37007547
Si       3.83958982       3.83958982      15.43000000  F        2       0.17712924       0.16514068       0.19738926
Si       7.67917964       3.83958982      15.43000000  F        2       0.02424850       0.02639319       0.48885711
Si       1.91979491       0.00000000      16.78750000  F        1       0.39124879      -0.05801228       0.26534656
Si       5.75938473       0.00000000      16.78750000  F        1      -0.00270292      -0.02099014      -0.18934627
Si       9.59897455       0.00000000      16.78750000  F        1      -0.07568650      -0.01933019      -0.23384316
Si       1.91979491       3.83958982      16.78750000  F        1       0.39124284       0.05805356       0.26534263
Si       5.75938473       3.83958982      16.78750000  F        1      -0.00270634       0.02098684      -0.18934835
Si       9.59897455       3.83958982      16.78750000  F        1      -0.07568716       0.01932959      -0.23384236
Cl       2.87550504       1.91981064      17.82343624  T        0      -0.56872441      -0.00004608      -0.19070214
37
Lattice="11.518769465528859 0.0 0.0 0.0 7.679179643685906 0.0 0.0 0.0 26.7875" Properties=species:S:1:pos:R:3:move_mask:L:1:tags:I:1:forces:R:3 energy=-183.69799404047768 pbc="T T F"
Si       0.00000000       0.00000000      10.00000000  F        6       0.00041032       0.00063391       0.25269270
Si       3.83958982       0.00000000      10.00000000  F        6       0.00017425      -0.00158059       0.25197160
Si       7.67917964       0.00000000      10.00000000  F        6      -0.00068543       0.00032361       0.25091998
Si       0.00000000       3.83958982      10.00000000  F        6       0.00041020      -0.00063391       0.25269217
Si       3.83958982       3.83958982      10.00000000  F        6       0.00017424       0.00158050       0.25197080
Si       7.67917964       3.83958982      10.00000000  F        6      -0.00068530      -0.00032361       0.25091944
Si       1.91979491       0.00000000      11.35750000  F        5       0.00810829       0.00277634      -0.51152152
Si       5.75938473       0.00000000      11.35750000  F        5      -0.01509423       0.00039234      -0.50482688
Si       9.59897455       0.00000000      11.35750000  F        5       0.00421986       0.00073382      -0.52537392
Si       1.91979491       3.83958982      11.35750000  F        5       0.00810865      -0.00277608      -0.51152043
Si       5.75938473       3.83958982      11.35750000  F        5      -0.01509493      -0.00039195      -0.50482589
Si       9.59897455       3.83958982      11.35750000  F        5       0.00421981      -0.00073389      -0.52537515
Si       1.91979491       1.91979491      12.71500000  F        4       0.01143503       0.00000026       0.14546551
Si       5.75938473       1.91979491      12.71500000  F        4      -0.01480036       0.00000001       0.13217934
Si       9.59897455       1.91979491      12.71500000  F        4       0.00625660      -0.00000049       0.14975225
Si       1.91979491       5.75938473      12.71500000  F        4       0.03371963       0.00000281       0.14418349
Si       5.75938473       5.75938473      12.71500000  F        4      -0.01230958       0.00000198       0.15610183
Si       9.59897455       5.75938473      12.71500000  F        4      -0.01365821       0.00000038       0.14844635
Si       0.00000000       1.91979491      14.07250000  F        3      -0.03356665      -0.00000022      -0.18404525
Si       3.83958982       1.91979491      14.07250000  F        3      -0.02595370       0.00000235      -0.19621911
Si       7.67917964       1.91979491      14.07250000  F        3       0.04627272       0.00000314      -0.14826061
Si       0.00000000       5.75938473      14.07250000  F        3       0.06509714      -0.00001024      -0.02363268
Si       3.83958982       5.75938473      14.07250000  F        3      -0.00178336      -0.00000959      -0.14134991
Si       7.67917964       5.75938473      14.07250000  F        3      -0.03190649      -0.00000230      -0.05566271
Si       0.00000000       0.00000000      15.43000000  F        2      -0.22756782       0.07211564       0.31480353
Si       3.83958982       0.00000000      15.43000000  F        2      -0.01823417      -0.16931145       0.27631674
Si       7.67917964       0.00000000      15.43000000  F        2       0.07073194      -0.06284193       0.45188920
Si       0.00000000       3.83958982      15.43000000  F        2      -0.22758765      -0.07214655       0.31479363
Si       3.83958982       3.83958982      15.43000000  F        2      -0.01822246       0.16936580       0.27625071
Si       7.67917964       3.83958982      15.43000000  F        2       0.07073772       0.06284259       0.45188136
Si       1.91979491       0.00000000      16.78750000  F        1       0.31811840       0.01163571       0.05974421
Si       5.75938473       0.00000000      16.78750000  F        1      -0.05184809       0.06530243      -0.10851468
Si       9.59897455       0.00000000      16.78750000  F        1      -0.02147374      -0.02921828      -0.25805663
Si       1.91979491       3.83958982      16.78750000  F        1       0.31822956      -0.01166685       0.05981982
Si       5.75938473       3.83958982      16.78750000  F        1      -0.05187477      -0.06531421      -0.10850548
Si       9.59897455       3.83958982      16.78750000  F        1      -0.02147403       0.02921957      -0.25805339
Cl       3.36302334       1.91984985      17.97155552  T        0      -0.16260341       0.00002893      -0.02705044
37
Lattice="11.518769465528859 0.0 0.0 0.0 7.679179643685906 0.0 0.0 0.0 26.7875" Properties=species:S:1:pos:R:3:move_mask:L:1:tags:I:1:forces:R:3 energy=-183.69213577348575 pbc="T T F"
Si       0.00000000       0.00000000      10.00000000  F        6       0.00036977       0.00035358       0.25191632
Si       3.83958982       0.00000000      10.00000000  F        6      -0.00001014      -0.00109252       0.25238478
Si       7.67917964       0.00000000      10.00000000  F        6      -0.00035685       0.00036589       0.25194826
Si       0.00000000       3.83958982      10.00000000  F        6       0.00036977      -0.00035358       0.25191635
Si       3.83958982       3.83958982      10.00000000  F        6      -0.00001014       0.00109252       0.25238481
Si       7.67917964       3.83958982      10.00000000  F        6      -0.00035685      -0.00036589       0.25194829
Si       1.91979491       0.00000000      11.35750000  F        5       0.01266843      -0.00005038      -0.50811589
Si       5.75938473       0.00000000      11.35750000  F        5      -0.01248900       0.00003298      -0.50847895
Si       9.59897455       0.00000000      11.35750000  F        5      -0.00012725      -0.00002466      -0.52468316
Si       1.91979491       3.83958982      11.35750000  F        5       0.01266839       0.00005034      -0.50811599
Si       5.75938473       3.83958982      11.35750000  F        5      -0.01248896      -0.00003301      -0.50847905
Si       9.59897455       3.83958982      11.35750000  F        5      -0.00012725       0.00002464      -0.52468319
Si       1.91979491       1.91979491      12.71500000  F        4       0.01558340      -0.00000002       0.13864612
Si       5.75938473       1.91979491      12.71500000  F        4      -0.01565278      -0.00000002       0.13915077
Si       9.59897455       1.91979491      12.71500000  F        4      -0.00008549      -0.00000002       0.15039133
Si       1.91979491       5.75938473      12.71500000  F        4       0.02820682      -0.00000001       0.16829376
Si       5.75938473       5.75938473      12.71500000  F        4      -0.02897138      -0.00000001       0.16844712
Si       9.59897455       5.75938473      12.71500000  F        4       0.00053034       0.00000004       0.15140295
Si       0.00000000       1.91979491      14.07250000  F        3      -0.04144968      -0.00000024      -0.14910309
Si       3.83958982       1.91979491      14.07250000  F        3       0.00099707      -0.00000003      -0.18414807
Si       7.67917964       1.91979491      14.07250000  F        3       0.04066991      -0.00000024      -0.14955487
Si       0.00000000       5.75938473      14.07250000  F        3       0.02682078       0.00000031      -0.04806858
Si       3.83958982       5.75938473      14.07250000  F        3       0.00005820       0.00000043      -0.15117854
Si       7.67917964       5.75938473      14.07250000  F        3      -0.02766595       0.00000032      -0.04718693
Si       0.00000000       0.00000000      15.43000000  F        2      -0.17632892      -0.05460387       0.35192405
Si       3.83958982       0.00000000      15.43000000  F        2       0.00119112      -0.15443275       0.28134182
Si       7.67917964       0.00000000      15.43000000  F        2       0.18328855      -0.05091364       0.34601075
Si       0.00000000       3.83958982      15.43000000  F        2      -0.17632772       0.05460443       0.35192506
Si       3.83958982       3.83958982      15.43000000  F        2       0.00119113       0.15442975       0.28134487
Si       7.67917964       3.83958982      15.43000000  F        2       0.18328732       0.05091425       0.34601178
Si       1.91979491       0.00000000      16.78750000  F        1       0.15422621       0.07731354      -0.00932706
Si       5.75938473       0.00000000      16.78750000  F        1      -0.16007325       0.07060759      -0.00639728
Si       9.59897455       0.00000000      16.78750000  F        1       0.00030951      -0.03524482      -0.26723336
Si       1.91979491       3.83958982      16.78750000  F        1       0.15422552      -0.07731549      -0.00932696
Si       5.75938473       3.83958982      16.78750000  F        1      -0.16007261      -0.07060975      -0.00639714
Si       9.59897455       3.83958982      16.78750000  F        1       0.00030952       0.03524472      -0.26723336
Cl       3.85533371       1.91979243      18.01454773  T        0      -0.00437752       0.00000561      -0.00967771
37
Lattice="11.518769465528859 0.0 0.0 0.0 7.679179643685906 0.0 0.0 0.0 26.7875" Properties=species:S:1:pos:R:3:move_mask:L:1:tags:I:1:forces:R:3 energy=-183.7028133472287 pbc="T T F"
Si       0.00000000       0.00000000      10.00000000  F        6       0.00069036       0.00032562       0.25086090
Si       3.83958982       0.00000000      10.00000000  F        6      -0.00019119      -0.00164625       0.25188801
Si       7.67917964       0.00000000      10.00000000  F        6      -0.00038977       0.00063702       0.25280897
Si       0.00000000       3.83958982      10.00000000  F        6       0.00069021      -0.00032562       0.25086031
Si       3.83958982       3.83958982      10.00000000  F        6      -0.00019119       0.00164616       0.25188711
Si       7.67917964       3.83958982      10.00000000  F        6      -0.00038963      -0.00063702       0.25280838
Si       1.91979491       0.00000000      11.35750000  F        5       0.01528314       0.00053955      -0.50471994
Si       5.75938473       0.00000000      11.35750000  F        5      -0.00777563       0.00304746      -0.51156672
Si       9.59897455       0.00000000      11.35750000  F        5      -0.00445949       0.00081193      -0.52555181
Si       1.91979491       3.83958982      11.35750000  F        5       0.01528381      -0.00053911      -0.50471899
Si       5.75938473       3.83958982      11.35750000  F        5      -0.00777600      -0.00304718      -0.51156571
Si       9.59897455       3.83958982      11.35750000  F        5      -0.00445933      -0.00081201      -0.52555333
Si       1.91979491       1.91979491      12.71500000  F        4       0.01520727      -0.00000004       0.13233842
Si       5.75938473       1.91979491      12.71500000  F        4      -0.01110065       0.00000022       0.14626893
Si       9.59897455       1.91979491      12.71500000  F        4      -0.00689644      -0.00000065       0.14966790
Si       1.91979491       5.75938473      12.71500000  F        4       0.01135907       0.00000230       0.15517621
Si       5.75938473       5.75938473      12.71500000  F        4      -0.03409300       0.00000335       0.14100017
Si       9.59897455       5.75938473      12.71500000  F        4       0.01438208       0.00000050       0.14787969
Si       0.00000000       1.91979491      14.07250000  F        3      -0.04611808       0.00000325      -0.14817462
Si       3.83958982       1.91979491      14.07250000  F        3       0.02657764       0.00000286      -0.19830484
Si       7.67917964       1.91979491      14.07250000  F        3       0.03395798      -0.00000070      -0.18849999
Si       0.00000000       5.75938473      14.07250000  F        3       0.03268143      -0.00000233      -0.05609726
Si       3.83958982       5.75938473      14.07250000  F        3       0.00134924      -0.00001087      -0.14089642
Si       7.67917964       5.75938473      14.07250000  F        3      -0.06880821      -0.00001146      -0.02136545
Si       0.00000000       0.00000000      15.43000000  F        2      -0.06655543      -0.06168484       0.45578849
Si       3.83958982       0.00000000      15.43000000  F        2       0.01580731      -0.17302261       0.27163436
Si       7.67917964       0.00000000      15.43000000  F        2       0.22827274       0.08276239       0.31538794
Si       0.00000000       3.83958982      15.43000000  F        2      -0.06656056       0.06168614       0.45578081
Si       3.83958982       3.83958982      15.43000000  F        2       0.01579210       0.17308210       0.27156054
Si       7.67917964       3.83958982      15.43000000  F        2       0.22829431      -0.08279684       0.31537817
Si       1.91979491       0.00000000      16.78750000  F        1       0.04652276       0.06031261      -0.11442187
Si       5.75938473       0.00000000      16.78750000  F        1      -0.33645782       0.01815882       0.07264533
Si       9.59897455       0.00000000      16.78750000  F        1       0.02405539      -0.02872415      -0.25647360
Si       1.91979491       3.83958982      16.78750000  F        1       0.04655133      -0.06032646      -0.11441219
Si       5.75938473       3.83958982      16.78750000  F        1      -0.33658791      -0.01820424       0.07273754
Si       9.59897455       3.83958982      16.78750000  F        1       0.02405598       0.02872543      -0.25646987
Cl       4.34113485       1.91985530      17.96279969  T        0       0.20199618       0.00004468      -0.03556559
37
Lattice="11.518769465528859 0.0 0.0 0.0 7.679179643685906 0.0 0.0 0.0 26.7875" Properties=species:S:1:pos:R:3:move_mask:L:1:tags:I:1:forces:R:3 energy=-183.97113926731856 pbc="T T F"
Si       0.00000000       0.00000000      10.00000000  F        6       0.00049497       0.00023796       0.25056605
Si       3.83958982       0.00000000      10.00000000  F        6      -0.00113734      -0.00278353       0.25102232
Si       7.67917964       0.00000000      10.00000000  F        6       0.00093718      -0.00005108       0.25473556
Si       0.00000000       3.83958982      10.00000000  F        6       0.00049493      -0.00023796       0.25056594
Si       3.83958982       3.83958982      10.00000000  F        6      -0.00113735       0.00278351       0.25102209
Si       7.67917964       3.83958982      10.00000000  F        6       0.00093723       0.00005108       0.25473538
Si       1.91979491       0.00000000      11.35750000  F        5       0.01780189       0.00534366      -0.50233073
Si       5.75938473       0.00000000      11.35750000  F        5      -0.00295118       0.00710278      -0.51549764
Si       9.59897455       0.00000000      11.35750000  F        5      -0.00740526       0.00150424      -0.52918751
Si       1.91979491       3.83958982      11.35750000  F        5       0.01780155      -0.00534357      -0.50233097
Si       5.75938473       3.83958982      11.35750000  F        5      -0.00295111      -0.00710273      -0.51549813
Si       9.59897455       3.83958982      11.35750000  F        5      -0.00740487      -0.00150430      -0.52918816
Si       1.91979491       1.91979491      12.71500000  F        4       0.01651906      -0.00000017       0.13976554
Si       5.75938473       1.91979491      12.71500000  F        4      -0.00296988       0.00000010       0.16305117
Si       9.59897455       1.91979491      12.71500000  F        4      -0.00913526      -0.00000046       0.14724411
Si       1.91979491       5.75938473      12.71500000  F        4      -0.00634673       0.00000083       0.14366069
Si       5.75938473       5.75938473      12.71500000  F        4      -0.03656682       0.00000127       0.06839660
Si       9.59897455       5.75938473      12.71500000  F        4       0.02144078       0.00000028       0.14312115
Si       0.00000000       1.91979491      14.07250000  F        3      -0.03165907       0.00000036      -0.14221009
Si       3.83958982       1.91979491      14.07250000  F        3       0.01892034       0.00000242      -0.19364682
Si       7.67917964       1.91979491      14.07250000  F        3       0.06281189      -0.00000054      -0.28980467
Si       0.00000000       5.75938473      14.07250000  F        3       0.04482401      -0.00000038      -0.07091269
Si       3.83958982       5.75938473      14.07250000  F        3      -0.02186634      -0.00000454      -0.13498064
Si       7.67917964       5.75938473      14.07250000  F        3      -0.10589414      -0.00000293      -0.00551705
Si       0.00000000       0.00000000      15.43000000  F        2      -0.02361069      -0.02467345       0.48890731
Si       3.83958982       0.00000000      15.43000000  F        2      -0.18749364      -0.16039393       0.19788992
Si       7.67917964       0.00000000      15.43000000  F        2       0.24908620       0.24071066       0.37333186
Si       0.00000000       3.83958982      15.43000000  F        2      -0.02360937       0.02467478       0.48890793
Si       3.83958982       3.83958982      15.43000000  F        2      -0.18750823       0.16040882       0.19786897
Si       7.67917964       3.83958982      15.43000000  F        2       0.24909254      -0.24071468       0.37333085
Si       1.91979491       0.00000000      16.78750000  F        1       0.00344170      -0.02384001      -0.19092935
Si       5.75938473       0.00000000      16.78750000  F        1      -0.37504973      -0.08100387       0.26044509
Si       9.59897455       0.00000000      16.78750000  F        1       0.07734851      -0.01897729      -0.23333701
Si       1.91979491       3.83958982      16.78750000  F        1       0.00344471       0.02383706      -0.19093150
Si       5.75938473       3.83958982      16.78750000  F        1      -0.37504194       0.08104728       0.26043831
Si       9.59897455       3.83958982      16.78750000  F        1       0.07734914       0.01897671      -0.23333628
Cl       4.82647640       1.91980970      17.81869520  T        0       0.54699235      -0.00004837      -0.17936761
37
Lattice="11.518769465528859 0.0 0.0 0.0 7.679179643685906 0.0 0.0 0.0 26.7875" Properties=species:S:1:pos:R:3:move_mask:L:1:tags:I:1:forces:R:3 energy=-184.0957014503581 pbc="T T F"
Si       0.00000000       0.00000000      10.00000000  F        6       0.00029383       0.00004008       0.25099908
Si       3.83958982       0.00000000      10.00000000  F        6      -0.00150603      -0.00228782       0.25210850
Si       7.67917964       0.00000000      10.00000000  F        6       0.00144633      -0.00064787       0.25455356
Si       0.00000000       3.83958982      10.00000000  F        6       0.00029392      -0.00004008       0.25099932
Si       3.83958982       3.83958982      10.00000000  F        6      -0.00150598       0.00228791       0.25210895
Si       7.67917964       3.83958982      10.00000000  F        6       0.00144620       0.00064791       0.25455380
Si       1.91979491       0.00000000      11.35750000  F        5       0.01619374       0.00786091      -0.50478185
Si       5.75938473       0.00000000      11.35750000  F        5      -0.00058073       0.00539939      -0.51608539
Si       9.59897455       0.00000000      11.35750000  F        5      -0.00846120       0.00158547      -0.52593047
Si       1.91979491       3.83958982      11.35750000  F        5       0.01619494      -0.00786127      -0.50478081
Si       5.75938473       3.83958982      11.35750000  F        5      -0.00058128      -0.00539965      -0.51608294
Si       9.59897455       3.83958982      11.35750000  F        5      -0.00846222      -0.00158538      -0.52592877
Si       1.91979491       1.91979491      12.71500000  F        4       0.00684094       0.00000101       0.14114419
Si       5.75938473       1.91979491      12.71500000  F        4       0.00191442      -0.00000137       0.16793649
Si       9.59897455       1.91979491      12.71500000  F        4       0.00353412       0.00000118       0.14605801
Si       1.91979491       5.75938473      12.71500000  F        4      -0.00856016      -0.00000306       0.15210621
Si       5.75938473       5.75938473      12.71500000  F        4      -0.02311126      -0.00000275       0.02917842
Si       9.59897455       5.75938473      12.71500000  F        4       0.01127004      -0.00000084       0.15183646
Si       0.00000000       1.91979491      14.07250000  F        3      -0.01229157      -0.00000099      -0.13684628
Si       3.83958982       1.91979491      14.07250000  F        3       0.01644423      -0.00000708      -0.19882837
Si       7.67917964       1.91979491      14.07250000  F        3       0.02887613       0.00000049      -0.28827143
Si       0.00000000       5.75938473      14.07250000  F        3       0.03891679       0.00000263      -0.09872170
Si       3.83958982       5.75938473      14.07250000  F        3      -0.01026075       0.00001320      -0.09305801
Si       7.67917964       5.75938473      14.07250000  F        3      -0.07233451       0.00000960      -0.02896246
Si       0.00000000       0.00000000      15.43000000  F        2      -0.01901951      -0.00070316       0.47998426
Si       3.83958982       0.00000000      15.43000000  F        2      -0.23971523      -0.00366662       0.31790763
Si       7.67917964       0.00000000      15.43000000  F        2       0.23269257       0.21544520       0.42134214
Si       0.00000000       3.83958982      15.43000000  F        2      -0.01902688       0.00070222       0.47997937
Si       3.83958982       3.83958982      15.43000000  F        2      -0.23969010       0.00362552       0.31794669
Si       7.67917964       3.83958982      15.43000000  F        2       0.23268778      -0.21544514       0.42134224
Si       1.91979491       0.00000000      16.78750000  F        1       0.03313520      -0.04882970      -0.18982327
Si       5.75938473       0.00000000      16.78750000  F        1      -0.07891287      -0.52475041       0.02035110
Si       9.59897455       0.00000000      16.78750000  F        1       0.08724244      -0.02038978      -0.23303174
Si       1.91979491       3.83958982      16.78750000  F        1       0.03313613       0.04883222      -0.18981095
Si       5.75938473       3.83958982      16.78750000  F        1      -0.07900108       0.52426400       0.02059007
Si       9.59897455       3.83958982      16.78750000  F        1       0.08723004       0.02038766      -0.23303220
Cl       5.29257301       1.91972918      17.79323703  T        0      -0.02676842       0.00051638       0.00095016
37
Lattice="11.518769465528859 0.0 0.0 0.0 7.679179643685906 0.0 0.0 0.0 26.7875" Properties=species:S:1:pos:R:3:move_mask:L:1:tags:I:1:forces:R:3 energy=-184.05058623576065 pbc="T T F"
Si       0.00000000       0.00000000      10.00000000  F        6      -0.00001539       0.00011434       0.25095789
Si       3.83958982       0.00000000      10.00000000  F        6      -0.00144494      -0.00133922       0.25353133
Si       7.67917964       0.00000000      10.00000000  F        6       0.00145381      -0.00138090       0.25346929
Si       0.00000000       3.83958982      10.00000000  F        6      -0.00001540      -0.00011435       0.25095805
Si       3.83958982       3.83958982      10.00000000  F        6      -0.00144480       0.00133938       0.25353146
Si       7.67917964       3.83958982      10.00000000  F        6       0.00145367       0.00138107       0.25346945
Si       1.91979491       0.00000000      11.35750000  F        5       0.01155271       0.00444930      -0.51683757
Si       5.75938473       0.00000000      11.35750000  F        5       0.00000546       0.00506207      -0.51410086
Si       9.59897455       0.00000000      11.35750000  F        5      -0.01178095       0.00465896      -0.51620056
Si       1.91979491       3.83958982      11.35750000  F        5       0.01155492      -0.00444949      -0.51683430
Si       5.75938473       3.83958982      11.35750000  F        5       0.00000551      -0.00506255      -0.51409351
Si       9.59897455       3.83958982      11.35750000  F        5      -0.01178318      -0.00465919      -0.51619734
Si       1.91979491       1.91979491      12.71500000  F        4      -0.00097619       0.00000287       0.14453437
Si       5.75938473       1.91979491      12.71500000  F        4      -0.00016904      -0.00000340       0.16898831
Si       9.59897455       1.91979491      12.71500000  F        4       0.00071609       0.00000287       0.14423427
Si       1.91979491       5.75938473      12.71500000  F        4      -0.00471633      -0.00000451       0.16064854
Si       5.75938473       5.75938473      12.71500000  F        4       0.00059725      -0.00000553       0.01874654
Si       9.59897455       5.75938473      12.71500000  F        4       0.00472614      -0.00000473       0.16067624
Si       0.00000000       1.91979491      14.07250000  F        3       0.00016932      -0.00000202      -0.13076687
Si       3.83958982       1.91979491      14.07250000  F        3       0.00836180      -0.00000526      -0.24016947
Si       7.67917964       1.91979491      14.07250000  F        3      -0.00969093      -0.00000579      -0.23724996
Si       0.00000000       5.75938473      14.07250000  F        3      -0.00125257       0.00000571      -0.12184566
Si       3.83958982       5.75938473      14.07250000  F        3       0.02974952       0.00002248      -0.05269135
Si       7.67917964       5.75938473      14.07250000  F        3      -0.02735496       0.00002269      -0.05423484
Si       0.00000000       0.00000000      15.43000000  F        2       0.00093390       0.01283562       0.46719350
Si       3.83958982       0.00000000      15.43000000  F        2      -0.20584785       0.14043590       0.42368213
Si       7.67917964       0.00000000      15.43000000  F        2       0.20566933       0.13523703       0.42194313
Si       0.00000000       3.83958982      15.43000000  F        2       0.00093494      -0.01282564       0.46719142
Si       3.83958982       3.83958982      15.43000000  F        2      -0.20585981      -0.14046351       0.42368975
Si       7.67917964       3.83958982      15.43000000  F        2       0.20568006      -0.13526702       0.42195237
Si       1.91979491       0.00000000      16.78750000  F        1      -0.01700617      -0.05640170      -0.20462181
Si       5.75938473       0.00000000      16.78750000  F        1       0.00057511      -0.69649619      -0.10050594
Si       9.59897455       0.00000000      16.78750000  F        1       0.01056891      -0.05646869      -0.20229723
Si       1.91979491       3.83958982      16.78750000  F        1      -0.01702108       0.05640956      -0.20463401
Si       5.75938473       3.83958982      16.78750000  F        1       0.00058399       0.69481302      -0.09961148
Si       9.59897455       3.83958982      16.78750000  F        1       0.01058708       0.05647907      -0.20230820
Cl       5.77147057       1.91961984      17.81968514  T        0       0.01050006       0.00168774       0.00580290
37
Lattice="11.518769465528859 0.0 0.0 0.0 7.679179643685906 0.0 0.0 0.0 26.7875" Properties=species:S:1:pos:R:3:move_mask:L:1:tags:I:1:forces:R:3 energy=-184.0960437823565 pbc="T T F"
Si       0.00000000       0.00000000      10.00000000  F        6      -0.00029877       0.00003927       0.25099608
Si       3.83958982       0.00000000      10.00000000  F        6      -0.00145525      -0.00061698       0.25461486
Si       7.67917964       0.00000000      10.00000000  F        6       0.00150924      -0.00234204       0.25203155
Si       0.00000000       3.83958982      10.00000000  F        6      -0.00029869      -0.00003927       0.25099590
Si       3.83958982       3.83958982      10.00000000  F        6      -0.00145534       0.00061696       0.25461467
Si       7.67917964       3.83958982      10.00000000  F        6       0.00150927       0.00234198       0.25203120
Si       1.91979491       0.00000000      11.35750000  F        5       0.00838536       0.00150247      -0.52627545
Si       5.75938473       0.00000000      11.35750000  F        5       0.00065267       0.00544575      -0.51623809
Si       9.59897455       0.00000000      11.35750000  F        5      -0.01641605       0.00791567      -0.50433211
Si       1.91979491       3.83958982      11.35750000  F        5       0.00838463      -0.00150258      -0.52627668
Si       5.75938473       3.83958982      11.35750000  F        5       0.00065227      -0.00544561      -0.51623981
Si       9.59897455       3.83958982      11.35750000  F        5      -0.01641519      -0.00791546      -0.50433286
Si       1.91979491       1.91979491      12.71500000  F        4      -0.00334340      -0.00000085       0.14593544
Si       5.75938473       1.91979491      12.71500000  F        4      -0.00171861       0.00000098       0.16778580
Si       9.59897455       1.91979491      12.71500000  F        4      -0.00742277      -0.00000070       0.14110554
Si       1.91979491       5.75938473      12.71500000  F        4      -0.01189967       0.00000062       0.15132164
Si       5.75938473       5.75938473      12.71500000  F        4       0.02423340       0.00000201       0.03035799
Si       9.59897455       5.75938473      12.71500000  F        4       0.00879986       0.00000221       0.15136031
Si       0.00000000       1.91979491      14.07250000  F        3       0.01336148       0.00000070      -0.13725373
Si       3.83958982       1.91979491      14.07250000  F        3      -0.03169278      -0.00000040      -0.29072038
Si       7.67917964       1.91979491      14.07250000  F        3      -0.01609298       0.00000521      -0.19766335
Si       0.00000000       5.75938473      14.07250000  F        3      -0.04006359      -0.00000180      -0.09692095
Si       3.83958982       5.75938473      14.07250000  F        3       0.07429012      -0.00000683      -0.02786866
Si       7.67917964       5.75938473      14.07250000  F        3       0.01199227      -0.00000956      -0.09564458
Si       0.00000000       0.00000000      15.43000000  F        2       0.01917643      -0.00166536       0.48068273
Si       3.83958982       0.00000000      15.43000000  F        2      -0.23488282       0.21855260       0.41962810
Si       7.67917964       0.00000000      15.43000000  F        2       0.24259633      -0.01359573       0.30857603
Si       0.00000000       3.83958982      15.43000000  F        2       0.01917128       0.00166627       0.48068622
Si       3.83958982       3.83958982      15.43000000  F        2      -0.23488704      -0.21855304       0.41962794
Si       7.67917964       3.83958982      15.43000000  F        2       0.24261569       0.01362607       0.30854632
Si       1.91979491       0.00000000      16.78750000  F        1      -0.08706846      -0.01879915      -0.23299652
Si       5.75938473       0.00000000      16.78750000  F        1       0.08877074      -0.50654576       0.03339351
Si       9.59897455       0.00000000      16.78750000  F        1      -0.03122071      -0.04897917      -0.19077883
Si       1.91979491       3.83958982      16.78750000  F        1      -0.08707657       0.01880008      -0.23299629
Si       5.75938473       3.83958982      16.78750000  F        1       0.08870782       0.50687845       0.03323195
Si       9.59897455       3.83958982      16.78750000  F        1      -0.03121986       0.04897751      -0.19078787
Cl       6.25144153       1.91984109      17.79113820  T        0       0.00011970      -0.00035453      -0.00019759
