41
Lattice="11.518769465528859 0.0 0.0 0.0 7.679179643685906 0.0 0.0 0.0 30.7875" Properties=species:S:1:pos:R:3:move_mask:L:1:tags:I:1:forces:R:3 surface=Si100 species=CH3F site=hollow orientation=upright height_A=6.5 substrate_atoms=36 calculation_kind="Rigid evaluated approach scan; not NEB" energy=-204.25090419172574 pbc="T T F"
Si       0.00000000       0.00000000      12.00000000  F        6      -0.00000004       0.00000000       0.24903484
Si       3.83958982       0.00000000      12.00000000  F        6      -0.00000000       0.00000000       0.24903482
Si       7.67917964       0.00000000      12.00000000  F        6       0.00000000       0.00000000       0.24903482
Si       0.00000000       3.83958982      12.00000000  F        6      -0.00000004      -0.00000000       0.24903484
Si       3.83958982       3.83958982      12.00000000  F        6      -0.00000000      -0.00000000       0.24903482
Si       7.67917964       3.83958982      12.00000000  F        6       0.00000000      -0.00000000       0.24903482
Si       1.91979491       0.00000000      13.35750000  F        5       0.00000000      -0.00000002      -0.52822352
Si       5.75938473       0.00000000      13.35750000  F        5       0.00000000      -0.00000002      -0.52822353
Si       9.59897455       0.00000000      13.35750000  F        5       0.00000003      -0.00000002      -0.52822354
Si       1.91979491       3.83958982      13.35750000  F        5       0.00000000       0.00000000      -0.52822354
Si       5.75938473       3.83958982      13.35750000  F        5       0.00000000       0.00000000      -0.52822354
Si       9.59897455       3.83958982      13.35750000  F        5       0.00000003       0.00000000      -0.52822356
Si       1.91979491       1.91979491      14.71500000  F        4      -0.00000000       0.00000000       0.14537709
Si       5.75938473       1.91979491      14.71500000  F        4       0.00000000       0.00000000       0.14537709
Si       9.59897455       1.91979491      14.71500000  F        4       0.00000004       0.00000000       0.14537711
Si       1.91979491       5.75938473      14.71500000  F        4      -0.00000000       0.00000002       0.14537707
Si       5.75938473       5.75938473      14.71500000  F        4       0.00000000       0.00000002       0.14537707
Si       9.59897455       5.75938473      14.71500000  F        4       0.00000004       0.00000002       0.14537709
Si       0.00000000       1.91979491      16.07250000  F        3      -0.00000004       0.00000000      -0.14537711
Si       3.83958982       1.91979491      16.07250000  F        3      -0.00000000       0.00000000      -0.14537709
Si       7.67917964       1.91979491      16.07250000  F        3       0.00000000       0.00000000      -0.14537709
Si       0.00000000       5.75938473      16.07250000  F        3      -0.00000004       0.00000002      -0.14537709
Si       3.83958982       5.75938473      16.07250000  F        3      -0.00000000       0.00000002      -0.14537707
Si       7.67917964       5.75938473      16.07250000  F        3       0.00000000       0.00000002      -0.14537707
Si       0.00000000       0.00000000      17.43000000  F        2      -0.00000003      -0.00000002       0.52822354
Si       3.83958982       0.00000000      17.43000000  F        2      -0.00000000      -0.00000002       0.52822353
Si       7.67917964       0.00000000      17.43000000  F        2      -0.00000000      -0.00000002       0.52822352
Si       0.00000000       3.83958982      17.43000000  F        2      -0.00000003       0.00000000       0.52822356
Si       3.83958982       3.83958982      17.43000000  F        2      -0.00000000       0.00000000       0.52822354
Si       7.67917964       3.83958982      17.43000000  F        2      -0.00000000       0.00000000       0.52822354
Si       1.91979491       0.00000000      18.78750000  F        1      -0.00000000       0.00000000      -0.24903482
Si       5.75938473       0.00000000      18.78750000  F        1       0.00000000       0.00000000      -0.24903482
Si       9.59897455       0.00000000      18.78750000  F        1       0.00000004       0.00000000      -0.24903484
Si       1.91979491       3.83958982      18.78750000  F        1      -0.00000000      -0.00000000      -0.24903482
Si       5.75938473       3.83958982      18.78750000  F        1       0.00000000      -0.00000000      -0.24903482
Si       9.59897455       3.83958982      18.78750000  F        1       0.00000004      -0.00000000      -0.24903484
F        7.67917964       1.91979491      25.28750000  T        0       0.00000000      -0.00000000      -0.00285954
C        7.67917964       1.91979491      26.70715213  T        0      -0.00000019       0.00000000       0.00319168
H        8.72594606       1.91979491      27.02687412  T        0      -0.00125386       0.00000000      -0.00011068
H        7.15579643       2.82632123      27.02687412  T        0       0.00062702      -0.00108610      -0.00011073
H        7.15579643       1.01326859      27.02687412  T        0       0.00062702       0.00108610      -0.00011073
41
Lattice="11.518769465528859 0.0 0.0 0.0 7.679179643685906 0.0 0.0 0.0 30.7875" Properties=species:S:1:pos:R:3:move_mask:L:1:tags:I:1:forces:R:3 surface=Si100 species=CH3F site=hollow orientation=upright height_A=5.0 substrate_atoms=36 calculation_kind="Rigid evaluated approach scan; not NEB" energy=-204.25090419172574 pbc="T T F"
Si       0.00000000       0.00000000      12.00000000  F        6      -0.00000004       0.00000000       0.24903484
Si       3.83958982       0.00000000      12.00000000  F        6      -0.00000000       0.00000000       0.24903482
Si       7.67917964       0.00000000      12.00000000  F        6       0.00000000       0.00000000       0.24903482
Si       0.00000000       3.83958982      12.00000000  F        6      -0.00000004      -0.00000000       0.24903484
Si       3.83958982       3.83958982      12.00000000  F        6      -0.00000000      -0.00000000       0.24903482
Si       7.67917964       3.83958982      12.00000000  F        6       0.00000000      -0.00000000       0.24903482
Si       1.91979491       0.00000000      13.35750000  F        5       0.00000000      -0.00000002      -0.52822352
Si       5.75938473       0.00000000      13.35750000  F        5       0.00000000      -0.00000002      -0.52822353
Si       9.59897455       0.00000000      13.35750000  F        5       0.00000003      -0.00000002      -0.52822354
Si       1.91979491       3.83958982      13.35750000  F        5       0.00000000       0.00000000      -0.52822354
Si       5.75938473       3.83958982      13.35750000  F        5       0.00000000       0.00000000      -0.52822354
Si       9.59897455       3.83958982      13.35750000  F        5       0.00000003       0.00000000      -0.52822356
Si       1.91979491       1.91979491      14.71500000  F        4      -0.00000000       0.00000000       0.14537709
Si       5.75938473       1.91979491      14.71500000  F        4       0.00000000       0.00000000       0.14537709
Si       9.59897455       1.91979491      14.71500000  F        4       0.00000004       0.00000000       0.14537711
Si       1.91979491       5.75938473      14.71500000  F        4      -0.00000000       0.00000002       0.14537707
Si       5.75938473       5.75938473      14.71500000  F        4       0.00000000       0.00000002       0.14537707
Si       9.59897455       5.75938473      14.71500000  F        4       0.00000004       0.00000002       0.14537709
Si       0.00000000       1.91979491      16.07250000  F        3      -0.00000004       0.00000000      -0.14537711
Si       3.83958982       1.91979491      16.07250000  F        3      -0.00000000       0.00000000      -0.14537709
Si       7.67917964       1.91979491      16.07250000  F        3       0.00000000       0.00000000      -0.14537709
Si       0.00000000       5.75938473      16.07250000  F        3      -0.00000004       0.00000002      -0.14537709
Si       3.83958982       5.75938473      16.07250000  F        3      -0.00000000       0.00000002      -0.14537707
Si       7.67917964       5.75938473      16.07250000  F        3       0.00000000       0.00000002      -0.14537707
Si       0.00000000       0.00000000      17.43000000  F        2      -0.00000003      -0.00000002       0.52822354
Si       3.83958982       0.00000000      17.43000000  F        2      -0.00000000      -0.00000002       0.52822353
Si       7.67917964       0.00000000      17.43000000  F        2      -0.00000000      -0.00000002       0.52822352
Si       0.00000000       3.83958982      17.43000000  F        2      -0.00000003       0.00000000       0.52822356
Si       3.83958982       3.83958982      17.43000000  F        2      -0.00000000       0.00000000       0.52822354
Si       7.67917964       3.83958982      17.43000000  F        2      -0.00000000       0.00000000       0.52822354
Si       1.91979491       0.00000000      18.78750000  F        1      -0.00000000       0.00000000      -0.24903482
Si       5.75938473       0.00000000      18.78750000  F        1       0.00000000       0.00000000      -0.24903482
Si       9.59897455       0.00000000      18.78750000  F        1       0.00000004       0.00000000      -0.24903484
Si       1.91979491       3.83958982      18.78750000  F        1      -0.00000000      -0.00000000      -0.24903482
Si       5.75938473       3.83958982      18.78750000  F        1       0.00000000      -0.00000000      -0.24903482
Si       9.59897455       3.83958982      18.78750000  F        1       0.00000004      -0.00000000      -0.24903484
F        7.67917964       1.91979491      23.78750000  T        0       0.00000000      -0.00000000      -0.00285954
C        7.67917964       1.91979491      25.20715213  T        0      -0.00000019       0.00000000       0.00319168
H        8.72594606       1.91979491      25.52687412  T        0      -0.00125386       0.00000000      -0.00011068
H        7.15579643       2.82632123      25.52687412  T        0       0.00062702      -0.00108610      -0.00011073
H        7.15579643       1.01326859      25.52687412  T        0       0.00062702       0.00108610      -0.00011073
41
Lattice="11.518769465528859 0.0 0.0 0.0 7.679179643685906 0.0 0.0 0.0 30.7875" Properties=species:S:1:pos:R:3:move_mask:L:1:tags:I:1:forces:R:3 surface=Si100 species=CH3F site=hollow orientation=upright height_A=4.0 substrate_atoms=36 calculation_kind="Rigid evaluated approach scan; not NEB" energy=-204.25450945693288 pbc="T T F"
Si       0.00000000       0.00000000      12.00000000  F        6       0.00000973      -0.00000040       0.24905563
Si       3.83958982       0.00000000      12.00000000  F        6      -0.00000976      -0.00000040       0.24905562
Si       7.67917964       0.00000000      12.00000000  F        6       0.00000000      -0.00000041       0.24905643
Si       0.00000000       3.83958982      12.00000000  F        6       0.00000973       0.00000040       0.24905564
Si       3.83958982       3.83958982      12.00000000  F        6      -0.00000976       0.00000040       0.24905562
Si       7.67917964       3.83958982      12.00000000  F        6       0.00000000       0.00000041       0.24905643
Si       1.91979491       0.00000000      13.35750000  F        5       0.00000000      -0.00000439      -0.52812214
Si       5.75938473       0.00000000      13.35750000  F        5       0.00001997       0.00000034      -0.52811472
Si       9.59897455       0.00000000      13.35750000  F        5      -0.00001994       0.00000034      -0.52811473
Si       1.91979491       3.83958982      13.35750000  F        5       0.00000000       0.00000437      -0.52812216
Si       5.75938473       3.83958982      13.35750000  F        5       0.00001997      -0.00000037      -0.52811473
Si       9.59897455       3.83958982      13.35750000  F        5      -0.00001994      -0.00000037      -0.52811475
Si       1.91979491       1.91979491      14.71500000  F        4      -0.00000000       0.00000000       0.14552989
Si       5.75938473       1.91979491      14.71500000  F        4       0.00017785       0.00000000       0.14516159
Si       9.59897455       1.91979491      14.71500000  F        4      -0.00017781       0.00000000       0.14516049
Si       1.91979491       5.75938473      14.71500000  F        4      -0.00000000       0.00000002       0.14547641
Si       5.75938473       5.75938473      14.71500000  F        4       0.00021977       0.00000002       0.14518092
Si       9.59897455       5.75938473      14.71500000  F        4      -0.00021973       0.00000002       0.14517982
Si       0.00000000       1.91979491      16.07250000  F        3       0.00004193       0.00000000      -0.14525201
Si       3.83958982       1.91979491      16.07250000  F        3      -0.00004184       0.00000000      -0.14525225
Si       7.67917964       1.91979491      16.07250000  F        3      -0.00000012       0.00000000      -0.14586008
Si       0.00000000       5.75938473      16.07250000  F        3      -0.00015873       0.00000002      -0.14492451
Si       3.83958982       5.75938473      16.07250000  F        3       0.00015882       0.00000002      -0.14492474
Si       7.67917964       5.75938473      16.07250000  F        3      -0.00000012       0.00000002      -0.14499601
Si       0.00000000       0.00000000      17.43000000  F        2      -0.00013798       0.00030164       0.52857670
Si       3.83958982       0.00000000      17.43000000  F        2       0.00013678       0.00030164       0.52857583
Si       7.67917964       0.00000000      17.43000000  F        2       0.00000116      -0.00050921       0.52838348
Si       0.00000000       3.83958982      17.43000000  F        2      -0.00013798      -0.00030166       0.52857671
Si       3.83958982       3.83958982      17.43000000  F        2       0.00013678      -0.00030166       0.52857585
Si       7.67917964       3.83958982      17.43000000  F        2       0.00000116       0.00050919       0.52838349
Si       1.91979491       0.00000000      18.78750000  F        1      -0.00000055      -0.00002779      -0.24914106
Si       5.75938473       0.00000000      18.78750000  F        1       0.00641558       0.00551517      -0.23704228
Si       9.59897455       0.00000000      18.78750000  F        1      -0.00650690       0.00558685      -0.23685200
Si       1.91979491       3.83958982      18.78750000  F        1      -0.00000055       0.00002779      -0.24914106
Si       5.75938473       3.83958982      18.78750000  F        1       0.00641558      -0.00551517      -0.23704228
Si       9.59897455       3.83958982      18.78750000  F        1      -0.00650690      -0.00558685      -0.23685200
F        7.67917964       1.91979491      22.78750000  T        0       0.00018381       0.00000000      -0.05132267
C        7.67917964       1.91979491      24.20715213  T        0      -0.00000019      -0.00000000      -0.00506965
H        8.72594606       1.91979491      24.52687412  T        0      -0.00056694       0.00000000       0.00175979
H        7.15579643       2.82632123      24.52687412  T        0       0.00028356      -0.00049121       0.00175974
H        7.15579643       1.01326859      24.52687412  T        0       0.00028356       0.00049121       0.00175974
41
Lattice="11.518769465528859 0.0 0.0 0.0 7.679179643685906 0.0 0.0 0.0 30.7875" Properties=species:S:1:pos:R:3:move_mask:L:1:tags:I:1:forces:R:3 surface=Si100 species=CH3F site=hollow orientation=upright height_A=3.25 substrate_atoms=36 calculation_kind="Rigid evaluated approach scan; not NEB" energy=-204.37118024500768 pbc="T T F"
Si       0.00000000       0.00000000      12.00000000  F        6       0.00027832      -0.00000429       0.24940051
Si       3.83958982       0.00000000      12.00000000  F        6      -0.00027835      -0.00000429       0.24940049
Si       7.67917964       0.00000000      12.00000000  F        6       0.00000000       0.00000811       0.24947318
Si       0.00000000       3.83958982      12.00000000  F        6       0.00027832       0.00000429       0.24940051
Si       3.83958982       3.83958982      12.00000000  F        6      -0.00027835       0.00000429       0.24940049
Si       7.67917964       3.83958982      12.00000000  F        6       0.00000000      -0.00000811       0.24947318
Si       1.91979491       0.00000000      13.35750000  F        5       0.00000000      -0.00003053      -0.52552023
Si       5.75938473       0.00000000      13.35750000  F        5       0.00041197      -0.00003540      -0.52502402
Si       9.59897455       0.00000000      13.35750000  F        5      -0.00041193      -0.00003540      -0.52502404
Si       1.91979491       3.83958982      13.35750000  F        5       0.00000000       0.00003051      -0.52552024
Si       5.75938473       3.83958982      13.35750000  F        5       0.00041197       0.00003537      -0.52502403
Si       9.59897455       3.83958982      13.35750000  F        5      -0.00041193       0.00003537      -0.52502405
Si       1.91979491       1.91979491      14.71500000  F        4      -0.00000000       0.00000000       0.15114608
Si       5.75938473       1.91979491      14.71500000  F        4       0.00542739      -0.00000000       0.14409247
Si       9.59897455       1.91979491      14.71500000  F        4      -0.00542758      -0.00000000       0.14406729
Si       1.91979491       5.75938473      14.71500000  F        4      -0.00000000       0.00000002       0.14975963
Si       5.75938473       5.75938473      14.71500000  F        4       0.00641065       0.00000002       0.14772614
Si       9.59897455       5.75938473      14.71500000  F        4      -0.00641080       0.00000002       0.14769962
Si       0.00000000       1.91979491      16.07250000  F        3       0.00300407       0.00000000      -0.14509072
Si       3.83958982       1.91979491      16.07250000  F        3      -0.00300092       0.00000000      -0.14510520
Si       7.67917964       1.91979491      16.07250000  F        3      -0.00000317      -0.00000000      -0.16508055
Si       0.00000000       5.75938473      16.07250000  F        3      -0.00888118       0.00000002      -0.12856976
Si       3.83958982       5.75938473      16.07250000  F        3       0.00888732       0.00000002      -0.12857873
Si       7.67917964       5.75938473      16.07250000  F        3      -0.00000306       0.00000002      -0.14126250
Si       0.00000000       0.00000000      17.43000000  F        2      -0.00391758       0.00338754       0.53193528
Si       3.83958982       0.00000000      17.43000000  F        2       0.00392855       0.00338582       0.53193147
Si       7.67917964       0.00000000      17.43000000  F        2      -0.00001327      -0.01658610       0.51005668
Si       0.00000000       3.83958982      17.43000000  F        2      -0.00391758      -0.00338756       0.53193529
Si       3.83958982       3.83958982      17.43000000  F        2       0.00392855      -0.00338584       0.53193149
Si       7.67917964       3.83958982      17.43000000  F        2      -0.00001327       0.01658608       0.51005670
Si       1.91979491       0.00000000      18.78750000  F        1      -0.00002509      -0.00125512      -0.25030999
Si       5.75938473       0.00000000      18.78750000  F        1       0.02616901       0.01535794      -0.20782177
Si       9.59897455       0.00000000      18.78750000  F        1      -0.02663042       0.01498979      -0.20699601
Si       1.91979491       3.83958982      18.78750000  F        1      -0.00002509       0.00125511      -0.25030999
Si       5.75938473       3.83958982      18.78750000  F        1       0.02616901      -0.01535794      -0.20782177
Si       9.59897455       3.83958982      18.78750000  F        1      -0.02663042      -0.01498979      -0.20699601
F        7.67917964       1.91979491      22.03750000  T        0       0.00097486       0.00000000      -0.15121390
C        7.67917964       1.91979491      23.45715213  T        0      -0.00000019      -0.00000000      -0.07924796
H        8.72594606       1.91979491      23.77687412  T        0       0.02154642       0.00000000       0.01221837
H        7.15579643       2.82632123      23.77687412  T        0      -0.01077311       0.01865954       0.01221830
H        7.15579643       1.01326859      23.77687412  T        0      -0.01077311      -0.01865954       0.01221830
41
Lattice="11.518769465528859 0.0 0.0 0.0 7.679179643685906 0.0 0.0 0.0 30.7875" Properties=species:S:1:pos:R:3:move_mask:L:1:tags:I:1:forces:R:3 surface=Si100 species=CH3F site=hollow orientation=upright height_A=2.75 substrate_atoms=36 calculation_kind="Rigid evaluated approach scan; not NEB" energy=-204.46843009630766 pbc="T T F"
Si       0.00000000       0.00000000      12.00000000  F        6       0.00036896       0.00005611       0.24908099
Si       3.83958982       0.00000000      12.00000000  F        6      -0.00033504       0.00005618       0.24907976
Si       7.67917964       0.00000000      12.00000000  F        6      -0.00003399       0.00005803       0.24916869
Si       0.00000000       3.83958982      12.00000000  F        6       0.00036896      -0.00005611       0.24908099
Si       3.83958982       3.83958982      12.00000000  F        6      -0.00033504      -0.00005618       0.24907976
Si       7.67917964       3.83958982      12.00000000  F        6      -0.00003399      -0.00005803       0.24916869
Si       1.91979491       0.00000000      13.35750000  F        5      -0.00002537       0.00020358      -0.52377135
Si       5.75938473       0.00000000      13.35750000  F        5      -0.00054222       0.00033186      -0.52432857
Si       9.59897455       0.00000000      13.35750000  F        5       0.00056774       0.00033905      -0.52442032
Si       1.91979491       3.83958982      13.35750000  F        5      -0.00002537      -0.00020361      -0.52377136
Si       5.75938473       3.83958982      13.35750000  F        5      -0.00054222      -0.00033189      -0.52432858
Si       9.59897455       3.83958982      13.35750000  F        5       0.00056774      -0.00033908      -0.52442034
Si       1.91979491       1.91979491      14.71500000  F        4       0.00000734      -0.00000000       0.15362490
Si       5.75938473       1.91979491      14.71500000  F        4       0.00867366      -0.00000000       0.15115359
Si       9.59897455       1.91979491      14.71500000  F        4      -0.00873288      -0.00000000       0.15099088
Si       1.91979491       5.75938473      14.71500000  F        4       0.00002998       0.00000002       0.15265403
Si       5.75938473       5.75938473      14.71500000  F        4       0.00604477       0.00000002       0.16266092
Si       9.59897455       5.75938473      14.71500000  F        4      -0.00616379       0.00000002       0.16190136
Si       0.00000000       1.91979491      16.07250000  F        3       0.00275770       0.00000000      -0.14744949
Si       3.83958982       1.91979491      16.07250000  F        3      -0.00283575       0.00000000      -0.14808648
Si       7.67917964       1.91979491      16.07250000  F        3       0.00040987      -0.00000000      -0.17339503
Si       0.00000000       5.75938473      16.07250000  F        3      -0.01629128       0.00000002      -0.11943581
Si       3.83958982       5.75938473      16.07250000  F        3       0.01681287       0.00000002      -0.11966532
Si       7.67917964       5.75938473      16.07250000  F        3       0.00012638       0.00000002      -0.15197358
Si       0.00000000       0.00000000      17.43000000  F        2      -0.01605969      -0.00842150       0.53082933
Si       3.83958982       0.00000000      17.43000000  F        2       0.01713368      -0.00863245       0.53112902
Si       7.67917964       0.00000000      17.43000000  F        2      -0.00009199      -0.01551244       0.47963733
Si       0.00000000       3.83958982      17.43000000  F        2      -0.01605969       0.00842147       0.53082935
Si       3.83958982       3.83958982      17.43000000  F        2       0.01713368       0.00863243       0.53112903
Si       7.67917964       3.83958982      17.43000000  F        2      -0.00009199       0.01551242       0.47963734
Si       1.91979491       0.00000000      18.78750000  F        1      -0.00048473      -0.00396546      -0.25037325
Si       5.75938473       0.00000000      18.78750000  F        1      -0.00627608       0.00813960      -0.21993694
Si       9.59897455       0.00000000      18.78750000  F        1       0.00145241       0.00842864      -0.20913330
Si       1.91979491       3.83958982      18.78750000  F        1      -0.00048473       0.00396546      -0.25037325
Si       5.75938473       3.83958982      18.78750000  F        1      -0.00627608      -0.00813960      -0.21993694
Si       9.59897455       3.83958982      18.78750000  F        1       0.00145241      -0.00842864      -0.20913330
F        7.67917964       1.91979491      21.53750000  T        0      -0.00002426       0.00000000      -0.19502780
C        7.67917964       1.91979491      22.95715213  T        0      -0.00163047       0.00000000       0.06668489
H        8.72594606       1.91979491      23.27687412  T        0       0.02784471       0.00000000      -0.01128128
H        7.15579643       2.82632123      23.27687412  T        0      -0.00918811       0.02214319      -0.00363926
H        7.15579643       1.01326859      23.27687412  T        0      -0.00918811      -0.02214319      -0.00363926
41
Lattice="11.518769465528859 0.0 0.0 0.0 7.679179643685906 0.0 0.0 0.0 30.7875" Properties=species:S:1:pos:R:3:move_mask:L:1:tags:I:1:forces:R:3 surface=Si100 species=CH3F site=hollow orientation=upright height_A=2.25 substrate_atoms=36 calculation_kind="Rigid evaluated approach scan; not NEB" energy=-204.53352018170904 pbc="T T F"
Si       0.00000000       0.00000000      12.00000000  F        6      -0.00059352       0.00010636       0.24840919
Si       3.83958982       0.00000000      12.00000000  F        6       0.00069531       0.00010692       0.24839624
Si       7.67917964       0.00000000      12.00000000  F        6      -0.00010181       0.00008308       0.24818484
Si       0.00000000       3.83958982      12.00000000  F        6      -0.00059352      -0.00010636       0.24840919
Si       3.83958982       3.83958982      12.00000000  F        6       0.00069531      -0.00010692       0.24839624
Si       7.67917964       3.83958982      12.00000000  F        6      -0.00010181      -0.00008308       0.24818484
Si       1.91979491       0.00000000      13.35750000  F        5      -0.00010186       0.00061014      -0.52381829
Si       5.75938473       0.00000000      13.35750000  F        5      -0.00052213      -0.00022956      -0.51978228
Si       9.59897455       0.00000000      13.35750000  F        5       0.00062513      -0.00025312      -0.51991768
Si       1.91979491       3.83958982      13.35750000  F        5      -0.00010186      -0.00061017      -0.52381830
Si       5.75938473       3.83958982      13.35750000  F        5      -0.00052213       0.00022954      -0.51978230
Si       9.59897455       3.83958982      13.35750000  F        5       0.00062513       0.00025310      -0.51991769
Si       1.91979491       1.91979491      14.71500000  F        4       0.00026772      -0.00000000       0.15700365
Si       5.75938473       1.91979491      14.71500000  F        4       0.01181944      -0.00000000       0.16466018
Si       9.59897455       1.91979491      14.71500000  F        4      -0.01220253      -0.00000000       0.16338957
Si       1.91979491       5.75938473      14.71500000  F        4       0.00020885       0.00000002       0.15775395
Si       5.75938473       5.75938473      14.71500000  F        4       0.01329494       0.00000002       0.18469975
Si       9.59897455       5.75938473      14.71500000  F        4      -0.01355834       0.00000002       0.18708319
Si       0.00000000       1.91979491      16.07250000  F        3      -0.00674239      -0.00000000      -0.13859061
Si       3.83958982       1.91979491      16.07250000  F        3       0.00683678      -0.00000000      -0.14016529
Si       7.67917964       1.91979491      16.07250000  F        3       0.00251739      -0.00000000      -0.20127267
Si       0.00000000       5.75938473      16.07250000  F        3      -0.02009175       0.00000002      -0.11988614
Si       3.83958982       5.75938473      16.07250000  F        3       0.01874777       0.00000002      -0.12017083
Si       7.67917964       5.75938473      16.07250000  F        3       0.00468349       0.00000002      -0.14454317
Si       0.00000000       0.00000000      17.43000000  F        2      -0.03702635      -0.03147065       0.53458799
Si       3.83958982       0.00000000      17.43000000  F        2       0.04354147      -0.03154249       0.53665096
Si       7.67917964       0.00000000      17.43000000  F        2      -0.00092577      -0.01691455       0.47970522
Si       0.00000000       3.83958982      17.43000000  F        2      -0.03702635       0.03147063       0.53458800
Si       3.83958982       3.83958982      17.43000000  F        2       0.04354147       0.03154247       0.53665098
Si       7.67917964       3.83958982      17.43000000  F        2      -0.00092577       0.01691453       0.47970524
Si       1.91979491       0.00000000      18.78750000  F        1      -0.00191340      -0.00515258      -0.25803221
Si       5.75938473       0.00000000      18.78750000  F        1      -0.07525146       0.02078802      -0.21723687
Si       9.59897455       0.00000000      18.78750000  F        1       0.08598057      -0.00225670      -0.27459309
Si       1.91979491       3.83958982      18.78750000  F        1      -0.00191340       0.00515258      -0.25803221
Si       5.75938473       3.83958982      18.78750000  F        1      -0.07525146      -0.02078802      -0.21723687
Si       9.59897455       3.83958982      18.78750000  F        1       0.08598057       0.00225670      -0.27459309
F        7.67917964       1.91979491      21.03750000  T        0      -0.00656721       0.00000000      -0.17836079
C        7.67917964       1.91979491      22.45715213  T        0       0.01437191       0.00000000       0.21558508
H        8.72594606       1.91979491      22.77687412  T        0      -0.00019388       0.00000000      -0.00681234
H        7.15579643       2.82632123      22.77687412  T        0      -0.02110226       0.01995298      -0.07274078
H        7.15579643       1.01326859      22.77687412  T        0      -0.02110226      -0.01995298      -0.07274078
41
Lattice="11.518769465528859 0.0 0.0 0.0 7.679179643685906 0.0 0.0 0.0 30.7875" Properties=species:S:1:pos:R:3:move_mask:L:1:tags:I:1:forces:R:3 surface=Si100 species=CH3F site=hollow orientation=upright height_A=1.9 substrate_atoms=36 calculation_kind="Rigid evaluated approach scan; not NEB" energy=-204.57033975820883 pbc="T T F"
Si       0.00000000       0.00000000      12.00000000  F        6      -0.00162584       0.00007322       0.24837218
Si       3.83958982       0.00000000      12.00000000  F        6       0.00105687       0.00007393       0.24841141
Si       7.67917964       0.00000000      12.00000000  F        6       0.00056740      -0.00094948       0.24642159
Si       0.00000000       3.83958982      12.00000000  F        6      -0.00162584      -0.00007322       0.24837218
Si       3.83958982       3.83958982      12.00000000  F        6       0.00105687      -0.00007393       0.24841141
Si       7.67917964       3.83958982      12.00000000  F        6       0.00056740       0.00094948       0.24642159
Si       1.91979491       0.00000000      13.35750000  F        5       0.00028241       0.00097242      -0.52503126
Si       5.75938473       0.00000000      13.35750000  F        5       0.00036291      -0.00073273      -0.51494542
Si       9.59897455       0.00000000      13.35750000  F        5      -0.00064142      -0.00086502      -0.51382865
Si       1.91979491       3.83958982      13.35750000  F        5       0.00028241      -0.00097245      -0.52503127
Si       5.75938473       3.83958982      13.35750000  F        5       0.00036291       0.00073270      -0.51494543
Si       9.59897455       3.83958982      13.35750000  F        5      -0.00064142       0.00086500      -0.51382866
Si       1.91979491       1.91979491      14.71500000  F        4       0.00115087      -0.00000000       0.16034141
Si       5.75938473       1.91979491      14.71500000  F        4       0.01730826      -0.00000000       0.17469738
Si       9.59897455       1.91979491      14.71500000  F        4      -0.01698507      -0.00000000       0.17548325
Si       1.91979491       5.75938473      14.71500000  F        4       0.00073757       0.00000002       0.16249281
Si       5.75938473       5.75938473      14.71500000  F        4       0.02410303       0.00000002       0.18199940
Si       9.59897455       5.75938473      14.71500000  F        4      -0.02249687       0.00000002       0.19258950
Si       0.00000000       1.91979491      16.07250000  F        3      -0.01055202      -0.00000000      -0.13277142
Si       3.83958982       1.91979491      16.07250000  F        3       0.01085332      -0.00000000      -0.12907665
Si       7.67917964       1.91979491      16.07250000  F        3      -0.00268799      -0.00000000      -0.27834604
Si       0.00000000       5.75938473      16.07250000  F        3      -0.01873975       0.00000002      -0.11827943
Si       3.83958982       5.75938473      16.07250000  F        3       0.00797493       0.00000002      -0.12354781
Si       7.67917964       5.75938473      16.07250000  F        3       0.00228175       0.00000002      -0.12038259
Si       0.00000000       0.00000000      17.43000000  F        2      -0.04720658      -0.05867674       0.53743731
Si       3.83958982       0.00000000      17.43000000  F        2       0.03903990      -0.05362558       0.52700323
Si       7.67917964       0.00000000      17.43000000  F        2      -0.00232934      -0.05265521       0.43304801
Si       0.00000000       3.83958982      17.43000000  F        2      -0.04720658       0.05867672       0.53743733
Si       3.83958982       3.83958982      17.43000000  F        2       0.03903990       0.05362556       0.52700324
Si       7.67917964       3.83958982      17.43000000  F        2      -0.00232934       0.05265518       0.43304802
Si       1.91979491       0.00000000      18.78750000  F        1       0.00095045      -0.00637734      -0.26537562
Si       5.75938473       0.00000000      18.78750000  F        1      -0.08801459       0.03326054      -0.18858441
Si       9.59897455       0.00000000      18.78750000  F        1       0.14502773       0.05107013      -0.25161411
Si       1.91979491       3.83958982      18.78750000  F        1       0.00095045       0.00637734      -0.26537562
Si       5.75938473       3.83958982      18.78750000  F        1      -0.08801459      -0.03326054      -0.18858441
Si       9.59897455       3.83958982      18.78750000  F        1       0.14502773      -0.05107013      -0.25161411
F        7.67917964       1.91979491      20.68750000  T        0      -0.00919090       0.00000000       0.06230430
C        7.67917964       1.91979491      22.10715213  T        0       0.00454334       0.00000000       0.24662896
H        8.72594606       1.91979491      22.42687412  T        0       0.03286089      -0.00000000      -0.18842263
H        7.15579643       2.82632123      22.42687412  T        0      -0.05805060       0.04461476      -0.11416950
H        7.15579643       1.01326859      22.42687412  T        0      -0.05805060      -0.04461476      -0.11416950
41
Lattice="11.518769465528859 0.0 0.0 0.0 7.679179643685906 0.0 0.0 0.0 30.7875" Properties=species:S:1:pos:R:3:move_mask:L:1:tags:I:1:forces:R:3 surface=Si100 species=CH3F site=hollow orientation=upright height_A=1.6 substrate_atoms=36 calculation_kind="Rigid evaluated approach scan; not NEB" energy=-204.59793609011493 pbc="T T F"
Si       0.00000000       0.00000000      12.00000000  F        6      -0.00159898       0.00001307       0.24903382
Si       3.83958982       0.00000000      12.00000000  F        6       0.00125382       0.00000790       0.24910336
Si       7.67917964       0.00000000      12.00000000  F        6       0.00034209      -0.00250675       0.24586273
Si       0.00000000       3.83958982      12.00000000  F        6      -0.00159898      -0.00001307       0.24903382
Si       3.83958982       3.83958982      12.00000000  F        6       0.00125382      -0.00000790       0.24910336
Si       7.67917964       3.83958982      12.00000000  F        6       0.00034209       0.00250675       0.24586273
Si       1.91979491       0.00000000      13.35750000  F        5       0.00029791       0.00139419      -0.52475729
Si       5.75938473       0.00000000      13.35750000  F        5       0.00244797      -0.00031766      -0.50896224
Si       9.59897455       0.00000000      13.35750000  F        5      -0.00273087      -0.00046580      -0.50884612
Si       1.91979491       3.83958982      13.35750000  F        5       0.00029791      -0.00139421      -0.52475730
Si       5.75938473       3.83958982      13.35750000  F        5       0.00244797       0.00031763      -0.50896226
Si       9.59897455       3.83958982      13.35750000  F        5      -0.00273087       0.00046578      -0.50884614
Si       1.91979491       1.91979491      14.71500000  F        4       0.00174078      -0.00000000       0.16105779
Si       5.75938473       1.91979491      14.71500000  F        4       0.02273186      -0.00000000       0.18149881
Si       9.59897455       1.91979491      14.71500000  F        4      -0.02295498      -0.00000000       0.18244618
Si       1.91979491       5.75938473      14.71500000  F        4       0.00124069       0.00000002       0.16451518
Si       5.75938473       5.75938473      14.71500000  F        4       0.02842413       0.00000002       0.18322719
Si       9.59897455       5.75938473      14.71500000  F        4      -0.02786561       0.00000002       0.18333690
Si       0.00000000       1.91979491      16.07250000  F        3      -0.00504724      -0.00000000      -0.13622466
Si       3.83958982       1.91979491      16.07250000  F        3       0.00639575      -0.00000000      -0.13365238
Si       7.67917964       1.91979491      16.07250000  F        3      -0.00425207      -0.00000000      -0.24764479
Si       0.00000000       5.75938473      16.07250000  F        3      -0.01144196       0.00000002      -0.11820022
Si       3.83958982       5.75938473      16.07250000  F        3       0.00971190       0.00000002      -0.12141437
Si       7.67917964       5.75938473      16.07250000  F        3      -0.00441123       0.00000002      -0.13633479
Si       0.00000000       0.00000000      17.43000000  F        2      -0.03821197      -0.08741982       0.52732792
Si       3.83958982       0.00000000      17.43000000  F        2       0.02346055      -0.08316082       0.51213693
Si       7.67917964       0.00000000      17.43000000  F        2       0.00273865      -0.06510397       0.42778967
Si       0.00000000       3.83958982      17.43000000  F        2      -0.03821197       0.08741980       0.52732793
Si       3.83958982       3.83958982      17.43000000  F        2       0.02346055       0.08316080       0.51213695
Si       7.67917964       3.83958982      17.43000000  F        2       0.00273865       0.06510395       0.42778968
Si       1.91979491       0.00000000      18.78750000  F        1      -0.00020793      -0.00750562      -0.26853974
Si       5.75938473       0.00000000      18.78750000  F        1      -0.12685376       0.01233307      -0.25298150
Si       9.59897455       0.00000000      18.78750000  F        1       0.12848844       0.09014030      -0.20186218
Si       1.91979491       3.83958982      18.78750000  F        1      -0.00020793       0.00750562      -0.26853974
Si       5.75938473       3.83958982      18.78750000  F        1      -0.12685376      -0.01233308      -0.25298150
Si       9.59897455       3.83958982      18.78750000  F        1       0.12848844      -0.09014030      -0.20186218
F        7.67917964       1.91979491      20.38750000  T        0       0.00813761       0.00000000       0.19371977
C        7.67917964       1.91979491      21.80715213  T        0      -0.01281350       0.00000000       0.24642112
H        8.72594606       1.91979491      22.12687412  T        0       0.06082157      -0.00000000      -0.23584082
H        7.15579643       2.82632123      22.12687412  T        0      -0.01463478       0.06933691      -0.12876080
H        7.15579643       1.01326859      22.12687412  T        0      -0.01463478      -0.06933691      -0.12876080
41
Lattice="11.518769465528859 0.0 0.0 0.0 7.679179643685906 0.0 0.0 0.0 30.7875" Properties=species:S:1:pos:R:3:move_mask:L:1:tags:I:1:forces:R:3 surface=Si100 species=CH3F site=hollow orientation=upright height_A=1.3 substrate_atoms=36 calculation_kind="Rigid evaluated approach scan; not NEB" energy=-204.5621247310429 pbc="T T F"
Si       0.00000000       0.00000000      12.00000000  F        6      -0.00120977       0.00005544       0.24822599
Si       3.83958982       0.00000000      12.00000000  F        6       0.00130405       0.00004063       0.24846805
Si       7.67917964       0.00000000      12.00000000  F        6      -0.00009638      -0.00219064       0.24803881
Si       0.00000000       3.83958982      12.00000000  F        6      -0.00120977      -0.00005544       0.24822599
Si       3.83958982       3.83958982      12.00000000  F        6       0.00130405      -0.00004063       0.24846805
Si       7.67917964       3.83958982      12.00000000  F        6      -0.00009638       0.00219064       0.24803881
Si       1.91979491       0.00000000      13.35750000  F        5       0.00005733       0.00187789      -0.52306808
Si       5.75938473       0.00000000      13.35750000  F        5       0.00620742       0.00092431      -0.50302949
Si       9.59897455       0.00000000      13.35750000  F        5      -0.00609863       0.00088757      -0.50390883
Si       1.91979491       3.83958982      13.35750000  F        5       0.00005733      -0.00187791      -0.52306810
Si       5.75938473       3.83958982      13.35750000  F        5       0.00620742      -0.00092433      -0.50302950
Si       9.59897455       3.83958982      13.35750000  F        5      -0.00609863      -0.00088760      -0.50390885
Si       1.91979491       1.91979491      14.71500000  F        4       0.00120047      -0.00000000       0.16155392
Si       5.75938473       1.91979491      14.71500000  F        4       0.02501196      -0.00000000       0.18470913
Si       9.59897455       1.91979491      14.71500000  F        4      -0.02592141      -0.00000000       0.18942881
Si       1.91979491       5.75938473      14.71500000  F        4       0.00099987       0.00000002       0.16600167
Si       5.75938473       5.75938473      14.71500000  F        4       0.02206320       0.00000002       0.18710666
Si       9.59897455       5.75938473      14.71500000  F        4      -0.02457747       0.00000002       0.17858044
Si       0.00000000       1.91979491      16.07250000  F        3      -0.00379032      -0.00000000      -0.14417529
Si       3.83958982       1.91979491      16.07250000  F        3       0.00191791      -0.00000000      -0.14586223
Si       7.67917964       1.91979491      16.07250000  F        3       0.00207410      -0.00000000      -0.24714855
Si       0.00000000       5.75938473      16.07250000  F        3      -0.01195179       0.00000002      -0.12272000
Si       3.83958982       5.75938473      16.07250000  F        3       0.02127913       0.00000002      -0.11343326
Si       7.67917964       5.75938473      16.07250000  F        3      -0.00283974       0.00000002      -0.20148229
Si       0.00000000       0.00000000      17.43000000  F        2      -0.00638738      -0.10814472       0.49342877
Si       3.83958982       0.00000000      17.43000000  F        2       0.00152374      -0.11145156       0.48928569
Si       7.67917964       0.00000000      17.43000000  F        2       0.00746183      -0.09241192       0.39875090
Si       0.00000000       3.83958982      17.43000000  F        2      -0.00638738       0.10814470       0.49342878
Si       3.83958982       3.83958982      17.43000000  F        2       0.00152374       0.11145153       0.48928571
Si       7.67917964       3.83958982      17.43000000  F        2       0.00746183       0.09241190       0.39875091
Si       1.91979491       0.00000000      18.78750000  F        1      -0.00001917      -0.00730141      -0.26251042
Si       5.75938473       0.00000000      18.78750000  F        1      -0.20281983      -0.02458808      -0.31015871
Si       9.59897455       0.00000000      18.78750000  F        1       0.16518621       0.02614588      -0.25271724
Si       1.91979491       3.83958982      18.78750000  F        1      -0.00001917       0.00730141      -0.26251042
Si       5.75938473       3.83958982      18.78750000  F        1      -0.20281983       0.02458808      -0.31015871
Si       9.59897455       3.83958982      18.78750000  F        1       0.16518621      -0.02614588      -0.25271724
F        7.67917964       1.91979491      20.08750000  T        0       0.01547872       0.00000000       0.33975530
C        7.67917964       1.91979491      21.50715213  T        0      -0.01771003       0.00000000       0.55201596
H        8.72594606       1.91979491      21.82687412  T        0       0.07483940      -0.00000000      -0.19865688
H        7.15579643       2.82632123      21.82687412  T        0      -0.00414641       0.03200401      -0.16364214
H        7.15579643       1.01326859      21.82687412  T        0      -0.00414641      -0.03200401      -0.16364214
