38
Lattice="9.8418 0.0 0.0 -2.460449999999999 4.261624409482844 0.0 0.0 -0.0 34.16586254" Properties=species:S:1:pos:R:3:move_mask:L:1:spacegroup_kinds:I:1:tags:I:1:forces:R:3 spacegroup="P 32 2 1" unit_cell=conventional energy=-274.46363360895265 pbc="T T F"
Si       2.31725181       0.00000000      12.00000000  F        0        2      -0.13927309      -0.38023827      -1.77697098
Si      -1.15862590       2.00679893      15.60606667  F        0        2      -0.13834536       0.04135847       1.03718708
Si       1.30182410       2.25482548      13.80303333  F        0        2       0.03719533      -0.15769228       0.91655020
O        1.38326499       1.13103512      12.65233746  F        1        2      -0.53199843       0.24873193      -0.17687384
O        0.28787265       1.76346018      14.95372921  F        1        2       0.40990040      -0.25516934      -0.31245726
O        3.24976236       0.63242506      16.25840413  F        1        2       0.31364663      -0.12659661      -0.73333739
O        0.78931236       3.62919935      13.15069587  F        1        2       0.45880004       0.26529587       0.59741518
O        2.74832265       2.49816423      14.45537079  F        1        2       0.03194840       0.37707910      -0.67862364
O       -1.07718501       3.13058929      16.75676254  F        1        2      -0.43711115      -0.27669883      -0.37072121
Si       2.31725181       0.00000000      17.40910000  F        0        1       0.04232618       0.01768673       0.98877773
Si      -1.15862590       2.00679893      21.01516667  F        0        1       0.11242749       0.42420014      -0.57900312
Si       1.30182410       2.25482548      19.21213333  F        0        1      -0.04058281       0.03714919       0.26400976
O        1.38326499       1.13103512      18.06143746  F        1        1      -0.30173007      -0.13730919      -0.56160353
O        0.28787265       1.76346018      20.36282921  F        1        1       0.35347600      -0.29571614      -0.04242232
O        3.30080464       0.48294498      21.70014599  T        1        1      -0.01408825       0.00873907       0.00011930
O        0.78931236       3.62919935      18.55979587  F        1        1       0.04956534       0.39838528      -0.19996924
O        2.74832265       2.49816423      19.86447079  F        1        1       0.66422417       0.04825011       0.55181905
O       -1.07718501       3.13058929      22.16586254  F        1        1       0.04035576       0.19436144       0.76846960
Si       7.23815181       0.00000000      12.00000000  F        0        2      -0.13785741      -0.37955961      -1.77364143
Si       3.76227409       2.00679893      15.60606667  F        0        2      -0.13100475       0.08134051       1.05640598
Si       6.22272410       2.25482548      13.80303333  F        0        2       0.03515924      -0.15621327       0.91679298
O        6.30416499       1.13103512      12.65233746  F        1        2      -0.53108858       0.24618265      -0.17940934
O        5.20877265       1.76346018      14.95372921  F        1        2       0.40372546      -0.25848992      -0.30753387
O        8.17066236       0.63242506      16.25840413  F        1        2       0.31164887      -0.11272852      -0.75376927
O        5.71021236       3.62919935      13.15069587  F        1        2       0.45679455       0.26613677       0.59350402
O        7.66922265       2.49816423      14.45537079  F        1        2       0.03722888       0.38098879      -0.67111658
O        3.84371499       3.13058929      16.75676254  F        1        2      -0.43914339      -0.28693621      -0.41218522
Si       7.23815181       0.00000000      17.40910000  F        0        1       0.01621744       0.04795433       1.05570351
Si       3.73388474       1.86634209      21.00039402  T        0        1      -0.00241816      -0.00418329       0.00346362
Si       6.22272410       2.25482548      19.21213333  F        0        1      -0.39202858       0.04670942       0.49005407
O        6.30416499       1.13103512      18.06143746  F        1        1      -0.23578002      -0.09945825      -0.51854593
O        5.20877265       1.76346018      20.36282921  F        1        1       0.07683291      -0.46485256       0.02296710
O        8.17066236       0.63242506      21.66750413  F        1        1      -0.06013171      -0.50467116       0.98325567
O        5.71021236       3.62919935      18.55979587  F        1        1       0.08604456       0.42207776      -0.18504543
O        7.66922265       2.49816423      19.86447079  F        1        1       0.08253854       0.17880338      -0.47496840
O        3.84371499       3.13058929      22.16586254  F        1        1      -0.48673764       0.16500433       0.45203739
F        4.79828070       2.55496884      23.04197338  T        0        0       0.00107969       0.00272249       0.00084141
H        2.43145069       0.06725964      21.97429220  T        0        0      -0.00181647      -0.00264430       0.00882432
