38
Lattice="9.8418 0.0 0.0 -2.460449999999999 4.261624409482844 0.0 0.0 -0.0 34.16586254" Properties=species:S:1:pos:R:3:move_mask:L:1:spacegroup_kinds:I:1:tags:I:1:forces:R:3 spacegroup="P 32 2 1" unit_cell=conventional energy=-274.46370619259676 pbc="T T F"
Si       2.31725181       0.00000000      12.00000000  F        0        2      -0.13927043      -0.38023768      -1.77694483
Si      -1.15862590       2.00679893      15.60606667  F        0        2      -0.13826154       0.04143138       1.03719103
Si       1.30182410       2.25482548      13.80303333  F        0        2       0.03717687      -0.15770463       0.91661622
O        1.38326499       1.13103512      12.65233746  F        1        2      -0.53199596       0.24872398      -0.17689694
O        0.28787265       1.76346018      14.95372921  F        1        2       0.40987383      -0.25515576      -0.31249172
O        3.24976236       0.63242506      16.25840413  F        1        2       0.31374076      -0.12662535      -0.73343557
O        0.78931236       3.62919935      13.15069587  F        1        2       0.45880050       0.26530657       0.59739261
O        2.74832265       2.49816423      14.45537079  F        1        2       0.03195453       0.37708031      -0.67862896
O       -1.07718501       3.13058929      16.75676254  F        1        2      -0.43705093      -0.27684918      -0.37073732
Si       2.31725181       0.00000000      17.40910000  F        0        1       0.04173591       0.01814321       0.98883338
Si      -1.15862590       2.00679893      21.01516667  F        0        1       0.11549951       0.42583999      -0.57988543
Si       1.30182410       2.25482548      19.21213333  F        0        1      -0.04102402       0.03518678       0.26523211
O        1.38326499       1.13103512      18.06143746  F        1        1      -0.30163436      -0.13752524      -0.56212059
O        0.28787265       1.76346018      20.36282921  F        1        1       0.35240016      -0.29522957      -0.04321380
O        3.29508863       0.48541462      21.70225112  T        1        1       0.00625969       0.00748377      -0.00086330
O        0.78931236       3.62919935      18.55979587  F        1        1       0.04986783       0.39914672      -0.19911580
O        2.74832265       2.49816423      19.86447079  F        1        1       0.66482856       0.05148969       0.54808498
O       -1.07718501       3.13058929      22.16586254  F        1        1       0.03772721       0.19285507       0.77179130
Si       7.23815181       0.00000000      12.00000000  F        0        2      -0.13785396      -0.37955738      -1.77362102
Si       3.76227409       2.00679893      15.60606667  F        0        2      -0.13105450       0.08132832       1.05644167
Si       6.22272410       2.25482548      13.80303333  F        0        2       0.03517590      -0.15620260       0.91680147
O        6.30416499       1.13103512      12.65233746  F        1        2      -0.53108954       0.24618198      -0.17941246
O        5.20877265       1.76346018      14.95372921  F        1        2       0.40373339      -0.25850418      -0.30753631
O        8.17066236       0.63242506      16.25840413  F        1        2       0.31154149      -0.11276153      -0.75363857
O        5.71021236       3.62919935      13.15069587  F        1        2       0.45679330       0.26613344       0.59349710
O        7.66922265       2.49816423      14.45537079  F        1        2       0.03720104       0.38097434      -0.67113050
O        3.84371499       3.13058929      16.75676254  F        1        2      -0.43911730      -0.28680773      -0.41222132
Si       7.23815181       0.00000000      17.40910000  F        0        1       0.01629466       0.04756271       1.05584484
Si       3.73346365       1.86587093      21.00048737  T        0        1      -0.00404497      -0.00031445       0.00630742
Si       6.22272410       2.25482548      19.21213333  F        0        1      -0.39039802       0.04776298       0.48826502
O        6.30416499       1.13103512      18.06143746  F        1        1      -0.23598519      -0.09935015      -0.51845421
O        5.20877265       1.76346018      20.36282921  F        1        1       0.05667615      -0.47255562       0.03498777
O        8.17066236       0.63242506      21.66750413  F        1        1      -0.06125624      -0.50288914       0.98282717
O        5.71021236       3.62919935      18.55979587  F        1        1       0.08615455       0.42155482      -0.18483293
O        7.66922265       2.49816423      19.86447079  F        1        1       0.08155142       0.17857405      -0.47484766
O        3.84371499       3.13058929      22.16586254  F        1        1      -0.48457683       0.16862588       0.44775081
F        4.79993836       2.55758257      23.04135935  T        0        0       0.00059560      -0.00083862       0.00229421
H        2.42714304       0.06721784      21.97871338  T        0        0      -0.00096906      -0.00227715      -0.00012984
