8
Lattice="24.0 0.0 0.0 0.0 24.0 0.0 0.0 0.0 24.0" Properties=species:S:1:pos:R:3:move_mask:L:1:forces:R:3 charge_spin="0 1" energy=-12724.27907243371 free_energy=-12724.27907243371 pbc="F F F"
Si       0.00000000       0.00000000       0.00000000  F      -0.22415829       0.00000028       0.24293670
H        1.39535738       0.00000000      -0.49333333  F       0.16054709      -0.00000004      -0.10750876
H       -0.69767869       1.20841494      -0.49333333  F       0.03648603      -0.07193927      -0.05465048
H       -0.69767869      -1.20841494      -0.49333333  F       0.03648603       0.07193909      -0.05465040
O       -0.00524096       0.00000001       1.64531721  T      -0.00541562      -0.00000001      -0.01007549
H        0.85409908       0.00000001       2.08058616  T       0.00303441      -0.00000006       0.00277284
F        2.82137319       0.00000004       2.11268964  T      -0.00004174      -0.00000001      -0.00679867
H        2.96558201      -0.00000001       1.19512991  T      -0.00693798       0.00000001      -0.01202572
8
Lattice="24.0 0.0 0.0 0.0 24.0 0.0 0.0 0.0 24.0" Properties=species:S:1:pos:R:3:move_mask:L:1:forces:R:3 charge_spin="0 1" energy=-12723.832164883614 free_energy=-12723.832164883614 pbc="F F F"
Si       0.00000000       0.00000000       0.00000000  F       1.00610209      -0.96026850      -0.12374535
H        1.39535738       0.00000000      -0.49333333  F      -0.09366269       0.15577291      -0.51153654
H       -0.69767869       1.20841494      -0.49333333  F      -0.05737435       0.02428268       0.53568530
H       -0.69767869      -1.20841494      -0.49333333  F      -0.17591532       0.21555170      -0.12626676
O        0.31217627      -0.28127523       1.60740695  T      -0.35559350       0.40634263       0.29336280
H        1.23746469      -0.48639318       1.79053576  T      -0.31385434       0.13538647      -0.07504293
F        3.64900263      -3.84773546       1.86834182  T       0.39203051      -0.32992935      -0.24689081
H        4.27546448      -4.38515231       1.42874636  T      -0.40173241       0.35286134       0.25443432
8
Lattice="24.0 0.0 0.0 0.0 24.0 0.0 0.0 0.0 24.0" Properties=species:S:1:pos:R:3:move_mask:L:1:forces:R:3 charge_spin="0 1" energy=-12724.292264670134 free_energy=-12724.292264670134 pbc="F F F"
Si       0.00000000       0.00000000       0.00000000  F      -0.52274060       0.01702012      -0.75373363
H        1.39535738       0.00000000      -0.49333333  F      -0.06550964      -0.00847389       0.38017419
H       -0.69767869       1.20841494      -0.49333333  F       0.06532183      -0.06169762      -0.01902107
H       -0.69767869      -1.20841494      -0.49333333  F       0.08594920       0.07678895      -0.03460893
O       -0.09108765      -0.00610602       1.65202643  T       0.47475761      -0.05184780      -0.16863951
H       -0.82804321       0.34193439       2.14651380  T      -0.41680080       0.13771822       0.01176769
F        1.19656558      -0.10918100       3.71539890  T       0.19326378       0.13017204      -0.07917958
H        0.91698316      -0.02285552       2.80774443  T       0.18575864      -0.23968002       0.66324097
8
Lattice="24.0 0.0 0.0 0.0 24.0 0.0 0.0 0.0 24.0" Properties=species:S:1:pos:R:3:move_mask:L:1:forces:R:3 charge_spin="0 1" energy=-12721.439234346151 free_energy=-12721.439234346151 pbc="F F F"
Si       0.00000000       0.00000000       0.00000000  F      -3.87630057       0.21429458      -1.43992782
H        1.39535738       0.00000000      -0.49333333  F       0.58982825      -0.01447184       1.39130306
H       -0.69767869       1.20841494      -0.49333333  F       1.60683465       0.67576677      -2.15305614
H       -0.69767869      -1.20841494      -0.49333333  F       0.92021203      -0.39492014      -0.53445816
O       -1.35492812       0.23354225       1.08570784  T       1.20764101       0.22236991       1.20532513
H       -1.72027774       0.93652897       0.49898953  T      -0.44821551      -0.70303935       1.53081405
F       -7.34509502      -2.20084398       5.11534120  T       0.02074848       0.05685665      -1.23631799
H       -7.32921209      -2.15732035       4.16893930  T      -0.02074848      -0.05685665       1.23631799
8
Lattice="24.0 0.0 0.0 0.0 24.0 0.0 0.0 0.0 24.0" Properties=species:S:1:pos:R:3:move_mask:L:1:forces:R:3 charge_spin="0 1" energy=-12717.58502984047 free_energy=-12717.58502984047 pbc="F F F"
Si       0.00000000       0.00000000       0.00000000  F      -0.00000037      -0.00000008      -0.91790378
H        1.39535738       0.00000000      -0.49333333  F       0.19971749       0.00000001       0.30596799
H       -0.69767869       1.20841494      -0.49333333  F      -0.09985861       0.17296030       0.30596799
H       -0.69767869      -1.20841494      -0.49333333  F      -0.09985849      -0.17296022       0.30596796
O       -6.62311560       2.18992634      -0.59369538  T       0.02920910       0.11562252       0.18817976
H       -6.49583875       2.69374425       0.22628594  T      -0.02920910      -0.11562252      -0.18817976
F      -16.04654099      -3.35494969       4.22773013  T       0.17356168      -0.02911500      -0.32267630
H      -15.60655711      -3.42875727       3.40973563  T      -0.17356168       0.02911500       0.32267630
8
Lattice="24.0 0.0 0.0 0.0 24.0 0.0 0.0 0.0 24.0" Properties=species:S:1:pos:R:3:move_mask:L:1:forces:R:3 charge_spin="0 1" energy=-12717.805228233337 free_energy=-12717.805228233337 pbc="F F F"
Si       0.00000000       0.00000000       0.00000000  F      -0.59861577      -0.43039957      -1.66211677
H        1.39535738       0.00000000      -0.49333333  F       0.21202196       0.10405953       0.57349545
H       -0.69767869       1.20841494      -0.49333333  F       0.00362032       0.17630427       0.57195145
H       -0.69767869      -1.20841494      -0.49333333  F      -0.18519019      -0.23040879       0.59863526
O       -8.05510403       0.18198052       0.20359757  T      -0.23091656       0.24124026      -0.29769188
H       -7.60064839       0.73744010      -0.45727572  T      -0.49684191      -0.43529215       0.42188695
F       -3.21406313      -2.23121336       0.46075476  T       0.49107870       0.43932456      -0.10407747
H       -9.01618322       0.24034092       0.04764751  T       0.80484349       0.13517193      -0.10208297
8
Lattice="24.0 0.0 0.0 0.0 24.0 0.0 0.0 0.0 24.0" Properties=species:S:1:pos:R:3:move_mask:L:1:forces:R:3 charge_spin="0 1" energy=-12724.307642817497 free_energy=-12724.307642817497 pbc="F F F"
Si       0.00000000       0.00000000       0.00000000  F       1.24223518      -0.16201976      -0.31992722
H        1.39535738       0.00000000      -0.49333333  F      -0.23574580       0.02977378      -0.41947377
H       -0.69767869       1.20841494      -0.49333333  F      -0.07069749      -0.08163998       0.44397634
H       -0.69767869      -1.20841494      -0.49333333  F      -0.07751496       0.12136927       0.35390204
O      -10.41528308       3.55022359       3.48444412  T       0.37684265      -0.56652057       0.12184578
H       -9.58166482       3.06623489       3.57200293  T       0.07150865       0.43708250      -0.10571381
F        0.37208262      -0.04661925       1.57659655  T      -0.85827696       0.09251665      -0.05847745
H      -11.03323124       2.83876500       3.67272821  T      -0.44835126       0.12943806      -0.01613197
8
Lattice="24.0 0.0 0.0 0.0 24.0 0.0 0.0 0.0 24.0" Properties=species:S:1:pos:R:3:move_mask:L:1:forces:R:3 charge_spin="0 1" energy=-12724.052511155605 free_energy=-12724.052511155605 pbc="F F F"
Si       0.00000000       0.00000000       0.00000000  F       0.71704698       2.09333587      -0.60788774
H        1.39535738       0.00000000      -0.49333333  F      -0.18220493      -0.31446213      -0.07248195
H       -0.69767869       1.20841494      -0.49333333  F      -0.15447739      -0.37738690      -0.49561971
H       -0.69767869      -1.20841494      -0.49333333  F      -0.04675394      -0.13759902       0.88043827
O       -6.45954440       2.97373654       3.87215661  T      -0.10350598      -0.23156035      -0.19298503
H       -6.84346164       2.43091076       3.16922211  T       0.10860129       0.18730392       0.20021835
F        0.19946310       0.60374787       1.49823797  T      -0.33361068      -1.26388788       0.29555124
H       -6.09355670       2.33793405       4.49529064  T      -0.00509533       0.04425642      -0.00723332
8
Lattice="24.0 0.0 0.0 0.0 24.0 0.0 0.0 0.0 24.0" Properties=species:S:1:pos:R:3:move_mask:L:1:forces:R:3 charge_spin="0 1" energy=-12724.385191649199 free_energy=-12724.385191649199 pbc="F F F"
Si       0.00000000       0.00000000       0.00000000  F       0.77651495       0.91901743      -0.53883171
H        1.39535738       0.00000000      -0.49333333  F      -0.20454699      -0.15621711      -0.17536576
H       -0.69767869       1.20841494      -0.49333333  F      -0.06919192      -0.22799964       0.00221134
H       -0.69767869      -1.20841494      -0.49333333  F      -0.01976228       0.00895225       0.57942224
O       -2.73512762       1.91018669       5.05873232  T      -0.54205573       0.14930966      -0.25320294
H       -3.34992448       2.20193484       4.36670830  T       0.25060120      -0.15179965       0.33608603
F        0.22986208       0.28060869       1.57216634  T      -0.49915323      -0.53071994       0.15344584
H       -1.87081389       2.00307059       4.65989418  T       0.30759406      -0.01054307      -0.10376510
8
Lattice="24.0 0.0 0.0 0.0 24.0 0.0 0.0 0.0 24.0" Properties=species:S:1:pos:R:3:move_mask:L:1:forces:R:3 charge_spin="0 1" energy=-12724.541507661343 free_energy=-12724.541507661343 pbc="F F F"
Si       0.00000000       0.00000000       0.00000000  F       0.71912789       0.32652611      -0.54209769
H        1.39535738       0.00000000      -0.49333333  F      -0.18555896      -0.05541801      -0.13099506
H       -0.69767869       1.20841494      -0.49333333  F      -0.03776979      -0.14234351       0.22296143
H       -0.69767869      -1.20841494      -0.49333333  F      -0.02248543       0.06453893       0.41963464
O        0.52474524       0.84724158       4.83218611  T      -0.07902467       0.09145509       0.10583660
H       -0.33126940       1.16419102       5.14657748  T       0.18702896      -0.05671173      -0.17188983
F        0.22041863       0.10077015       1.59610689  T      -0.46518350      -0.15264761       0.07640944
H        0.53013179       0.99301886       3.87994067  T      -0.11613445      -0.07539927       0.02014042
8
Lattice="24.0 0.0 0.0 0.0 24.0 0.0 0.0 0.0 24.0" Properties=species:S:1:pos:R:3:move_mask:L:1:forces:R:3 charge_spin="0 1" energy=-12724.647834479809 free_energy=-12724.647834479809 pbc="F F F"
Si       0.00000000       0.00000000       0.00000000  F       0.00741076      -0.01609546      -0.65248585
H        1.39535738       0.00000000      -0.49333333  F      -0.11412273       0.00244817       0.20898098
H       -0.69767869       1.20841494      -0.49333333  F       0.05438990      -0.09514646       0.22420126
H       -0.69767869      -1.20841494      -0.49333333  F       0.05682673       0.10419075       0.21367130
O        0.00573728       0.40743409       4.55197426  T       0.00350189      -0.00163022      -0.00346096
H        0.83695931       0.01613963       4.83403213  T      -0.00550952       0.00247765       0.00662887
F        0.00656194      -0.00782065       1.61421686  T      -0.00493484      -0.00010363      -0.00180933
H       -0.01809192       0.27409439       3.59858113  T       0.00243776       0.00385917       0.00427371
