8
Lattice="24.0 0.0 0.0 0.0 24.0 0.0 0.0 0.0 24.0" Properties=species:S:1:pos:R:3:move_mask:L:1:forces:R:3 charge_spin="0 1" energy=-12724.27907243371 pbc="F F F"
Si       0.00000000       0.00000000       0.00000000  F      -0.22415829       0.00000028       0.24293670
H        1.39535738       0.00000000      -0.49333333  F       0.16054709      -0.00000004      -0.10750876
H       -0.69767869       1.20841494      -0.49333333  F       0.03648603      -0.07193927      -0.05465048
H       -0.69767869      -1.20841494      -0.49333333  F       0.03648603       0.07193909      -0.05465040
O       -0.00524096       0.00000001       1.64531721  T      -0.00541562      -0.00000001      -0.01007549
H        0.85409908       0.00000001       2.08058616  T       0.00303441      -0.00000006       0.00277284
F        2.82137319       0.00000004       2.11268964  T      -0.00004174      -0.00000001      -0.00679867
H        2.96558201      -0.00000001       1.19512991  T      -0.00693798       0.00000001      -0.01202572
