39
Lattice="11.518769465528859 0.0 0.0 0.0 7.679179643685906 0.0 0.0 0.0 30.7875" Properties=species:S:1:pos:R:3:move_mask:L:1:tags:I:1:forces:R:3 surface=Si100 species=H2O site=atop_Si orientation=parallel height_A=6.5 substrate_atoms=36 calculation_kind="Rigid evaluated approach scan; not NEB" energy=-194.37464166994567 pbc="T T F"
Si       0.00000000       0.00000000      12.00000000  F        6      -0.00000004       0.00000000       0.24903484
Si       3.83958982       0.00000000      12.00000000  F        6      -0.00000000       0.00000000       0.24903482
Si       7.67917964       0.00000000      12.00000000  F        6       0.00000000       0.00000000       0.24903482
Si       0.00000000       3.83958982      12.00000000  F        6      -0.00000004      -0.00000000       0.24903484
Si       3.83958982       3.83958982      12.00000000  F        6      -0.00000000      -0.00000000       0.24903482
Si       7.67917964       3.83958982      12.00000000  F        6       0.00000000      -0.00000000       0.24903482
Si       1.91979491       0.00000000      13.35750000  F        5       0.00000000      -0.00000002      -0.52822352
Si       5.75938473       0.00000000      13.35750000  F        5       0.00000000      -0.00000002      -0.52822353
Si       9.59897455       0.00000000      13.35750000  F        5       0.00000003      -0.00000002      -0.52822354
Si       1.91979491       3.83958982      13.35750000  F        5       0.00000000       0.00000000      -0.52822354
Si       5.75938473       3.83958982      13.35750000  F        5       0.00000000       0.00000000      -0.52822354
Si       9.59897455       3.83958982      13.35750000  F        5       0.00000003       0.00000000      -0.52822356
Si       1.91979491       1.91979491      14.71500000  F        4      -0.00000000       0.00000000       0.14537709
Si       5.75938473       1.91979491      14.71500000  F        4       0.00000000       0.00000000       0.14537709
Si       9.59897455       1.91979491      14.71500000  F        4       0.00000004       0.00000000       0.14537711
Si       1.91979491       5.75938473      14.71500000  F        4      -0.00000000       0.00000002       0.14537707
Si       5.75938473       5.75938473      14.71500000  F        4       0.00000000       0.00000002       0.14537707
Si       9.59897455       5.75938473      14.71500000  F        4       0.00000004       0.00000002       0.14537709
Si       0.00000000       1.91979491      16.07250000  F        3      -0.00000004       0.00000000      -0.14537711
Si       3.83958982       1.91979491      16.07250000  F        3      -0.00000000       0.00000000      -0.14537709
Si       7.67917964       1.91979491      16.07250000  F        3       0.00000000       0.00000000      -0.14537709
Si       0.00000000       5.75938473      16.07250000  F        3      -0.00000004       0.00000002      -0.14537709
Si       3.83958982       5.75938473      16.07250000  F        3      -0.00000000       0.00000002      -0.14537707
Si       7.67917964       5.75938473      16.07250000  F        3       0.00000000       0.00000002      -0.14537707
Si       0.00000000       0.00000000      17.43000000  F        2      -0.00000003      -0.00000002       0.52822354
Si       3.83958982       0.00000000      17.43000000  F        2      -0.00000000      -0.00000002       0.52822353
Si       7.67917964       0.00000000      17.43000000  F        2      -0.00000000      -0.00000002       0.52822352
Si       0.00000000       3.83958982      17.43000000  F        2      -0.00000003       0.00000000       0.52822356
Si       3.83958982       3.83958982      17.43000000  F        2      -0.00000000       0.00000000       0.52822354
Si       7.67917964       3.83958982      17.43000000  F        2      -0.00000000       0.00000000       0.52822354
Si       1.91979491       0.00000000      18.78750000  F        1      -0.00000000       0.00000000      -0.24903482
Si       5.75938473       0.00000000      18.78750000  F        1       0.00000000       0.00000000      -0.24903482
Si       9.59897455       0.00000000      18.78750000  F        1       0.00000004       0.00000000      -0.24903484
Si       1.91979491       3.83958982      18.78750000  F        1      -0.00000000      -0.00000000      -0.24903482
Si       5.75938473       3.83958982      18.78750000  F        1       0.00000000      -0.00000000      -0.24903482
Si       9.59897455       3.83958982      18.78750000  F        1       0.00000004      -0.00000000      -0.24903484
O        5.35525341       3.83958982      26.04559147  T        0      -0.00791150       0.00000000       0.00000000
H        5.96145039       3.83958982      25.28750000  T        0       0.00395575       0.00000000      -0.00428516
H        5.96145039       3.83958982      26.80368294  T        0       0.00395575       0.00000000       0.00428516
39
Lattice="11.518769465528859 0.0 0.0 0.0 7.679179643685906 0.0 0.0 0.0 30.7875" Properties=species:S:1:pos:R:3:move_mask:L:1:tags:I:1:forces:R:3 surface=Si100 species=H2O site=atop_Si orientation=parallel height_A=5.0 substrate_atoms=36 calculation_kind="Rigid evaluated approach scan; not NEB" energy=-194.37464166994567 pbc="T T F"
Si       0.00000000       0.00000000      12.00000000  F        6      -0.00000004       0.00000000       0.24903484
Si       3.83958982       0.00000000      12.00000000  F        6      -0.00000000       0.00000000       0.24903482
Si       7.67917964       0.00000000      12.00000000  F        6       0.00000000       0.00000000       0.24903482
Si       0.00000000       3.83958982      12.00000000  F        6      -0.00000004      -0.00000000       0.24903484
Si       3.83958982       3.83958982      12.00000000  F        6      -0.00000000      -0.00000000       0.24903482
Si       7.67917964       3.83958982      12.00000000  F        6       0.00000000      -0.00000000       0.24903482
Si       1.91979491       0.00000000      13.35750000  F        5       0.00000000      -0.00000002      -0.52822352
Si       5.75938473       0.00000000      13.35750000  F        5       0.00000000      -0.00000002      -0.52822353
Si       9.59897455       0.00000000      13.35750000  F        5       0.00000003      -0.00000002      -0.52822354
Si       1.91979491       3.83958982      13.35750000  F        5       0.00000000       0.00000000      -0.52822354
Si       5.75938473       3.83958982      13.35750000  F        5       0.00000000       0.00000000      -0.52822354
Si       9.59897455       3.83958982      13.35750000  F        5       0.00000003       0.00000000      -0.52822356
Si       1.91979491       1.91979491      14.71500000  F        4      -0.00000000       0.00000000       0.14537709
Si       5.75938473       1.91979491      14.71500000  F        4       0.00000000       0.00000000       0.14537709
Si       9.59897455       1.91979491      14.71500000  F        4       0.00000004       0.00000000       0.14537711
Si       1.91979491       5.75938473      14.71500000  F        4      -0.00000000       0.00000002       0.14537707
Si       5.75938473       5.75938473      14.71500000  F        4       0.00000000       0.00000002       0.14537707
Si       9.59897455       5.75938473      14.71500000  F        4       0.00000004       0.00000002       0.14537709
Si       0.00000000       1.91979491      16.07250000  F        3      -0.00000004       0.00000000      -0.14537711
Si       3.83958982       1.91979491      16.07250000  F        3      -0.00000000       0.00000000      -0.14537709
Si       7.67917964       1.91979491      16.07250000  F        3       0.00000000       0.00000000      -0.14537709
Si       0.00000000       5.75938473      16.07250000  F        3      -0.00000004       0.00000002      -0.14537709
Si       3.83958982       5.75938473      16.07250000  F        3      -0.00000000       0.00000002      -0.14537707
Si       7.67917964       5.75938473      16.07250000  F        3       0.00000000       0.00000002      -0.14537707
Si       0.00000000       0.00000000      17.43000000  F        2      -0.00000003      -0.00000002       0.52822354
Si       3.83958982       0.00000000      17.43000000  F        2      -0.00000000      -0.00000002       0.52822353
Si       7.67917964       0.00000000      17.43000000  F        2      -0.00000000      -0.00000002       0.52822352
Si       0.00000000       3.83958982      17.43000000  F        2      -0.00000003       0.00000000       0.52822356
Si       3.83958982       3.83958982      17.43000000  F        2      -0.00000000       0.00000000       0.52822354
Si       7.67917964       3.83958982      17.43000000  F        2      -0.00000000       0.00000000       0.52822354
Si       1.91979491       0.00000000      18.78750000  F        1      -0.00000000       0.00000000      -0.24903482
Si       5.75938473       0.00000000      18.78750000  F        1       0.00000000       0.00000000      -0.24903482
Si       9.59897455       0.00000000      18.78750000  F        1       0.00000004       0.00000000      -0.24903484
Si       1.91979491       3.83958982      18.78750000  F        1      -0.00000000      -0.00000000      -0.24903482
Si       5.75938473       3.83958982      18.78750000  F        1       0.00000000      -0.00000000      -0.24903482
Si       9.59897455       3.83958982      18.78750000  F        1       0.00000004      -0.00000000      -0.24903484
O        5.35525341       3.83958982      24.54559147  T        0      -0.00791150       0.00000000       0.00000000
H        5.96145039       3.83958982      23.78750000  T        0       0.00395575       0.00000000      -0.00428516
H        5.96145039       3.83958982      25.30368294  T        0       0.00395575       0.00000000       0.00428516
39
Lattice="11.518769465528859 0.0 0.0 0.0 7.679179643685906 0.0 0.0 0.0 30.7875" Properties=species:S:1:pos:R:3:move_mask:L:1:tags:I:1:forces:R:3 surface=Si100 species=H2O site=atop_Si orientation=parallel height_A=4.0 substrate_atoms=36 calculation_kind="Rigid evaluated approach scan; not NEB" energy=-194.40070503397806 pbc="T T F"
Si       0.00000000       0.00000000      12.00000000  F        6      -0.00000004       0.00000000       0.24867982
Si       3.83958982       0.00000000      12.00000000  F        6       0.00043900       0.00000000       0.24883204
Si       7.67917964       0.00000000      12.00000000  F        6      -0.00043900       0.00000000       0.24883710
Si       0.00000000       3.83958982      12.00000000  F        6      -0.00000004      -0.00000000       0.24896460
Si       3.83958982       3.83958982      12.00000000  F        6       0.00036130      -0.00000000       0.24926501
Si       7.67917964       3.83958982      12.00000000  F        6      -0.00036130      -0.00000000       0.24927008
Si       1.91979491       0.00000000      13.35750000  F        5      -0.00077349      -0.00000002      -0.52829069
Si       5.75938473       0.00000000      13.35750000  F        5       0.00000133      -0.00000002      -0.52796840
Si       9.59897455       0.00000000      13.35750000  F        5       0.00077219      -0.00000002      -0.52828054
Si       1.91979491       3.83958982      13.35750000  F        5       0.00043414       0.00000000      -0.52689117
Si       5.75938473       3.83958982      13.35750000  F        5      -0.00002961       0.00000000      -0.52526252
Si       9.59897455       3.83958982      13.35750000  F        5      -0.00040450       0.00000000      -0.52691390
Si       1.91979491       1.91979491      14.71500000  F        4       0.00205010       0.00026990       0.14588075
Si       5.75938473       1.91979491      14.71500000  F        4       0.00008632      -0.00053508       0.14380747
Si       9.59897455       1.91979491      14.71500000  F        4      -0.00199680       0.00027795       0.14588411
Si       1.91979491       5.75938473      14.71500000  F        4       0.00205010      -0.00026987       0.14588074
Si       5.75938473       5.75938473      14.71500000  F        4       0.00008632       0.00053510       0.14380745
Si       9.59897455       5.75938473      14.71500000  F        4      -0.00199680      -0.00027793       0.14588409
Si       0.00000000       1.91979491      16.07250000  F        3      -0.00005190       0.00060163      -0.14536698
Si       3.83958982       1.91979491      16.07250000  F        3      -0.00597104      -0.00486145      -0.15246477
Si       7.67917964       1.91979491      16.07250000  F        3       0.00658497      -0.00540676      -0.15317735
Si       0.00000000       5.75938473      16.07250000  F        3      -0.00005190      -0.00060161      -0.14536697
Si       3.83958982       5.75938473      16.07250000  F        3      -0.00597104       0.00486147      -0.15246476
Si       7.67917964       5.75938473      16.07250000  F        3       0.00658497       0.00540678      -0.15317734
Si       0.00000000       0.00000000      17.43000000  F        2      -0.00004358      -0.00000002       0.53100501
Si       3.83958982       0.00000000      17.43000000  F        2       0.00089257      -0.00000002       0.52809709
Si       7.67917964       0.00000000      17.43000000  F        2      -0.00100758      -0.00000002       0.52806338
Si       0.00000000       3.83958982      17.43000000  F        2       0.00013911       0.00000000       0.53785842
Si       3.83958982       3.83958982      17.43000000  F        2      -0.00293335       0.00000000       0.52203457
Si       7.67917964       3.83958982      17.43000000  F        2       0.00235242       0.00000000       0.51921716
Si       1.91979491       0.00000000      18.78750000  F        1       0.00066999       0.00000000      -0.25190078
Si       5.75938473       0.00000000      18.78750000  F        1       0.00011052       0.00000000      -0.23808525
Si       9.59897455       0.00000000      18.78750000  F        1      -0.00069831       0.00000000      -0.25194107
Si       1.91979491       3.83958982      18.78750000  F        1      -0.00621972      -0.00000000      -0.25145136
Si       5.75938473       3.83958982      18.78750000  F        1       0.01043016      -0.00000000      -0.13719238
Si       9.59897455       3.83958982      18.78750000  F        1       0.00486018      -0.00000000      -0.25161973
O        5.35525341       3.83958982      23.54559147  T        0      -0.00946106      -0.00000000       0.00276342
H        5.96145039       3.83958982      22.78750000  T        0      -0.01501587      -0.00000000      -0.11194033
H        5.96145039       3.83958982      24.30368294  T        0       0.01452119       0.00000000       0.02572398
39
Lattice="11.518769465528859 0.0 0.0 0.0 7.679179643685906 0.0 0.0 0.0 30.7875" Properties=species:S:1:pos:R:3:move_mask:L:1:tags:I:1:forces:R:3 surface=Si100 species=H2O site=atop_Si orientation=parallel height_A=3.25 substrate_atoms=36 calculation_kind="Rigid evaluated approach scan; not NEB" energy=-194.450939304592 pbc="T T F"
Si       0.00000000       0.00000000      12.00000000  F        6       0.00000248       0.00000000       0.24873728
Si       3.83958982       0.00000000      12.00000000  F        6       0.00062193       0.00000000       0.24909558
Si       7.67917964       0.00000000      12.00000000  F        6      -0.00062445       0.00000000       0.24919202
Si       0.00000000       3.83958982      12.00000000  F        6       0.00000201      -0.00000000       0.24885900
Si       3.83958982       3.83958982      12.00000000  F        6       0.00016196      -0.00000000       0.24873316
Si       7.67917964       3.83958982      12.00000000  F        6      -0.00016401      -0.00000000       0.24882771
Si       1.91979491       0.00000000      13.35750000  F        5      -0.00074785      -0.00000002      -0.52740074
Si       5.75938473       0.00000000      13.35750000  F        5       0.00007367      -0.00000002      -0.52789203
Si       9.59897455       0.00000000      13.35750000  F        5       0.00067419      -0.00000002      -0.52727867
Si       1.91979491       3.83958982      13.35750000  F        5       0.00074628       0.00000000      -0.52507171
Si       5.75938473       3.83958982      13.35750000  F        5      -0.00010262       0.00000000      -0.52402134
Si       9.59897455       3.83958982      13.35750000  F        5      -0.00064259       0.00000000      -0.52518077
Si       1.91979491       1.91979491      14.71500000  F        4       0.00530848      -0.00158224       0.14706443
Si       5.75938473       1.91979491      14.71500000  F        4       0.00027718       0.00177799       0.15117531
Si       9.59897455       1.91979491      14.71500000  F        4      -0.00486489      -0.00160025       0.14685388
Si       1.91979491       5.75938473      14.71500000  F        4       0.00530848       0.00158226       0.14706442
Si       5.75938473       5.75938473      14.71500000  F        4       0.00027718      -0.00177797       0.15117529
Si       9.59897455       5.75938473      14.71500000  F        4      -0.00486489       0.00160028       0.14685387
Si       0.00000000       1.91979491      16.07250000  F        3      -0.00020722       0.00076867      -0.14619820
Si       3.83958982       1.91979491      16.07250000  F        3      -0.00860005      -0.00002955      -0.15532564
Si       7.67917964       1.91979491      16.07250000  F        3       0.01022228      -0.00051366      -0.15696645
Si       0.00000000       5.75938473      16.07250000  F        3      -0.00020722      -0.00076865      -0.14619818
Si       3.83958982       5.75938473      16.07250000  F        3      -0.00860005       0.00002957      -0.15532562
Si       7.67917964       5.75938473      16.07250000  F        3       0.01022228       0.00051368      -0.15696644
Si       0.00000000       0.00000000      17.43000000  F        2      -0.00026840      -0.00000002       0.52943386
Si       3.83958982       0.00000000      17.43000000  F        2      -0.00297055      -0.00000002       0.51972801
Si       7.67917964       0.00000000      17.43000000  F        2       0.00334028      -0.00000002       0.51916697
Si       0.00000000       3.83958982      17.43000000  F        2       0.00057089       0.00000000       0.54632079
Si       3.83958982       3.83958982      17.43000000  F        2      -0.01523503       0.00000000       0.49458617
Si       7.67917964       3.83958982      17.43000000  F        2       0.00239610       0.00000000       0.48702002
Si       1.91979491       0.00000000      18.78750000  F        1      -0.00013281       0.00000000      -0.25120157
Si       5.75938473       0.00000000      18.78750000  F        1      -0.00023189       0.00000000      -0.22403484
Si       9.59897455       0.00000000      18.78750000  F        1      -0.00009383       0.00000000      -0.25130536
Si       1.91979491       3.83958982      18.78750000  F        1       0.00161539      -0.00000000      -0.24864984
Si       5.75938473       3.83958982      18.78750000  F        1       0.03216896      -0.00000000      -0.11011129
Si       9.59897455       3.83958982      18.78750000  F        1      -0.00890574      -0.00000000      -0.24738157
O        5.35525341       3.83958982      22.79559147  T        0       0.01793546      -0.00000000       0.01632309
H        5.96145039       3.83958982      22.03750000  T        0      -0.02718425      -0.00000000      -0.15302884
H        5.96145039       3.83958982      23.55368294  T        0      -0.00727718      -0.00000000       0.06332826
39
Lattice="11.518769465528859 0.0 0.0 0.0 7.679179643685906 0.0 0.0 0.0 30.7875" Properties=species:S:1:pos:R:3:move_mask:L:1:tags:I:1:forces:R:3 surface=Si100 species=H2O site=atop_Si orientation=parallel height_A=2.75 substrate_atoms=36 calculation_kind="Rigid evaluated approach scan; not NEB" energy=-194.4621271324025 pbc="T T F"
Si       0.00000000       0.00000000      12.00000000  F        6       0.00009658       0.00000000       0.24906352
Si       3.83958982       0.00000000      12.00000000  F        6       0.00072172       0.00000000       0.24897208
Si       7.67917964       0.00000000      12.00000000  F        6      -0.00081897       0.00000000       0.24947872
Si       0.00000000       3.83958982      12.00000000  F        6       0.00003944      -0.00000000       0.24896252
Si       3.83958982       3.83958982      12.00000000  F        6       0.00077504      -0.00000000       0.24933715
Si       7.67917964       3.83958982      12.00000000  F        6      -0.00081467      -0.00000000       0.24992691
Si       1.91979491       0.00000000      13.35750000  F        5      -0.00120940      -0.00000002      -0.52638395
Si       5.75938473       0.00000000      13.35750000  F        5       0.00039978      -0.00000002      -0.52781680
Si       9.59897455       0.00000000      13.35750000  F        5       0.00080938      -0.00000002      -0.52625558
Si       1.91979491       3.83958982      13.35750000  F        5       0.00207288       0.00000000      -0.52125752
Si       5.75938473       3.83958982      13.35750000  F        5       0.00013549       0.00000000      -0.51802607
Si       9.59897455       3.83958982      13.35750000  F        5      -0.00196087       0.00000000      -0.52151789
Si       1.91979491       1.91979491      14.71500000  F        4       0.00362239      -0.00132649       0.14670395
Si       5.75938473       1.91979491      14.71500000  F        4      -0.00182807       0.00436378       0.16623805
Si       9.59897455       1.91979491      14.71500000  F        4      -0.00167884      -0.00235624       0.14301950
Si       1.91979491       5.75938473      14.71500000  F        4       0.00362239       0.00132651       0.14670393
Si       5.75938473       5.75938473      14.71500000  F        4      -0.00182807      -0.00436376       0.16623804
Si       9.59897455       5.75938473      14.71500000  F        4      -0.00167884       0.00235626       0.14301949
Si       0.00000000       1.91979491      16.07250000  F        3      -0.00006118       0.00846481      -0.14114941
Si       3.83958982       1.91979491      16.07250000  F        3       0.00084745      -0.00153454      -0.16665326
Si       7.67917964       1.91979491      16.07250000  F        3      -0.00273366      -0.00403977      -0.16353714
Si       0.00000000       5.75938473      16.07250000  F        3      -0.00006118      -0.00846479      -0.14114940
Si       3.83958982       5.75938473      16.07250000  F        3       0.00084745       0.00153456      -0.16665324
Si       7.67917964       5.75938473      16.07250000  F        3      -0.00273366       0.00403980      -0.16353713
Si       0.00000000       0.00000000      17.43000000  F        2       0.00014119      -0.00000002       0.52751129
Si       3.83958982       0.00000000      17.43000000  F        2      -0.00383349      -0.00000002       0.51069442
Si       7.67917964       0.00000000      17.43000000  F        2       0.00641117      -0.00000002       0.51378724
Si       0.00000000       3.83958982      17.43000000  F        2       0.00200466       0.00000000       0.53865750
Si       3.83958982       3.83958982      17.43000000  F        2      -0.04204897       0.00000000       0.50961769
Si       7.67917964       3.83958982      17.43000000  F        2       0.00730044       0.00000000       0.49384217
Si       1.91979491       0.00000000      18.78750000  F        1      -0.00143137       0.00000000      -0.25342049
Si       5.75938473       0.00000000      18.78750000  F        1      -0.00132132       0.00000000      -0.23511753
Si       9.59897455       0.00000000      18.78750000  F        1      -0.00299079       0.00000000      -0.25153635
Si       1.91979491       3.83958982      18.78750000  F        1       0.01668788      -0.00000000      -0.24790862
Si       5.75938473       3.83958982      18.78750000  F        1       0.08363647      -0.00000000      -0.23070781
Si       9.59897455       3.83958982      18.78750000  F        1       0.00437823      -0.00000000      -0.25671204
O        5.35525341       3.83958982      22.29559147  T        0      -0.03203900      -0.00000000       0.11975859
H        5.96145039       3.83958982      21.53750000  T        0      -0.04275953       0.00000000      -0.05856392
H        5.96145039       3.83958982      23.05368294  T        0       0.00928186      -0.00000000      -0.00362860
39
Lattice="11.518769465528859 0.0 0.0 0.0 7.679179643685906 0.0 0.0 0.0 30.7875" Properties=species:S:1:pos:R:3:move_mask:L:1:tags:I:1:forces:R:3 surface=Si100 species=H2O site=atop_Si orientation=parallel height_A=2.25 substrate_atoms=36 calculation_kind="Rigid evaluated approach scan; not NEB" energy=-194.3762031341131 pbc="T T F"
Si       0.00000000       0.00000000      12.00000000  F        6       0.00034629       0.00000000       0.25158865
Si       3.83958982       0.00000000      12.00000000  F        6      -0.00023427       0.00000000       0.25241442
Si       7.67917964       0.00000000      12.00000000  F        6      -0.00011207       0.00000000       0.25293680
Si       0.00000000       3.83958982      12.00000000  F        6       0.00040020      -0.00000000       0.24849773
Si       3.83958982       3.83958982      12.00000000  F        6      -0.00005103      -0.00000000       0.24849216
Si       7.67917964       3.83958982      12.00000000  F        6      -0.00034907      -0.00000000       0.24855429
Si       1.91979491       0.00000000      13.35750000  F        5      -0.00062607      -0.00000002      -0.52727646
Si       5.75938473       0.00000000      13.35750000  F        5       0.00065675      -0.00000002      -0.53255577
Si       9.59897455       0.00000000      13.35750000  F        5      -0.00001403      -0.00000002      -0.52617826
Si       1.91979491       3.83958982      13.35750000  F        5       0.00233273       0.00000000      -0.52058256
Si       5.75938473       3.83958982      13.35750000  F        5      -0.00242622       0.00000000      -0.51007818
Si       9.59897455       3.83958982      13.35750000  F        5       0.00280690       0.00000000      -0.53054660
Si       1.91979491       1.91979491      14.71500000  F        4       0.00192720      -0.00609103       0.14162545
Si       5.75938473       1.91979491      14.71500000  F        4      -0.00426761      -0.02172439       0.14545288
Si       9.59897455       1.91979491      14.71500000  F        4       0.00044493      -0.00750201       0.14273336
Si       1.91979491       5.75938473      14.71500000  F        4       0.00192720       0.00609106       0.14162543
Si       5.75938473       5.75938473      14.71500000  F        4      -0.00426761       0.02172441       0.14545287
Si       9.59897455       5.75938473      14.71500000  F        4       0.00044493       0.00750204       0.14273334
Si       0.00000000       1.91979491      16.07250000  F        3      -0.00395693       0.00865425      -0.14034887
Si       3.83958982       1.91979491      16.07250000  F        3       0.00634606      -0.00710359      -0.16599813
Si       7.67917964       1.91979491      16.07250000  F        3      -0.00952273      -0.00308310      -0.15509542
Si       0.00000000       5.75938473      16.07250000  F        3      -0.00395693      -0.00865423      -0.14034886
Si       3.83958982       5.75938473      16.07250000  F        3       0.00634606       0.00710361      -0.16599812
Si       7.67917964       5.75938473      16.07250000  F        3      -0.00952273       0.00308312      -0.15509540
Si       0.00000000       0.00000000      17.43000000  F        2      -0.00379243      -0.00000002       0.51840518
Si       3.83958982       0.00000000      17.43000000  F        2      -0.01460659      -0.00000002       0.48643407
Si       7.67917964       0.00000000      17.43000000  F        2       0.02263601      -0.00000002       0.49503723
Si       0.00000000       3.83958982      17.43000000  F        2       0.01007890       0.00000000       0.54857478
Si       3.83958982       3.83958982      17.43000000  F        2      -0.13783548       0.00000000       0.56366187
Si       7.67917964       3.83958982      17.43000000  F        2       0.08982485       0.00000000       0.49054741
Si       1.91979491       0.00000000      18.78750000  F        1      -0.00747228       0.00000000      -0.25022410
Si       5.75938473       0.00000000      18.78750000  F        1      -0.00237269       0.00000000      -0.21117550
Si       9.59897455       0.00000000      18.78750000  F        1       0.00370564       0.00000000      -0.25255106
Si       1.91979491       3.83958982      18.78750000  F        1       0.03220038      -0.00000000      -0.26063762
Si       5.75938473       3.83958982      18.78750000  F        1       0.15434403      -0.00000000      -0.69841975
Si       9.59897455       3.83958982      18.78750000  F        1      -0.01297466      -0.00000000      -0.26647260
O        5.35525341       3.83958982      21.79559147  T        0      -0.36914625       0.00000000       0.65507783
H        5.96145039       3.83958982      21.03750000  T        0       0.21835082      -0.00000000      -0.12343119
H        5.96145039       3.83958982      22.55368294  T        0       0.03238781      -0.00000000       0.01316868
39
Lattice="11.518769465528859 0.0 0.0 0.0 7.679179643685906 0.0 0.0 0.0 30.7875" Properties=species:S:1:pos:R:3:move_mask:L:1:tags:I:1:forces:R:3 surface=Si100 species=H2O site=atop_Si orientation=parallel height_A=1.9 substrate_atoms=36 calculation_kind="Rigid evaluated approach scan; not NEB" energy=-193.80919199957685 pbc="T T F"
Si       0.00000000       0.00000000      12.00000000  F        6       0.00030228       0.00000000       0.25294661
Si       3.83958982       0.00000000      12.00000000  F        6      -0.00105000       0.00000000       0.25410125
Si       7.67917964       0.00000000      12.00000000  F        6       0.00074838       0.00000000       0.25486885
Si       0.00000000       3.83958982      12.00000000  F        6       0.00031204      -0.00000000       0.24741767
Si       3.83958982       3.83958982      12.00000000  F        6      -0.00036136      -0.00000000       0.24632463
Si       7.67917964       3.83958982      12.00000000  F        6       0.00004999      -0.00000000       0.24666194
Si       1.91979491       0.00000000      13.35750000  F        5      -0.00115908      -0.00000002      -0.53154539
Si       5.75938473       0.00000000      13.35750000  F        5       0.00054219      -0.00000002      -0.53878438
Si       9.59897455       0.00000000      13.35750000  F        5       0.00063302      -0.00000002      -0.52916377
Si       1.91979491       3.83958982      13.35750000  F        5       0.00332078       0.00000000      -0.52415194
Si       5.75938473       3.83958982      13.35750000  F        5      -0.00370476       0.00000000      -0.49133509
Si       9.59897455       3.83958982      13.35750000  F        5       0.00359829       0.00000000      -0.53666001
Si       1.91979491       1.91979491      14.71500000  F        4       0.00987647      -0.01229340       0.13690740
Si       5.75938473       1.91979491      14.71500000  F        4      -0.00842085      -0.05014411       0.09277155
Si       9.59897455       1.91979491      14.71500000  F        4      -0.00390994      -0.00960167       0.14561375
Si       1.91979491       5.75938473      14.71500000  F        4       0.00987647       0.01229342       0.13690738
Si       5.75938473       5.75938473      14.71500000  F        4      -0.00842085       0.05014413       0.09277154
Si       9.59897455       5.75938473      14.71500000  F        4      -0.00390994       0.00960170       0.14561374
Si       0.00000000       1.91979491      16.07250000  F        3      -0.01122706       0.00033085      -0.14954634
Si       3.83958982       1.91979491      16.07250000  F        3       0.00895050      -0.01237536      -0.13721258
Si       7.67917964       1.91979491      16.07250000  F        3      -0.00567229      -0.00510463      -0.12925400
Si       0.00000000       5.75938473      16.07250000  F        3      -0.01122706      -0.00033082      -0.14954632
Si       3.83958982       5.75938473      16.07250000  F        3       0.00895050       0.01237538      -0.13721257
Si       7.67917964       5.75938473      16.07250000  F        3      -0.00567229       0.00510465      -0.12925398
Si       0.00000000       0.00000000      17.43000000  F        2      -0.00977826      -0.00000002       0.51363837
Si       3.83958982       0.00000000      17.43000000  F        2      -0.02430977      -0.00000002       0.47954004
Si       7.67917964       0.00000000      17.43000000  F        2       0.03764223      -0.00000002       0.49236477
Si       0.00000000       3.83958982      17.43000000  F        2       0.02782346       0.00000000       0.59395598
Si       3.83958982       3.83958982      17.43000000  F        2      -0.08166110       0.00000000       0.69135560
Si       7.67917964       3.83958982      17.43000000  F        2       0.10088376       0.00000000       0.58026811
Si       1.91979491       0.00000000      18.78750000  F        1      -0.00004035       0.00000000      -0.24982793
Si       5.75938473       0.00000000      18.78750000  F        1       0.00416163       0.00000000      -0.17250080
Si       9.59897455       0.00000000      18.78750000  F        1       0.00187161       0.00000000      -0.25641077
Si       1.91979491       3.83958982      18.78750000  F        1       0.00923203      -0.00000000      -0.27500784
Si       5.75938473       3.83958982      18.78750000  F        1      -0.02714738      -0.00000000      -3.48261609
Si       9.59897455       3.83958982      18.78750000  F        1      -0.04306618      -0.00000000      -0.27035895
O        5.35525341       3.83958982      21.44559147  T        0      -1.01213602       0.00000000       2.03855327
H        5.96145039       3.83958982      20.68750000  T        0       1.03310818      -0.00000000       0.87413605
H        5.96145039       3.83958982      22.20368294  T        0       0.00099072      -0.00000000       0.17367026
39
Lattice="11.518769465528859 0.0 0.0 0.0 7.679179643685906 0.0 0.0 0.0 30.7875" Properties=species:S:1:pos:R:3:move_mask:L:1:tags:I:1:forces:R:3 surface=Si100 species=H2O site=atop_Si orientation=parallel height_A=1.6 substrate_atoms=36 calculation_kind="Rigid evaluated approach scan; not NEB" energy=-192.4512314350137 pbc="T T F"
Si       0.00000000       0.00000000      12.00000000  F        6       0.00002124       0.00000000       0.25446471
Si       3.83958982       0.00000000      12.00000000  F        6      -0.00097196       0.00000000       0.25609534
Si       7.67917964       0.00000000      12.00000000  F        6       0.00095075       0.00000000       0.25737352
Si       0.00000000       3.83958982      12.00000000  F        6       0.00004687      -0.00000000       0.24759950
Si       3.83958982       3.83958982      12.00000000  F        6      -0.00049818      -0.00000000       0.24560263
Si       7.67917964       3.83958982      12.00000000  F        6       0.00045157      -0.00000000       0.24566509
Si       1.91979491       0.00000000      13.35750000  F        5      -0.00097031      -0.00000002      -0.53297955
Si       5.75938473       0.00000000      13.35750000  F        5       0.00020161      -0.00000002      -0.54472498
Si       9.59897455       0.00000000      13.35750000  F        5       0.00078880      -0.00000002      -0.53039608
Si       1.91979491       3.83958982      13.35750000  F        5       0.00700218       0.00000000      -0.52225410
Si       5.75938473       3.83958982      13.35750000  F        5      -0.00230636       0.00000000      -0.46993802
Si       9.59897455       3.83958982      13.35750000  F        5      -0.00111133       0.00000000      -0.53141452
Si       1.91979491       1.91979491      14.71500000  F        4       0.01634273      -0.02083835       0.13115684
Si       5.75938473       1.91979491      14.71500000  F        4      -0.00921394      -0.08392990       0.01361149
Si       9.59897455       1.91979491      14.71500000  F        4      -0.01100729      -0.01586568       0.14697981
Si       1.91979491       5.75938473      14.71500000  F        4       0.01634273       0.02083837       0.13115683
Si       5.75938473       5.75938473      14.71500000  F        4      -0.00921394       0.08392992       0.01361147
Si       9.59897455       5.75938473      14.71500000  F        4      -0.01100729       0.01586570       0.14697980
Si       0.00000000       1.91979491      16.07250000  F        3      -0.01433096      -0.00002591      -0.15557484
Si       3.83958982       1.91979491      16.07250000  F        3      -0.02739037       0.01091758      -0.12493198
Si       7.67917964       1.91979491      16.07250000  F        3       0.02896413      -0.01664953      -0.13883249
Si       0.00000000       5.75938473      16.07250000  F        3      -0.01433096       0.00002593      -0.15557483
Si       3.83958982       5.75938473      16.07250000  F        3      -0.02739037      -0.01091755      -0.12493197
Si       7.67917964       5.75938473      16.07250000  F        3       0.02896413       0.01664956      -0.13883247
Si       0.00000000       0.00000000      17.43000000  F        2      -0.01321122      -0.00000002       0.49297753
Si       3.83958982       0.00000000      17.43000000  F        2      -0.08192134      -0.00000002       0.44701237
Si       7.67917964       0.00000000      17.43000000  F        2       0.10548871      -0.00000002       0.44279828
Si       0.00000000       3.83958982      17.43000000  F        2       0.04726694       0.00000000       0.63111733
Si       3.83958982       3.83958982      17.43000000  F        2       0.01816176       0.00000000       0.91808476
Si       7.67917964       3.83958982      17.43000000  F        2       0.06598942       0.00000000       0.79829437
Si       1.91979491       0.00000000      18.78750000  F        1       0.01621427       0.00000000      -0.23905457
Si       5.75938473       0.00000000      18.78750000  F        1       0.01015672       0.00000000      -0.13434564
Si       9.59897455       0.00000000      18.78750000  F        1      -0.01276085       0.00000000      -0.24597873
Si       1.91979491       3.83958982      18.78750000  F        1       0.00419136      -0.00000000      -0.29417124
Si       5.75938473       3.83958982      18.78750000  F        1      -0.50988183      -0.00000000      -6.29549363
Si       9.59897455       3.83958982      18.78750000  F        1      -0.02280884      -0.00000000      -0.25087526
O        5.35525341       3.83958982      21.14559147  T        0      -2.40321750      -0.00000000       3.75036974
H        5.96145039       3.83958982      20.38750000  T        0       2.80484803      -0.00000000       1.90186871
H        5.96145039       3.83958982      21.90368294  T        0       0.00115093       0.00000000      -0.04251522
39
Lattice="11.518769465528859 0.0 0.0 0.0 7.679179643685906 0.0 0.0 0.0 30.7875" Properties=species:S:1:pos:R:3:move_mask:L:1:tags:I:1:forces:R:3 surface=Si100 species=H2O site=atop_Si orientation=parallel height_A=1.3 substrate_atoms=36 calculation_kind="Rigid evaluated approach scan; not NEB" energy=-190.5631549465673 pbc="T T F"
Si       0.00000000       0.00000000      12.00000000  F        6      -0.00012967       0.00000000       0.25515341
Si       3.83958982       0.00000000      12.00000000  F        6      -0.00094233       0.00000000       0.25607093
Si       7.67917964       0.00000000      12.00000000  F        6       0.00114227       0.00000000       0.25779897
Si       0.00000000       3.83958982      12.00000000  F        6      -0.00024224      -0.00000000       0.24896979
Si       3.83958982       3.83958982      12.00000000  F        6      -0.00109809      -0.00000000       0.24521318
Si       7.67917964       3.83958982      12.00000000  F        6       0.00135037      -0.00000000       0.24524955
Si       1.91979491       0.00000000      13.35750000  F        5      -0.00425734      -0.00000002      -0.53522550
Si       5.75938473       0.00000000      13.35750000  F        5       0.00028652      -0.00000002      -0.55200085
Si       9.59897455       0.00000000      13.35750000  F        5       0.00334548      -0.00000002      -0.53219370
Si       1.91979491       3.83958982      13.35750000  F        5       0.00459269       0.00000000      -0.52411053
Si       5.75938473       3.83958982      13.35750000  F        5      -0.00429246       0.00000000      -0.46238660
Si       9.59897455       3.83958982      13.35750000  F        5       0.00536525       0.00000000      -0.54115296
Si       1.91979491       1.91979491      14.71500000  F        4       0.01624780      -0.02606970       0.12750202
Si       5.75938473       1.91979491      14.71500000  F        4      -0.01405648      -0.00496696       0.14536962
Si       9.59897455       1.91979491      14.71500000  F        4      -0.00896528      -0.02643883       0.14151602
Si       1.91979491       5.75938473      14.71500000  F        4       0.01624780       0.02606972       0.12750201
Si       5.75938473       5.75938473      14.71500000  F        4      -0.01405648       0.00496698       0.14536961
Si       9.59897455       5.75938473      14.71500000  F        4      -0.00896528       0.02643885       0.14151600
Si       0.00000000       1.91979491      16.07250000  F        3      -0.00880449      -0.00011244      -0.16760167
Si       3.83958982       1.91979491      16.07250000  F        3       0.00785066       0.06513490      -0.10352914
Si       7.67917964       1.91979491      16.07250000  F        3       0.00878618       0.00057281      -0.16294866
Si       0.00000000       5.75938473      16.07250000  F        3      -0.00880449       0.00011246      -0.16760165
Si       3.83958982       5.75938473      16.07250000  F        3       0.00785066      -0.06513488      -0.10352913
Si       7.67917964       5.75938473      16.07250000  F        3       0.00878618      -0.00057279      -0.16294865
Si       0.00000000       0.00000000      17.43000000  F        2      -0.01479891      -0.00000002       0.46956594
Si       3.83958982       0.00000000      17.43000000  F        2      -0.08398535      -0.00000002       0.46921468
Si       7.67917964       0.00000000      17.43000000  F        2       0.12236007      -0.00000002       0.44549395
Si       0.00000000       3.83958982      17.43000000  F        2       0.06501752       0.00000000       0.64788792
Si       3.83958982       3.83958982      17.43000000  F        2      -0.28037886       0.00000000       0.85482755
Si       7.67917964       3.83958982      17.43000000  F        2       0.35780063       0.00000000       0.62213707
Si       1.91979491       0.00000000      18.78750000  F        1       0.02204229       0.00000000      -0.21352970
Si       5.75938473       0.00000000      18.78750000  F        1       0.01478828       0.00000000      -0.11015335
Si       9.59897455       0.00000000      18.78750000  F        1      -0.02010839       0.00000000      -0.21377044
Si       1.91979491       3.83958982      18.78750000  F        1      -0.02056507      -0.00000000      -0.29286299
Si       5.75938473       3.83958982      18.78750000  F        1      -1.41948408      -0.00000000      -9.92006657
Si       9.59897455       3.83958982      18.78750000  F        1       0.02450950      -0.00000000      -0.17235916
O        5.35525341       3.83958982      20.84559147  T        0      -3.45790948      -0.00000000       3.36341895
H        5.96145039       3.83958982      20.08750000  T        0       4.30834929       0.00000000       6.51103287
H        5.96145039       3.83958982      21.60368294  T        0       0.37512534       0.00000000      -0.78283878
