31
Lattice="7.6044 0.0 0.0 -3.802199999999998 6.585603580538386 0.0 0.0 -0.0 28.35945" Properties=species:S:1:pos:R:3:move_mask:L:1:spacegroup_kinds:I:1:tags:I:1:forces:R:3:energies:R:1 spacegroup="P 63/m" unit_cell=conventional occupancy="_JSON {\"0\": {\"Si\": 1.0}, \"1\": {\"N\": 1.0}, \"2\": {\"N\": 1.0}}" energy=-227.7665398742842 stress="-1.2696821820309138e-05 5.5317803620598796e-05 2.9546230899355294e-05 5.5317803620598796e-05 -4.770129559058226e-05 -3.984009158651365e-05 2.9546230899355294e-05 -3.984009158651365e-05 0.00012454735872518836" free_energy=-227.7665398742842 pbc="T T F"
Si       5.18010587       1.14956320      12.00000000  F        0        2       1.70263228       1.21770905       1.38695947      -6.52587952
Si      -1.37790587       5.43604038      13.45315000  F        0        2      -0.11119854       0.44323387      -1.63888645      -8.12648232
Si       4.01879613       3.91132168      12.00000000  F        0        2      -1.92175188       0.91711333       1.37875267      -6.52933825
Si      -0.21659613       2.67428190      13.45315000  F        0        2      -0.53060682      -0.10431573      -1.75129737      -8.08975086
Si       2.20769800       1.52471870      12.00000000  F        0        2       0.24711386      -2.14372780       1.25886471      -6.53198205
Si       1.59450200       5.06088488      13.45315000  F        0        2       0.39177038      -0.20540298      -1.53293143      -8.09859969
N       -1.02370433       2.17482973      12.00000000  F        1        2      -0.57767165      -0.66447031       0.15223387      -6.76131622
N        4.82590433       4.41077385      13.45315000  F        1        2       0.46118419      -0.03997805      -0.50798100      -8.20031578
N        2.43059437       4.61163476      12.00000000  F        1        2       0.87208098      -0.21746175       0.11820807      -6.75577249
N        1.37160563       1.97396882      13.45315000  F        1        2      -0.28320160       0.44244293       0.32523055      -8.21481658
N       -1.40689004       6.38474267      12.00000000  F        1        2      -0.26612517       0.88390945       0.07245376      -6.75043404
N        5.20909004       0.20086091      13.45315000  F        1        2      -0.23527200      -0.42967839      -0.27215748      -8.21223417
N        3.80216198       2.19517924      12.00000000  F        2        2       0.00180809      -0.00176950      -1.76504652      -8.33787188
N        0.00003802       4.39042434      13.45315000  F        2        2       0.04007233      -0.03477922       0.42184158      -8.15789796
Si       5.18010587       1.14956320      14.90630000  F        0        1       0.08798788      -0.70311087       1.50803416      -8.05742864
Si      -1.37790587       5.43604038      16.35945000  F        0        1      -1.29324274      -0.60378476       0.35089888      -8.22005239
Si       4.01879613       3.91132168      14.90630000  F        0        1       0.56360993       0.51170241       1.59011592      -8.13540401
Si      -0.21659613       2.67428190      16.35945000  F        0        1       0.53249034       0.20624447      -1.58722920      -6.27666362
Si       2.21176904       1.50314945      14.91095110  T        0        1       0.01179208       0.00129095       0.01295154      -7.95161420
Si       1.59450200       5.06088488      16.35945000  F        0        1      -0.42100013       2.31582272      -1.71320190      -6.44592710
N       -1.02370433       2.17482973      14.90630000  F        1        1      -0.00405364      -0.08596362       0.58815626      -8.25072313
N        4.82590433       4.41077385      16.35945000  F        1        1       0.50780544       0.18573048      -0.61184574      -6.53643851
N        2.43059437       4.61163476      14.90630000  F        1        1       0.10220918      -0.53432442       0.46210017      -8.22228022
N        1.37160563       1.97396882      16.35945000  F        1        1      -0.60572380       0.14228019       0.42171725      -8.12887799
N       -1.40689004       6.38474267      14.90630000  F        1        1       0.08686032       0.04957742      -0.04620934      -8.19988902
N        5.20909004       0.20086091      16.35945000  F        1        1       0.38539238      -0.69018648       0.09905513      -6.96740436
N        3.79433480       2.19391702      14.83943710  T        2        1      -0.01497299       0.00121922      -0.00761223      -8.20546730
N        0.00003802       4.39042434      16.35945000  F        2        1       0.27016146      -0.85769836       1.29223688      -8.26621153
O        2.66196925      -0.12560714      17.66463410  T        0        0      -0.01346306      -0.00264540       0.00837014      -7.02895152
H        1.72425808       1.46968257      17.18064930  T        0        0       0.00595827       0.00157170      -0.01185002      -3.86571844
H        3.58560743       0.21171911      17.55629883  T        0        0       0.00735462      -0.00055055      -0.00193237      -3.71479608
31
Lattice="7.6044 0.0 0.0 -3.802199999999998 6.585603580538386 0.0 0.0 -0.0 28.35945" Properties=species:S:1:pos:R:3:move_mask:L:1:spacegroup_kinds:I:1:tags:I:1:forces:R:3:energies:R:1 spacegroup="P 63/m" unit_cell=conventional occupancy="_JSON {\"0\": {\"Si\": 1.0}, \"1\": {\"N\": 1.0}, \"2\": {\"N\": 1.0}}" energy=-227.7485435803172 stress="-1.3849631984467082e-05 6.325195150880981e-05 3.4907573669688735e-05 6.325195150880981e-05 -5.117640653142216e-05 -4.064090285205686e-05 3.4907573669688735e-05 -4.064090285205686e-05 0.00010318859220673323" free_energy=-227.7485435803172 pbc="T T F"
Si       5.18010587       1.14956320      12.00000000  F        0        2       1.70140276       1.22288971       1.37579519      -6.52466607
Si      -1.37790587       5.43604038      13.45315000  F        0        2      -0.11776899       0.46915491      -1.64414016      -8.12491284
Si       4.01879613       3.91132168      12.00000000  F        0        2      -1.92173394       0.91756534       1.37523602      -6.52852061
Si      -0.21659613       2.67428190      13.45315000  F        0        2      -0.53553740      -0.10644791      -1.74852764      -8.09033146
Si       2.20769800       1.52471870      12.00000000  F        0        2       0.24859990      -2.14976795       1.26045548      -6.53091418
Si       1.59450200       5.06088488      13.45315000  F        0        2       0.40967917      -0.23237413      -1.57934328      -8.10018799
N       -1.02370433       2.17482973      12.00000000  F        1        2      -0.57672679      -0.66453990       0.15358347      -6.76245993
N        4.82590433       4.41077385      13.45315000  F        1        2       0.46186002      -0.04349579      -0.49547037      -8.20130672
N        2.43059437       4.61163476      12.00000000  F        1        2       0.87179307      -0.21613007       0.12436704      -6.75433105
N        1.37160563       1.97396882      13.45315000  F        1        2      -0.28313941       0.44250921       0.32887665      -8.21701879
N       -1.40689004       6.38474267      12.00000000  F        1        2      -0.26260605       0.87814045       0.07533230      -6.75179826
N        5.20909004       0.20086091      13.45315000  F        1        2      -0.23648507      -0.43215080      -0.24689727      -8.21517763
N        3.80216198       2.19517924      12.00000000  F        2        2       0.00452568      -0.00238322      -1.75848338      -8.33867882
N        0.00003802       4.39042434      13.45315000  F        2        2       0.03513588      -0.03000150       0.42764500      -8.15943728
Si       5.18010587       1.14956320      14.90630000  F        0        1       0.09648993      -0.68205156       1.44690801      -8.03544104
Si      -1.37790587       5.43604038      16.35945000  F        0        1      -1.24666325      -0.49473618       0.38816372      -8.20367472
Si       4.01879613       3.91132168      14.90630000  F        0        1       0.55506577       0.54079137       1.58868714      -8.13247844
Si      -0.21659613       2.67428190      16.35945000  F        0        1       0.59803362       0.19840841      -1.58784039      -6.27693714
Si       2.21007169       1.50271017      14.91139029  T        0        1      -0.00094462       0.00092789      -0.00304676      -7.94380444
Si       1.59450200       5.06088488      16.35945000  F        0        1      -0.41398256       2.25508321      -1.68710112      -6.43082408
N       -1.02370433       2.17482973      14.90630000  F        1        1      -0.02942295      -0.10656833       0.60735712      -8.25308061
N        4.82590433       4.41077385      16.35945000  F        1        1       0.54365962       0.21560042      -0.56730333      -6.56210654
N        2.43059437       4.61163476      14.90630000  F        1        1       0.10299518      -0.50051860       0.44903824      -8.22574175
N        1.37160563       1.97396882      16.35945000  F        1        1      -0.64071153       0.15032761       0.41425564      -8.12814522
N       -1.40689004       6.38474267      14.90630000  F        1        1       0.05944683      -0.01064492      -0.21341096      -8.19085614
N        5.20909004       0.20086091      16.35945000  F        1        1       0.47694545      -0.64393737       0.09150004      -7.02586904
N        3.79354938       2.19398002      14.84066252  T        2        1      -0.00210765       0.00015889      -0.00373275      -8.20671094
N        0.00003802       4.39042434      16.35945000  F        2        1       0.25567331      -0.96436345       1.26426757      -8.25908832
O        2.75501685      -0.07540076      17.60132799  T        0        0      -0.05264002      -0.02803875       0.05073421      -6.94848215
H        1.74788603       1.47119858      17.17238071  T        0        0      -0.00145968       0.01797729       0.00579230      -3.86462358
H        3.67593204       0.25672429      17.36774442  T        0        0      -0.09937629      -0.00138428       0.10730227      -3.76093780
31
Lattice="7.6044 0.0 0.0 -3.802199999999998 6.585603580538386 0.0 0.0 -0.0 28.35945" Properties=species:S:1:pos:R:3:move_mask:L:1:spacegroup_kinds:I:1:tags:I:1:forces:R:3:energies:R:1 spacegroup="P 63/m" unit_cell=conventional occupancy="_JSON {\"0\": {\"Si\": 1.0}, \"1\": {\"N\": 1.0}, \"2\": {\"N\": 1.0}}" energy=-227.58506137044168 stress="1.59800041880696e-06 8.411153443631822e-05 4.260702525413434e-05 8.411153443631822e-05 -4.7778918715617446e-05 -4.2187688624195956e-05 4.260702525413434e-05 -4.2187688624195956e-05 8.020734182508918e-05" free_energy=-227.58506137044168 pbc="T T F"
Si       5.18010587       1.14956320      12.00000000  F        0        2       1.70075700       1.23136098       1.36060431      -6.52151110
Si      -1.37790587       5.43604038      13.45315000  F        0        2      -0.14671132       0.52476154      -1.62651712      -8.12223944
Si       4.01879613       3.91132168      12.00000000  F        0        2      -1.91854364       0.91637314       1.37572730      -6.52656997
Si      -0.21659613       2.67428190      13.45315000  F        0        2      -0.53372795      -0.12736686      -1.71887845      -8.09035765
Si       2.20769800       1.52471870      12.00000000  F        0        2       0.24599764      -2.15675625       1.29235937      -6.53055532
Si       1.59450200       5.06088488      13.45315000  F        0        2       0.41894597      -0.25523455      -1.57966848      -8.09746931
N       -1.02370433       2.17482973      12.00000000  F        1        2      -0.58112375      -0.66563916       0.15437738      -6.76448186
N        4.82590433       4.41077385      13.45315000  F        1        2       0.45453617      -0.06237002      -0.48656257      -8.20353467
N        2.43059437       4.61163476      12.00000000  F        1        2       0.87325610      -0.21520031       0.12771875      -6.75281564
N        1.37160563       1.97396882      13.45315000  F        1        2      -0.26658185       0.44011633       0.34187899      -8.21507392
N       -1.40689004       6.38474267      12.00000000  F        1        2      -0.25237469       0.87317712       0.06599632      -6.75156728
N        5.20909004       0.20086091      13.45315000  F        1        2      -0.23779630      -0.44867889      -0.22442903      -8.21884825
N        3.80216198       2.19517924      12.00000000  F        2        2       0.00543478      -0.00282655      -1.74660316      -8.34032690
N        0.00003802       4.39042434      13.45315000  F        2        2       0.03353268      -0.02256807       0.42338356      -8.16196928
Si       5.18010587       1.14956320      14.90630000  F        0        1       0.14903400      -0.61550291       1.32076257      -7.98860972
Si      -1.37790587       5.43604038      16.35945000  F        0        1      -1.05358237      -0.06038783       0.72456655      -8.18791497
Si       4.01879613       3.91132168      14.90630000  F        0        1       0.55739830       0.56538456       1.63089168      -8.12489599
Si      -0.21659613       2.67428190      16.35945000  F        0        1       0.73202343       0.20913488      -1.61391034      -6.27107391
Si       2.20764746       1.50007360      14.91594665  T        0        1       0.00849592       0.01434016      -0.01718665      -7.93214892
Si       1.59450200       5.06088488      16.35945000  F        0        1      -0.35620603       2.10014682      -1.61289778      -6.39265438
N       -1.02370433       2.17482973      14.90630000  F        1        1      -0.07102583      -0.14055870       0.60715390      -8.25736674
N        4.82590433       4.41077385      16.35945000  F        1        1       0.53058955       0.18902895      -0.58711686      -6.59366555
N        2.43059437       4.61163476      14.90630000  F        1        1       0.10039040      -0.44386583       0.39377996      -8.23404047
N        1.37160563       1.97396882      16.35945000  F        1        1      -0.70517019       0.12368089       0.49988151      -8.12740729
N       -1.40689004       6.38474267      14.90630000  F        1        1       0.00314757      -0.14148115      -0.60713227      -8.17262767
N        5.20909004       0.20086091      16.35945000  F        1        1       0.70797113      -0.56194950       0.03149614      -7.20408754
N        3.79399169       2.19271430      14.84859574  T        2        1      -0.00948114       0.01597691      -0.04093451      -8.20645402
N        0.00003802       4.39042434      16.35945000  F        2        1       0.29865589      -1.17507727       1.18010251      -8.24659350
O        2.87884391      -0.01966984      17.50058609  T        0        0       0.35460209       0.09118125      -0.07971744      -6.68094520
H        1.77571787       1.46005744      17.15754375  T        0        0       0.01686341       0.04115904      -0.00812146      -3.86344064
H        3.88250248       0.26405982      17.13414237  T        0        0      -1.05930698      -0.24035871       0.41899532      -3.80381427
31
Lattice="7.6044 0.0 0.0 -3.802199999999998 6.585603580538386 0.0 0.0 -0.0 28.35945" Properties=species:S:1:pos:R:3:move_mask:L:1:spacegroup_kinds:I:1:tags:I:1:forces:R:3:energies:R:1 spacegroup="P 63/m" unit_cell=conventional occupancy="_JSON {\"0\": {\"Si\": 1.0}, \"1\": {\"N\": 1.0}, \"2\": {\"N\": 1.0}}" energy=-227.4673620912636 stress="-6.858945409036301e-06 3.637328434525753e-05 2.069260960275297e-05 3.637328434525753e-05 -0.00010398757794441389 -1.3518558760965004e-05 2.069260960275297e-05 -1.3518558760965004e-05 5.8190098985562074e-05" free_energy=-227.4673620912636 pbc="T T F"
Si       5.18010587       1.14956320      12.00000000  F        0        2       1.69057502       1.28654830       1.26519577      -6.51367412
Si      -1.37790587       5.43604038      13.45315000  F        0        2      -0.16325245       0.55792795      -1.57414566      -8.12948235
Si       4.01879613       3.91132168      12.00000000  F        0        2      -1.90781170       0.91152650       1.36168285      -6.52317301
Si      -0.21659613       2.67428190      13.45315000  F        0        2      -0.47259209      -0.12687270      -1.76544999      -8.08577634
Si       2.20769800       1.52471870      12.00000000  F        0        2       0.23780205      -2.16600624       1.33520900      -6.52949145
Si       1.59450200       5.06088488      13.45315000  F        0        2       0.34897187      -0.36342556      -1.66974702      -8.08317026
N       -1.02370433       2.17482973      12.00000000  F        1        2      -0.60166068      -0.68677011       0.17929890      -6.76859571
N        4.82590433       4.41077385      13.45315000  F        1        2       0.42481960      -0.10356894      -0.45764272      -8.20464137
N        2.43059437       4.61163476      12.00000000  F        1        2       0.85668444      -0.19003519       0.15455886      -6.75747987
N        1.37160563       1.97396882      13.45315000  F        1        2      -0.25985336       0.43529296       0.36233120      -8.21110579
N       -1.40689004       6.38474267      12.00000000  F        1        2      -0.23856408       0.87823449       0.04059029      -6.74706176
N        5.20909004       0.20086091      13.45315000  F        1        2      -0.18543313      -0.45799137       0.10739943      -8.23071958
N        3.80216198       2.19517924      12.00000000  F        2        2       0.01803691      -0.00705584      -1.72643849      -8.34227895
N        0.00003802       4.39042434      13.45315000  F        2        2       0.07442627      -0.03790813       0.39112866      -8.16014873
Si       5.18010587       1.14956320      14.90630000  F        0        1       0.12224552       0.01010614       0.33853186      -7.93801182
Si      -1.37790587       5.43604038      16.35945000  F        0        1      -1.33990691       0.61235738       1.60875535      -8.40691279
Si       4.01879613       3.91132168      14.90630000  F        0        1       0.69143851       0.52533492       1.73402044      -8.12497630
Si      -0.21659613       2.67428190      16.35945000  F        0        1       0.92459374       0.29880721      -1.54487888      -6.26837694
Si       2.20365086       1.49477263      14.92188306  T        0        1      -0.01434272       0.00518429       0.02332393      -7.95131524
Si       1.59450200       5.06088488      16.35945000  F        0        1      -0.36351344       0.87271479      -1.50615653      -6.26627122
N       -1.02370433       2.17482973      14.90630000  F        1        1      -0.18726911      -0.36054942       0.62217549      -8.26977034
N        4.82590433       4.41077385      16.35945000  F        1        1       0.19065956      -0.28992298      -0.99997817      -6.51146444
N        2.43059437       4.61163476      14.90630000  F        1        1      -0.01664213      -0.10786640       0.53981732      -8.24980974
N        1.37160563       1.97396882      16.35945000  F        1        1      -0.82680602       0.25445995       0.55057176      -8.07868151
N       -1.40689004       6.38474267      14.90630000  F        1        1       0.10893288      -0.25268505      -1.00473804      -8.14705975
N        5.20909004       0.20086091      16.35945000  F        1        1      -0.05124041      -0.24194301       0.71164418      -8.03831312
N        3.79801702       2.18596630      14.86545912  T        2        1       0.00208550      -0.00567369       0.01238639      -8.21937903
N        0.00003802       4.39042434      16.35945000  F        2        1       0.62719317      -1.11132344       1.02838941      -8.23511327
O        2.73745257      -0.05506181      17.52480835  T        0        0      -0.16610782       0.01962108      -0.00458360      -5.71593568
H        1.76786972       1.43449666      17.15845000  T        0        0       0.10009445      -0.25037313       0.03480245      -3.88957880
H        4.31851361       0.36052629      16.95367280  T        0        0       0.37643655       0.09185523      -0.14805449      -3.86959280
31
Lattice="7.6044 0.0 0.0 -3.802199999999998 6.585603580538386 0.0 0.0 -0.0 28.35945" Properties=species:S:1:pos:R:3:move_mask:L:1:spacegroup_kinds:I:1:tags:I:1:forces:R:3:energies:R:1 spacegroup="P 63/m" unit_cell=conventional occupancy="_JSON {\"0\": {\"Si\": 1.0}, \"1\": {\"N\": 1.0}, \"2\": {\"N\": 1.0}}" energy=-227.6706371537448 stress="4.035424861395194e-05 -2.943094787561158e-05 3.903007943748146e-06 -2.943094787561158e-05 -1.3011524447810308e-05 2.2363683223488577e-05 3.903007943748146e-06 2.2363683223488577e-05 5.513135165907487e-05" free_energy=-227.6706371537448 pbc="T T F"
Si       5.18010587       1.14956320      12.00000000  F        0        2       1.69957661       1.29881549       1.26664919      -6.51670202
Si      -1.37790587       5.43604038      13.45315000  F        0        2      -0.12032534       0.54522572      -1.57945888      -8.12964715
Si       4.01879613       3.91132168      12.00000000  F        0        2      -1.90742382       0.90869901       1.37789435      -6.52408783
Si      -0.21659613       2.67428190      13.45315000  F        0        2      -0.38580181      -0.18248362      -1.64227884      -8.09332891
Si       2.20769800       1.52471870      12.00000000  F        0        2       0.20340884      -2.14332076       1.46581906      -6.53459384
Si       1.59450200       5.06088488      13.45315000  F        0        2       0.33697077      -0.37744738      -1.71979309      -8.08352850
N       -1.02370433       2.17482973      12.00000000  F        1        2      -0.63263642      -0.69464209       0.15217086      -6.76928916
N        4.82590433       4.41077385      13.45315000  F        1        2       0.42882526      -0.09296541      -0.45878021      -8.20558213
N        2.43059437       4.61163476      12.00000000  F        1        2       0.86251903      -0.18002198       0.14085960      -6.75860883
N        1.37160563       1.97396882      13.45315000  F        1        2      -0.26443996       0.42263386       0.04011088      -8.20320864
N       -1.40689004       6.38474267      12.00000000  F        1        2      -0.23967717       0.84220506       0.03343311      -6.74786361
N        5.20909004       0.20086091      13.45315000  F        1        2      -0.19416027      -0.46545983       0.16638758      -8.23263011
N        3.80216198       2.19517924      12.00000000  F        2        2       0.03469386      -0.00778928      -1.75074500      -8.34076817
N        0.00003802       4.39042434      13.45315000  F        2        2       0.06453281       0.00315440       0.43773687      -8.16165925
Si       5.18010587       1.14956320      14.90630000  F        0        1       0.13152718       0.22399290       0.11513879      -7.93692851
Si      -1.37790587       5.43604038      16.35945000  F        0        1      -1.74851778       0.45192239       0.85505331      -8.25132416
Si       4.01879613       3.91132168      14.90630000  F        0        1       0.69290288       0.46875087       1.72651641      -8.11889750
Si      -0.21659613       2.67428190      16.35945000  F        0        1       1.85250027      -0.24317726      -1.69156012      -6.39688340
Si       2.18044617       1.50989836      14.94034690  T        0        1      -0.06640975       0.04503349       0.05255393      -7.98331755
Si       1.59450200       5.06088488      16.35945000  F        0        1      -0.23614951       0.55954052      -1.55087698      -6.25567847
N       -1.02370433       2.17482973      14.90630000  F        1        1      -0.53020753      -0.42817427       0.56119831      -8.26064597
N        4.82590433       4.41077385      16.35945000  F        1        1       0.34044340      -0.11249349      -0.82549441      -6.54150547
N        2.43059437       4.61163476      14.90630000  F        1        1      -0.03905176       0.01005465       0.61243773      -8.25842300
N        1.37160563       1.97396882      16.35945000  F        1        1      -1.33378985       0.61439404       0.72993711      -7.33582139
N       -1.40689004       6.38474267      14.90630000  F        1        1       0.21058435      -0.18045148      -0.71312586      -8.13094733
N        5.20909004       0.20086091      16.35945000  F        1        1       0.23263087      -0.25322611       0.58156199      -8.15480962
N        3.79686399       2.18398612      14.86446114  T        2        1      -0.00224635      -0.00672608       0.00141257      -8.19029050
N        0.00003802       4.39042434      16.35945000  F        2        1       0.17999221      -0.20898365       1.54665507      -8.29553465
O        2.59041649       0.04823383      17.50492201  T        0        0      -0.42422223       0.29890214      -0.08099759      -6.60692332
H        1.99460485       0.97839357      17.21256338  T        0        0       0.62934262      -1.28521688       0.13828754      -3.80879912
H        4.39497746       0.42648449      16.96680376  T        0        0       0.22460857       0.16925504       0.01129673      -3.84240903
31
Lattice="7.6044 0.0 0.0 -3.802199999999998 6.585603580538386 0.0 0.0 -0.0 28.35945" Properties=species:S:1:pos:R:3:move_mask:L:1:spacegroup_kinds:I:1:tags:I:1:forces:R:3:energies:R:1 spacegroup="P 63/m" unit_cell=conventional occupancy="_JSON {\"0\": {\"Si\": 1.0}, \"1\": {\"N\": 1.0}, \"2\": {\"N\": 1.0}}" energy=-227.90353807325664 stress="3.8320310177184595e-05 -1.8563170353209236e-05 1.2254772826706882e-05 -1.8563170353209236e-05 -7.276635526515304e-05 5.280193041580893e-06 1.2254772826706882e-05 5.280193041580893e-06 9.28453670556987e-05" free_energy=-227.90353807325664 pbc="T T F"
Si       5.18010587       1.14956320      12.00000000  F        0        2       1.70429175       1.30100121       1.26579214      -6.51865828
Si      -1.37790587       5.43604038      13.45315000  F        0        2      -0.11217157       0.53157348      -1.53145507      -8.13520176
Si       4.01879613       3.91132168      12.00000000  F        0        2      -1.90643216       0.90432351       1.38800429      -6.52413549
Si      -0.21659613       2.67428190      13.45315000  F        0        2      -0.32361889      -0.20399896      -1.60194091      -8.09938269
Si       2.20769800       1.52471870      12.00000000  F        0        2       0.18979958      -2.12317957       1.52937160      -6.54303612
Si       1.59450200       5.06088488      13.45315000  F        0        2       0.32640801      -0.39145281      -1.74934388      -8.08696202
N       -1.02370433       2.17482973      12.00000000  F        1        2      -0.64882964      -0.69904021       0.13657481      -6.76746732
N        4.82590433       4.41077385      13.45315000  F        1        2       0.41303715      -0.09904157      -0.46305919      -8.20559061
N        2.43059437       4.61163476      12.00000000  F        1        2       0.86355500      -0.17778720       0.13663765      -6.75733111
N        1.37160563       1.97396882      13.45315000  F        1        2      -0.22509916       0.39752702       0.00765525      -8.18725141
N       -1.40689004       6.38474267      12.00000000  F        1        2      -0.24058270       0.84925267       0.02773203      -6.73911647
N        5.20909004       0.20086091      13.45315000  F        1        2      -0.18554595      -0.47647532       0.20728146      -8.23355904
N        3.80216198       2.19517924      12.00000000  F        2        2       0.02382195      -0.01188995      -1.75564801      -8.34040128
N        0.00003802       4.39042434      13.45315000  F        2        2       0.06096452       0.01693250       0.42630978      -8.15710570
Si       5.18010587       1.14956320      14.90630000  F        0        1       0.09718503       0.31328689       0.05151747      -7.93932351
Si      -1.37790587       5.43604038      16.35945000  F        0        1      -1.67043523      -0.39335802       0.38894150      -8.26564520
Si       4.01879613       3.91132168      14.90630000  F        0        1       0.68217927       0.41003008       1.73045975      -8.12439506
Si      -0.21659613       2.67428190      16.35945000  F        0        1       2.08479215      -0.33116139      -1.66339841      -6.45844356
Si       2.17521063       1.51400137      14.95615833  T        0        1       0.01307172       0.00522136      -0.00385390      -8.03315700
Si       1.59450200       5.06088488      16.35945000  F        0        1      -0.32401252       0.40354167      -1.38342477      -6.26271528
N       -1.02370433       2.17482973      14.90630000  F        1        1      -0.62147167      -0.39823154       0.52320799      -8.25440812
N        4.82590433       4.41077385      16.35945000  F        1        1       0.37280598      -0.03655310      -0.82850908      -6.51733157
N        2.43059437       4.61163476      14.90630000  F        1        1      -0.06837678       0.12231207       0.61353853      -8.25453407
N        1.37160563       1.97396882      16.35945000  F        1        1      -1.41318789       0.50631349       0.82072890      -7.10406310
N       -1.40689004       6.38474267      14.90630000  F        1        1       0.26701518      -0.05823181      -0.12330475      -8.15962762
N        5.20909004       0.20086091      16.35945000  F        1        1       0.43348728      -0.10287940       0.35570869      -8.21022894
N        3.79661581       2.18255310      14.87383355  T        2        1       0.00541402       0.00678292      -0.05485297      -8.18725426
N        0.00003802       4.39042434      16.35945000  F        2        1       0.14063146      -0.21507659       1.47241560      -8.27743387
O        2.58452315      -0.11691200      17.65224739  T        0        0       0.02287865       0.01979171      -0.02415337      -6.96793177
H        2.04486765       0.69687022      17.44421522  T        0        0       0.01499980       0.03464740      -0.02244853      -3.79576449
H        4.54412210       0.57206990      17.04310338  T        0        0       0.02342565      -0.10418053       0.12351539      -3.79608138
31
Lattice="7.6044 0.0 0.0 -3.802199999999998 6.585603580538386 0.0 0.0 -0.0 28.35945" Properties=species:S:1:pos:R:3:move_mask:L:1:spacegroup_kinds:I:1:tags:I:1:forces:R:3:energies:R:1 spacegroup="P 63/m" unit_cell=conventional occupancy="_JSON {\"0\": {\"Si\": 1.0}, \"1\": {\"N\": 1.0}, \"2\": {\"N\": 1.0}}" energy=-227.2534721542361 stress="5.293970347102547e-05 -9.746194537232896e-05 5.1702485693976466e-05 -9.746194537232896e-05 -1.0440583477928106e-05 1.2423909181585308e-05 5.1702485693976466e-05 1.2423909181585308e-05 1.6054342767456158e-05" free_energy=-227.2534721542361 pbc="T T F"
Si       5.18010587       1.14956320      12.00000000  F        0        2       1.73523859       1.27537752       1.27925035      -6.51340180
Si      -1.37790587       5.43604038      13.45315000  F        0        2      -0.08081783       0.52809818      -1.53534279      -8.13222004
Si       4.01879613       3.91132168      12.00000000  F        0        2      -1.93050089       0.93002729       1.37451497      -6.50724616
Si      -0.21659613       2.67428190      13.45315000  F        0        2      -0.31769418      -0.17209297      -1.59157168      -8.10059841
Si       2.20769800       1.52471870      12.00000000  F        0        2       0.17724707      -2.15410023       1.52627126      -6.52668847
Si       1.59450200       5.06088488      13.45315000  F        0        2       0.32018300      -0.33095457      -1.68007727      -8.09308627
N       -1.02370433       2.17482973      12.00000000  F        1        2      -0.63854283      -0.69885204       0.13594495      -6.77044484
N        4.82590433       4.41077385      13.45315000  F        1        2       0.31635704      -0.25667885      -0.43418657      -8.22312273
N        2.43059437       4.61163476      12.00000000  F        1        2       0.86869512      -0.17692894       0.14484000      -6.76160500
N        1.37160563       1.97396882      13.45315000  F        1        2      -0.09409912       0.38808754       0.02562155      -8.20720803
N       -1.40689004       6.38474267      12.00000000  F        1        2      -0.26054465       0.83364505       0.04331554      -6.74434111
N        5.20909004       0.20086091      13.45315000  F        1        2      -0.25642502      -0.35687570      -0.00371902      -8.24345642
N        3.80216198       2.19517924      12.00000000  F        2        2       0.02885428      -0.00863012      -1.62723450      -8.35832107
N        0.00003802       4.39042434      13.45315000  F        2        2       0.05514712       0.02381769       0.42079026      -8.15873557
Si       5.18010587       1.14956320      14.90630000  F        0        1       0.87258224       0.12603283      -0.72323811      -7.84875839
Si      -1.37790587       5.43604038      16.35945000  F        0        1      -1.77137625      -0.41088057       0.52585658      -8.28766195
Si       4.01879613       3.91132168      14.90630000  F        0        1       0.61489198       0.23617400       1.90744273      -8.11547112
Si      -0.21659613       2.67428190      16.35945000  F        0        1       2.07533520      -0.34519336      -1.64615527      -6.46027181
Si       2.16076732       1.50788700      14.95977387  T        0        1       0.13909517       0.08808405      -0.00690841      -8.01704922
Si       1.59450200       5.06088488      16.35945000  F        0        1      -0.59178998       0.54860975      -1.21302531      -6.35319579
N       -1.02370433       2.17482973      14.90630000  F        1        1      -0.61282406      -0.29519981       0.47740082      -8.25682317
N        4.82590433       4.41077385      16.35945000  F        1        1       0.39752466      -0.02191498      -0.86666848      -6.45883548
N        2.43059437       4.61163476      14.90630000  F        1        1      -0.01184223       0.05103333       0.59105354      -8.25600594
N        1.37160563       1.97396882      16.35945000  F        1        1      -1.72393981       0.55330177       0.97466460      -7.08378402
N       -1.40689004       6.38474267      14.90630000  F        1        1       0.28264711      -0.12611054      -0.12569579      -8.16936182
N        5.20909004       0.20086091      16.35945000  F        1        1      -0.83668560       1.51934305       0.15725970      -7.82987197
N        3.79399393       2.17033857      15.00901710  T        2        1       0.01879952       0.21339194      -0.77834917      -8.13555180
N        0.00003802       4.39042434      16.35945000  F        2        1       0.12960013      -0.19876745       1.45053247      -8.28084871
O        2.52510667      -0.13262831      17.66514473  T        0        0       0.10038588       0.04880309      -0.03764419      -6.90237216
H        1.98599244       0.67975314      17.45764401  T        0        0       0.03290002       0.02310829      -0.03677103      -3.80469045
H        4.36646704       0.84152222      16.62698606  T        0        0       0.96159830      -1.83375527       1.27182825      -3.65244245
31
Lattice="7.6044 0.0 0.0 -3.802199999999998 6.585603580538386 0.0 0.0 -0.0 28.35945" Properties=species:S:1:pos:R:3:move_mask:L:1:spacegroup_kinds:I:1:tags:I:1:forces:R:3:energies:R:1 spacegroup="P 63/m" unit_cell=conventional occupancy="_JSON {\"0\": {\"Si\": 1.0}, \"1\": {\"N\": 1.0}, \"2\": {\"N\": 1.0}}" energy=-225.64080215931676 stress="-2.550802524675036e-05 -8.071738186417939e-05 0.00013044346553194266 -8.071738186417939e-05 5.6229003800511467e-05 -0.00013886165576020224 0.00013044346553194266 -0.00013886165576020224 9.458000462467217e-05" free_energy=-225.64080215931676 pbc="T T F"
Si       5.18010587       1.14956320      12.00000000  F        0        2       1.84545468       1.23800140       1.22046736      -6.50351561
Si      -1.37790587       5.43604038      13.45315000  F        0        2      -0.00938829       0.51096108      -1.53617001      -8.12336764
Si       4.01879613       3.91132168      12.00000000  F        0        2      -1.98122280       1.03168530       1.23343867      -6.47840014
Si      -0.21659613       2.67428190      13.45315000  F        0        2      -0.37393461      -0.09242488      -1.63960765      -8.09703568
Si       2.20769800       1.52471870      12.00000000  F        0        2       0.10900173      -2.22868621       1.37889587      -6.49965275
Si       1.59450200       5.06088488      13.45315000  F        0        2       0.35707087      -0.34962220      -1.56617324      -8.10021360
N       -1.02370433       2.17482973      12.00000000  F        1        2      -0.64629253      -0.71331027       0.16762769      -6.77691302
N        4.82590433       4.41077385      13.45315000  F        1        2       0.12692054      -0.57491967      -0.31628568      -8.25444595
N        2.43059437       4.61163476      12.00000000  F        1        2       0.88807187      -0.17708103       0.15813861      -6.76858314
N        1.37160563       1.97396882      13.45315000  F        1        2       0.14217141       0.39548680       0.10457403      -8.24429196
N       -1.40689004       6.38474267      12.00000000  F        1        2      -0.30623742       0.83353978       0.09186625      -6.75623448
N        5.20909004       0.20086091      13.45315000  F        1        2      -0.35386517      -0.11968358      -0.20761575      -8.24793852
N        3.80216198       2.19517924      12.00000000  F        2        2       0.03005483       0.01205443      -1.37879344      -8.38156199
N        0.00003802       4.39042434      13.45315000  F        2        2       0.05171726       0.03533663       0.46381607      -8.16211982
Si       5.18010587       1.14956320      14.90630000  F        0        1       2.10558087      -1.37836938      -0.37260626      -7.69305289
Si      -1.37790587       5.43604038      16.35945000  F        0        1      -1.58375290      -0.36900816       0.71887908      -8.30926712
Si       4.01879613       3.91132168      14.90630000  F        0        1       0.52084244       0.56309511       2.28318425      -7.97687563
Si      -0.21659613       2.67428190      16.35945000  F        0        1       2.06722399      -0.27315331      -1.52790846      -6.44857344
Si       2.12775202       1.48689629      14.96178144  T        0        1      -0.00312898       0.00008667      -0.00175717      -7.89632568
Si       1.59450200       5.06088488      16.35945000  F        0        1      -0.81273331       1.83176176      -1.29067912      -6.49991140
N       -1.02370433       2.17482973      14.90630000  F        1        1      -0.73193200      -0.18234693       0.34231782      -8.26008118
N        4.82590433       4.41077385      16.35945000  F        1        1       0.40773123      -0.03276258      -0.94368633      -6.46225486
N        2.43059437       4.61163476      14.90630000  F        1        1       0.29350453      -0.48406552       0.28093365      -8.27138892
N        1.37160563       1.97396882      16.35945000  F        1        1      -1.96183027       0.62110670       1.13854501      -7.08990042
N       -1.40689004       6.38474267      14.90630000  F        1        1       0.21283524      -0.34365991      -0.23390045      -8.19626397
N        5.20909004       0.20086091      16.35945000  F        1        1      -0.38998019       0.76135549       0.01784900      -6.98493752
N        3.78955838       2.11994257      15.19695361  T        2        1      -0.00102769      -0.00017373      -0.00807475      -8.13579392
N        0.00003802       4.39042434      16.35945000  F        2        1       0.00210765      -0.51765969       1.42316332      -8.27350052
O        2.50053043      -0.14402062      17.67343630  T        0        0      -0.00242216       0.00289157      -0.00420338      -6.86052933
H        1.97760046       0.67602282      17.46490708  T        0        0      -0.00207667       0.00627943      -0.00763179      -3.81236279
H        4.13427020       1.27769981      16.32608075  T        0        0      -0.00046415      -0.00671509       0.01139679      -3.07550825
31
Lattice="7.6044 0.0 0.0 -3.802199999999998 6.585603580538386 0.0 0.0 -0.0 28.35945" Properties=species:S:1:pos:R:3:move_mask:L:1:spacegroup_kinds:I:1:tags:I:1:forces:R:3:energies:R:1 spacegroup="P 63/m" unit_cell=conventional occupancy="_JSON {\"0\": {\"Si\": 1.0}, \"1\": {\"N\": 1.0}, \"2\": {\"N\": 1.0}}" energy=-226.1338687157231 stress="-9.989205997939366e-05 8.536757532624968e-06 0.00010186006884204359 8.536757532624968e-06 -3.11695528374176e-05 -0.00016619447284101755 0.00010186006884204359 -0.00016619447284101755 0.00011589423676458359" free_energy=-226.1338687157231 pbc="T T F"
Si       5.18010587       1.14956320      12.00000000  F        0        2       1.89499600       1.18833712       1.19033338      -6.50572912
Si      -1.37790587       5.43604038      13.45315000  F        0        2       0.05127544       0.47917471      -1.61077970      -8.11401616
Si       4.01879613       3.91132168      12.00000000  F        0        2      -1.98650138       1.07374381       1.13516900      -6.47696286
Si      -0.21659613       2.67428190      13.45315000  F        0        2      -0.47319955      -0.02216262      -1.69567633      -8.08573931
Si       2.20769800       1.52471870      12.00000000  F        0        2       0.09528666      -2.27003223       1.26196562      -6.50073539
Si       1.59450200       5.06088488      13.45315000  F        0        2       0.35516494      -0.35177911      -1.55156235      -8.09750863
N       -1.02370433       2.17482973      12.00000000  F        1        2      -0.65373552      -0.71402991       0.20216482      -6.78312969
N        4.82590433       4.41077385      13.45315000  F        1        2       0.06780899      -0.67861362      -0.27922963      -8.26092790
N        2.43059437       4.61163476      12.00000000  F        1        2       0.90032594      -0.19117685       0.18031573      -6.77317321
N        1.37160563       1.97396882      13.45315000  F        1        2       0.12881558       0.39536653       0.07644949      -8.26927784
N       -1.40689004       6.38474267      12.00000000  F        1        2      -0.31566899       0.85924961       0.13468317      -6.76644192
N        5.20909004       0.20086091      13.45315000  F        1        2      -0.43370857       0.00219208      -0.22938814      -8.25202790
N        3.80216198       2.19517924      12.00000000  F        2        2       0.02122103       0.02072611      -1.23473193      -8.38381751
N        0.00003802       4.39042434      13.45315000  F        2        2       0.04621459       0.02157866       0.46887164      -8.16253872
Si       5.18010587       1.14956320      14.90630000  F        0        1       2.23535977      -2.10353907       0.35949227      -7.68062222
Si      -1.37790587       5.43604038      16.35945000  F        0        1      -1.45381658      -0.34039892       0.81105520      -8.31066633
Si       4.01879613       3.91132168      14.90630000  F        0        1       0.55765051       1.10486671       2.34862228      -7.89172969
Si      -0.21659613       2.67428190      16.35945000  F        0        1       1.96418745      -0.18362590      -1.45223879      -6.43703711
Si       2.09577330       1.47253510      14.95598146  T        0        1      -0.16563406      -0.07345164      -0.03015563      -7.80609685
Si       1.59450200       5.06088488      16.35945000  F        0        1      -0.77449069       2.32285208      -1.28402092      -6.52752537
N       -1.02370433       2.17482973      14.90630000  F        1        1      -0.78654119      -0.16518640       0.28770210      -8.26773586
N        4.82590433       4.41077385      16.35945000  F        1        1       0.36928556      -0.10528092      -1.01101731      -6.50197677
N        2.43059437       4.61163476      14.90630000  F        1        1       0.40458423      -0.73938891       0.15564379      -8.27047098
N        1.37160563       1.97396882      16.35945000  F        1        1      -1.95217818       0.60127254       1.16754916      -7.12428817
N       -1.40689004       6.38474267      14.90630000  F        1        1       0.17049054      -0.40829756      -0.29186642      -8.21464379
N        5.20909004       0.20086091      16.35945000  F        1        1       0.54628018      -0.54722542      -0.10845938      -6.77900112
N        3.77680042       2.11148787      15.22723792  T        2        1      -0.06674685      -0.04537011       0.15417562      -8.45700623
N        0.00003802       4.39042434      16.35945000  F        2        1       0.01662284      -0.59745472       1.41199949      -8.25702720
O        2.50135688      -0.14539655      17.67349557  T        0        0      -0.00063053      -0.00725988      -0.00192267      -6.84553867
H        1.97939355       0.67495654      17.46676413  T        0        0       0.01047692      -0.00083222      -0.00073665      -3.81331473
H        3.98402423       1.56428373      16.21681854  T        0        0      -0.77319508       1.47574607      -0.56440690      -3.51716145
31
Lattice="7.6044 0.0 0.0 -3.802199999999998 6.585603580538386 0.0 0.0 -0.0 28.35945" Properties=species:S:1:pos:R:3:move_mask:L:1:spacegroup_kinds:I:1:tags:I:1:forces:R:3:energies:R:1 spacegroup="P 63/m" unit_cell=conventional occupancy="_JSON {\"0\": {\"Si\": 1.0}, \"1\": {\"N\": 1.0}, \"2\": {\"N\": 1.0}}" energy=-226.58243534388382 stress="-8.382651580244123e-05 3.145535213837425e-05 5.656916690529473e-05 3.145535213837425e-05 -0.00010519360026831968 -0.00012292753657480032 5.656916690529473e-05 -0.00012292753657480032 8.296628905731747e-05" free_energy=-226.58243534388382 pbc="T T F"
Si       5.18010587       1.14956320      12.00000000  F        0        2       1.90632950       1.15972996       1.17909643      -6.50552260
Si      -1.37790587       5.43604038      13.45315000  F        0        2       0.07617348       0.44062389      -1.68017140      -8.10904985
Si       4.01879613       3.91132168      12.00000000  F        0        2      -1.98321590       1.07922674       1.11902643      -6.48528878
Si      -0.21659613       2.67428190      13.45315000  F        0        2      -0.55309556       0.01116551      -1.73704608      -8.07558576
Si       2.20769800       1.52471870      12.00000000  F        0        2       0.11028529      -2.27819825       1.18158768      -6.50135513
Si       1.59450200       5.06088488      13.45315000  F        0        2       0.35223874      -0.33564147      -1.51436155      -8.09278478
N       -1.02370433       2.17482973      12.00000000  F        1        2      -0.65370892      -0.70793913       0.21876524      -6.78778914
N        4.82590433       4.41077385      13.45315000  F        1        2       0.10615255      -0.62207039      -0.31517389      -8.26265488
N        2.43059437       4.61163476      12.00000000  F        1        2       0.90555587      -0.20491421       0.18560331      -6.77745279
N        1.37160563       1.97396882      13.45315000  F        1        2      -0.04274320       0.39911039      -0.05113681      -8.28429310
N       -1.40689004       6.38474267      12.00000000  F        1        2      -0.31807069       0.88255662       0.14523829      -6.77532399
N        5.20909004       0.20086091      13.45315000  F        1        2      -0.45519900       0.03004264      -0.23475676      -8.25855185
N        3.80216198       2.19517924      12.00000000  F        2        2       0.01688020       0.01775972      -1.16845029      -8.37889211
N        0.00003802       4.39042434      13.45315000  F        2        2       0.04354197       0.01250178       0.47230518      -8.16216780
Si       5.18010587       1.14956320      14.90630000  F        0        1       1.76273204      -2.11754444       0.90824957      -7.73272071
Si      -1.37790587       5.43604038      16.35945000  F        0        1      -1.37242347      -0.31828052       0.87365666      -8.31570313
Si       4.01879613       3.91132168      14.90630000  F        0        1       0.56786450       1.59855266       1.99765860      -7.87850131
Si      -0.21659613       2.67428190      16.35945000  F        0        1       1.85848467      -0.11455009      -1.40915025      -6.43991144
Si       2.06629949       1.46038496      14.94641030  T        0        1      -0.07656716      -0.03071111      -0.02636633      -7.75769824
Si       1.59450200       5.06088488      16.35945000  F        0        1      -0.74922152       2.37739419      -1.25289460      -6.53486575
N       -1.02370433       2.17482973      14.90630000  F        1        1      -0.78352158      -0.16544378       0.27232690      -8.27736569
N        4.82590433       4.41077385      16.35945000  F        1        1       0.33006833      -0.22405728      -1.03006663      -6.52963689
N        2.43059437       4.61163476      14.90630000  F        1        1       0.35701090      -0.70149631       0.16479045      -8.25983041
N        1.37160563       1.97396882      16.35945000  F        1        1      -1.81401241       0.53593384       1.14143896      -7.15665614
N       -1.40689004       6.38474267      14.90630000  F        1        1       0.16071281      -0.44563652      -0.30181329      -8.23092141
N        5.20909004       0.20086091      16.35945000  F        1        1       0.56482077      -0.57190349      -0.28265276      -6.75157490
N        3.76210443       2.14618576      15.16865741  T        2        1      -0.03801034       0.09333075      -0.16574148      -8.70425975
N        0.00003802       4.39042434      16.35945000  F        2        1       0.03965188      -0.61935136       1.38782922      -8.24197413
O        2.50489624      -0.14874372      17.67528440  T        0        0       0.00646143       0.00076713      -0.00274419      -6.83557882
H        1.98604885       0.67203125      17.46744516  T        0        0       0.01335050       0.00387597       0.00059436      -3.81341428
H        3.85885967       1.86821548      16.19087911  T        0        0      -0.33852569       0.81516658      -0.07564097      -3.66510978
31
Lattice="7.6044 0.0 0.0 -3.802199999999998 6.585603580538386 0.0 0.0 -0.0 28.35945" Properties=species:S:1:pos:R:3:move_mask:L:1:spacegroup_kinds:I:1:tags:I:1:forces:R:3:energies:R:1 spacegroup="P 63/m" unit_cell=conventional occupancy="_JSON {\"0\": {\"Si\": 1.0}, \"1\": {\"N\": 1.0}, \"2\": {\"N\": 1.0}}" energy=-226.74064863013348 stress="-6.132059893688849e-05 3.241252984538325e-05 2.8177086566974944e-05 3.241252984538325e-05 -0.00014936080688896655 -6.448345242307592e-05 2.8177086566974944e-05 -6.448345242307592e-05 6.824563265321577e-05" free_energy=-226.74064863013348 pbc="T T F"
Si       5.18010587       1.14956320      12.00000000  F        0        2       1.90504479       1.15624873       1.15764691      -6.50210048
Si      -1.37790587       5.43604038      13.45315000  F        0        2       0.07553485       0.42561504      -1.71026545      -8.10922933
Si       4.01879613       3.91132168      12.00000000  F        0        2      -1.96834226       1.08692267       1.12134386      -6.49844369
Si      -0.21659613       2.67428190      13.45315000  F        0        2      -0.58324388       0.01730632      -1.75496321      -8.07159549
Si       2.20769800       1.52471870      12.00000000  F        0        2       0.12257453      -2.28276452       1.14894892      -6.50123880
Si       1.59450200       5.06088488      13.45315000  F        0        2       0.32959630      -0.31575919      -1.51883820      -8.08824145
N       -1.02370433       2.17482973      12.00000000  F        1        2      -0.65002780      -0.70442678       0.22881052      -6.78736991
N        4.82590433       4.41077385      13.45315000  F        1        2       0.16775258      -0.51738693      -0.36620061      -8.26478080
N        2.43059437       4.61163476      12.00000000  F        1        2       0.90436388      -0.21346538       0.19775657      -6.78354529
N        1.37160563       1.97396882      13.45315000  F        1        2      -0.17107501       0.38932162      -0.14118582      -8.28816811
N       -1.40689004       6.38474267      12.00000000  F        1        2      -0.31529267       0.89652693       0.13938277      -6.77740991
N        5.20909004       0.20086091      13.45315000  F        1        2      -0.49156023       0.07272149      -0.20977180      -8.25992046
N        3.80216198       2.19517924      12.00000000  F        2        2       0.01629642       0.00365852      -1.14821596      -8.37513287
N        0.00003802       4.39042434      13.45315000  F        2        2       0.05031021       0.01036039       0.47006950      -8.16204979
Si       5.18010587       1.14956320      14.90630000  F        0        1       1.30264717      -1.90854325       1.41185228      -7.79308131
Si      -1.37790587       5.43604038      16.35945000  F        0        1      -1.31158034      -0.27812277       0.90622847      -8.32359962
Si       4.01879613       3.91132168      14.90630000  F        0        1       0.64025380       2.17630552       1.42261599      -7.82937849
Si      -0.21659613       2.67428190      16.35945000  F        0        1       1.84799603      -0.10142476      -1.39932883      -6.44673998
Si       2.05319095       1.45448068      14.94148896  T        0        1       0.00173435      -0.00362339       0.01073769      -7.74244575
Si       1.59450200       5.06088488      16.35945000  F        0        1      -0.73332965       2.36676589      -1.18446902      -6.53528742
N       -1.02370433       2.17482973      14.90630000  F        1        1      -0.76633667      -0.17547984       0.26148322      -8.28185767
N        4.82590433       4.41077385      16.35945000  F        1        1       0.25265902      -0.38401980      -1.02738710      -6.56805094
N        2.43059437       4.61163476      14.90630000  F        1        1       0.31259196      -0.65271417       0.20977401      -8.25110064
N        1.37160563       1.97396882      16.35945000  F        1        1      -1.70157515       0.52112046       1.11367566      -7.17825519
N       -1.40689004       6.38474267      14.90630000  F        1        1       0.16039444      -0.47387679      -0.30114031      -8.23981678
N        5.20909004       0.20086091      16.35945000  F        1        1       0.58222463      -0.54662209      -0.40058033      -6.72881345
N        3.75238983       2.17568438      15.12142442  T        2        1      -0.00057597       0.00967181       0.00664614      -8.78462972
N        0.00003802       4.39042434      16.35945000  F        2        1       0.02069567      -0.57630074       1.35904862      -8.23327280
O        2.51179145      -0.15490215      17.67890769  T        0        0      -0.00743826       0.00485160      -0.00208625      -6.82669323
H        2.01111206       0.67611067      17.47164576  T        0        0       0.00394330      -0.00466915      -0.00130231      -3.81343848
H        3.75315858       2.18732870      16.17023356  T        0        0       0.00376396       0.00180256      -0.00028593      -3.69496075
