31
Lattice="7.6044 0.0 0.0 -3.802199999999998 6.585603580538386 0.0 0.0 -0.0 28.35945" Properties=species:S:1:pos:R:3:move_mask:L:1:spacegroup_kinds:I:1:tags:I:1:forces:R:3 spacegroup="P 63/m" unit_cell=conventional occupancy="_JSON {\"0\": {\"Si\": 1.0}, \"1\": {\"N\": 1.0}, \"2\": {\"N\": 1.0}}" energy=-226.74053321409335 pbc="T T F"
Si       5.18010587       1.14956320      12.00000000  F        0        2       1.90500207       1.15615614       1.15739636
Si      -1.37790587       5.43604038      13.45315000  F        0        2       0.07599031       0.42555051      -1.71143741
Si       4.01879613       3.91132168      12.00000000  F        0        2      -1.96795117       1.08691523       1.12146863
Si      -0.21659613       2.67428190      13.45315000  F        0        2      -0.58222736       0.01707696      -1.75501030
Si       2.20769800       1.52471870      12.00000000  F        0        2       0.12218601      -2.28255732       1.15037009
Si       1.59450200       5.06088488      13.45315000  F        0        2       0.32917403      -0.31616653      -1.51831909
N       -1.02370433       2.17482973      12.00000000  F        1        2      -0.65022521      -0.70438672       0.22885967
N        4.82590433       4.41077385      13.45315000  F        1        2       0.16828000      -0.51595916      -0.36668450
N        2.43059437       4.61163476      12.00000000  F        1        2       0.90441915      -0.21342311       0.19781633
N        1.37160563       1.97396882      13.45315000  F        1        2      -0.16831470       0.38768377      -0.13615259
N       -1.40689004       6.38474267      12.00000000  F        1        2      -0.31504252       0.89631994       0.13910024
N        5.20909004       0.20086091      13.45315000  F        1        2      -0.49171446       0.07271756      -0.20917059
N        3.80216198       2.19517924      12.00000000  F        2        2       0.01611494       0.00362268      -1.14810811
N        0.00003802       4.39042434      13.45315000  F        2        2       0.05007989       0.01073882       0.46999488
Si       5.18010587       1.14956320      14.90630000  F        0        1       1.30127683      -1.90685209       1.40846067
Si      -1.37790587       5.43604038      16.35945000  F        0        1      -1.31552284      -0.28397918       0.90292227
Si       4.01879613       3.91132168      14.90630000  F        0        1       0.64164773       2.18969155       1.41660521
Si      -0.21659613       2.67428190      16.35945000  F        0        1       1.84484144      -0.10111729      -1.40020326
Si       2.05335993       1.45446473      14.94187532  T        0        1       0.00449442       0.00005582      -0.00064532
Si       1.59450200       5.06088488      16.35945000  F        0        1      -0.73184250       2.36681559      -1.18658753
N       -1.02370433       2.17482973      14.90630000  F        1        1      -0.76588374      -0.17556698       0.26211068
N        4.82590433       4.41077385      16.35945000  F        1        1       0.24899819      -0.39321699      -1.03196842
N        2.43059437       4.61163476      14.90630000  F        1        1       0.31140717      -0.65191928       0.21074696
N        1.37160563       1.97396882      16.35945000  F        1        1      -1.71189112       0.52493220       1.11688453
N       -1.40689004       6.38474267      14.90630000  F        1        1       0.16227761      -0.47306243      -0.30297805
N        5.20909004       0.20086091      16.35945000  F        1        1       0.57765334      -0.54462438      -0.40024974
N        3.75248235       2.17670756      15.12110676  T        2        1       0.00482238      -0.01464394      -0.00039776
N        0.00003802       4.39042434      16.35945000  F        2        1       0.02038655      -0.56999541       1.36327298
O        2.50463221      -0.15372701      17.67794955  T        0        0       0.00300961       0.00062097      -0.00002315
H        1.99908297       0.67354317      17.46602769  T        0        0       0.01361190       0.00868493       0.00796840
H        3.75618425       2.18857696      16.16959346  T        0        0      -0.00505793      -0.00011185       0.01395791
