31
Lattice="7.6044 0.0 0.0 -3.802199999999998 6.585603580538386 0.0 0.0 -0.0 28.35945" Properties=species:S:1:pos:R:3:move_mask:L:1:spacegroup_kinds:I:1:tags:I:1:forces:R:3 spacegroup="P 63/m" unit_cell=conventional occupancy="_JSON {\"0\": {\"Si\": 1.0}, \"1\": {\"N\": 1.0}, \"2\": {\"N\": 1.0}}" energy=-227.7665398742842 pbc="T T F"
Si       5.18010587       1.14956320      12.00000000  F        0        2       1.70263228       1.21770905       1.38695947
Si      -1.37790587       5.43604038      13.45315000  F        0        2      -0.11119854       0.44323387      -1.63888645
Si       4.01879613       3.91132168      12.00000000  F        0        2      -1.92175188       0.91711333       1.37875267
Si      -0.21659613       2.67428190      13.45315000  F        0        2      -0.53060682      -0.10431573      -1.75129737
Si       2.20769800       1.52471870      12.00000000  F        0        2       0.24711386      -2.14372780       1.25886471
Si       1.59450200       5.06088488      13.45315000  F        0        2       0.39177038      -0.20540298      -1.53293143
N       -1.02370433       2.17482973      12.00000000  F        1        2      -0.57767165      -0.66447031       0.15223387
N        4.82590433       4.41077385      13.45315000  F        1        2       0.46118419      -0.03997805      -0.50798100
N        2.43059437       4.61163476      12.00000000  F        1        2       0.87208098      -0.21746175       0.11820807
N        1.37160563       1.97396882      13.45315000  F        1        2      -0.28320160       0.44244293       0.32523055
N       -1.40689004       6.38474267      12.00000000  F        1        2      -0.26612517       0.88390945       0.07245376
N        5.20909004       0.20086091      13.45315000  F        1        2      -0.23527200      -0.42967839      -0.27215748
N        3.80216198       2.19517924      12.00000000  F        2        2       0.00180809      -0.00176950      -1.76504652
N        0.00003802       4.39042434      13.45315000  F        2        2       0.04007233      -0.03477922       0.42184158
Si       5.18010587       1.14956320      14.90630000  F        0        1       0.08798788      -0.70311087       1.50803416
Si      -1.37790587       5.43604038      16.35945000  F        0        1      -1.29324274      -0.60378476       0.35089888
Si       4.01879613       3.91132168      14.90630000  F        0        1       0.56360993       0.51170241       1.59011592
Si      -0.21659613       2.67428190      16.35945000  F        0        1       0.53249034       0.20624447      -1.58722920
Si       2.21176904       1.50314945      14.91095110  T        0        1       0.01179208       0.00129095       0.01295154
Si       1.59450200       5.06088488      16.35945000  F        0        1      -0.42100013       2.31582272      -1.71320190
N       -1.02370433       2.17482973      14.90630000  F        1        1      -0.00405364      -0.08596362       0.58815626
N        4.82590433       4.41077385      16.35945000  F        1        1       0.50780544       0.18573048      -0.61184574
N        2.43059437       4.61163476      14.90630000  F        1        1       0.10220918      -0.53432442       0.46210017
N        1.37160563       1.97396882      16.35945000  F        1        1      -0.60572380       0.14228019       0.42171725
N       -1.40689004       6.38474267      14.90630000  F        1        1       0.08686032       0.04957742      -0.04620934
N        5.20909004       0.20086091      16.35945000  F        1        1       0.38539238      -0.69018648       0.09905513
N        3.79433480       2.19391702      14.83943710  T        2        1      -0.01497299       0.00121922      -0.00761223
N        0.00003802       4.39042434      16.35945000  F        2        1       0.27016146      -0.85769836       1.29223688
O        2.66196925      -0.12560714      17.66463410  T        0        0      -0.01346306      -0.00264540       0.00837014
H        1.72425808       1.46968257      17.18064930  T        0        0       0.00595827       0.00157170      -0.01185002
H        3.58560743       0.21171911      17.55629883  T        0        0       0.00735462      -0.00055055      -0.00193237
31
Lattice="7.6044 0.0 0.0 -3.802199999999998 6.585603580538386 0.0 0.0 -0.0 28.35945" Properties=species:S:1:pos:R:3:move_mask:L:1:spacegroup_kinds:I:1:tags:I:1:forces:R:3 spacegroup="P 63/m" unit_cell=conventional occupancy="_JSON {\"0\": {\"Si\": 1.0}, \"1\": {\"N\": 1.0}, \"2\": {\"N\": 1.0}}" energy=-227.7453813973829 pbc="T T F"
Si       5.18010587       1.14956320      12.00000000  F        0        2       1.70122283       1.22315973       1.37503788
Si      -1.37790587       5.43604038      13.45315000  F        0        2      -0.11838660       0.47181322      -1.64381082
Si       4.01879613       3.91132168      12.00000000  F        0        2      -1.92198952       0.91742805       1.37504276
Si      -0.21659613       2.67428190      13.45315000  F        0        2      -0.53589802      -0.10604872      -1.74940305
Si       2.20769800       1.52471870      12.00000000  F        0        2       0.24918217      -2.15064008       1.26078961
Si       1.59450200       5.06088488      13.45315000  F        0        2       0.41132345      -0.23432152      -1.58151275
N       -1.02370433       2.17482973      12.00000000  F        1        2      -0.57686968      -0.66451740       0.15388468
N        4.82590433       4.41077385      13.45315000  F        1        2       0.46132210      -0.04453743      -0.49436003
N        2.43059437       4.61163476      12.00000000  F        1        2       0.87188039      -0.21618169       0.12489130
N        1.37160563       1.97396882      13.45315000  F        1        2      -0.28548296       0.44216745       0.33003659
N       -1.40689004       6.38474267      12.00000000  F        1        2      -0.26234415       0.87802657       0.07512172
N        5.20909004       0.20086091      13.45315000  F        1        2      -0.23626205      -0.43217264      -0.24615171
N        3.80216198       2.19517924      12.00000000  F        2        2       0.00474595      -0.00223293      -1.75784215
N        0.00003802       4.39042434      13.45315000  F        2        2       0.03475576      -0.02975569       0.42830120
Si       5.18010587       1.14956320      14.90630000  F        0        1       0.09536765      -0.68016995       1.44232067
Si      -1.37790587       5.43604038      16.35945000  F        0        1      -1.24220404      -0.47338507       0.40159062
Si       4.01879613       3.91132168      14.90630000  F        0        1       0.55246576       0.54105273       1.58941555
Si      -0.21659613       2.67428190      16.35945000  F        0        1       0.60518649       0.19651742      -1.58476858
Si       2.20957220       1.50247056      14.91150480  T        0        1       0.00309015       0.00167247      -0.00212152
Si       1.59450200       5.06088488      16.35945000  F        0        1      -0.41196849       2.25042079      -1.68455852
N       -1.02370433       2.17482973      14.90630000  F        1        1      -0.02751158      -0.10849784       0.60968595
N        4.82590433       4.41077385      16.35945000  F        1        1       0.54501545       0.21649667      -0.56491778
N        2.43059437       4.61163476      14.90630000  F        1        1       0.10376911      -0.49619293       0.44584783
N        1.37160563       1.97396882      16.35945000  F        1        1      -0.63958240       0.15637647       0.41011119
N       -1.40689004       6.38474267      14.90630000  F        1        1       0.05653337      -0.02037887      -0.23028400
N        5.20909004       0.20086091      16.35945000  F        1        1       0.48812530      -0.64171070       0.08773139
N        3.79326865       2.19387728      14.84107971  T        2        1       0.00071466       0.00102611      -0.00456531
N        0.00003802       4.39042434      16.35945000  F        2        1       0.25494914      -0.97437857       1.26025879
O        2.76329813      -0.07209971      17.59635460  T        0        0      -0.05705124      -0.02768040       0.05180604
H        1.75720769       1.48118195      17.17400279  T        0        0      -0.01035205       0.01072411       0.00525230
H        3.68475829       0.25784175      17.35426186  T        0        0      -0.11374692      -0.00407935       0.11717016
31
Lattice="7.6044 0.0 0.0 -3.802199999999998 6.585603580538386 0.0 0.0 -0.0 28.35945" Properties=species:S:1:pos:R:3:move_mask:L:1:spacegroup_kinds:I:1:tags:I:1:forces:R:3 spacegroup="P 63/m" unit_cell=conventional occupancy="_JSON {\"0\": {\"Si\": 1.0}, \"1\": {\"N\": 1.0}, \"2\": {\"N\": 1.0}}" energy=-227.55182470889025 pbc="T T F"
Si       5.18010587       1.14956320      12.00000000  F        0        2       1.70050343       1.23333283       1.35767407
Si      -1.37790587       5.43604038      13.45315000  F        0        2      -0.15155659       0.53082043      -1.62186777
Si       4.01879613       3.91132168      12.00000000  F        0        2      -1.91751518       0.91623333       1.37647124
Si      -0.21659613       2.67428190      13.45315000  F        0        2      -0.53225629      -0.13035110      -1.71529242
Si       2.20769800       1.52471870      12.00000000  F        0        2       0.24522900      -2.15733949       1.29650517
Si       1.59450200       5.06088488      13.45315000  F        0        2       0.41740765      -0.25773660      -1.57798268
N       -1.02370433       2.17482973      12.00000000  F        1        2      -0.58178406      -0.66612896       0.15478756
N        4.82590433       4.41077385      13.45315000  F        1        2       0.45359917      -0.06506260      -0.48718840
N        2.43059437       4.61163476      12.00000000  F        1        2       0.87291657      -0.21458536       0.12787572
N        1.37160563       1.97396882      13.45315000  F        1        2      -0.26716824       0.44195437       0.33565166
N       -1.40689004       6.38474267      12.00000000  F        1        2      -0.25094920       0.87316803       0.06408936
N        5.20909004       0.20086091      13.45315000  F        1        2      -0.23784568      -0.45163299      -0.21631192
N        3.80216198       2.19517924      12.00000000  F        2        2       0.00559088      -0.00298641      -1.74553825
N        0.00003802       4.39042434      13.45315000  F        2        2       0.03479164      -0.02339973       0.42079368
Si       5.18010587       1.14956320      14.90630000  F        0        1       0.15079529      -0.59754411       1.29513612
Si      -1.37790587       5.43604038      16.35945000  F        0        1      -1.03967967      -0.00738689       0.77139795
Si       4.01879613       3.91132168      14.90630000  F        0        1       0.56426429       0.56705823       1.63993755
Si      -0.21659613       2.67428190      16.35945000  F        0        1       0.75041991       0.21029420      -1.61462603
Si       2.20720836       1.50003179      14.91623995  T        0        1       0.01126520       0.01189770      -0.01864090
Si       1.59450200       5.06088488      16.35945000  F        0        1      -0.34947931       2.06395138      -1.60509531
N       -1.02370433       2.17482973      14.90630000  F        1        1      -0.08023087      -0.14846279       0.60551778
N        4.82590433       4.41077385      16.35945000  F        1        1       0.51681321       0.17114746      -0.60350022
N        2.43059437       4.61163476      14.90630000  F        1        1       0.09647149      -0.43517540       0.39202156
N        1.37160563       1.97396882      16.35945000  F        1        1      -0.69592611       0.10435066       0.52244424
N       -1.40689004       6.38474267      14.90630000  F        1        1      -0.00121297      -0.15064946      -0.66402370
N        5.20909004       0.20086091      16.35945000  F        1        1       0.70238173      -0.54683573       0.04754434
N        3.79419298       2.19247902      14.84915908  T        2        1      -0.01047746       0.01689936      -0.04320679
N        0.00003802       4.39042434      16.35945000  F        2        1       0.31454229      -1.19483939       1.16901245
O        2.88265960      -0.01591810      17.49109975  T        0        0       0.39596692       0.10495559      -0.08452746
H        1.77767318       1.44807558      17.15113985  T        0        0       0.00317330       0.06052998      -0.00904579
H        3.90635198       0.26392025      17.11252147  T        0        0      -1.12005038      -0.25647651       0.42998720
31
Lattice="7.6044 0.0 0.0 -3.802199999999998 6.585603580538386 0.0 0.0 -0.0 28.35945" Properties=species:S:1:pos:R:3:move_mask:L:1:spacegroup_kinds:I:1:tags:I:1:forces:R:3 spacegroup="P 63/m" unit_cell=conventional occupancy="_JSON {\"0\": {\"Si\": 1.0}, \"1\": {\"N\": 1.0}, \"2\": {\"N\": 1.0}}" energy=-227.47183177916475 pbc="T T F"
Si       5.18010587       1.14956320      12.00000000  F        0        2       1.69068074       1.28680810       1.26556415
Si      -1.37790587       5.43604038      13.45315000  F        0        2      -0.16388431       0.55855593      -1.57460154
Si       4.01879613       3.91132168      12.00000000  F        0        2      -1.90764821       0.91147812       1.36205188
Si      -0.21659613       2.67428190      13.45315000  F        0        2      -0.47069848      -0.12880737      -1.76398141
Si       2.20769800       1.52471870      12.00000000  F        0        2       0.23670454      -2.16517392       1.33865678
Si       1.59450200       5.06088488      13.45315000  F        0        2       0.34903290      -0.36269717      -1.67005259
N       -1.02370433       2.17482973      12.00000000  F        1        2      -0.60199166      -0.68664029       0.17929059
N        4.82590433       4.41077385      13.45315000  F        1        2       0.42557776      -0.10346785      -0.45755885
N        2.43059437       4.61163476      12.00000000  F        1        2       0.85654747      -0.18983497       0.15441909
N        1.37160563       1.97396882      13.45315000  F        1        2      -0.25918161       0.43596757       0.35634445
N       -1.40689004       6.38474267      12.00000000  F        1        2      -0.23835397       0.87709283       0.04053871
N        5.20909004       0.20086091      13.45315000  F        1        2      -0.18604550      -0.45799538       0.10731907
N        3.80216198       2.19517924      12.00000000  F        2        2       0.01851439      -0.00733664      -1.72726006
N        0.00003802       4.39042434      13.45315000  F        2        2       0.07389226      -0.03714940       0.39185931
Si       5.18010587       1.14956320      14.90630000  F        0        1       0.12355022       0.01250449       0.33222195
Si      -1.37790587       5.43604038      16.35945000  F        0        1      -1.34399048       0.60375736       1.58864875
Si       4.01879613       3.91132168      14.90630000  F        0        1       0.69347833       0.52546993       1.73419905
Si      -0.21659613       2.67428190      16.35945000  F        0        1       0.93426796       0.29333006      -1.54533211
Si       2.20327782       1.49517578      14.92248217  T        0        1      -0.01191839       0.00415487      -0.00373972
Si       1.59450200       5.06088488      16.35945000  F        0        1      -0.35831920       0.86739185      -1.50931520
N       -1.02370433       2.17482973      14.90630000  F        1        1      -0.19365299      -0.36172037       0.62303328
N        4.82590433       4.41077385      16.35945000  F        1        1       0.19201904      -0.28724457      -0.99669887
N        2.43059437       4.61163476      14.90630000  F        1        1      -0.01721829      -0.11002861       0.54197169
N        1.37160563       1.97396882      16.35945000  F        1        1      -0.78730479       0.19497555       0.62074039
N       -1.40689004       6.38474267      14.90630000  F        1        1       0.10869099      -0.24827594      -1.01197432
N        5.20909004       0.20086091      16.35945000  F        1        1      -0.00769121      -0.25400610       0.67555200
N        3.79794749       2.18595613      14.86511473  T        2        1       0.00425063      -0.00606363       0.01415481
N        0.00003802       4.39042434      16.35945000  F        2        1       0.62334755      -1.10114619       1.03669577
O        2.73689889      -0.05133912      17.52124489  T        0        0      -0.18138485       0.01624417       0.00980499
H        1.76973179       1.41713153      17.15141964  T        0        0       0.06036932      -0.19499974      -0.00456884
H        4.31871467       0.35842483      16.94947105  T        0        0       0.33835983       0.11485729      -0.10798318
31
Lattice="7.6044 0.0 0.0 -3.802199999999998 6.585603580538386 0.0 0.0 -0.0 28.35945" Properties=species:S:1:pos:R:3:move_mask:L:1:spacegroup_kinds:I:1:tags:I:1:forces:R:3 spacegroup="P 63/m" unit_cell=conventional occupancy="_JSON {\"0\": {\"Si\": 1.0}, \"1\": {\"N\": 1.0}, \"2\": {\"N\": 1.0}}" energy=-227.651216397951 pbc="T T F"
Si       5.18010587       1.14956320      12.00000000  F        0        2       1.69918853       1.29868278       1.26664331
Si      -1.37790587       5.43604038      13.45315000  F        0        2      -0.12141656       0.54602354      -1.57944673
Si       4.01879613       3.91132168      12.00000000  F        0        2      -1.90729142       0.90899723       1.37754916
Si      -0.21659613       2.67428190      13.45315000  F        0        2      -0.38900609      -0.18079629      -1.64528246
Si       2.20769800       1.52471870      12.00000000  F        0        2       0.20400499      -2.14440469       1.46216336
Si       1.59450200       5.06088488      13.45315000  F        0        2       0.33715358      -0.37733272      -1.71835868
N       -1.02370433       2.17482973      12.00000000  F        1        2      -0.63177556      -0.69435392       0.15323263
N        4.82590433       4.41077385      13.45315000  F        1        2       0.42861148      -0.09412319      -0.45920433
N        2.43059437       4.61163476      12.00000000  F        1        2       0.86219791      -0.17995138       0.14117657
N        1.37160563       1.97396882      13.45315000  F        1        2      -0.26470662       0.42399309       0.04603186
N       -1.40689004       6.38474267      12.00000000  F        1        2      -0.23955269       0.84269029       0.03292445
N        5.20909004       0.20086091      13.45315000  F        1        2      -0.19478963      -0.46515538       0.16584342
N        3.80216198       2.19517924      12.00000000  F        2        2       0.03488493      -0.00776629      -1.74929515
N        0.00003802       4.39042434      13.45315000  F        2        2       0.06557584       0.00205038       0.43713043
Si       5.18010587       1.14956320      14.90630000  F        0        1       0.13251750       0.21677231       0.12041997
Si      -1.37790587       5.43604038      16.35945000  F        0        1      -1.74730747       0.46673664       0.87215443
Si       4.01879613       3.91132168      14.90630000  F        0        1       0.69606489       0.47331729       1.72992996
Si      -0.21659613       2.67428190      16.35945000  F        0        1       1.82744762      -0.22536184      -1.68998378
Si       2.18098019       1.50968445      14.93982889  T        0        1      -0.06626157       0.04332910       0.04717945
Si       1.59450200       5.06088488      16.35945000  F        0        1      -0.24049110       0.56909202      -1.55301497
N       -1.02370433       2.17482973      14.90630000  F        1        1      -0.52194268      -0.42835603       0.56238478
N        4.82590433       4.41077385      16.35945000  F        1        1       0.32982584      -0.12806074      -0.83519728
N        2.43059437       4.61163476      14.90630000  F        1        1      -0.03878696       0.00581837       0.61063156
N        1.37160563       1.97396882      16.35945000  F        1        1      -1.31731847       0.59798142       0.73556335
N       -1.40689004       6.38474267      14.90630000  F        1        1       0.20770252      -0.18342617      -0.75096368
N        5.20909004       0.20086091      16.35945000  F        1        1       0.24897516      -0.26331835       0.56977349
N        3.79687487       2.18404792      14.86487537  T        2        1      -0.00209131      -0.00539292      -0.00199189
N        0.00003802       4.39042434      16.35945000  F        2        1       0.19213755      -0.22683870       1.53921805
O        2.58928920       0.05051766      17.49896028  T        0        0      -0.42230814       0.30020278      -0.05148293
H        1.98470719       0.98795388      17.20091644  T        0        0       0.63058096      -1.27240142       0.14114685
H        4.39354810       0.42379691      16.96545742  T        0        0       0.20817694       0.18135278       0.02312480
31
Lattice="7.6044 0.0 0.0 -3.802199999999998 6.585603580538386 0.0 0.0 -0.0 28.35945" Properties=species:S:1:pos:R:3:move_mask:L:1:spacegroup_kinds:I:1:tags:I:1:forces:R:3 spacegroup="P 63/m" unit_cell=conventional occupancy="_JSON {\"0\": {\"Si\": 1.0}, \"1\": {\"N\": 1.0}, \"2\": {\"N\": 1.0}}" energy=-227.9013705143504 pbc="T T F"
Si       5.18010587       1.14956320      12.00000000  F        0        2       1.70466035       1.30040343       1.26629588
Si      -1.37790587       5.43604038      13.45315000  F        0        2      -0.11222519       0.53126880      -1.53170043
Si       4.01879613       3.91132168      12.00000000  F        0        2      -1.90638825       0.90442338       1.38795288
Si      -0.21659613       2.67428190      13.45315000  F        0        2      -0.32223952      -0.20436453      -1.60037755
Si       2.20769800       1.52471870      12.00000000  F        0        2       0.18912720      -2.12270399       1.52962875
Si       1.59450200       5.06088488      13.45315000  F        0        2       0.32546899      -0.38937961      -1.74873118
N       -1.02370433       2.17482973      12.00000000  F        1        2      -0.64847205      -0.69895740       0.13636046
N        4.82590433       4.41077385      13.45315000  F        1        2       0.41255658      -0.09906856      -0.46326061
N        2.43059437       4.61163476      12.00000000  F        1        2       0.86369402      -0.17787647       0.13680036
N        1.37160563       1.97396882      13.45315000  F        1        2      -0.22043986       0.39756943       0.00902521
N       -1.40689004       6.38474267      12.00000000  F        1        2      -0.24026057       0.84909795       0.02822917
N        5.20909004       0.20086091      13.45315000  F        1        2      -0.18557127      -0.47591398       0.20171760
N        3.80216198       2.19517924      12.00000000  F        2        2       0.02335807      -0.01200973      -1.75512947
N        0.00003802       4.39042434      13.45315000  F        2        2       0.06047471       0.01712981       0.42589922
Si       5.18010587       1.14956320      14.90630000  F        0        1       0.11280483       0.30925822       0.03630442
Si      -1.37790587       5.43604038      16.35945000  F        0        1      -1.67635346      -0.41017256       0.37763001
Si       4.01879613       3.91132168      14.90630000  F        0        1       0.68539080       0.41661160       1.73047587
Si      -0.21659613       2.67428190      16.35945000  F        0        1       2.08672991      -0.33243814      -1.66440550
Si       2.17592033       1.51450722      14.95632192  T        0        1       0.00067706      -0.00116885      -0.00378146
Si       1.59450200       5.06088488      16.35945000  F        0        1      -0.32704049       0.40014258      -1.38069857
N       -1.02370433       2.17482973      14.90630000  F        1        1      -0.62044222      -0.39711785       0.52445564
N        4.82590433       4.41077385      16.35945000  F        1        1       0.37311062      -0.03426122      -0.82779535
N        2.43059437       4.61163476      14.90630000  F        1        1      -0.06624591       0.12156268       0.61481189
N        1.37160563       1.97396882      16.35945000  F        1        1      -1.40738583       0.50193183       0.82009289
N       -1.40689004       6.38474267      14.90630000  F        1        1       0.26983143      -0.04896016      -0.11383633
N        5.20909004       0.20086091      16.35945000  F        1        1       0.41768840      -0.08330801       0.34924171
N        3.79725582       2.18279412      14.87408719  T        2        1      -0.00427895       0.00203059      -0.05371774
N        0.00003802       4.39042434      16.35945000  F        2        1       0.14203761      -0.21412331       1.47108273
O        2.58635121      -0.12051261      17.65457153  T        0        0       0.02643639       0.02948914      -0.01824689
H        2.04633366       0.69323202      17.45156691  T        0        0       0.00739013       0.04178186      -0.03028157
H        4.53382962       0.57283546      17.03301146  T        0        0       0.03590646      -0.12087692       0.14595794
31
Lattice="7.6044 0.0 0.0 -3.802199999999998 6.585603580538386 0.0 0.0 -0.0 28.35945" Properties=species:S:1:pos:R:3:move_mask:L:1:spacegroup_kinds:I:1:tags:I:1:forces:R:3 spacegroup="P 63/m" unit_cell=conventional occupancy="_JSON {\"0\": {\"Si\": 1.0}, \"1\": {\"N\": 1.0}, \"2\": {\"N\": 1.0}}" energy=-227.22430923829148 pbc="T T F"
Si       5.18010587       1.14956320      12.00000000  F        0        2       1.73673942       1.27524351       1.27863843
Si      -1.37790587       5.43604038      13.45315000  F        0        2      -0.07979104       0.52829374      -1.53586396
Si       4.01879613       3.91132168      12.00000000  F        0        2      -1.93139103       0.93147703       1.37331219
Si      -0.21659613       2.67428190      13.45315000  F        0        2      -0.31861873      -0.17067258      -1.59229959
Si       2.20769800       1.52471870      12.00000000  F        0        2       0.17679862      -2.15578048       1.52489531
Si       1.59450200       5.06088488      13.45315000  F        0        2       0.32062078      -0.33067203      -1.67765823
N       -1.02370433       2.17482973      12.00000000  F        1        2      -0.63820914      -0.69906480       0.13618280
N        4.82590433       4.41077385      13.45315000  F        1        2       0.31355595      -0.26188125      -0.43291777
N        2.43059437       4.61163476      12.00000000  F        1        2       0.86887810      -0.17673303       0.14508921
N        1.37160563       1.97396882      13.45315000  F        1        2      -0.09028766       0.38819426       0.02682821
N       -1.40689004       6.38474267      12.00000000  F        1        2      -0.26145662       0.83305604       0.04373849
N        5.20909004       0.20086091      13.45315000  F        1        2      -0.25907096      -0.35180734      -0.00724963
N        3.80216198       2.19517924      12.00000000  F        2        2       0.02925744      -0.00830552      -1.62335279
N        0.00003802       4.39042434      13.45315000  F        2        2       0.05502778       0.02392005       0.42119543
Si       5.18010587       1.14956320      14.90630000  F        0        1       0.88940237       0.11756161      -0.72666999
Si      -1.37790587       5.43604038      16.35945000  F        0        1      -1.77237455      -0.40572321       0.52902488
Si       4.01879613       3.91132168      14.90630000  F        0        1       0.61147762       0.23209475       1.91327950
Si      -0.21659613       2.67428190      16.35945000  F        0        1       2.07344475      -0.34570770      -1.64534434
Si       2.16025650       1.50764096      14.95967679  T        0        1       0.14462446       0.09031334      -0.00627956
Si       1.59450200       5.06088488      16.35945000  F        0        1      -0.59716935       0.55922994      -1.21494889
N       -1.02370433       2.17482973      14.90630000  F        1        1      -0.61290108      -0.29298678       0.47511793
N        4.82590433       4.41077385      16.35945000  F        1        1       0.39923053      -0.02200772      -0.86701676
N        2.43059437       4.61163476      14.90630000  F        1        1      -0.00929581       0.04508760       0.58874696
N        1.37160563       1.97396882      16.35945000  F        1        1      -1.73521282       0.55807189       0.97778266
N       -1.40689004       6.38474267      14.90630000  F        1        1       0.28151634      -0.13016815      -0.13412473
N        5.20909004       0.20086091      16.35945000  F        1        1      -0.90648263       1.57906684       0.16882607
N        3.79389153       2.16996614      15.01370135  T        2        1       0.01835690       0.22112557      -0.80354602
N        0.00003802       4.39042434      16.35945000  F        2        1       0.12788458      -0.20023200       1.45220511
O        2.52246208      -0.12992044      17.66279437  T        0        0       0.10163601       0.04850119      -0.03379957
H        1.98444968       0.68298620      17.45116303  T        0        0       0.03612491       0.01667631      -0.03030295
H        4.36152463       0.84744512      16.61953431  T        0        0       1.02768485      -1.89617108       1.27651158
31
Lattice="7.6044 0.0 0.0 -3.802199999999998 6.585603580538386 0.0 0.0 -0.0 28.35945" Properties=species:S:1:pos:R:3:move_mask:L:1:spacegroup_kinds:I:1:tags:I:1:forces:R:3 spacegroup="P 63/m" unit_cell=conventional occupancy="_JSON {\"0\": {\"Si\": 1.0}, \"1\": {\"N\": 1.0}, \"2\": {\"N\": 1.0}}" energy=-225.64085992284242 pbc="T T F"
Si       5.18010587       1.14956320      12.00000000  F        0        2       1.84524613       1.23784669       1.22100806
Si      -1.37790587       5.43604038      13.45315000  F        0        2      -0.00893119       0.51097477      -1.53730073
Si       4.01879613       3.91132168      12.00000000  F        0        2      -1.98111533       1.03150768       1.23345202
Si      -0.21659613       2.67428190      13.45315000  F        0        2      -0.37723924      -0.09089882      -1.64157431
Si       2.20769800       1.52471870      12.00000000  F        0        2       0.11027636      -2.22935566       1.37620056
Si       1.59450200       5.06088488      13.45315000  F        0        2       0.35723371      -0.34905425      -1.56658963
N       -1.02370433       2.17482973      12.00000000  F        1        2      -0.64610167      -0.71325416       0.16808608
N        4.82590433       4.41077385      13.45315000  F        1        2       0.12719408      -0.57465109      -0.31640460
N        2.43059437       4.61163476      12.00000000  F        1        2       0.88803913      -0.17752638       0.15828779
N        1.37160563       1.97396882      13.45315000  F        1        2       0.13597266       0.39698494       0.10059224
N       -1.40689004       6.38474267      12.00000000  F        1        2      -0.30644966       0.83384922       0.09242919
N        5.20909004       0.20086091      13.45315000  F        1        2      -0.35293948      -0.12089643      -0.20853002
N        3.80216198       2.19517924      12.00000000  F        2        2       0.03005697       0.01228849      -1.37813862
N        0.00003802       4.39042434      13.45315000  F        2        2       0.05205628       0.03485691       0.46420065
Si       5.18010587       1.14956320      14.90630000  F        0        1       2.10431339      -1.38275561      -0.36759050
Si      -1.37790587       5.43604038      16.35945000  F        0        1      -1.58513538      -0.36483568       0.71711062
Si       4.01879613       3.91132168      14.90630000  F        0        1       0.52106407       0.56500845       2.28056685
Si      -0.21659613       2.67428190      16.35945000  F        0        1       2.06376588      -0.27221689      -1.52821691
Si       2.12690186       1.48666883      14.96114092  T        0        1       0.00237871      -0.00028542       0.00242959
Si       1.59450200       5.06088488      16.35945000  F        0        1      -0.81268610       1.83656470      -1.29190734
N       -1.02370433       2.17482973      14.90630000  F        1        1      -0.73172201      -0.18277258       0.34308229
N        4.82590433       4.41077385      16.35945000  F        1        1       0.40582228      -0.03788596      -0.94508574
N        2.43059437       4.61163476      14.90630000  F        1        1       0.29325066      -0.48512830       0.28157407
N        1.37160563       1.97396882      16.35945000  F        1        1      -1.96133824       0.62368331       1.13456257
N       -1.40689004       6.38474267      14.90630000  F        1        1       0.21076589      -0.34734489      -0.24161382
N        5.20909004       0.20086091      16.35945000  F        1        1      -0.38314702       0.75393613       0.01835516
N        3.78905311       2.11961969      15.19531475  T        2        1       0.00127907      -0.00160275       0.01233688
N        0.00003802       4.39042434      16.35945000  F        2        1       0.00162632      -0.51697964       1.42523728
O        2.49893684      -0.14080730      17.67065369  T        0        0      -0.00115004       0.00156145       0.00093876
H        1.97631293       0.67920191      17.45812280  T        0        0       0.00022016       0.00157729      -0.00111563
H        4.13177814       1.27877267      16.32563616  T        0        0      -0.00260637       0.00680445      -0.00638280
31
Lattice="7.6044 0.0 0.0 -3.802199999999998 6.585603580538386 0.0 0.0 -0.0 28.35945" Properties=species:S:1:pos:R:3:move_mask:L:1:spacegroup_kinds:I:1:tags:I:1:forces:R:3 spacegroup="P 63/m" unit_cell=conventional occupancy="_JSON {\"0\": {\"Si\": 1.0}, \"1\": {\"N\": 1.0}, \"2\": {\"N\": 1.0}}" energy=-226.13204224506308 pbc="T T F"
Si       5.18010587       1.14956320      12.00000000  F        0        2       1.89446875       1.18863053       1.19100980
Si      -1.37790587       5.43604038      13.45315000  F        0        2       0.05114636       0.47932729      -1.61139433
Si       4.01879613       3.91132168      12.00000000  F        0        2      -1.98632795       1.07340990       1.13577071
Si      -0.21659613       2.67428190      13.45315000  F        0        2      -0.47475264      -0.02141530      -1.69672984
Si       2.20769800       1.52471870      12.00000000  F        0        2       0.09623083      -2.27031249       1.26101718
Si       1.59450200       5.06088488      13.45315000  F        0        2       0.35534381      -0.35129843      -1.55174330
N       -1.02370433       2.17482973      12.00000000  F        1        2      -0.65351141      -0.71400896       0.20234435
N        4.82590433       4.41077385      13.45315000  F        1        2       0.06834541      -0.67785026      -0.27964851
N        2.43059437       4.61163476      12.00000000  F        1        2       0.90014869      -0.19136830       0.18024480
N        1.37160563       1.97396882      13.45315000  F        1        2       0.12416836       0.39672970       0.07317045
N       -1.40689004       6.38474267      12.00000000  F        1        2      -0.31576392       0.85925127       0.13488580
N        5.20909004       0.20086091      13.45315000  F        1        2      -0.43251555       0.00060420      -0.22981110
N        3.80216198       2.19517924      12.00000000  F        2        2       0.02128083       0.02082650      -1.23509141
N        0.00003802       4.39042434      13.45315000  F        2        2       0.04646616       0.02128220       0.46907237
Si       5.18010587       1.14956320      14.90630000  F        0        1       2.23765740      -2.10321099       0.35534723
Si      -1.37790587       5.43604038      16.35945000  F        0        1      -1.45565690      -0.33914484       0.80789066
Si       4.01879613       3.91132168      14.90630000  F        0        1       0.55762289       1.10172480       2.34696685
Si      -0.21659613       2.67428190      16.35945000  F        0        1       1.96222254      -0.18360818      -1.45306819
Si       2.09542970       1.47247012      14.95555535  T        0        1      -0.16188115      -0.07331607      -0.02770395
Si       1.59450200       5.06088488      16.35945000  F        0        1      -0.77385031       2.32347578      -1.28476451
N       -1.02370433       2.17482973      14.90630000  F        1        1      -0.78563612      -0.16580713       0.28832694
N        4.82590433       4.41077385      16.35945000  F        1        1       0.36721212      -0.10975551      -1.01255695
N        2.43059437       4.61163476      14.90630000  F        1        1       0.40394523      -0.73900909       0.15664032
N        1.37160563       1.97396882      16.35945000  F        1        1      -1.95170911       0.60347027       1.16305264
N       -1.40689004       6.38474267      14.90630000  F        1        1       0.16908987      -0.41094772      -0.29811753
N        5.20909004       0.20086091      16.35945000  F        1        1       0.54548684      -0.54442128      -0.10857970
N        3.77653443       2.11116697      15.22592370  T        2        1      -0.06449168      -0.04553396       0.16678296
N        0.00003802       4.39042434      16.35945000  F        2        1       0.01660033      -0.59650192       1.41376091
O        2.49942168      -0.14270137      17.67102537  T        0        0       0.00159112      -0.00715816       0.00249093
H        1.97859556       0.67788456      17.45952980  T        0        0       0.01101221      -0.00300596       0.00859913
H        3.98377400       1.56261569      16.21573572  T        0        0      -0.77394300       1.47894210      -0.56816473
31
Lattice="7.6044 0.0 0.0 -3.802199999999998 6.585603580538386 0.0 0.0 -0.0 28.35945" Properties=species:S:1:pos:R:3:move_mask:L:1:spacegroup_kinds:I:1:tags:I:1:forces:R:3 spacegroup="P 63/m" unit_cell=conventional occupancy="_JSON {\"0\": {\"Si\": 1.0}, \"1\": {\"N\": 1.0}, \"2\": {\"N\": 1.0}}" energy=-226.583315167196 pbc="T T F"
Si       5.18010587       1.14956320      12.00000000  F        0        2       1.90596924       1.15976976       1.17933631
Si      -1.37790587       5.43604038      13.45315000  F        0        2       0.07606031       0.44101720      -1.68082491
Si       4.01879613       3.91132168      12.00000000  F        0        2      -1.98293118       1.07918669       1.11927793
Si      -0.21659613       2.67428190      13.45315000  F        0        2      -0.55402327       0.01159508      -1.73784347
Si       2.20769800       1.52471870      12.00000000  F        0        2       0.11081398      -2.27845500       1.18066511
Si       1.59450200       5.06088488      13.45315000  F        0        2       0.35215367      -0.33537978      -1.51478204
N       -1.02370433       2.17482973      12.00000000  F        1        2      -0.65366680      -0.70786989       0.21912223
N        4.82590433       4.41077385      13.45315000  F        1        2       0.10692209      -0.62083483      -0.31574048
N        2.43059437       4.61163476      12.00000000  F        1        2       0.90549321      -0.20516721       0.18571174
N        1.37160563       1.97396882      13.45315000  F        1        2      -0.04601250       0.39991416      -0.05309473
N       -1.40689004       6.38474267      12.00000000  F        1        2      -0.31794918       0.88275416       0.14535290
N        5.20909004       0.20086091      13.45315000  F        1        2      -0.45443336       0.02876691      -0.23496409
N        3.80216198       2.19517924      12.00000000  F        2        2       0.01689303       0.01780215      -1.16819536
N        0.00003802       4.39042434      13.45315000  F        2        2       0.04377878       0.01219574       0.47253636
Si       5.18010587       1.14956320      14.90630000  F        0        1       1.76676815      -2.12031829       0.90521709
Si      -1.37790587       5.43604038      16.35945000  F        0        1      -1.37536597      -0.30680000       0.87410864
Si       4.01879613       3.91132168      14.90630000  F        0        1       0.56977067       1.60289994       1.99340309
Si      -0.21659613       2.67428190      16.35945000  F        0        1       1.85588126      -0.11424255      -1.41079146
Si       2.06635465       1.46041335      14.94606635  T        0        1      -0.08089193      -0.03324260      -0.02547464
Si       1.59450200       5.06088488      16.35945000  F        0        1      -0.74785369       2.37828765      -1.25333687
N       -1.02370433       2.17482973      14.90630000  F        1        1      -0.78255442      -0.16589460       0.27329052
N        4.82590433       4.41077385      16.35945000  F        1        1       0.32935248      -0.22710654      -1.03007007
N        2.43059437       4.61163476      14.90630000  F        1        1       0.35634798      -0.70153691       0.16593783
N        1.37160563       1.97396882      16.35945000  F        1        1      -1.81275852       0.54016452       1.13495567
N       -1.40689004       6.38474267      14.90630000  F        1        1       0.15998993      -0.44679528      -0.31010647
N        5.20909004       0.20086091      16.35945000  F        1        1       0.56446449      -0.56915070      -0.28409614
N        3.76205643       2.14626682      15.16683491  T        2        1      -0.03974734       0.09360695      -0.15710803
N        0.00003802       4.39042434      16.35945000  F        2        1       0.03794847      -0.61621078       1.39119722
O        2.50365749      -0.14468466      17.67210667  T        0        0       0.00867145      -0.00752026       0.00573308
H        1.98375961       0.67566320      17.46251405  T        0        0       0.01788927      -0.00518126      -0.00011920
H        3.85813005       1.86853954      16.18909776  T        0        0      -0.33698029       0.81374559      -0.06929776
31
Lattice="7.6044 0.0 0.0 -3.802199999999998 6.585603580538386 0.0 0.0 -0.0 28.35945" Properties=species:S:1:pos:R:3:move_mask:L:1:spacegroup_kinds:I:1:tags:I:1:forces:R:3 spacegroup="P 63/m" unit_cell=conventional occupancy="_JSON {\"0\": {\"Si\": 1.0}, \"1\": {\"N\": 1.0}, \"2\": {\"N\": 1.0}}" energy=-226.74064863013348 pbc="T T F"
Si       5.18010587       1.14956320      12.00000000  F        0        2       1.90504479       1.15624873       1.15764691
Si      -1.37790587       5.43604038      13.45315000  F        0        2       0.07553485       0.42561504      -1.71026545
Si       4.01879613       3.91132168      12.00000000  F        0        2      -1.96834226       1.08692267       1.12134386
Si      -0.21659613       2.67428190      13.45315000  F        0        2      -0.58324388       0.01730632      -1.75496321
Si       2.20769800       1.52471870      12.00000000  F        0        2       0.12257453      -2.28276452       1.14894892
Si       1.59450200       5.06088488      13.45315000  F        0        2       0.32959630      -0.31575919      -1.51883820
N       -1.02370433       2.17482973      12.00000000  F        1        2      -0.65002780      -0.70442678       0.22881052
N        4.82590433       4.41077385      13.45315000  F        1        2       0.16775258      -0.51738693      -0.36620061
N        2.43059437       4.61163476      12.00000000  F        1        2       0.90436388      -0.21346538       0.19775657
N        1.37160563       1.97396882      13.45315000  F        1        2      -0.17107501       0.38932162      -0.14118582
N       -1.40689004       6.38474267      12.00000000  F        1        2      -0.31529267       0.89652693       0.13938277
N        5.20909004       0.20086091      13.45315000  F        1        2      -0.49156023       0.07272149      -0.20977180
N        3.80216198       2.19517924      12.00000000  F        2        2       0.01629642       0.00365852      -1.14821596
N        0.00003802       4.39042434      13.45315000  F        2        2       0.05031021       0.01036039       0.47006950
Si       5.18010587       1.14956320      14.90630000  F        0        1       1.30264717      -1.90854325       1.41185228
Si      -1.37790587       5.43604038      16.35945000  F        0        1      -1.31158034      -0.27812277       0.90622847
Si       4.01879613       3.91132168      14.90630000  F        0        1       0.64025380       2.17630552       1.42261599
Si      -0.21659613       2.67428190      16.35945000  F        0        1       1.84799603      -0.10142476      -1.39932883
Si       2.05319095       1.45448068      14.94148896  T        0        1       0.00173435      -0.00362339       0.01073769
Si       1.59450200       5.06088488      16.35945000  F        0        1      -0.73332965       2.36676589      -1.18446902
N       -1.02370433       2.17482973      14.90630000  F        1        1      -0.76633667      -0.17547984       0.26148322
N        4.82590433       4.41077385      16.35945000  F        1        1       0.25265902      -0.38401980      -1.02738710
N        2.43059437       4.61163476      14.90630000  F        1        1       0.31259196      -0.65271417       0.20977401
N        1.37160563       1.97396882      16.35945000  F        1        1      -1.70157515       0.52112046       1.11367566
N       -1.40689004       6.38474267      14.90630000  F        1        1       0.16039444      -0.47387679      -0.30114031
N        5.20909004       0.20086091      16.35945000  F        1        1       0.58222463      -0.54662209      -0.40058033
N        3.75238983       2.17568438      15.12142442  T        2        1      -0.00057597       0.00967181       0.00664614
N        0.00003802       4.39042434      16.35945000  F        2        1       0.02069567      -0.57630074       1.35904862
O        2.51179145      -0.15490215      17.67890769  T        0        0      -0.00743826       0.00485160      -0.00208625
H        2.01111206       0.67611067      17.47164576  T        0        0       0.00394330      -0.00466915      -0.00130231
H        3.75315858       2.18732870      16.17023356  T        0        0       0.00376396       0.00180256      -0.00028593
