41
Lattice="9.8418 0.0 0.0 -2.460449999999999 4.261624409482844 0.0 0.0 -0.0 34.16586254" Properties=species:S:1:pos:R:3:move_mask:L:1:spacegroup_kinds:I:1:tags:I:1 spacegroup="P 32 2 1" unit_cell=conventional surface=alpha_quartz_001 species=SiF4 site=atop_Si orientation=flipped height_A=6.5 substrate_atoms=36 calculation_kind="Rigid evaluated approach scan; not NEB" energy=-293.4365784659072 pbc="T T F"
Si       2.31725181       0.00000000      12.00000000  F        0        2
Si      -1.15862590       2.00679893      15.60606667  F        0        2
Si       1.30182410       2.25482548      13.80303333  F        0        2
O        1.38326499       1.13103512      12.65233746  F        1        2
O        0.28787265       1.76346018      14.95372921  F        1        2
O        3.24976236       0.63242506      16.25840413  F        1        2
O        0.78931236       3.62919935      13.15069587  F        1        2
O        2.74832265       2.49816423      14.45537079  F        1        2
O       -1.07718501       3.13058929      16.75676254  F        1        2
Si       2.31725181       0.00000000      17.40910000  F        0        1
Si      -1.15862590       2.00679893      21.01516667  F        0        1
Si       1.30182410       2.25482548      19.21213333  F        0        1
O        1.38326499       1.13103512      18.06143746  F        1        1
O        0.28787265       1.76346018      20.36282921  F        1        1
O        3.24976236       0.63242506      21.66750413  F        1        1
O        0.78931236       3.62919935      18.55979587  F        1        1
O        2.74832265       2.49816423      19.86447079  F        1        1
O       -1.07718501       3.13058929      22.16586254  F        1        1
Si       7.23815181       0.00000000      12.00000000  F        0        2
Si       3.76227409       2.00679893      15.60606667  F        0        2
Si       6.22272410       2.25482548      13.80303333  F        0        2
O        6.30416499       1.13103512      12.65233746  F        1        2
O        5.20877265       1.76346018      14.95372921  F        1        2
O        8.17066236       0.63242506      16.25840413  F        1        2
O        5.71021236       3.62919935      13.15069587  F        1        2
O        7.66922265       2.49816423      14.45537079  F        1        2
O        3.84371499       3.13058929      16.75676254  F        1        2
Si       7.23815181       0.00000000      17.40910000  F        0        1
Si       3.76227409       2.00679893      21.01516667  F        0        1
Si       6.22272410       2.25482548      19.21213333  F        0        1
O        6.30416499       1.13103512      18.06143746  F        1        1
O        5.20877265       1.76346018      20.36282921  F        1        1
O        8.17066236       0.63242506      21.66750413  F        1        1
O        5.71021236       3.62919935      18.55979587  F        1        1
O        7.66922265       2.49816423      19.86447079  F        1        1
O        3.84371499       3.13058929      22.16586254  F        1        1
Si       3.76227409       2.00679893      29.19319649  T        0        0
F        3.76227409       2.00679893      30.77519834  T        0        0
F        2.27074844       2.00679893      28.66586254  T        0        0
F        4.50803691       3.29849803      28.66586254  T        0        0
F        4.50803691       0.71509983      28.66586254  T        0        0
41
Lattice="9.8418 0.0 0.0 -2.460449999999999 4.261624409482844 0.0 0.0 -0.0 34.16586254" Properties=species:S:1:pos:R:3:move_mask:L:1:spacegroup_kinds:I:1:tags:I:1 spacegroup="P 32 2 1" unit_cell=conventional surface=alpha_quartz_001 species=SiF4 site=atop_Si orientation=flipped height_A=5.0 substrate_atoms=36 calculation_kind="Rigid evaluated approach scan; not NEB" energy=-293.4365784659072 pbc="T T F"
Si       2.31725181       0.00000000      12.00000000  F        0        2
Si      -1.15862590       2.00679893      15.60606667  F        0        2
Si       1.30182410       2.25482548      13.80303333  F        0        2
O        1.38326499       1.13103512      12.65233746  F        1        2
O        0.28787265       1.76346018      14.95372921  F        1        2
O        3.24976236       0.63242506      16.25840413  F        1        2
O        0.78931236       3.62919935      13.15069587  F        1        2
O        2.74832265       2.49816423      14.45537079  F        1        2
O       -1.07718501       3.13058929      16.75676254  F        1        2
Si       2.31725181       0.00000000      17.40910000  F        0        1
Si      -1.15862590       2.00679893      21.01516667  F        0        1
Si       1.30182410       2.25482548      19.21213333  F        0        1
O        1.38326499       1.13103512      18.06143746  F        1        1
O        0.28787265       1.76346018      20.36282921  F        1        1
O        3.24976236       0.63242506      21.66750413  F        1        1
O        0.78931236       3.62919935      18.55979587  F        1        1
O        2.74832265       2.49816423      19.86447079  F        1        1
O       -1.07718501       3.13058929      22.16586254  F        1        1
Si       7.23815181       0.00000000      12.00000000  F        0        2
Si       3.76227409       2.00679893      15.60606667  F        0        2
Si       6.22272410       2.25482548      13.80303333  F        0        2
O        6.30416499       1.13103512      12.65233746  F        1        2
O        5.20877265       1.76346018      14.95372921  F        1        2
O        8.17066236       0.63242506      16.25840413  F        1        2
O        5.71021236       3.62919935      13.15069587  F        1        2
O        7.66922265       2.49816423      14.45537079  F        1        2
O        3.84371499       3.13058929      16.75676254  F        1        2
Si       7.23815181       0.00000000      17.40910000  F        0        1
Si       3.76227409       2.00679893      21.01516667  F        0        1
Si       6.22272410       2.25482548      19.21213333  F        0        1
O        6.30416499       1.13103512      18.06143746  F        1        1
O        5.20877265       1.76346018      20.36282921  F        1        1
O        8.17066236       0.63242506      21.66750413  F        1        1
O        5.71021236       3.62919935      18.55979587  F        1        1
O        7.66922265       2.49816423      19.86447079  F        1        1
O        3.84371499       3.13058929      22.16586254  F        1        1
Si       3.76227409       2.00679893      27.69319649  T        0        0
F        3.76227409       2.00679893      29.27519834  T        0        0
F        2.27074844       2.00679893      27.16586254  T        0        0
F        4.50803691       3.29849803      27.16586254  T        0        0
F        4.50803691       0.71509983      27.16586254  T        0        0
41
Lattice="9.8418 0.0 0.0 -2.460449999999999 4.261624409482844 0.0 0.0 -0.0 34.16586254" Properties=species:S:1:pos:R:3:move_mask:L:1:spacegroup_kinds:I:1:tags:I:1 spacegroup="P 32 2 1" unit_cell=conventional surface=alpha_quartz_001 species=SiF4 site=atop_Si orientation=flipped height_A=4.0 substrate_atoms=36 calculation_kind="Rigid evaluated approach scan; not NEB" energy=-293.4479049413307 pbc="T T F"
Si       2.31725181       0.00000000      12.00000000  F        0        2
Si      -1.15862590       2.00679893      15.60606667  F        0        2
Si       1.30182410       2.25482548      13.80303333  F        0        2
O        1.38326499       1.13103512      12.65233746  F        1        2
O        0.28787265       1.76346018      14.95372921  F        1        2
O        3.24976236       0.63242506      16.25840413  F        1        2
O        0.78931236       3.62919935      13.15069587  F        1        2
O        2.74832265       2.49816423      14.45537079  F        1        2
O       -1.07718501       3.13058929      16.75676254  F        1        2
Si       2.31725181       0.00000000      17.40910000  F        0        1
Si      -1.15862590       2.00679893      21.01516667  F        0        1
Si       1.30182410       2.25482548      19.21213333  F        0        1
O        1.38326499       1.13103512      18.06143746  F        1        1
O        0.28787265       1.76346018      20.36282921  F        1        1
O        3.24976236       0.63242506      21.66750413  F        1        1
O        0.78931236       3.62919935      18.55979587  F        1        1
O        2.74832265       2.49816423      19.86447079  F        1        1
O       -1.07718501       3.13058929      22.16586254  F        1        1
Si       7.23815181       0.00000000      12.00000000  F        0        2
Si       3.76227409       2.00679893      15.60606667  F        0        2
Si       6.22272410       2.25482548      13.80303333  F        0        2
O        6.30416499       1.13103512      12.65233746  F        1        2
O        5.20877265       1.76346018      14.95372921  F        1        2
O        8.17066236       0.63242506      16.25840413  F        1        2
O        5.71021236       3.62919935      13.15069587  F        1        2
O        7.66922265       2.49816423      14.45537079  F        1        2
O        3.84371499       3.13058929      16.75676254  F        1        2
Si       7.23815181       0.00000000      17.40910000  F        0        1
Si       3.76227409       2.00679893      21.01516667  F        0        1
Si       6.22272410       2.25482548      19.21213333  F        0        1
O        6.30416499       1.13103512      18.06143746  F        1        1
O        5.20877265       1.76346018      20.36282921  F        1        1
O        8.17066236       0.63242506      21.66750413  F        1        1
O        5.71021236       3.62919935      18.55979587  F        1        1
O        7.66922265       2.49816423      19.86447079  F        1        1
O        3.84371499       3.13058929      22.16586254  F        1        1
Si       3.76227409       2.00679893      26.69319649  T        0        0
F        3.76227409       2.00679893      28.27519834  T        0        0
F        2.27074844       2.00679893      26.16586254  T        0        0
F        4.50803691       3.29849803      26.16586254  T        0        0
F        4.50803691       0.71509983      26.16586254  T        0        0
41
Lattice="9.8418 0.0 0.0 -2.460449999999999 4.261624409482844 0.0 0.0 -0.0 34.16586254" Properties=species:S:1:pos:R:3:move_mask:L:1:spacegroup_kinds:I:1:tags:I:1 spacegroup="P 32 2 1" unit_cell=conventional surface=alpha_quartz_001 species=SiF4 site=atop_Si orientation=flipped height_A=3.25 substrate_atoms=36 calculation_kind="Rigid evaluated approach scan; not NEB" energy=-293.5181442919393 pbc="T T F"
Si       2.31725181       0.00000000      12.00000000  F        0        2
Si      -1.15862590       2.00679893      15.60606667  F        0        2
Si       1.30182410       2.25482548      13.80303333  F        0        2
O        1.38326499       1.13103512      12.65233746  F        1        2
O        0.28787265       1.76346018      14.95372921  F        1        2
O        3.24976236       0.63242506      16.25840413  F        1        2
O        0.78931236       3.62919935      13.15069587  F        1        2
O        2.74832265       2.49816423      14.45537079  F        1        2
O       -1.07718501       3.13058929      16.75676254  F        1        2
Si       2.31725181       0.00000000      17.40910000  F        0        1
Si      -1.15862590       2.00679893      21.01516667  F        0        1
Si       1.30182410       2.25482548      19.21213333  F        0        1
O        1.38326499       1.13103512      18.06143746  F        1        1
O        0.28787265       1.76346018      20.36282921  F        1        1
O        3.24976236       0.63242506      21.66750413  F        1        1
O        0.78931236       3.62919935      18.55979587  F        1        1
O        2.74832265       2.49816423      19.86447079  F        1        1
O       -1.07718501       3.13058929      22.16586254  F        1        1
Si       7.23815181       0.00000000      12.00000000  F        0        2
Si       3.76227409       2.00679893      15.60606667  F        0        2
Si       6.22272410       2.25482548      13.80303333  F        0        2
O        6.30416499       1.13103512      12.65233746  F        1        2
O        5.20877265       1.76346018      14.95372921  F        1        2
O        8.17066236       0.63242506      16.25840413  F        1        2
O        5.71021236       3.62919935      13.15069587  F        1        2
O        7.66922265       2.49816423      14.45537079  F        1        2
O        3.84371499       3.13058929      16.75676254  F        1        2
Si       7.23815181       0.00000000      17.40910000  F        0        1
Si       3.76227409       2.00679893      21.01516667  F        0        1
Si       6.22272410       2.25482548      19.21213333  F        0        1
O        6.30416499       1.13103512      18.06143746  F        1        1
O        5.20877265       1.76346018      20.36282921  F        1        1
O        8.17066236       0.63242506      21.66750413  F        1        1
O        5.71021236       3.62919935      18.55979587  F        1        1
O        7.66922265       2.49816423      19.86447079  F        1        1
O        3.84371499       3.13058929      22.16586254  F        1        1
Si       3.76227409       2.00679893      25.94319649  T        0        0
F        3.76227409       2.00679893      27.52519834  T        0        0
F        2.27074844       2.00679893      25.41586254  T        0        0
F        4.50803691       3.29849803      25.41586254  T        0        0
F        4.50803691       0.71509983      25.41586254  T        0        0
41
Lattice="9.8418 0.0 0.0 -2.460449999999999 4.261624409482844 0.0 0.0 -0.0 34.16586254" Properties=species:S:1:pos:R:3:move_mask:L:1:spacegroup_kinds:I:1:tags:I:1 spacegroup="P 32 2 1" unit_cell=conventional surface=alpha_quartz_001 species=SiF4 site=atop_Si orientation=flipped height_A=2.75 substrate_atoms=36 calculation_kind="Rigid evaluated approach scan; not NEB" energy=-293.565281406552 pbc="T T F"
Si       2.31725181       0.00000000      12.00000000  F        0        2
Si      -1.15862590       2.00679893      15.60606667  F        0        2
Si       1.30182410       2.25482548      13.80303333  F        0        2
O        1.38326499       1.13103512      12.65233746  F        1        2
O        0.28787265       1.76346018      14.95372921  F        1        2
O        3.24976236       0.63242506      16.25840413  F        1        2
O        0.78931236       3.62919935      13.15069587  F        1        2
O        2.74832265       2.49816423      14.45537079  F        1        2
O       -1.07718501       3.13058929      16.75676254  F        1        2
Si       2.31725181       0.00000000      17.40910000  F        0        1
Si      -1.15862590       2.00679893      21.01516667  F        0        1
Si       1.30182410       2.25482548      19.21213333  F        0        1
O        1.38326499       1.13103512      18.06143746  F        1        1
O        0.28787265       1.76346018      20.36282921  F        1        1
O        3.24976236       0.63242506      21.66750413  F        1        1
O        0.78931236       3.62919935      18.55979587  F        1        1
O        2.74832265       2.49816423      19.86447079  F        1        1
O       -1.07718501       3.13058929      22.16586254  F        1        1
Si       7.23815181       0.00000000      12.00000000  F        0        2
Si       3.76227409       2.00679893      15.60606667  F        0        2
Si       6.22272410       2.25482548      13.80303333  F        0        2
O        6.30416499       1.13103512      12.65233746  F        1        2
O        5.20877265       1.76346018      14.95372921  F        1        2
O        8.17066236       0.63242506      16.25840413  F        1        2
O        5.71021236       3.62919935      13.15069587  F        1        2
O        7.66922265       2.49816423      14.45537079  F        1        2
O        3.84371499       3.13058929      16.75676254  F        1        2
Si       7.23815181       0.00000000      17.40910000  F        0        1
Si       3.76227409       2.00679893      21.01516667  F        0        1
Si       6.22272410       2.25482548      19.21213333  F        0        1
O        6.30416499       1.13103512      18.06143746  F        1        1
O        5.20877265       1.76346018      20.36282921  F        1        1
O        8.17066236       0.63242506      21.66750413  F        1        1
O        5.71021236       3.62919935      18.55979587  F        1        1
O        7.66922265       2.49816423      19.86447079  F        1        1
O        3.84371499       3.13058929      22.16586254  F        1        1
Si       3.76227409       2.00679893      25.44319649  T        0        0
F        3.76227409       2.00679893      27.02519834  T        0        0
F        2.27074844       2.00679893      24.91586254  T        0        0
F        4.50803691       3.29849803      24.91586254  T        0        0
F        4.50803691       0.71509983      24.91586254  T        0        0
41
Lattice="9.8418 0.0 0.0 -2.460449999999999 4.261624409482844 0.0 0.0 -0.0 34.16586254" Properties=species:S:1:pos:R:3:move_mask:L:1:spacegroup_kinds:I:1:tags:I:1 spacegroup="P 32 2 1" unit_cell=conventional surface=alpha_quartz_001 species=SiF4 site=atop_Si orientation=flipped height_A=2.25 substrate_atoms=36 calculation_kind="Rigid evaluated approach scan; not NEB" energy=-293.4154250568771 pbc="T T F"
Si       2.31725181       0.00000000      12.00000000  F        0        2
Si      -1.15862590       2.00679893      15.60606667  F        0        2
Si       1.30182410       2.25482548      13.80303333  F        0        2
O        1.38326499       1.13103512      12.65233746  F        1        2
O        0.28787265       1.76346018      14.95372921  F        1        2
O        3.24976236       0.63242506      16.25840413  F        1        2
O        0.78931236       3.62919935      13.15069587  F        1        2
O        2.74832265       2.49816423      14.45537079  F        1        2
O       -1.07718501       3.13058929      16.75676254  F        1        2
Si       2.31725181       0.00000000      17.40910000  F        0        1
Si      -1.15862590       2.00679893      21.01516667  F        0        1
Si       1.30182410       2.25482548      19.21213333  F        0        1
O        1.38326499       1.13103512      18.06143746  F        1        1
O        0.28787265       1.76346018      20.36282921  F        1        1
O        3.24976236       0.63242506      21.66750413  F        1        1
O        0.78931236       3.62919935      18.55979587  F        1        1
O        2.74832265       2.49816423      19.86447079  F        1        1
O       -1.07718501       3.13058929      22.16586254  F        1        1
Si       7.23815181       0.00000000      12.00000000  F        0        2
Si       3.76227409       2.00679893      15.60606667  F        0        2
Si       6.22272410       2.25482548      13.80303333  F        0        2
O        6.30416499       1.13103512      12.65233746  F        1        2
O        5.20877265       1.76346018      14.95372921  F        1        2
O        8.17066236       0.63242506      16.25840413  F        1        2
O        5.71021236       3.62919935      13.15069587  F        1        2
O        7.66922265       2.49816423      14.45537079  F        1        2
O        3.84371499       3.13058929      16.75676254  F        1        2
Si       7.23815181       0.00000000      17.40910000  F        0        1
Si       3.76227409       2.00679893      21.01516667  F        0        1
Si       6.22272410       2.25482548      19.21213333  F        0        1
O        6.30416499       1.13103512      18.06143746  F        1        1
O        5.20877265       1.76346018      20.36282921  F        1        1
O        8.17066236       0.63242506      21.66750413  F        1        1
O        5.71021236       3.62919935      18.55979587  F        1        1
O        7.66922265       2.49816423      19.86447079  F        1        1
O        3.84371499       3.13058929      22.16586254  F        1        1
Si       3.76227409       2.00679893      24.94319649  T        0        0
F        3.76227409       2.00679893      26.52519834  T        0        0
F        2.27074844       2.00679893      24.41586254  T        0        0
F        4.50803691       3.29849803      24.41586254  T        0        0
F        4.50803691       0.71509983      24.41586254  T        0        0
41
Lattice="9.8418 0.0 0.0 -2.460449999999999 4.261624409482844 0.0 0.0 -0.0 34.16586254" Properties=species:S:1:pos:R:3:move_mask:L:1:spacegroup_kinds:I:1:tags:I:1 spacegroup="P 32 2 1" unit_cell=conventional surface=alpha_quartz_001 species=SiF4 site=atop_Si orientation=flipped height_A=1.9 substrate_atoms=36 calculation_kind="Rigid evaluated approach scan; not NEB" energy=-292.92192595606906 pbc="T T F"
Si       2.31725181       0.00000000      12.00000000  F        0        2
Si      -1.15862590       2.00679893      15.60606667  F        0        2
Si       1.30182410       2.25482548      13.80303333  F        0        2
O        1.38326499       1.13103512      12.65233746  F        1        2
O        0.28787265       1.76346018      14.95372921  F        1        2
O        3.24976236       0.63242506      16.25840413  F        1        2
O        0.78931236       3.62919935      13.15069587  F        1        2
O        2.74832265       2.49816423      14.45537079  F        1        2
O       -1.07718501       3.13058929      16.75676254  F        1        2
Si       2.31725181       0.00000000      17.40910000  F        0        1
Si      -1.15862590       2.00679893      21.01516667  F        0        1
Si       1.30182410       2.25482548      19.21213333  F        0        1
O        1.38326499       1.13103512      18.06143746  F        1        1
O        0.28787265       1.76346018      20.36282921  F        1        1
O        3.24976236       0.63242506      21.66750413  F        1        1
O        0.78931236       3.62919935      18.55979587  F        1        1
O        2.74832265       2.49816423      19.86447079  F        1        1
O       -1.07718501       3.13058929      22.16586254  F        1        1
Si       7.23815181       0.00000000      12.00000000  F        0        2
Si       3.76227409       2.00679893      15.60606667  F        0        2
Si       6.22272410       2.25482548      13.80303333  F        0        2
O        6.30416499       1.13103512      12.65233746  F        1        2
O        5.20877265       1.76346018      14.95372921  F        1        2
O        8.17066236       0.63242506      16.25840413  F        1        2
O        5.71021236       3.62919935      13.15069587  F        1        2
O        7.66922265       2.49816423      14.45537079  F        1        2
O        3.84371499       3.13058929      16.75676254  F        1        2
Si       7.23815181       0.00000000      17.40910000  F        0        1
Si       3.76227409       2.00679893      21.01516667  F        0        1
Si       6.22272410       2.25482548      19.21213333  F        0        1
O        6.30416499       1.13103512      18.06143746  F        1        1
O        5.20877265       1.76346018      20.36282921  F        1        1
O        8.17066236       0.63242506      21.66750413  F        1        1
O        5.71021236       3.62919935      18.55979587  F        1        1
O        7.66922265       2.49816423      19.86447079  F        1        1
O        3.84371499       3.13058929      22.16586254  F        1        1
Si       3.76227409       2.00679893      24.59319649  T        0        0
F        3.76227409       2.00679893      26.17519834  T        0        0
F        2.27074844       2.00679893      24.06586254  T        0        0
F        4.50803691       3.29849803      24.06586254  T        0        0
F        4.50803691       0.71509983      24.06586254  T        0        0
41
Lattice="9.8418 0.0 0.0 -2.460449999999999 4.261624409482844 0.0 0.0 -0.0 34.16586254" Properties=species:S:1:pos:R:3:move_mask:L:1:spacegroup_kinds:I:1:tags:I:1 spacegroup="P 32 2 1" unit_cell=conventional surface=alpha_quartz_001 species=SiF4 site=atop_Si orientation=flipped height_A=1.6 substrate_atoms=36 calculation_kind="Rigid evaluated approach scan; not NEB" energy=-291.7052083000298 pbc="T T F"
Si       2.31725181       0.00000000      12.00000000  F        0        2
Si      -1.15862590       2.00679893      15.60606667  F        0        2
Si       1.30182410       2.25482548      13.80303333  F        0        2
O        1.38326499       1.13103512      12.65233746  F        1        2
O        0.28787265       1.76346018      14.95372921  F        1        2
O        3.24976236       0.63242506      16.25840413  F        1        2
O        0.78931236       3.62919935      13.15069587  F        1        2
O        2.74832265       2.49816423      14.45537079  F        1        2
O       -1.07718501       3.13058929      16.75676254  F        1        2
Si       2.31725181       0.00000000      17.40910000  F        0        1
Si      -1.15862590       2.00679893      21.01516667  F        0        1
Si       1.30182410       2.25482548      19.21213333  F        0        1
O        1.38326499       1.13103512      18.06143746  F        1        1
O        0.28787265       1.76346018      20.36282921  F        1        1
O        3.24976236       0.63242506      21.66750413  F        1        1
O        0.78931236       3.62919935      18.55979587  F        1        1
O        2.74832265       2.49816423      19.86447079  F        1        1
O       -1.07718501       3.13058929      22.16586254  F        1        1
Si       7.23815181       0.00000000      12.00000000  F        0        2
Si       3.76227409       2.00679893      15.60606667  F        0        2
Si       6.22272410       2.25482548      13.80303333  F        0        2
O        6.30416499       1.13103512      12.65233746  F        1        2
O        5.20877265       1.76346018      14.95372921  F        1        2
O        8.17066236       0.63242506      16.25840413  F        1        2
O        5.71021236       3.62919935      13.15069587  F        1        2
O        7.66922265       2.49816423      14.45537079  F        1        2
O        3.84371499       3.13058929      16.75676254  F        1        2
Si       7.23815181       0.00000000      17.40910000  F        0        1
Si       3.76227409       2.00679893      21.01516667  F        0        1
Si       6.22272410       2.25482548      19.21213333  F        0        1
O        6.30416499       1.13103512      18.06143746  F        1        1
O        5.20877265       1.76346018      20.36282921  F        1        1
O        8.17066236       0.63242506      21.66750413  F        1        1
O        5.71021236       3.62919935      18.55979587  F        1        1
O        7.66922265       2.49816423      19.86447079  F        1        1
O        3.84371499       3.13058929      22.16586254  F        1        1
Si       3.76227409       2.00679893      24.29319649  T        0        0
F        3.76227409       2.00679893      25.87519834  T        0        0
F        2.27074844       2.00679893      23.76586254  T        0        0
F        4.50803691       3.29849803      23.76586254  T        0        0
F        4.50803691       0.71509983      23.76586254  T        0        0
41
Lattice="9.8418 0.0 0.0 -2.460449999999999 4.261624409482844 0.0 0.0 -0.0 34.16586254" Properties=species:S:1:pos:R:3:move_mask:L:1:spacegroup_kinds:I:1:tags:I:1 spacegroup="P 32 2 1" unit_cell=conventional surface=alpha_quartz_001 species=SiF4 site=atop_Si orientation=flipped height_A=1.3 substrate_atoms=36 calculation_kind="Rigid evaluated approach scan; not NEB" energy=-289.21017975985626 pbc="T T F"
Si       2.31725181       0.00000000      12.00000000  F        0        2
Si      -1.15862590       2.00679893      15.60606667  F        0        2
Si       1.30182410       2.25482548      13.80303333  F        0        2
O        1.38326499       1.13103512      12.65233746  F        1        2
O        0.28787265       1.76346018      14.95372921  F        1        2
O        3.24976236       0.63242506      16.25840413  F        1        2
O        0.78931236       3.62919935      13.15069587  F        1        2
O        2.74832265       2.49816423      14.45537079  F        1        2
O       -1.07718501       3.13058929      16.75676254  F        1        2
Si       2.31725181       0.00000000      17.40910000  F        0        1
Si      -1.15862590       2.00679893      21.01516667  F        0        1
Si       1.30182410       2.25482548      19.21213333  F        0        1
O        1.38326499       1.13103512      18.06143746  F        1        1
O        0.28787265       1.76346018      20.36282921  F        1        1
O        3.24976236       0.63242506      21.66750413  F        1        1
O        0.78931236       3.62919935      18.55979587  F        1        1
O        2.74832265       2.49816423      19.86447079  F        1        1
O       -1.07718501       3.13058929      22.16586254  F        1        1
Si       7.23815181       0.00000000      12.00000000  F        0        2
Si       3.76227409       2.00679893      15.60606667  F        0        2
Si       6.22272410       2.25482548      13.80303333  F        0        2
O        6.30416499       1.13103512      12.65233746  F        1        2
O        5.20877265       1.76346018      14.95372921  F        1        2
O        8.17066236       0.63242506      16.25840413  F        1        2
O        5.71021236       3.62919935      13.15069587  F        1        2
O        7.66922265       2.49816423      14.45537079  F        1        2
O        3.84371499       3.13058929      16.75676254  F        1        2
Si       7.23815181       0.00000000      17.40910000  F        0        1
Si       3.76227409       2.00679893      21.01516667  F        0        1
Si       6.22272410       2.25482548      19.21213333  F        0        1
O        6.30416499       1.13103512      18.06143746  F        1        1
O        5.20877265       1.76346018      20.36282921  F        1        1
O        8.17066236       0.63242506      21.66750413  F        1        1
O        5.71021236       3.62919935      18.55979587  F        1        1
O        7.66922265       2.49816423      19.86447079  F        1        1
O        3.84371499       3.13058929      22.16586254  F        1        1
Si       3.76227409       2.00679893      23.99319649  T        0        0
F        3.76227409       2.00679893      25.57519834  T        0        0
F        2.27074844       2.00679893      23.46586254  T        0        0
F        4.50803691       3.29849803      23.46586254  T        0        0
F        4.50803691       0.71509983      23.46586254  T        0        0
