30
Lattice="7.6044 0.0 0.0 -3.802199999999998 6.585603580538386 0.0 0.0 -0.0 28.35945" Properties=species:S:1:pos:R:3:move_mask:L:1:spacegroup_kinds:I:1:tags:I:1:forces:R:3 surface=beta_Si3N4_001 calculation_kind="Single-HF reference relaxation; not a reaction path" energy=-222.08037038587926 pbc="T T F"
Si       5.18010587       1.14956320      12.00000000  F        0        2       1.68694457       1.18470292       1.61783947
Si      -1.37790587       5.43604038      13.45315000  F        0        2      -0.02647871       1.04827959      -2.00491085
Si       4.01879613       3.91132168      12.00000000  F        0        2      -1.94905946       0.77340983       1.25054878
Si      -0.21659613       2.67428190      13.45315000  F        0        2      -0.25776528      -0.58656953      -1.11271004
Si       2.20769800       1.52471870      12.00000000  F        0        2       0.20721191      -2.02022957       1.62978776
Si       1.59450200       5.06088488      13.45315000  F        0        2       0.77452612       0.03047849      -1.87438249
N       -1.02370433       2.17482973      12.00000000  F        1        2      -0.64264906      -0.62479994       0.23163401
N        4.82590433       4.41077385      13.45315000  F        1        2       0.68347619       0.34510839       0.55055957
N        2.43059437       4.61163476      12.00000000  F        1        2       0.87673389      -0.23873799       0.24317456
N        1.37160563       1.97396882      13.45315000  F        1        2       0.09648907       0.46531444       0.27166338
N       -1.40689004       6.38474267      12.00000000  F        1        2      -0.24582082       0.75075380       0.15232369
N        5.20909004       0.20086091      13.45315000  F        1        2      -0.16735462       0.18952960       0.20616028
N        3.80216198       2.19517924      12.00000000  F        2        2      -0.00657485       0.01671801      -1.73516826
N        0.00003802       4.39042434      13.45315000  F        2        2       0.04417693       0.30020962       0.92662478
Si       5.23580718       1.20994073      14.97312584  T        0        1      -0.20038183      -0.17763507       0.13101466
Si      -1.23380556       5.50517446      16.25140893  T        0        1       0.00268288      -0.39522548       0.03422268
Si       4.05689833       3.96892396      14.96563980  T        0        1       0.12974955       0.26799181      -0.01107584
Si      -0.03427960       2.67384655      16.44107002  T        0        1       0.04230923      -0.01269276      -0.28228019
Si       2.24570065       1.64335043      14.99510925  T        0        1      -0.10093039       0.09172092      -0.29424115
Si       1.51810987       5.25367207      16.23107938  T        0        1      -0.14229806      -0.04000893       0.00705473
N       -0.96670138       2.24636288      14.99977439  T        1        1       0.11992855       0.05393857      -0.19866320
N        4.93618563       4.57974097      16.38568103  T        1        1       0.02528596      -0.24979305       0.20051484
N        2.51122679       4.75660587      14.94714934  T        1        1      -0.11444124      -0.34604986       0.26312107
N        1.58030375       2.27632133      16.38375135  T        1        1      -0.17628591      -0.39589640      -0.07895236
N       -1.34031524       6.49193448      14.90832754  T        1        1      -0.14787481      -0.39358272      -0.19455926
N        5.01375651       0.27108533      16.35907429  T        1        1      -0.06182963      -0.14125430      -0.05275632
N        3.86037507       2.27923516      14.86777023  T        2        1       0.07133233       0.06974446      -0.01540519
N        0.05736943       4.46686646      16.74248812  T        2        1      -0.02104315      -0.03381184      -0.21872399
F       -0.97128296       2.09432660      17.62437827  T        0        0       0.17413549       0.27862223       0.33690908
H       -2.31725668       3.82459628      16.98872450  T        0        0      -0.67419486      -0.21023522       0.02067579
