38
Lattice="11.518769465528859 0.0 0.0 0.0 7.679179643685906 0.0 0.0 0.0 30.7875" Properties=species:S:1:pos:R:3:move_mask:L:1:tags:I:1:forces:R:3 surface=Si100 species=HF site=bridge_Si_Si orientation=upright height_A=6.5 substrate_atoms=36 calculation_kind="Rigid evaluated approach scan; not NEB" energy=-187.83852526514107 pbc="T T F"
Si       0.00000000       0.00000000      12.00000000  F        6      -0.00000004       0.00000000       0.24903484
Si       3.83958982       0.00000000      12.00000000  F        6      -0.00000000       0.00000000       0.24903482
Si       7.67917964       0.00000000      12.00000000  F        6       0.00000000       0.00000000       0.24903482
Si       0.00000000       3.83958982      12.00000000  F        6      -0.00000004      -0.00000000       0.24903484
Si       3.83958982       3.83958982      12.00000000  F        6      -0.00000000      -0.00000000       0.24903482
Si       7.67917964       3.83958982      12.00000000  F        6       0.00000000      -0.00000000       0.24903482
Si       1.91979491       0.00000000      13.35750000  F        5       0.00000000      -0.00000002      -0.52822352
Si       5.75938473       0.00000000      13.35750000  F        5       0.00000000      -0.00000002      -0.52822353
Si       9.59897455       0.00000000      13.35750000  F        5       0.00000003      -0.00000002      -0.52822354
Si       1.91979491       3.83958982      13.35750000  F        5       0.00000000       0.00000000      -0.52822354
Si       5.75938473       3.83958982      13.35750000  F        5       0.00000000       0.00000000      -0.52822354
Si       9.59897455       3.83958982      13.35750000  F        5       0.00000003       0.00000000      -0.52822356
Si       1.91979491       1.91979491      14.71500000  F        4      -0.00000000       0.00000000       0.14537709
Si       5.75938473       1.91979491      14.71500000  F        4       0.00000000       0.00000000       0.14537709
Si       9.59897455       1.91979491      14.71500000  F        4       0.00000004       0.00000000       0.14537711
Si       1.91979491       5.75938473      14.71500000  F        4      -0.00000000       0.00000002       0.14537707
Si       5.75938473       5.75938473      14.71500000  F        4       0.00000000       0.00000002       0.14537707
Si       9.59897455       5.75938473      14.71500000  F        4       0.00000004       0.00000002       0.14537709
Si       0.00000000       1.91979491      16.07250000  F        3      -0.00000004       0.00000000      -0.14537711
Si       3.83958982       1.91979491      16.07250000  F        3      -0.00000000       0.00000000      -0.14537709
Si       7.67917964       1.91979491      16.07250000  F        3       0.00000000       0.00000000      -0.14537709
Si       0.00000000       5.75938473      16.07250000  F        3      -0.00000004       0.00000002      -0.14537709
Si       3.83958982       5.75938473      16.07250000  F        3      -0.00000000       0.00000002      -0.14537707
Si       7.67917964       5.75938473      16.07250000  F        3       0.00000000       0.00000002      -0.14537707
Si       0.00000000       0.00000000      17.43000000  F        2      -0.00000003      -0.00000002       0.52822354
Si       3.83958982       0.00000000      17.43000000  F        2      -0.00000000      -0.00000002       0.52822353
Si       7.67917964       0.00000000      17.43000000  F        2      -0.00000000      -0.00000002       0.52822352
Si       0.00000000       3.83958982      17.43000000  F        2      -0.00000003       0.00000000       0.52822356
Si       3.83958982       3.83958982      17.43000000  F        2      -0.00000000       0.00000000       0.52822354
Si       7.67917964       3.83958982      17.43000000  F        2      -0.00000000       0.00000000       0.52822354
Si       1.91979491       0.00000000      18.78750000  F        1      -0.00000000       0.00000000      -0.24903482
Si       5.75938473       0.00000000      18.78750000  F        1       0.00000000       0.00000000      -0.24903482
Si       9.59897455       0.00000000      18.78750000  F        1       0.00000004       0.00000000      -0.24903484
Si       1.91979491       3.83958982      18.78750000  F        1      -0.00000000      -0.00000000      -0.24903482
Si       5.75938473       3.83958982      18.78750000  F        1       0.00000000      -0.00000000      -0.24903482
Si       9.59897455       3.83958982      18.78750000  F        1       0.00000004      -0.00000000      -0.24903484
F        7.67917964       3.83958982      25.28750000  T        0       0.00000000       0.00000000       0.00058289
H        7.67917964       3.83958982      26.24873254  T        0       0.00000000       0.00000000      -0.00058289
38
Lattice="11.518769465528859 0.0 0.0 0.0 7.679179643685906 0.0 0.0 0.0 30.7875" Properties=species:S:1:pos:R:3:move_mask:L:1:tags:I:1:forces:R:3 surface=Si100 species=HF site=bridge_Si_Si orientation=upright height_A=5.0 substrate_atoms=36 calculation_kind="Rigid evaluated approach scan; not NEB" energy=-187.83852526514107 pbc="T T F"
Si       0.00000000       0.00000000      12.00000000  F        6      -0.00000004       0.00000000       0.24903484
Si       3.83958982       0.00000000      12.00000000  F        6      -0.00000000       0.00000000       0.24903482
Si       7.67917964       0.00000000      12.00000000  F        6       0.00000000       0.00000000       0.24903482
Si       0.00000000       3.83958982      12.00000000  F        6      -0.00000004      -0.00000000       0.24903484
Si       3.83958982       3.83958982      12.00000000  F        6      -0.00000000      -0.00000000       0.24903482
Si       7.67917964       3.83958982      12.00000000  F        6       0.00000000      -0.00000000       0.24903482
Si       1.91979491       0.00000000      13.35750000  F        5       0.00000000      -0.00000002      -0.52822352
Si       5.75938473       0.00000000      13.35750000  F        5       0.00000000      -0.00000002      -0.52822353
Si       9.59897455       0.00000000      13.35750000  F        5       0.00000003      -0.00000002      -0.52822354
Si       1.91979491       3.83958982      13.35750000  F        5       0.00000000       0.00000000      -0.52822354
Si       5.75938473       3.83958982      13.35750000  F        5       0.00000000       0.00000000      -0.52822354
Si       9.59897455       3.83958982      13.35750000  F        5       0.00000003       0.00000000      -0.52822356
Si       1.91979491       1.91979491      14.71500000  F        4      -0.00000000       0.00000000       0.14537709
Si       5.75938473       1.91979491      14.71500000  F        4       0.00000000       0.00000000       0.14537709
Si       9.59897455       1.91979491      14.71500000  F        4       0.00000004       0.00000000       0.14537711
Si       1.91979491       5.75938473      14.71500000  F        4      -0.00000000       0.00000002       0.14537707
Si       5.75938473       5.75938473      14.71500000  F        4       0.00000000       0.00000002       0.14537707
Si       9.59897455       5.75938473      14.71500000  F        4       0.00000004       0.00000002       0.14537709
Si       0.00000000       1.91979491      16.07250000  F        3      -0.00000004       0.00000000      -0.14537711
Si       3.83958982       1.91979491      16.07250000  F        3      -0.00000000       0.00000000      -0.14537709
Si       7.67917964       1.91979491      16.07250000  F        3       0.00000000       0.00000000      -0.14537709
Si       0.00000000       5.75938473      16.07250000  F        3      -0.00000004       0.00000002      -0.14537709
Si       3.83958982       5.75938473      16.07250000  F        3      -0.00000000       0.00000002      -0.14537707
Si       7.67917964       5.75938473      16.07250000  F        3       0.00000000       0.00000002      -0.14537707
Si       0.00000000       0.00000000      17.43000000  F        2      -0.00000003      -0.00000002       0.52822354
Si       3.83958982       0.00000000      17.43000000  F        2      -0.00000000      -0.00000002       0.52822353
Si       7.67917964       0.00000000      17.43000000  F        2      -0.00000000      -0.00000002       0.52822352
Si       0.00000000       3.83958982      17.43000000  F        2      -0.00000003       0.00000000       0.52822356
Si       3.83958982       3.83958982      17.43000000  F        2      -0.00000000       0.00000000       0.52822354
Si       7.67917964       3.83958982      17.43000000  F        2      -0.00000000       0.00000000       0.52822354
Si       1.91979491       0.00000000      18.78750000  F        1      -0.00000000       0.00000000      -0.24903482
Si       5.75938473       0.00000000      18.78750000  F        1       0.00000000       0.00000000      -0.24903482
Si       9.59897455       0.00000000      18.78750000  F        1       0.00000004       0.00000000      -0.24903484
Si       1.91979491       3.83958982      18.78750000  F        1      -0.00000000      -0.00000000      -0.24903482
Si       5.75938473       3.83958982      18.78750000  F        1       0.00000000      -0.00000000      -0.24903482
Si       9.59897455       3.83958982      18.78750000  F        1       0.00000004      -0.00000000      -0.24903484
F        7.67917964       3.83958982      23.78750000  T        0       0.00000000       0.00000000       0.00058289
H        7.67917964       3.83958982      24.74873254  T        0       0.00000000       0.00000000      -0.00058289
38
Lattice="11.518769465528859 0.0 0.0 0.0 7.679179643685906 0.0 0.0 0.0 30.7875" Properties=species:S:1:pos:R:3:move_mask:L:1:tags:I:1:forces:R:3 surface=Si100 species=HF site=bridge_Si_Si orientation=upright height_A=4.0 substrate_atoms=36 calculation_kind="Rigid evaluated approach scan; not NEB" energy=-187.9632061666029 pbc="T T F"
Si       0.00000000       0.00000000      12.00000000  F        6       0.00004397       0.00000000       0.24955978
Si       3.83958982       0.00000000      12.00000000  F        6      -0.00004401       0.00000000       0.24955977
Si       7.67917964       0.00000000      12.00000000  F        6       0.00000000       0.00000000       0.24983601
Si       0.00000000       3.83958982      12.00000000  F        6       0.00017503      -0.00000000       0.24909347
Si       3.83958982       3.83958982      12.00000000  F        6      -0.00017506      -0.00000000       0.24909346
Si       7.67917964       3.83958982      12.00000000  F        6       0.00000000      -0.00000000       0.24907461
Si       1.91979491       0.00000000      13.35750000  F        5       0.00000000      -0.00000002      -0.52707773
Si       5.75938473       0.00000000      13.35750000  F        5       0.00027332      -0.00000002      -0.52752197
Si       9.59897455       0.00000000      13.35750000  F        5      -0.00027328      -0.00000002      -0.52752199
Si       1.91979491       3.83958982      13.35750000  F        5       0.00000000       0.00000000      -0.52703137
Si       5.75938473       3.83958982      13.35750000  F        5       0.00028061       0.00000000      -0.52616255
Si       9.59897455       3.83958982      13.35750000  F        5      -0.00028058       0.00000000      -0.52616257
Si       1.91979491       1.91979491      14.71500000  F        4      -0.00000000      -0.00030191       0.14771831
Si       5.75938473       1.91979491      14.71500000  F        4       0.00264044      -0.00176293       0.14457606
Si       9.59897455       1.91979491      14.71500000  F        4      -0.00264041      -0.00176293       0.14457608
Si       1.91979491       5.75938473      14.71500000  F        4      -0.00000000       0.00030193       0.14771830
Si       5.75938473       5.75938473      14.71500000  F        4       0.00264044       0.00176295       0.14457604
Si       9.59897455       5.75938473      14.71500000  F        4      -0.00264041       0.00176295       0.14457606
Si       0.00000000       1.91979491      16.07250000  F        3      -0.00132794       0.00385181      -0.14204832
Si       3.83958982       1.91979491      16.07250000  F        3       0.00132791       0.00385181      -0.14204830
Si       7.67917964       1.91979491      16.07250000  F        3       0.00000000       0.00283536      -0.14890710
Si       0.00000000       5.75938473      16.07250000  F        3      -0.00132794      -0.00385179      -0.14204831
Si       3.83958982       5.75938473      16.07250000  F        3       0.00132791      -0.00385179      -0.14204829
Si       7.67917964       5.75938473      16.07250000  F        3       0.00000000      -0.00283533      -0.14890708
Si       0.00000000       0.00000000      17.43000000  F        2       0.00099597      -0.00000002       0.52536067
Si       3.83958982       0.00000000      17.43000000  F        2      -0.00099600      -0.00000002       0.52536065
Si       7.67917964       0.00000000      17.43000000  F        2      -0.00000000      -0.00000002       0.52457890
Si       0.00000000       3.83958982      17.43000000  F        2      -0.00013576       0.00000000       0.53913645
Si       3.83958982       3.83958982      17.43000000  F        2       0.00013573       0.00000000       0.53913643
Si       7.67917964       3.83958982      17.43000000  F        2      -0.00000000       0.00000000       0.54369203
Si       1.91979491       0.00000000      18.78750000  F        1      -0.00000000       0.00000000      -0.24916412
Si       5.75938473       0.00000000      18.78750000  F        1      -0.00000527       0.00000000      -0.24952659
Si       9.59897455       0.00000000      18.78750000  F        1       0.00000531       0.00000000      -0.24952661
Si       1.91979491       3.83958982      18.78750000  F        1      -0.00000000      -0.00000000      -0.24801415
Si       5.75938473       3.83958982      18.78750000  F        1       0.09246073      -0.00000000      -0.12864922
Si       9.59897455       3.83958982      18.78750000  F        1      -0.09246070      -0.00000000      -0.12864924
F        7.67917964       3.83958982      22.78750000  T        0      -0.00000000       0.00000000      -0.05441001
H        7.67917964       3.83958982      23.74873254  T        0      -0.00000000       0.00000000      -0.23179753
38
Lattice="11.518769465528859 0.0 0.0 0.0 7.679179643685906 0.0 0.0 0.0 30.7875" Properties=species:S:1:pos:R:3:move_mask:L:1:tags:I:1:forces:R:3 surface=Si100 species=HF site=bridge_Si_Si orientation=upright height_A=3.25 substrate_atoms=36 calculation_kind="Rigid evaluated approach scan; not NEB" energy=-188.18241606949798 pbc="T T F"
Si       0.00000000       0.00000000      12.00000000  F        6       0.00030335       0.00000000       0.25026940
Si       3.83958982       0.00000000      12.00000000  F        6      -0.00030339       0.00000000       0.25026938
Si       7.67917964       0.00000000      12.00000000  F        6       0.00000000       0.00000000       0.25070225
Si       0.00000000       3.83958982      12.00000000  F        6       0.00063343      -0.00000000       0.24846251
Si       3.83958982       3.83958982      12.00000000  F        6      -0.00063347      -0.00000000       0.24846249
Si       7.67917964       3.83958982      12.00000000  F        6       0.00000000      -0.00000000       0.24788583
Si       1.91979491       0.00000000      13.35750000  F        5       0.00000000      -0.00000002      -0.52618730
Si       5.75938473       0.00000000      13.35750000  F        5       0.00021166      -0.00000002      -0.52788690
Si       9.59897455       0.00000000      13.35750000  F        5      -0.00021163      -0.00000002      -0.52788692
Si       1.91979491       3.83958982      13.35750000  F        5       0.00000000       0.00000000      -0.52602365
Si       5.75938473       3.83958982      13.35750000  F        5       0.00024934       0.00000000      -0.52516295
Si       9.59897455       3.83958982      13.35750000  F        5      -0.00024931       0.00000000      -0.52516297
Si       1.91979491       1.91979491      14.71500000  F        4      -0.00000000      -0.00271567       0.14835121
Si       5.75938473       1.91979491      14.71500000  F        4       0.00440125      -0.00193135       0.15252511
Si       9.59897455       1.91979491      14.71500000  F        4      -0.00440122      -0.00193135       0.15252513
Si       1.91979491       5.75938473      14.71500000  F        4      -0.00000000       0.00271569       0.14835119
Si       5.75938473       5.75938473      14.71500000  F        4       0.00440125       0.00193138       0.15252510
Si       9.59897455       5.75938473      14.71500000  F        4      -0.00440122       0.00193138       0.15252512
Si       0.00000000       1.91979491      16.07250000  F        3      -0.00546448       0.01734943      -0.13691401
Si       3.83958982       1.91979491      16.07250000  F        3       0.00546445       0.01734943      -0.13691399
Si       7.67917964       1.91979491      16.07250000  F        3       0.00000000       0.00497231      -0.15615412
Si       0.00000000       5.75938473      16.07250000  F        3      -0.00546448      -0.01734940      -0.13691400
Si       3.83958982       5.75938473      16.07250000  F        3       0.00546445      -0.01734940      -0.13691398
Si       7.67917964       5.75938473      16.07250000  F        3       0.00000000      -0.00497229      -0.15615410
Si       0.00000000       0.00000000      17.43000000  F        2       0.00263914      -0.00000002       0.51676295
Si       3.83958982       0.00000000      17.43000000  F        2      -0.00263917      -0.00000002       0.51676293
Si       7.67917964       0.00000000      17.43000000  F        2      -0.00000000      -0.00000002       0.51406320
Si       0.00000000       3.83958982      17.43000000  F        2      -0.02474024       0.00000000       0.54210401
Si       3.83958982       3.83958982      17.43000000  F        2       0.02474020       0.00000000       0.54210399
Si       7.67917964       3.83958982      17.43000000  F        2      -0.00000000       0.00000000       0.60011217
Si       1.91979491       0.00000000      18.78750000  F        1      -0.00000000       0.00000000      -0.24641514
Si       5.75938473       0.00000000      18.78750000  F        1       0.00265840       0.00000000      -0.23986062
Si       9.59897455       0.00000000      18.78750000  F        1      -0.00265836       0.00000000      -0.23986063
Si       1.91979491       3.83958982      18.78750000  F        1      -0.00000000      -0.00000000      -0.24813938
Si       5.75938473       3.83958982      18.78750000  F        1       0.03396219      -0.00000000      -0.17116680
Si       9.59897455       3.83958982      18.78750000  F        1      -0.03396215      -0.00000000      -0.17116682
F        7.67917964       3.83958982      22.03750000  T        0      -0.00000000       0.00000000       0.10345777
H        7.67917964       3.83958982      22.99873254  T        0      -0.00000000      -0.00000000      -0.40333746
38
Lattice="11.518769465528859 0.0 0.0 0.0 7.679179643685906 0.0 0.0 0.0 30.7875" Properties=species:S:1:pos:R:3:move_mask:L:1:tags:I:1:forces:R:3 surface=Si100 species=HF site=bridge_Si_Si orientation=upright height_A=2.75 substrate_atoms=36 calculation_kind="Rigid evaluated approach scan; not NEB" energy=-188.30537510779524 pbc="T T F"
Si       0.00000000       0.00000000      12.00000000  F        6       0.00029205       0.00000000       0.24992265
Si       3.83958982       0.00000000      12.00000000  F        6      -0.00029209       0.00000000       0.24992263
Si       7.67917964       0.00000000      12.00000000  F        6       0.00000000       0.00000000       0.24949475
Si       0.00000000       3.83958982      12.00000000  F        6       0.00044325      -0.00000000       0.24863611
Si       3.83958982       3.83958982      12.00000000  F        6      -0.00044329      -0.00000000       0.24863610
Si       7.67917964       3.83958982      12.00000000  F        6       0.00000000      -0.00000000       0.24740756
Si       1.91979491       0.00000000      13.35750000  F        5       0.00000000      -0.00000002      -0.52716053
Si       5.75938473       0.00000000      13.35750000  F        5      -0.00102091      -0.00000002      -0.52876632
Si       9.59897455       0.00000000      13.35750000  F        5       0.00102094      -0.00000002      -0.52876634
Si       1.91979491       3.83958982      13.35750000  F        5       0.00000000       0.00000000      -0.52790325
Si       5.75938473       3.83958982      13.35750000  F        5       0.00099334       0.00000000      -0.52351114
Si       9.59897455       3.83958982      13.35750000  F        5      -0.00099331       0.00000000      -0.52351116
Si       1.91979491       1.91979491      14.71500000  F        4      -0.00000000      -0.00163193       0.14692097
Si       5.75938473       1.91979491      14.71500000  F        4       0.00952385       0.00061985       0.15860658
Si       9.59897455       1.91979491      14.71500000  F        4      -0.00952381       0.00061985       0.15860660
Si       1.91979491       5.75938473      14.71500000  F        4      -0.00000000       0.00163196       0.14692096
Si       5.75938473       5.75938473      14.71500000  F        4       0.00952385      -0.00061983       0.15860657
Si       9.59897455       5.75938473      14.71500000  F        4      -0.00952381      -0.00061983       0.15860659
Si       0.00000000       1.91979491      16.07250000  F        3      -0.00826755       0.02100113      -0.13233709
Si       3.83958982       1.91979491      16.07250000  F        3       0.00826751       0.02100113      -0.13233707
Si       7.67917964       1.91979491      16.07250000  F        3       0.00000000       0.00892546      -0.14584790
Si       0.00000000       5.75938473      16.07250000  F        3      -0.00826755      -0.02100111      -0.13233707
Si       3.83958982       5.75938473      16.07250000  F        3       0.00826751      -0.02100111      -0.13233705
Si       7.67917964       5.75938473      16.07250000  F        3       0.00000000      -0.00892543      -0.14584788
Si       0.00000000       0.00000000      17.43000000  F        2       0.00365691      -0.00000002       0.52438248
Si       3.83958982       0.00000000      17.43000000  F        2      -0.00365695      -0.00000002       0.52438246
Si       7.67917964       0.00000000      17.43000000  F        2      -0.00000000      -0.00000002       0.50517976
Si       0.00000000       3.83958982      17.43000000  F        2      -0.03254013       0.00000000       0.51674564
Si       3.83958982       3.83958982      17.43000000  F        2       0.03254009       0.00000000       0.51674562
Si       7.67917964       3.83958982      17.43000000  F        2      -0.00000000       0.00000000       0.53819729
Si       1.91979491       0.00000000      18.78750000  F        1      -0.00000000       0.00000000      -0.25205139
Si       5.75938473       0.00000000      18.78750000  F        1       0.00545707       0.00000000      -0.24184788
Si       9.59897455       0.00000000      18.78750000  F        1      -0.00545703       0.00000000      -0.24184789
Si       1.91979491       3.83958982      18.78750000  F        1      -0.00000000      -0.00000000      -0.25135384
Si       5.75938473       3.83958982      18.78750000  F        1      -0.01909207      -0.00000000      -0.14018148
Si       9.59897455       3.83958982      18.78750000  F        1       0.01909211      -0.00000000      -0.14018150
F        7.67917964       3.83958982      21.53750000  T        0      -0.00000000       0.00000000       0.41359400
H        7.67917964       3.83958982      22.49873254  T        0       0.00000000      -0.00000000      -0.71338854
38
Lattice="11.518769465528859 0.0 0.0 0.0 7.679179643685906 0.0 0.0 0.0 30.7875" Properties=species:S:1:pos:R:3:move_mask:L:1:tags:I:1:forces:R:3 surface=Si100 species=HF site=bridge_Si_Si orientation=upright height_A=2.25 substrate_atoms=36 calculation_kind="Rigid evaluated approach scan; not NEB" energy=-188.434984553307 pbc="T T F"
Si       0.00000000       0.00000000      12.00000000  F        6       0.00074608       0.00000000       0.24866913
Si       3.83958982       0.00000000      12.00000000  F        6      -0.00074612       0.00000000       0.24866912
Si       7.67917964       0.00000000      12.00000000  F        6       0.00000000       0.00000000       0.24728625
Si       0.00000000       3.83958982      12.00000000  F        6       0.00015179      -0.00000000       0.24840105
Si       3.83958982       3.83958982      12.00000000  F        6      -0.00015183      -0.00000000       0.24840104
Si       7.67917964       3.83958982      12.00000000  F        6       0.00000000      -0.00000000       0.24739185
Si       1.91979491       0.00000000      13.35750000  F        5       0.00000000      -0.00000002      -0.52810462
Si       5.75938473       0.00000000      13.35750000  F        5      -0.00234371      -0.00000002      -0.52871520
Si       9.59897455       0.00000000      13.35750000  F        5       0.00234374      -0.00000002      -0.52871522
Si       1.91979491       3.83958982      13.35750000  F        5       0.00000000       0.00000000      -0.53115027
Si       5.75938473       3.83958982      13.35750000  F        5       0.00690322       0.00000000      -0.51246799
Si       9.59897455       3.83958982      13.35750000  F        5      -0.00690319       0.00000000      -0.51246801
Si       1.91979491       1.91979491      14.71500000  F        4      -0.00000000       0.00365002       0.14916180
Si       5.75938473       1.91979491      14.71500000  F        4       0.02043219       0.00386599       0.15926949
Si       9.59897455       1.91979491      14.71500000  F        4      -0.02043216       0.00386599       0.15926951
Si       1.91979491       5.75938473      14.71500000  F        4      -0.00000000      -0.00365000       0.14916179
Si       5.75938473       5.75938473      14.71500000  F        4       0.02043219      -0.00386596       0.15926948
Si       9.59897455       5.75938473      14.71500000  F        4      -0.02043216      -0.00386596       0.15926950
Si       0.00000000       1.91979491      16.07250000  F        3      -0.01085148       0.01738494      -0.12655590
Si       3.83958982       1.91979491      16.07250000  F        3       0.01085145       0.01738494      -0.12655588
Si       7.67917964       1.91979491      16.07250000  F        3       0.00000000       0.02428958      -0.13713880
Si       0.00000000       5.75938473      16.07250000  F        3      -0.01085148      -0.01738492      -0.12655589
Si       3.83958982       5.75938473      16.07250000  F        3       0.01085145      -0.01738492      -0.12655587
Si       7.67917964       5.75938473      16.07250000  F        3       0.00000000      -0.02428956      -0.13713878
Si       0.00000000       0.00000000      17.43000000  F        2       0.00819072      -0.00000002       0.53621008
Si       3.83958982       0.00000000      17.43000000  F        2      -0.00819075      -0.00000002       0.53621006
Si       7.67917964       0.00000000      17.43000000  F        2      -0.00000000      -0.00000002       0.48398317
Si       0.00000000       3.83958982      17.43000000  F        2       0.05386580       0.00000000       0.40881258
Si       3.83958982       3.83958982      17.43000000  F        2      -0.05386584       0.00000000       0.40881256
Si       7.67917964       3.83958982      17.43000000  F        2      -0.00000000       0.00000000       0.40476937
Si       1.91979491       0.00000000      18.78750000  F        1      -0.00000000       0.00000000      -0.26272561
Si       5.75938473       0.00000000      18.78750000  F        1       0.01680240       0.00000000      -0.22276163
Si       9.59897455       0.00000000      18.78750000  F        1      -0.01680237       0.00000000      -0.22276164
Si       1.91979491       3.83958982      18.78750000  F        1      -0.00000000      -0.00000000      -0.22250430
Si       5.75938473       3.83958982      18.78750000  F        1      -0.03709798      -0.00000000      -0.14163300
Si       9.59897455       3.83958982      18.78750000  F        1       0.03709802      -0.00000000      -0.14163302
F        7.67917964       3.83958982      21.03750000  T        0       0.00000000      -0.00000000       0.75728230
H        7.67917964       3.83958982      21.99873254  T        0       0.00000000      -0.00000000      -0.82415853
38
Lattice="11.518769465528859 0.0 0.0 0.0 7.679179643685906 0.0 0.0 0.0 30.7875" Properties=species:S:1:pos:R:3:move_mask:L:1:tags:I:1:forces:R:3 surface=Si100 species=HF site=bridge_Si_Si orientation=upright height_A=1.9 substrate_atoms=36 calculation_kind="Rigid evaluated approach scan; not NEB" energy=-188.38360224513215 pbc="T T F"
Si       0.00000000       0.00000000      12.00000000  F        6       0.00158626       0.00000000       0.24762571
Si       3.83958982       0.00000000      12.00000000  F        6      -0.00158630       0.00000000       0.24762569
Si       7.67917964       0.00000000      12.00000000  F        6       0.00000000       0.00000000       0.24652971
Si       0.00000000       3.83958982      12.00000000  F        6       0.00043478      -0.00000000       0.24698029
Si       3.83958982       3.83958982      12.00000000  F        6      -0.00043481      -0.00000000       0.24698027
Si       7.67917964       3.83958982      12.00000000  F        6       0.00000000      -0.00000000       0.24727165
Si       1.91979491       0.00000000      13.35750000  F        5       0.00000000      -0.00000002      -0.52796969
Si       5.75938473       0.00000000      13.35750000  F        5      -0.00236255      -0.00000002      -0.52911793
Si       9.59897455       0.00000000      13.35750000  F        5       0.00236258      -0.00000002      -0.52911795
Si       1.91979491       3.83958982      13.35750000  F        5       0.00000000       0.00000000      -0.53513747
Si       5.75938473       3.83958982      13.35750000  F        5       0.01352974       0.00000000      -0.50377617
Si       9.59897455       3.83958982      13.35750000  F        5      -0.01352971       0.00000000      -0.50377618
Si       1.91979491       1.91979491      14.71500000  F        4      -0.00000000       0.00576317       0.15008907
Si       5.75938473       1.91979491      14.71500000  F        4       0.02694996       0.00654980       0.16543709
Si       9.59897455       1.91979491      14.71500000  F        4      -0.02694992       0.00654980       0.16543711
Si       1.91979491       5.75938473      14.71500000  F        4      -0.00000000      -0.00576315       0.15008906
Si       5.75938473       5.75938473      14.71500000  F        4       0.02694996      -0.00654978       0.16543708
Si       9.59897455       5.75938473      14.71500000  F        4      -0.02694992      -0.00654978       0.16543710
Si       0.00000000       1.91979491      16.07250000  F        3      -0.01833307       0.02572317      -0.11935023
Si       3.83958982       1.91979491      16.07250000  F        3       0.01833303       0.02572317      -0.11935021
Si       7.67917964       1.91979491      16.07250000  F        3       0.00000000       0.01681107      -0.15099505
Si       0.00000000       5.75938473      16.07250000  F        3      -0.01833307      -0.02572314      -0.11935021
Si       3.83958982       5.75938473      16.07250000  F        3       0.01833303      -0.02572314      -0.11935019
Si       7.67917964       5.75938473      16.07250000  F        3       0.00000000      -0.01681105      -0.15099503
Si       0.00000000       0.00000000      17.43000000  F        2       0.00440305      -0.00000002       0.54423825
Si       3.83958982       0.00000000      17.43000000  F        2      -0.00440308      -0.00000002       0.54423823
Si       7.67917964       0.00000000      17.43000000  F        2      -0.00000000      -0.00000002       0.45650767
Si       0.00000000       3.83958982      17.43000000  F        2       0.14850778       0.00000000       0.31527507
Si       3.83958982       3.83958982      17.43000000  F        2      -0.14850781       0.00000000       0.31527505
Si       7.67917964       3.83958982      17.43000000  F        2      -0.00000000       0.00000000       0.35248737
Si       1.91979491       0.00000000      18.78750000  F        1      -0.00000000       0.00000000      -0.26786110
Si       5.75938473       0.00000000      18.78750000  F        1       0.04487824       0.00000000      -0.17673928
Si       9.59897455       0.00000000      18.78750000  F        1      -0.04487820       0.00000000      -0.17673929
Si       1.91979491       3.83958982      18.78750000  F        1      -0.00000000      -0.00000000      -0.18959338
Si       5.75938473       3.83958982      18.78750000  F        1      -0.18006352      -0.00000000      -0.28773925
Si       9.59897455       3.83958982      18.78750000  F        1       0.18006356      -0.00000000      -0.28773927
F        7.67917964       3.83958982      20.68750000  T        0       0.00000000      -0.00000000       1.22419665
H        7.67917964       3.83958982      21.64873254  T        0       0.00000000      -0.00000000      -0.90246023
38
Lattice="11.518769465528859 0.0 0.0 0.0 7.679179643685906 0.0 0.0 0.0 30.7875" Properties=species:S:1:pos:R:3:move_mask:L:1:tags:I:1:forces:R:3 surface=Si100 species=HF site=bridge_Si_Si orientation=upright height_A=1.6 substrate_atoms=36 calculation_kind="Rigid evaluated approach scan; not NEB" energy=-188.27944650108694 pbc="T T F"
Si       0.00000000       0.00000000      12.00000000  F        6       0.00219026       0.00000000       0.24762206
Si       3.83958982       0.00000000      12.00000000  F        6      -0.00219030       0.00000000       0.24762204
Si       7.67917964       0.00000000      12.00000000  F        6       0.00000000       0.00000000       0.24454095
Si       0.00000000       3.83958982      12.00000000  F        6       0.00136084      -0.00000000       0.24517047
Si       3.83958982       3.83958982      12.00000000  F        6      -0.00136088      -0.00000000       0.24517045
Si       7.67917964       3.83958982      12.00000000  F        6       0.00000000      -0.00000000       0.24499824
Si       1.91979491       0.00000000      13.35750000  F        5       0.00000000      -0.00000002      -0.52687340
Si       5.75938473       0.00000000      13.35750000  F        5      -0.00258747      -0.00000002      -0.52863145
Si       9.59897455       0.00000000      13.35750000  F        5       0.00258751      -0.00000002      -0.52863147
Si       1.91979491       3.83958982      13.35750000  F        5       0.00000000       0.00000000      -0.53775253
Si       5.75938473       3.83958982      13.35750000  F        5       0.01360826       0.00000000      -0.50425093
Si       9.59897455       3.83958982      13.35750000  F        5      -0.01360823       0.00000000      -0.50425094
Si       1.91979491       1.91979491      14.71500000  F        4      -0.00000000       0.00470516       0.15039998
Si       5.75938473       1.91979491      14.71500000  F        4       0.03115177       0.00745132       0.18820218
Si       9.59897455       1.91979491      14.71500000  F        4      -0.03115173       0.00745132       0.18820220
Si       1.91979491       5.75938473      14.71500000  F        4      -0.00000000      -0.00470514       0.15039997
Si       5.75938473       5.75938473      14.71500000  F        4       0.03115177      -0.00745129       0.18820217
Si       9.59897455       5.75938473      14.71500000  F        4      -0.03115173      -0.00745129       0.18820219
Si       0.00000000       1.91979491      16.07250000  F        3      -0.03072158       0.03156766      -0.11677070
Si       3.83958982       1.91979491      16.07250000  F        3       0.03072154       0.03156766      -0.11677068
Si       7.67917964       1.91979491      16.07250000  F        3       0.00000000      -0.00716996      -0.18639972
Si       0.00000000       5.75938473      16.07250000  F        3      -0.03072158      -0.03156764      -0.11677068
Si       3.83958982       5.75938473      16.07250000  F        3       0.03072154      -0.03156764      -0.11677066
Si       7.67917964       5.75938473      16.07250000  F        3       0.00000000       0.00716998      -0.18639971
Si       0.00000000       0.00000000      17.43000000  F        2      -0.00052539      -0.00000002       0.53990180
Si       3.83958982       0.00000000      17.43000000  F        2       0.00052536      -0.00000002       0.53990178
Si       7.67917964       0.00000000      17.43000000  F        2      -0.00000000      -0.00000002       0.40970492
Si       0.00000000       3.83958982      17.43000000  F        2       0.17544802       0.00000000       0.28944831
Si       3.83958982       3.83958982      17.43000000  F        2      -0.17544806       0.00000000       0.28944829
Si       7.67917964       3.83958982      17.43000000  F        2      -0.00000000       0.00000000       0.10521922
Si       1.91979491       0.00000000      18.78750000  F        1      -0.00000000       0.00000000      -0.26863190
Si       5.75938473       0.00000000      18.78750000  F        1       0.02640226       0.00000000      -0.17248339
Si       9.59897455       0.00000000      18.78750000  F        1      -0.02640222       0.00000000      -0.17248341
Si       1.91979491       3.83958982      18.78750000  F        1      -0.00000000      -0.00000000      -0.15767811
Si       5.75938473       3.83958982      18.78750000  F        1      -0.08292924      -0.00000000      -0.12308347
Si       9.59897455       3.83958982      18.78750000  F        1       0.08292928      -0.00000000      -0.12308349
F        7.67917964       3.83958982      20.38750000  T        0      -0.00000000       0.00000000       0.86764809
H        7.67917964       3.83958982      21.34873254  T        0       0.00000000      -0.00000000      -0.58228868
38
Lattice="11.518769465528859 0.0 0.0 0.0 7.679179643685906 0.0 0.0 0.0 30.7875" Properties=species:S:1:pos:R:3:move_mask:L:1:tags:I:1:forces:R:3 surface=Si100 species=HF site=bridge_Si_Si orientation=upright height_A=1.3 substrate_atoms=36 calculation_kind="Rigid evaluated approach scan; not NEB" energy=-188.2277863465446 pbc="T T F"
Si       0.00000000       0.00000000      12.00000000  F        6       0.00221021       0.00000000       0.24944764
Si       3.83958982       0.00000000      12.00000000  F        6      -0.00221025       0.00000000       0.24944762
Si       7.67917964       0.00000000      12.00000000  F        6       0.00000000       0.00000000       0.23709443
Si       0.00000000       3.83958982      12.00000000  F        6       0.00368292      -0.00000000       0.24295970
Si       3.83958982       3.83958982      12.00000000  F        6      -0.00368295      -0.00000000       0.24295968
Si       7.67917964       3.83958982      12.00000000  F        6       0.00000000      -0.00000000       0.23938919
Si       1.91979491       0.00000000      13.35750000  F        5       0.00000000      -0.00000002      -0.52372846
Si       5.75938473       0.00000000      13.35750000  F        5      -0.00419747      -0.00000002      -0.52512879
Si       9.59897455       0.00000000      13.35750000  F        5       0.00419751      -0.00000002      -0.52512881
Si       1.91979491       3.83958982      13.35750000  F        5       0.00000000       0.00000000      -0.53521014
Si       5.75938473       3.83958982      13.35750000  F        5       0.00239621       0.00000000      -0.51444157
Si       9.59897455       3.83958982      13.35750000  F        5      -0.00239618       0.00000000      -0.51444159
Si       1.91979491       1.91979491      14.71500000  F        4      -0.00000000      -0.00056102       0.14977158
Si       5.75938473       1.91979491      14.71500000  F        4       0.03396170       0.00351924       0.22440058
Si       9.59897455       1.91979491      14.71500000  F        4      -0.03396166       0.00351924       0.22440060
Si       1.91979491       5.75938473      14.71500000  F        4      -0.00000000       0.00056104       0.14977157
Si       5.75938473       5.75938473      14.71500000  F        4       0.03396170      -0.00351921       0.22440057
Si       9.59897455       5.75938473      14.71500000  F        4      -0.03396166      -0.00351921       0.22440059
Si       0.00000000       1.91979491      16.07250000  F        3      -0.04065554       0.03739620      -0.11747103
Si       3.83958982       1.91979491      16.07250000  F        3       0.04065550       0.03739620      -0.11747101
Si       7.67917964       1.91979491      16.07250000  F        3       0.00000000       0.01118896      -0.20282224
Si       0.00000000       5.75938473      16.07250000  F        3      -0.04065554      -0.03739618      -0.11747102
Si       3.83958982       5.75938473      16.07250000  F        3       0.04065550      -0.03739618      -0.11747100
Si       7.67917964       5.75938473      16.07250000  F        3       0.00000000      -0.01118894      -0.20282223
Si       0.00000000       0.00000000      17.43000000  F        2       0.00479803      -0.00000002       0.51014602
Si       3.83958982       0.00000000      17.43000000  F        2      -0.00479807      -0.00000002       0.51014600
Si       7.67917964       0.00000000      17.43000000  F        2      -0.00000000      -0.00000002       0.27444635
Si       0.00000000       3.83958982      17.43000000  F        2       0.18961456       0.00000000       0.29158358
Si       3.83958982       3.83958982      17.43000000  F        2      -0.18961460       0.00000000       0.29158356
Si       7.67917964       3.83958982      17.43000000  F        2      -0.00000000       0.00000000      -0.19777724
Si       1.91979491       0.00000000      18.78750000  F        1      -0.00000000       0.00000000      -0.26138616
Si       5.75938473       0.00000000      18.78750000  F        1      -0.02374975       0.00000000      -0.15644541
Si       9.59897455       0.00000000      18.78750000  F        1       0.02374979       0.00000000      -0.15644543
Si       1.91979491       3.83958982      18.78750000  F        1      -0.00000000      -0.00000000      -0.13754449
Si       5.75938473       3.83958982      18.78750000  F        1       0.29300685      -0.00000000       0.10548745
Si       9.59897455       3.83958982      18.78750000  F        1      -0.29300681      -0.00000000       0.10548744
F        7.67917964       3.83958982      20.08750000  T        0       0.00000000       0.00000000       0.10559437
H        7.67917964       3.83958982      21.04873254  T        0       0.00000000       0.00000000       0.07028811
