179
Lattice="15.361187714496559 0.0 0.0 0.0 15.361187714496559 0.0 0.0 0.0 29.50425" Properties=species:S:1:pos:R:3:move_mask:L:1:momenta:R:3 source_member=data/TS/t1/CONTCAR source_doi=10.5281/zenodo.10211009 role=source_named_TS_unverified_here pbc="T T T"
H       13.44078277       0.17173739      20.82632983  T       0.00000000       0.00000000       0.00000000
H       13.44138182       3.67032753      20.82319578  T       0.00000000       0.00000000       0.00000000
H        9.60134982       3.66904800      20.82285824  T       0.00000000       0.00000000       0.00000000
H        9.60175591       0.17246508      20.82362638  T       0.00000000       0.00000000       0.00000000
H        5.76233781       3.66992111      20.82276641  T       0.00000000       0.00000000       0.00000000
H        5.76196297       0.17113421      20.82417502  T       0.00000000       0.00000000       0.00000000
H        1.92262295       0.16893791      20.82708272  T       0.00000000       0.00000000       0.00000000
H        1.92260742       3.66839524      20.82307328  T       0.00000000       0.00000000       0.00000000
H       13.44471673      11.35058660      20.83750486  T       0.00000000       0.00000000       0.00000000
H       13.43437633       7.84805008      20.83179979  T       0.00000000       0.00000000       0.00000000
H        9.59932593      11.34904540      20.82357347  T       0.00000000       0.00000000       0.00000000
H        9.60064029       7.84918489      20.82178898  T       0.00000000       0.00000000       0.00000000
H        5.77003091      11.34798854      20.83099580  T       0.00000000       0.00000000       0.00000000
H        5.78080199       7.85056779      20.83099807  T       0.00000000       0.00000000       0.00000000
H        5.76044539      14.63312426       9.15706861  F       0.00000000       0.00000000       0.00000000
H        1.92014846      12.24895424       9.15706861  F       0.00000000       0.00000000       0.00000000
H        1.92014846      14.63312426       9.15706861  F       0.00000000       0.00000000       0.00000000
H        5.76044539       0.72806346       9.15706861  F       0.00000000       0.00000000       0.00000000
H        5.76044539       3.11223347       9.15706861  F       0.00000000       0.00000000       0.00000000
H        5.76044539       4.56836038       9.15706861  F       0.00000000       0.00000000       0.00000000
H        5.76044539       6.95253040       9.15706861  F       0.00000000       0.00000000       0.00000000
H        5.76044539       8.40865731       9.15706861  F       0.00000000       0.00000000       0.00000000
H        5.76044539      10.79282733       9.15706861  F       0.00000000       0.00000000       0.00000000
H        5.76044539      12.24895424       9.15706861  F       0.00000000       0.00000000       0.00000000
H       13.44103925      12.24895424       9.15706861  F       0.00000000       0.00000000       0.00000000
H        9.60074232       0.72806346       9.15706861  F       0.00000000       0.00000000       0.00000000
H        1.92014846      10.79282733       9.15706861  F       0.00000000       0.00000000       0.00000000
H        9.60074232       3.11223347       9.15706861  F       0.00000000       0.00000000       0.00000000
H        9.60074232       6.95253040       9.15706861  F       0.00000000       0.00000000       0.00000000
H        9.60074232       8.40865731       9.15706861  F       0.00000000       0.00000000       0.00000000
H        9.60074232      10.79282733       9.15706861  F       0.00000000       0.00000000       0.00000000
H        9.60074232      12.24895424       9.15706861  F       0.00000000       0.00000000       0.00000000
H        9.60074232      14.63312426       9.15706861  F       0.00000000       0.00000000       0.00000000
H       13.44103925       0.72806346       9.15706861  F       0.00000000       0.00000000       0.00000000
H       13.44103925       3.11223347       9.15706861  F       0.00000000       0.00000000       0.00000000
H       13.44103925       4.56836038       9.15706861  F       0.00000000       0.00000000       0.00000000
H       13.44103925       6.95253040       9.15706861  F       0.00000000       0.00000000       0.00000000
H       13.44103925       8.40865731       9.15706861  F       0.00000000       0.00000000       0.00000000
H       13.44103925      10.79282733       9.15706861  F       0.00000000       0.00000000       0.00000000
H        9.60074232       4.56836038       9.15706861  F       0.00000000       0.00000000       0.00000000
H        1.92014846       8.40865731       9.15706861  F       0.00000000       0.00000000       0.00000000
H       13.44103925      14.63312426       9.15706861  F       0.00000000       0.00000000       0.00000000
H        1.92014846       6.95253040       9.15706861  F       0.00000000       0.00000000       0.00000000
H        1.92014846       3.11223347       9.15706861  F       0.00000000       0.00000000       0.00000000
H        1.92014846       0.72806346       9.15706861  F       0.00000000       0.00000000       0.00000000
H        1.92014846       4.56836038       9.15706861  F       0.00000000       0.00000000       0.00000000
Si       9.60220329      13.44059841      15.50387203  T       0.00000000       0.00000000       0.00000000
Si       7.68338989      13.44325735      16.92206785  T       0.00000000       0.00000000       0.00000000
Si       7.68698450      11.42291810      18.19040359  T       0.00000000       0.00000000       0.00000000
Si       9.60119561      10.80666160      19.42099061  T       0.00000000       0.00000000       0.00000000
Si      15.34855580       7.77849581      18.19412345  T       0.00000000       0.00000000       0.00000000
Si      13.44103925       1.92014846      10.00000000  F       0.00000000       0.00000000       0.00000000
Si      11.52089079       1.92014846      11.35775000  F       0.00000000       0.00000000       0.00000000
Si      11.52089079       0.00000000      12.71550000  F       0.00000000       0.00000000       0.00000000
Si      13.44103925       0.00000000      14.07325000  F       0.00000000       0.00000000       0.00000000
Si      13.44203875       1.91988115      15.38573807  T       0.00000000       0.00000000       0.00000000
Si      11.52173562       1.92069677      16.70710461  T       0.00000000       0.00000000       0.00000000
Si       9.60074232      11.52089079      14.07325000  F       0.00000000       0.00000000       0.00000000
Si       1.92197784       0.70944969      19.42457942  T       0.00000000       0.00000000       0.00000000
Si       7.68059386      11.52089079      12.71550000  F       0.00000000       0.00000000       0.00000000
Si       9.60074232      13.44103925      10.00000000  F       0.00000000       0.00000000       0.00000000
Si       1.92014846       5.76044539      10.00000000  F       0.00000000       0.00000000       0.00000000
Si       9.60157032       8.39099840      19.41878871  T       0.00000000       0.00000000       0.00000000
Si       7.68539194       7.77688709      18.19014568  T       0.00000000       0.00000000       0.00000000
Si       7.67974341       9.59945094      16.70447873  T       0.00000000       0.00000000       0.00000000
Si       9.59976788       9.60043891      15.38542631  T       0.00000000       0.00000000       0.00000000
Si       9.60074232       7.68059386      14.07325000  F       0.00000000       0.00000000       0.00000000
Si       7.68059386       7.68059386      12.71550000  F       0.00000000       0.00000000       0.00000000
Si       7.68059386       9.60074232      11.35775000  F       0.00000000       0.00000000       0.00000000
Si       9.60074232       9.60074232      10.00000000  F       0.00000000       0.00000000       0.00000000
Si       0.00000000       5.76044539      11.35775000  F       0.00000000       0.00000000       0.00000000
Si       0.00000000       3.84029693      12.71550000  F       0.00000000       0.00000000       0.00000000
Si       9.60189885       3.12854338      19.41946366  T       0.00000000       0.00000000       0.00000000
Si       7.68059386      13.44103925      11.35775000  F       0.00000000       0.00000000       0.00000000
Si      11.52215874       0.09807867      18.19373446  T       0.00000000       0.00000000       0.00000000
Si      13.44037818       0.71192174      19.42323931  T       0.00000000       0.00000000       0.00000000
Si       0.00049393       0.10167859      18.19777112  T       0.00000000       0.00000000       0.00000000
Si      13.42611844      10.80380183      19.43741927  T       0.00000000       0.00000000       0.00000000
Si      11.51831744      11.42269656      18.19537624  T       0.00000000       0.00000000       0.00000000
Si      11.52177925      13.44108122      16.92316990  T       0.00000000       0.00000000       0.00000000
Si      13.43790434      13.44223944      15.50003123  T       0.00000000       0.00000000       0.00000000
Si      13.44103925      11.52089079      14.07325000  F       0.00000000       0.00000000       0.00000000
Si      11.52089079      11.52089079      12.71550000  F       0.00000000       0.00000000       0.00000000
Si      11.52089079      13.44103925      11.35775000  F       0.00000000       0.00000000       0.00000000
Si      13.44103925      13.44103925      10.00000000  F       0.00000000       0.00000000       0.00000000
Si       0.00000000       1.92014846      11.35775000  F       0.00000000       0.00000000       0.00000000
Si       0.00000000       0.00000000      12.71550000  F       0.00000000       0.00000000       0.00000000
Si      13.43350556       8.38751243      19.42689773  T       0.00000000       0.00000000       0.00000000
Si      11.51912234       7.77710398      18.19229699  T       0.00000000       0.00000000       0.00000000
Si      11.51982528       9.60096598      16.70693391  T       0.00000000       0.00000000       0.00000000
Si      13.43308669       9.60016212      15.37818829  T       0.00000000       0.00000000       0.00000000
Si      13.44103925       7.68059386      14.07325000  F       0.00000000       0.00000000       0.00000000
Si      11.52089079       7.68059386      12.71550000  F       0.00000000       0.00000000       0.00000000
Si      11.52089079       9.60074232      11.35775000  F       0.00000000       0.00000000       0.00000000
Si      13.44103925       9.60074232      10.00000000  F       0.00000000       0.00000000       0.00000000
Si       1.92014846       0.00000000      14.07325000  F       0.00000000       0.00000000       0.00000000
Si       1.92054590       1.91990051      15.38531954  T       0.00000000       0.00000000       0.00000000
Si      13.44236551       3.12807597      19.42031774  T       0.00000000       0.00000000       0.00000000
Si      11.52250351       3.74316901      18.19404169  T       0.00000000       0.00000000       0.00000000
Si      11.52254950       5.75910790      16.92069342  T       0.00000000       0.00000000       0.00000000
Si      13.44193731       5.76021312      15.50235658  T       0.00000000       0.00000000       0.00000000
Si      13.44103925       3.84029693      14.07325000  F       0.00000000       0.00000000       0.00000000
Si      11.52089079       3.84029693      12.71550000  F       0.00000000       0.00000000       0.00000000
Si      11.52089079       5.76044539      11.35775000  F       0.00000000       0.00000000       0.00000000
Si      13.44103925       5.76044539      10.00000000  F       0.00000000       0.00000000       0.00000000
Si       0.00103333       1.92114661      16.70723662  T       0.00000000       0.00000000       0.00000000
Si       7.68203295       3.74334823      18.19233765  T       0.00000000       0.00000000       0.00000000
Si       7.68259299       5.75959314      16.91903757  T       0.00000000       0.00000000       0.00000000
Si       9.60074232       3.84029693      14.07325000  F       0.00000000       0.00000000       0.00000000
Si       1.92445722       8.34344829      19.40824167  T       0.00000000       0.00000000       0.00000000
Si       5.76262397       3.12829065      19.41988593  T       0.00000000       0.00000000       0.00000000
Si       3.84222226       3.74168620      18.19415522  T       0.00000000       0.00000000       0.00000000
Si       3.84948187       5.75204007      16.91631491  T       0.00000000       0.00000000       0.00000000
Si       5.76496178       5.75892765      15.49914553  T       0.00000000       0.00000000       0.00000000
Si       5.76044539       3.84029693      14.07325000  F       0.00000000       0.00000000       0.00000000
Si       3.84029693       3.84029693      12.71550000  F       0.00000000       0.00000000       0.00000000
Si       3.84029693       5.76044539      11.35775000  F       0.00000000       0.00000000       0.00000000
Si       5.76044539       5.76044539      10.00000000  F       0.00000000       0.00000000       0.00000000
Si       0.00000000       9.60074232      11.35775000  F       0.00000000       0.00000000       0.00000000
Si       0.00000000       7.68059386      12.71550000  F       0.00000000       0.00000000       0.00000000
Si       5.76290429       0.71249516      19.42136051  T       0.00000000       0.00000000       0.00000000
Si       3.84229298       0.10283929      18.19494017  T       0.00000000       0.00000000       0.00000000
Si       3.84095115       1.92195270      16.70661461  T       0.00000000       0.00000000       0.00000000
Si       5.76107020       1.91985196      15.38544946  T       0.00000000       0.00000000       0.00000000
Si       5.76044539       0.00000000      14.07325000  F       0.00000000       0.00000000       0.00000000
Si       3.84029693       0.00000000      12.71550000  F       0.00000000       0.00000000       0.00000000
Si       3.84029693       1.92014846      11.35775000  F       0.00000000       0.00000000       0.00000000
Si       5.76044539       1.92014846      10.00000000  F       0.00000000       0.00000000       0.00000000
Si       1.92014846       7.68059386      14.07325000  F       0.00000000       0.00000000       0.00000000
Si       1.91758798       9.60070605      15.39473860  T       0.00000000       0.00000000       0.00000000
Si       1.92376896      10.77508831      19.24563812  T       0.00000000       0.00000000       0.00000000
Si      15.30984237      11.43052527      18.17155394  T       0.00000000       0.00000000       0.00000000
Si      15.35633757      13.45429145      16.91602052  T       0.00000000       0.00000000       0.00000000
Si       1.92074536      13.44028283      15.50328616  T       0.00000000       0.00000000       0.00000000
Si       1.92014846      11.52089079      14.07325000  F       0.00000000       0.00000000       0.00000000
Si       0.00000000      11.52089079      12.71550000  F       0.00000000       0.00000000       0.00000000
Si       0.00000000      13.44103925      11.35775000  F       0.00000000       0.00000000       0.00000000
Si       1.92014846      13.44103925      10.00000000  F       0.00000000       0.00000000       0.00000000
Si      15.34712663       9.59313848      16.70420409  T       0.00000000       0.00000000       0.00000000
Si       1.92014846       9.60074232      10.00000000  F       0.00000000       0.00000000       0.00000000
Si       9.60229494       5.76026263      15.50309295  T       0.00000000       0.00000000       0.00000000
Si       5.76044539       9.60074232      10.00000000  F       0.00000000       0.00000000       0.00000000
Si       3.84029693       7.68059386      12.71550000  F       0.00000000       0.00000000       0.00000000
Si       7.68059386       3.84029693      12.71550000  F       0.00000000       0.00000000       0.00000000
Si       7.68059386       5.76044539      11.35775000  F       0.00000000       0.00000000       0.00000000
Si       9.60074232       5.76044539      10.00000000  F       0.00000000       0.00000000       0.00000000
Si       1.92014846       3.84029693      14.07325000  F       0.00000000       0.00000000       0.00000000
Si       1.92093752       5.76118452      15.50664202  T       0.00000000       0.00000000       0.00000000
Si       9.60234231       0.71233935      19.42008239  T       0.00000000       0.00000000       0.00000000
Si       7.68199629       0.09865887      18.19427097  T       0.00000000       0.00000000       0.00000000
Si       7.68158882       1.91981923      16.70610827  T       0.00000000       0.00000000       0.00000000
Si       9.60156466       1.91984326      15.38522854  T       0.00000000       0.00000000       0.00000000
Si       9.60074232       0.00000000      14.07325000  F       0.00000000       0.00000000       0.00000000
Si       7.68059386       0.00000000      12.71550000  F       0.00000000       0.00000000       0.00000000
Si       7.68059386       1.92014846      11.35775000  F       0.00000000       0.00000000       0.00000000
Si       9.60074232       1.92014846      10.00000000  F       0.00000000       0.00000000       0.00000000
Si      15.35842790       5.76073815      16.92294945  T       0.00000000       0.00000000       0.00000000
Si       0.00162711       3.74372941      18.19424275  T       0.00000000       0.00000000       0.00000000
Si       5.78052526      10.80213728      19.43010564  T       0.00000000       0.00000000       0.00000000
Si       3.89686094      11.44820467      18.17009915  T       0.00000000       0.00000000       0.00000000
Si       3.85246558      13.46130649      16.90681202  T       0.00000000       0.00000000       0.00000000
Si       5.77010073      13.44402302      15.49598805  T       0.00000000       0.00000000       0.00000000
Si       5.76044539      11.52089079      14.07325000  F       0.00000000       0.00000000       0.00000000
Si       3.84029693      11.52089079      12.71550000  F       0.00000000       0.00000000       0.00000000
Si       3.84029693      13.44103925      11.35775000  F       0.00000000       0.00000000       0.00000000
Si       5.76044539      13.44103925      10.00000000  F       0.00000000       0.00000000       0.00000000
Si       1.92192064       3.12695312      19.42011119  T       0.00000000       0.00000000       0.00000000
Si       5.77285354       8.38530846      19.42524213  T       0.00000000       0.00000000       0.00000000
Si       3.85974897       7.75782768      18.19676401  T       0.00000000       0.00000000       0.00000000
Si       3.83889823       9.59118975      16.72176668  T       0.00000000       0.00000000       0.00000000
Si       5.75824606       9.60008739      15.38682823  T       0.00000000       0.00000000       0.00000000
Si       5.76044539       7.68059386      14.07325000  F       0.00000000       0.00000000       0.00000000
Si       3.84029693       9.60074232      11.35775000  F       0.00000000       0.00000000       0.00000000
Si       1.92014846       1.92014846      10.00000000  F       0.00000000       0.00000000       0.00000000
Si       2.05146337       9.79235864      21.34067025  T       0.00000000       0.00000000       0.00000000
Cl       1.29535356      11.40779865      23.05669881  T       0.00000000       0.00000000       0.00000000
H        3.33784076       9.52865099      22.04958064  T       0.00000000       0.00000000       0.00000000
H        0.92927021       8.96054122      22.28075007  T       0.00000000       0.00000000       0.00000000
H        0.90285548       9.77840570      22.77348315  T       0.00000000       0.00000000       0.00000000
181
Lattice="15.361187714496559 0.0 0.0 0.0 15.361187714496559 0.0 0.0 0.0 29.50425" Properties=species:S:1:pos:R:3:move_mask:L:1:momenta:R:3 source_member=data/TS/t10/CONTCAR source_doi=10.5281/zenodo.10211009 role=source_named_TS_unverified_here pbc="T T T"
H        1.83680777      11.40592714      20.81975107  T       0.00000000       0.00000000       0.00000000
H       13.44408752       0.15649441      20.81638238  T       0.00000000       0.00000000       0.00000000
H       13.43420484       3.65910281      20.84206893  T       0.00000000       0.00000000       0.00000000
H        9.59735683       3.66852938      20.82464512  T       0.00000000       0.00000000       0.00000000
H        9.60199569       0.17180323      20.82092028  T       0.00000000       0.00000000       0.00000000
H        5.76580603       3.65731740      20.82727271  T       0.00000000       0.00000000       0.00000000
H        5.75818447       0.16102343      20.81751151  T       0.00000000       0.00000000       0.00000000
H        1.92177695       0.12043084      20.79640874  T       0.00000000       0.00000000       0.00000000
H        1.96149796       3.54743998      20.85810807  T       0.00000000       0.00000000       0.00000000
H       13.44983853      11.39188053      20.79028686  T       0.00000000       0.00000000       0.00000000
H       13.42122290       7.92336993      20.81436853  T       0.00000000       0.00000000       0.00000000
H        9.58973790      11.35501097      20.81681487  T       0.00000000       0.00000000       0.00000000
H        9.58033301       7.85492131      20.81333973  T       0.00000000       0.00000000       0.00000000
H        5.76970984      11.35428264      20.82742607  T       0.00000000       0.00000000       0.00000000
H        5.83266374       7.83295188      20.80967803  T       0.00000000       0.00000000       0.00000000
H        5.76044539      14.63312426       9.15706861  F       0.00000000       0.00000000       0.00000000
H        1.92014846      12.24895424       9.15706861  F       0.00000000       0.00000000       0.00000000
H        1.92014846      14.63312426       9.15706861  F       0.00000000       0.00000000       0.00000000
H        5.76044539       0.72806346       9.15706861  F       0.00000000       0.00000000       0.00000000
H        5.76044539       3.11223347       9.15706861  F       0.00000000       0.00000000       0.00000000
H        5.76044539       4.56836038       9.15706861  F       0.00000000       0.00000000       0.00000000
H        5.76044539       6.95253040       9.15706861  F       0.00000000       0.00000000       0.00000000
H        5.76044539       8.40865731       9.15706861  F       0.00000000       0.00000000       0.00000000
H        5.76044539      10.79282733       9.15706861  F       0.00000000       0.00000000       0.00000000
H        5.76044539      12.24895424       9.15706861  F       0.00000000       0.00000000       0.00000000
H       13.44103925      12.24895424       9.15706861  F       0.00000000       0.00000000       0.00000000
H        9.60074232       0.72806346       9.15706861  F       0.00000000       0.00000000       0.00000000
H        1.92014846      10.79282733       9.15706861  F       0.00000000       0.00000000       0.00000000
H        9.60074232       3.11223347       9.15706861  F       0.00000000       0.00000000       0.00000000
H        9.60074232       6.95253040       9.15706861  F       0.00000000       0.00000000       0.00000000
H        9.60074232       8.40865731       9.15706861  F       0.00000000       0.00000000       0.00000000
H        9.60074232      10.79282733       9.15706861  F       0.00000000       0.00000000       0.00000000
H        9.60074232      12.24895424       9.15706861  F       0.00000000       0.00000000       0.00000000
H        9.60074232      14.63312426       9.15706861  F       0.00000000       0.00000000       0.00000000
H       13.44103925       0.72806346       9.15706861  F       0.00000000       0.00000000       0.00000000
H       13.44103925       3.11223347       9.15706861  F       0.00000000       0.00000000       0.00000000
H       13.44103925       4.56836038       9.15706861  F       0.00000000       0.00000000       0.00000000
H       13.44103925       6.95253040       9.15706861  F       0.00000000       0.00000000       0.00000000
H       13.44103925       8.40865731       9.15706861  F       0.00000000       0.00000000       0.00000000
H       13.44103925      10.79282733       9.15706861  F       0.00000000       0.00000000       0.00000000
H        9.60074232       4.56836038       9.15706861  F       0.00000000       0.00000000       0.00000000
H        1.92014846       8.40865731       9.15706861  F       0.00000000       0.00000000       0.00000000
H       13.44103925      14.63312426       9.15706861  F       0.00000000       0.00000000       0.00000000
H        1.92014846       6.95253040       9.15706861  F       0.00000000       0.00000000       0.00000000
H        1.92014846       3.11223347       9.15706861  F       0.00000000       0.00000000       0.00000000
H        1.92014846       0.72806346       9.15706861  F       0.00000000       0.00000000       0.00000000
H        1.92014846       4.56836038       9.15706861  F       0.00000000       0.00000000       0.00000000
Si       9.59461454      13.44318521      15.49863794  T       0.00000000       0.00000000       0.00000000
Si       7.67781658      13.44552351      16.91849567  T       0.00000000       0.00000000       0.00000000
Si       7.67042061      11.42817256      18.18607766  T       0.00000000       0.00000000       0.00000000
Si       9.58748723      10.81336579      19.41442129  T       0.00000000       0.00000000       0.00000000
Si       0.00835278       7.80960026      18.19546578  T       0.00000000       0.00000000       0.00000000
Si      13.44103925       1.92014846      10.00000000  F       0.00000000       0.00000000       0.00000000
Si      11.52089079       1.92014846      11.35775000  F       0.00000000       0.00000000       0.00000000
Si      11.52089079       0.00000000      12.71550000  F       0.00000000       0.00000000       0.00000000
Si      13.44103925       0.00000000      14.07325000  F       0.00000000       0.00000000       0.00000000
Si      13.44422951       1.92158695      15.38670023  T       0.00000000       0.00000000       0.00000000
Si      11.52362928       1.92965211      16.70788153  T       0.00000000       0.00000000       0.00000000
Si       9.60074232      11.52089079      14.07325000  F       0.00000000       0.00000000       0.00000000
Si       1.92282438       0.67953314      19.39988678  T       0.00000000       0.00000000       0.00000000
Si       7.68059386      11.52089079      12.71550000  F       0.00000000       0.00000000       0.00000000
Si       9.60074232      13.44103925      10.00000000  F       0.00000000       0.00000000       0.00000000
Si       1.92014846       5.76044539      10.00000000  F       0.00000000       0.00000000       0.00000000
Si       9.59774182       8.39746532      19.41173043  T       0.00000000       0.00000000       0.00000000
Si       7.69000601       7.78002445      18.17046198  T       0.00000000       0.00000000       0.00000000
Si       7.67600417       9.60755852      16.69827735  T       0.00000000       0.00000000       0.00000000
Si       9.59265225       9.60292787      15.37729869  T       0.00000000       0.00000000       0.00000000
Si       9.60074232       7.68059386      14.07325000  F       0.00000000       0.00000000       0.00000000
Si       7.68059386       7.68059386      12.71550000  F       0.00000000       0.00000000       0.00000000
Si       7.68059386       9.60074232      11.35775000  F       0.00000000       0.00000000       0.00000000
Si       9.60074232       9.60074232      10.00000000  F       0.00000000       0.00000000       0.00000000
Si       0.00000000       5.76044539      11.35775000  F       0.00000000       0.00000000       0.00000000
Si       0.00000000       3.84029693      12.71550000  F       0.00000000       0.00000000       0.00000000
Si       9.60254673       3.13143690      19.42023109  T       0.00000000       0.00000000       0.00000000
Si       7.68059386      13.44103925      11.35775000  F       0.00000000       0.00000000       0.00000000
Si      11.52140943       0.10556870      18.19140115  T       0.00000000       0.00000000       0.00000000
Si      13.44165579       0.71373029      19.41952091  T       0.00000000       0.00000000       0.00000000
Si      15.35478604       0.10266272      18.18032590  T       0.00000000       0.00000000       0.00000000
Si      13.42339974      10.84071758      19.39211992  T       0.00000000       0.00000000       0.00000000
Si      11.49781713      11.44127195      18.17825283  T       0.00000000       0.00000000       0.00000000
Si      11.51050804      13.45560724      16.91308153  T       0.00000000       0.00000000       0.00000000
Si      13.42952225      13.44300384      15.49452039  T       0.00000000       0.00000000       0.00000000
Si      13.44103925      11.52089079      14.07325000  F       0.00000000       0.00000000       0.00000000
Si      11.52089079      11.52089079      12.71550000  F       0.00000000       0.00000000       0.00000000
Si      11.52089079      13.44103925      11.35775000  F       0.00000000       0.00000000       0.00000000
Si      13.44103925      13.44103925      10.00000000  F       0.00000000       0.00000000       0.00000000
Si       0.00000000       1.92014846      11.35775000  F       0.00000000       0.00000000       0.00000000
Si       0.00000000       0.00000000      12.71550000  F       0.00000000       0.00000000       0.00000000
Si      13.44100244       8.43327497      19.40705833  T       0.00000000       0.00000000       0.00000000
Si      11.52181771       7.78901331      18.18585182  T       0.00000000       0.00000000       0.00000000
Si      11.50596891       9.61010497      16.70265523  T       0.00000000       0.00000000       0.00000000
Si      13.42409313       9.60043571      15.37945965  T       0.00000000       0.00000000       0.00000000
Si      13.44103925       7.68059386      14.07325000  F       0.00000000       0.00000000       0.00000000
Si      11.52089079       7.68059386      12.71550000  F       0.00000000       0.00000000       0.00000000
Si      11.52089079       9.60074232      11.35775000  F       0.00000000       0.00000000       0.00000000
Si      13.44103925       9.60074232      10.00000000  F       0.00000000       0.00000000       0.00000000
Si       1.92014846       0.00000000      14.07325000  F       0.00000000       0.00000000       0.00000000
Si       1.91791917       1.92072233      15.38769241  T       0.00000000       0.00000000       0.00000000
Si      13.44613865       3.13146246      19.43662530  T       0.00000000       0.00000000       0.00000000
Si      11.52852148       3.74689713      18.20221836  T       0.00000000       0.00000000       0.00000000
Si      11.52099165       5.76325532      16.92483227  T       0.00000000       0.00000000       0.00000000
Si      13.44585686       5.76369572      15.51239707  T       0.00000000       0.00000000       0.00000000
Si      13.44103925       3.84029693      14.07325000  F       0.00000000       0.00000000       0.00000000
Si      11.52089079       3.84029693      12.71550000  F       0.00000000       0.00000000       0.00000000
Si      11.52089079       5.76044539      11.35775000  F       0.00000000       0.00000000       0.00000000
Si      13.44103925       5.76044539      10.00000000  F       0.00000000       0.00000000       0.00000000
Si      15.36070773       1.93985401      16.71288699  T       0.00000000       0.00000000       0.00000000
Si       7.68063198       3.74245624      18.19549207  T       0.00000000       0.00000000       0.00000000
Si       7.67871657       5.75547684      16.91631821  T       0.00000000       0.00000000       0.00000000
Si       9.60074232       3.84029693      14.07325000  F       0.00000000       0.00000000       0.00000000
Si       1.98192955       8.51767002      19.33318583  T       0.00000000       0.00000000       0.00000000
Si       5.76220781       3.12356896      19.42242525  T       0.00000000       0.00000000       0.00000000
Si       3.83419687       3.72944149      18.20795403  T       0.00000000       0.00000000       0.00000000
Si       3.82945681       5.74487716      16.92908257  T       0.00000000       0.00000000       0.00000000
Si       5.75386143       5.76023575      15.50737852  T       0.00000000       0.00000000       0.00000000
Si       5.76044539       3.84029693      14.07325000  F       0.00000000       0.00000000       0.00000000
Si       3.84029693       3.84029693      12.71550000  F       0.00000000       0.00000000       0.00000000
Si       3.84029693       5.76044539      11.35775000  F       0.00000000       0.00000000       0.00000000
Si       5.76044539       5.76044539      10.00000000  F       0.00000000       0.00000000       0.00000000
Si       0.00000000       9.60074232      11.35775000  F       0.00000000       0.00000000       0.00000000
Si       0.00000000       7.68059386      12.71550000  F       0.00000000       0.00000000       0.00000000
Si       5.76002646       0.70668089      19.41638285  T       0.00000000       0.00000000       0.00000000
Si       3.84643542       0.08910670      18.18061920  T       0.00000000       0.00000000       0.00000000
Si       3.84200670       1.92008020      16.70428016  T       0.00000000       0.00000000       0.00000000
Si       5.76165069       1.92001397      15.38477990  T       0.00000000       0.00000000       0.00000000
Si       5.76044539       0.00000000      14.07325000  F       0.00000000       0.00000000       0.00000000
Si       3.84029693       0.00000000      12.71550000  F       0.00000000       0.00000000       0.00000000
Si       3.84029693       1.92014846      11.35775000  F       0.00000000       0.00000000       0.00000000
Si       5.76044539       1.92014846      10.00000000  F       0.00000000       0.00000000       0.00000000
Si       1.92014846       7.68059386      14.07325000  F       0.00000000       0.00000000       0.00000000
Si       1.92313943       9.60237819      15.37838547  T       0.00000000       0.00000000       0.00000000
Si       1.89542752      10.91885881      19.40640775  T       0.00000000       0.00000000       0.00000000
Si      15.33101674      11.44840093      18.14932119  T       0.00000000       0.00000000       0.00000000
Si      15.35184489      13.46511328      16.89701334  T       0.00000000       0.00000000       0.00000000
Si       1.91976001      13.44180498      15.49795249  T       0.00000000       0.00000000       0.00000000
Si       1.92014846      11.52089079      14.07325000  F       0.00000000       0.00000000       0.00000000
Si       0.00000000      11.52089079      12.71550000  F       0.00000000       0.00000000       0.00000000
Si       0.00000000      13.44103925      11.35775000  F       0.00000000       0.00000000       0.00000000
Si       1.92014846      13.44103925      10.00000000  F       0.00000000       0.00000000       0.00000000
Si      15.36064450       9.61805214      16.68200502  T       0.00000000       0.00000000       0.00000000
Si       1.92014846       9.60074232      10.00000000  F       0.00000000       0.00000000       0.00000000
Si       9.60133112       5.75982908      15.50316606  T       0.00000000       0.00000000       0.00000000
Si       5.76044539       9.60074232      10.00000000  F       0.00000000       0.00000000       0.00000000
Si       3.84029693       7.68059386      12.71550000  F       0.00000000       0.00000000       0.00000000
Si       7.68059386       3.84029693      12.71550000  F       0.00000000       0.00000000       0.00000000
Si       7.68059386       5.76044539      11.35775000  F       0.00000000       0.00000000       0.00000000
Si       9.60074232       5.76044539      10.00000000  F       0.00000000       0.00000000       0.00000000
Si       1.92014846       3.84029693      14.07325000  F       0.00000000       0.00000000       0.00000000
Si       1.91197103       5.76229558      15.50746075  T       0.00000000       0.00000000       0.00000000
Si       9.60100790       0.71454191      19.41861084  T       0.00000000       0.00000000       0.00000000
Si       7.68154273       0.09898402      18.19216224  T       0.00000000       0.00000000       0.00000000
Si       7.68196443       1.92198025      16.70612686  T       0.00000000       0.00000000       0.00000000
Si       9.60316549       1.92077741      15.38634811  T       0.00000000       0.00000000       0.00000000
Si       9.60074232       0.00000000      14.07325000  F       0.00000000       0.00000000       0.00000000
Si       7.68059386       0.00000000      12.71550000  F       0.00000000       0.00000000       0.00000000
Si       7.68059386       1.92014846      11.35775000  F       0.00000000       0.00000000       0.00000000
Si       9.60074232       1.92014846      10.00000000  F       0.00000000       0.00000000       0.00000000
Si       0.00726771       5.76772312      16.94448839  T       0.00000000       0.00000000       0.00000000
Si       0.01188927       3.74922428      18.22573625  T       0.00000000       0.00000000       0.00000000
Si       5.76258938      10.80964718      19.42818537  T       0.00000000       0.00000000       0.00000000
Si       3.85081387      11.44073624      18.19426373  T       0.00000000       0.00000000       0.00000000
Si       3.84660925      13.44531591      16.90656510  T       0.00000000       0.00000000       0.00000000
Si       5.76420501      13.44046024      15.49622672  T       0.00000000       0.00000000       0.00000000
Si       5.76044539      11.52089079      14.07325000  F       0.00000000       0.00000000       0.00000000
Si       3.84029693      11.52089079      12.71550000  F       0.00000000       0.00000000       0.00000000
Si       3.84029693      13.44103925      11.35775000  F       0.00000000       0.00000000       0.00000000
Si       5.76044539      13.44103925      10.00000000  F       0.00000000       0.00000000       0.00000000
Si       1.92575111       3.08572575      19.43700591  T       0.00000000       0.00000000       0.00000000
Si       5.79630682       8.39607152      19.42233397  T       0.00000000       0.00000000       0.00000000
Si       3.88603336       7.77525152      18.18917984  T       0.00000000       0.00000000       0.00000000
Si       3.83505543       9.61039425      16.71226578  T       0.00000000       0.00000000       0.00000000
Si       5.75553599       9.60245965      15.38318579  T       0.00000000       0.00000000       0.00000000
Si       5.76044539       7.68059386      14.07325000  F       0.00000000       0.00000000       0.00000000
Si       3.84029693       9.60074232      11.35775000  F       0.00000000       0.00000000       0.00000000
Si       1.92014846       1.92014846      10.00000000  F       0.00000000       0.00000000       0.00000000
Si       2.33130543       7.44527624      21.97533218  T       0.00000000       0.00000000       0.00000000
H        1.54565801       7.38149182      23.30412659  T       0.00000000       0.00000000       0.00000000
Cl       3.71017426       5.98004654      21.92592784  T       0.00000000       0.00000000       0.00000000
Cl       3.46465749       9.31639398      22.55358570  T       0.00000000       0.00000000       0.00000000
Cl       0.46940360       5.96972005      20.92717447  T       0.00000000       0.00000000       0.00000000
H        1.65331973       7.25760424      20.41252771  T       0.00000000       0.00000000       0.00000000
181
Lattice="15.361187714496559 0.0 0.0 0.0 15.361187714496559 0.0 0.0 0.0 29.50425" Properties=species:S:1:pos:R:3:move_mask:L:1:momenta:R:3 source_member=data/TS/t11/CONTCAR source_doi=10.5281/zenodo.10211009 role=source_named_TS_unverified_here pbc="T T T"
H        1.91318788      11.32050587      20.83182167  T       0.00000000       0.00000000       0.00000000
H       13.44065662       0.17207498      20.82326461  T       0.00000000       0.00000000       0.00000000
H       13.44251452       3.67064453      20.82338259  T       0.00000000       0.00000000       0.00000000
H        9.60053407       3.66833973      20.82406585  T       0.00000000       0.00000000       0.00000000
H        9.60094383       0.17194824      20.82299174  T       0.00000000       0.00000000       0.00000000
H        5.76047896       3.66941406      20.83012980  T       0.00000000       0.00000000       0.00000000
H        5.75949927       0.16930166      20.82332059  T       0.00000000       0.00000000       0.00000000
H        1.91834280       0.16631006      20.82165732  T       0.00000000       0.00000000       0.00000000
H        1.90572691       3.65834077      20.82937713  T       0.00000000       0.00000000       0.00000000
H       13.44635697      11.34411879      20.82796391  T       0.00000000       0.00000000       0.00000000
H       13.45702394       7.84772447      20.82141980  T       0.00000000       0.00000000       0.00000000
H        9.59931525      11.34637492      20.82416978  T       0.00000000       0.00000000       0.00000000
H        9.59647868       7.84895027      20.82059201  T       0.00000000       0.00000000       0.00000000
H        5.76319395      11.34680259      20.82843124  T       0.00000000       0.00000000       0.00000000
H        5.80800392       7.84770350      20.82602630  T       0.00000000       0.00000000       0.00000000
H        5.76044539      14.63312426       9.15706861  F       0.00000000       0.00000000       0.00000000
H        1.92014846      12.24895424       9.15706861  F       0.00000000       0.00000000       0.00000000
H        1.92014846      14.63312426       9.15706861  F       0.00000000       0.00000000       0.00000000
H        5.76044539       0.72806346       9.15706861  F       0.00000000       0.00000000       0.00000000
H        5.76044539       3.11223347       9.15706861  F       0.00000000       0.00000000       0.00000000
H        5.76044539       4.56836038       9.15706861  F       0.00000000       0.00000000       0.00000000
H        5.76044539       6.95253040       9.15706861  F       0.00000000       0.00000000       0.00000000
H        5.76044539       8.40865731       9.15706861  F       0.00000000       0.00000000       0.00000000
H        5.76044539      10.79282733       9.15706861  F       0.00000000       0.00000000       0.00000000
H        5.76044539      12.24895424       9.15706861  F       0.00000000       0.00000000       0.00000000
H       13.44103925      12.24895424       9.15706861  F       0.00000000       0.00000000       0.00000000
H        9.60074232       0.72806346       9.15706861  F       0.00000000       0.00000000       0.00000000
H        1.92014846      10.79282733       9.15706861  F       0.00000000       0.00000000       0.00000000
H        9.60074232       3.11223347       9.15706861  F       0.00000000       0.00000000       0.00000000
H        9.60074232       6.95253040       9.15706861  F       0.00000000       0.00000000       0.00000000
H        9.60074232       8.40865731       9.15706861  F       0.00000000       0.00000000       0.00000000
H        9.60074232      10.79282733       9.15706861  F       0.00000000       0.00000000       0.00000000
H        9.60074232      12.24895424       9.15706861  F       0.00000000       0.00000000       0.00000000
H        9.60074232      14.63312426       9.15706861  F       0.00000000       0.00000000       0.00000000
H       13.44103925       0.72806346       9.15706861  F       0.00000000       0.00000000       0.00000000
H       13.44103925       3.11223347       9.15706861  F       0.00000000       0.00000000       0.00000000
H       13.44103925       4.56836038       9.15706861  F       0.00000000       0.00000000       0.00000000
H       13.44103925       6.95253040       9.15706861  F       0.00000000       0.00000000       0.00000000
H       13.44103925       8.40865731       9.15706861  F       0.00000000       0.00000000       0.00000000
H       13.44103925      10.79282733       9.15706861  F       0.00000000       0.00000000       0.00000000
H        9.60074232       4.56836038       9.15706861  F       0.00000000       0.00000000       0.00000000
H        1.92014846       8.40865731       9.15706861  F       0.00000000       0.00000000       0.00000000
H       13.44103925      14.63312426       9.15706861  F       0.00000000       0.00000000       0.00000000
H        1.92014846       6.95253040       9.15706861  F       0.00000000       0.00000000       0.00000000
H        1.92014846       3.11223347       9.15706861  F       0.00000000       0.00000000       0.00000000
H        1.92014846       0.72806346       9.15706861  F       0.00000000       0.00000000       0.00000000
H        1.92014846       4.56836038       9.15706861  F       0.00000000       0.00000000       0.00000000
Si       9.60025834      13.44091725      15.50403575  T       0.00000000       0.00000000       0.00000000
Si       7.68065118      13.44315704      16.92225694  T       0.00000000       0.00000000       0.00000000
Si       7.67980564      11.42476982      18.19302809  T       0.00000000       0.00000000       0.00000000
Si       9.59906700      10.80747547      19.42033794  T       0.00000000       0.00000000       0.00000000
Si      15.34597887       7.77512081      18.16143174  T       0.00000000       0.00000000       0.00000000
Si      13.44103925       1.92014846      10.00000000  F       0.00000000       0.00000000       0.00000000
Si      11.52089079       1.92014846      11.35775000  F       0.00000000       0.00000000       0.00000000
Si      11.52089079       0.00000000      12.71550000  F       0.00000000       0.00000000       0.00000000
Si      13.44103925       0.00000000      14.07325000  F       0.00000000       0.00000000       0.00000000
Si      13.44031835       1.91979905      15.38529266  T       0.00000000       0.00000000       0.00000000
Si      11.52009820       1.92060747      16.70692481  T       0.00000000       0.00000000       0.00000000
Si       9.60074232      11.52089079      14.07325000  F       0.00000000       0.00000000       0.00000000
Si       1.91927923       0.70896065      19.41939607  T       0.00000000       0.00000000       0.00000000
Si       7.68059386      11.52089079      12.71550000  F       0.00000000       0.00000000       0.00000000
Si       9.60074232      13.44103925      10.00000000  F       0.00000000       0.00000000       0.00000000
Si       1.92014846       5.76044539      10.00000000  F       0.00000000       0.00000000       0.00000000
Si       9.59987386       8.39095374      19.41814143  T       0.00000000       0.00000000       0.00000000
Si       7.68300432       7.77888350      18.18455023  T       0.00000000       0.00000000       0.00000000
Si       7.68227372       9.60356452      16.70390417  T       0.00000000       0.00000000       0.00000000
Si       9.60215078       9.60113056      15.38464910  T       0.00000000       0.00000000       0.00000000
Si       9.60074232       7.68059386      14.07325000  F       0.00000000       0.00000000       0.00000000
Si       7.68059386       7.68059386      12.71550000  F       0.00000000       0.00000000       0.00000000
Si       7.68059386       9.60074232      11.35775000  F       0.00000000       0.00000000       0.00000000
Si       9.60074232       9.60074232      10.00000000  F       0.00000000       0.00000000       0.00000000
Si       0.00000000       5.76044539      11.35775000  F       0.00000000       0.00000000       0.00000000
Si       0.00000000       3.84029693      12.71550000  F       0.00000000       0.00000000       0.00000000
Si       9.59891384       3.12854237      19.42062112  T       0.00000000       0.00000000       0.00000000
Si       7.68059386      13.44103925      11.35775000  F       0.00000000       0.00000000       0.00000000
Si      11.52037204       0.09776634      18.19304560  T       0.00000000       0.00000000       0.00000000
Si      13.43981412       0.71266965      19.42013570  T       0.00000000       0.00000000       0.00000000
Si      15.35988641       0.09823741      18.19396363  T       0.00000000       0.00000000       0.00000000
Si      13.43887272      10.80645198      19.42427344  T       0.00000000       0.00000000       0.00000000
Si      11.51992790      11.42373470      18.19643483  T       0.00000000       0.00000000       0.00000000
Si      11.52040785      13.44063843      16.92238494  T       0.00000000       0.00000000       0.00000000
Si      13.43889004      13.44100266      15.50240144  T       0.00000000       0.00000000       0.00000000
Si      13.44103925      11.52089079      14.07325000  F       0.00000000       0.00000000       0.00000000
Si      11.52089079      11.52089079      12.71550000  F       0.00000000       0.00000000       0.00000000
Si      11.52089079      13.44103925      11.35775000  F       0.00000000       0.00000000       0.00000000
Si      13.44103925      13.44103925      10.00000000  F       0.00000000       0.00000000       0.00000000
Si       0.00000000       1.92014846      11.35775000  F       0.00000000       0.00000000       0.00000000
Si       0.00000000       0.00000000      12.71550000  F       0.00000000       0.00000000       0.00000000
Si      13.44298827       8.39099070      19.41970018  T       0.00000000       0.00000000       0.00000000
Si      11.52152473       7.77630290      18.19327558  T       0.00000000       0.00000000       0.00000000
Si      11.52067174       9.60149942      16.70898274  T       0.00000000       0.00000000       0.00000000
Si      13.43560945       9.60180455      15.38076714  T       0.00000000       0.00000000       0.00000000
Si      13.44103925       7.68059386      14.07325000  F       0.00000000       0.00000000       0.00000000
Si      11.52089079       7.68059386      12.71550000  F       0.00000000       0.00000000       0.00000000
Si      11.52089079       9.60074232      11.35775000  F       0.00000000       0.00000000       0.00000000
Si      13.44103925       9.60074232      10.00000000  F       0.00000000       0.00000000       0.00000000
Si       1.92014846       0.00000000      14.07325000  F       0.00000000       0.00000000       0.00000000
Si       1.92071335       1.92012395      15.38611119  T       0.00000000       0.00000000       0.00000000
Si      13.43956067       3.12912015      19.42066182  T       0.00000000       0.00000000       0.00000000
Si      11.51928002       3.74249629      18.19448116  T       0.00000000       0.00000000       0.00000000
Si      11.51988563       5.75858514      16.92171896  T       0.00000000       0.00000000       0.00000000
Si      13.43726871       5.75889094      15.50091431  T       0.00000000       0.00000000       0.00000000
Si      13.44103925       3.84029693      14.07325000  F       0.00000000       0.00000000       0.00000000
Si      11.52089079       3.84029693      12.71550000  F       0.00000000       0.00000000       0.00000000
Si      11.52089079       5.76044539      11.35775000  F       0.00000000       0.00000000       0.00000000
Si      13.44103925       5.76044539      10.00000000  F       0.00000000       0.00000000       0.00000000
Si      15.36056611       1.91897113      16.70544502  T       0.00000000       0.00000000       0.00000000
Si       7.67743789       3.74336106      18.19558738  T       0.00000000       0.00000000       0.00000000
Si       7.68061300       5.75879829      16.92000019  T       0.00000000       0.00000000       0.00000000
Si       9.60074232       3.84029693      14.07325000  F       0.00000000       0.00000000       0.00000000
Si       1.92031387       8.42184675      19.35662024  T       0.00000000       0.00000000       0.00000000
Si       5.75923137       3.12957082      19.42733394  T       0.00000000       0.00000000       0.00000000
Si       3.83724001       3.74075924      18.20403508  T       0.00000000       0.00000000       0.00000000
Si       3.83974744       5.75084982      16.92264301  T       0.00000000       0.00000000       0.00000000
Si       5.76051839       5.75983982      15.50381335  T       0.00000000       0.00000000       0.00000000
Si       5.76044539       3.84029693      14.07325000  F       0.00000000       0.00000000       0.00000000
Si       3.84029693       3.84029693      12.71550000  F       0.00000000       0.00000000       0.00000000
Si       3.84029693       5.76044539      11.35775000  F       0.00000000       0.00000000       0.00000000
Si       5.76044539       5.76044539      10.00000000  F       0.00000000       0.00000000       0.00000000
Si       0.00000000       9.60074232      11.35775000  F       0.00000000       0.00000000       0.00000000
Si       0.00000000       7.68059386      12.71550000  F       0.00000000       0.00000000       0.00000000
Si       5.75966936       0.71283821      19.42133758  T       0.00000000       0.00000000       0.00000000
Si       3.84045796       0.09772862      18.19334573  T       0.00000000       0.00000000       0.00000000
Si       3.83980193       1.92285710      16.70976717  T       0.00000000       0.00000000       0.00000000
Si       5.75934111       1.92031367      15.38619640  T       0.00000000       0.00000000       0.00000000
Si       5.76044539       0.00000000      14.07325000  F       0.00000000       0.00000000       0.00000000
Si       3.84029693       0.00000000      12.71550000  F       0.00000000       0.00000000       0.00000000
Si       3.84029693       1.92014846      11.35775000  F       0.00000000       0.00000000       0.00000000
Si       5.76044539       1.92014846      10.00000000  F       0.00000000       0.00000000       0.00000000
Si       1.92014846       7.68059386      14.07325000  F       0.00000000       0.00000000       0.00000000
Si       1.92332112       9.60015654      15.38593957  T       0.00000000       0.00000000       0.00000000
Si       1.91244154      10.83055384      19.41167430  T       0.00000000       0.00000000       0.00000000
Si      15.35007635      11.42800904      18.18881608  T       0.00000000       0.00000000       0.00000000
Si      15.35846717      13.44606369      16.91812252  T       0.00000000       0.00000000       0.00000000
Si       1.92025742      13.44064754      15.50391276  T       0.00000000       0.00000000       0.00000000
Si       1.92014846      11.52089079      14.07325000  F       0.00000000       0.00000000       0.00000000
Si       0.00000000      11.52089079      12.71550000  F       0.00000000       0.00000000       0.00000000
Si       0.00000000      13.44103925      11.35775000  F       0.00000000       0.00000000       0.00000000
Si       1.92014846      13.44103925      10.00000000  F       0.00000000       0.00000000       0.00000000
Si      15.35740336       9.60971105      16.69617744  T       0.00000000       0.00000000       0.00000000
Si       1.92014846       9.60074232      10.00000000  F       0.00000000       0.00000000       0.00000000
Si       9.60036002       5.75991338      15.50291501  T       0.00000000       0.00000000       0.00000000
Si       5.76044539       9.60074232      10.00000000  F       0.00000000       0.00000000       0.00000000
Si       3.84029693       7.68059386      12.71550000  F       0.00000000       0.00000000       0.00000000
Si       7.68059386       3.84029693      12.71550000  F       0.00000000       0.00000000       0.00000000
Si       7.68059386       5.76044539      11.35775000  F       0.00000000       0.00000000       0.00000000
Si       9.60074232       5.76044539      10.00000000  F       0.00000000       0.00000000       0.00000000
Si       1.92014846       3.84029693      14.07325000  F       0.00000000       0.00000000       0.00000000
Si       1.92164274       5.75988273      15.50201349  T       0.00000000       0.00000000       0.00000000
Si       9.60044964       0.71224767      19.41969738  T       0.00000000       0.00000000       0.00000000
Si       7.67958154       0.09897882      18.19429846  T       0.00000000       0.00000000       0.00000000
Si       7.67941407       1.92137800      16.70751054  T       0.00000000       0.00000000       0.00000000
Si       9.59960576       1.92004643      15.38564259  T       0.00000000       0.00000000       0.00000000
Si       9.60074232       0.00000000      14.07325000  F       0.00000000       0.00000000       0.00000000
Si       7.68059386       0.00000000      12.71550000  F       0.00000000       0.00000000       0.00000000
Si       7.68059386       1.92014846      11.35775000  F       0.00000000       0.00000000       0.00000000
Si       9.60074232       1.92014846      10.00000000  F       0.00000000       0.00000000       0.00000000
Si      15.35945895       5.75046522      16.91116136  T       0.00000000       0.00000000       0.00000000
Si      15.36035489       3.74019629      18.19381092  T       0.00000000       0.00000000       0.00000000
Si       5.76408596      10.80573726      19.42585349  T       0.00000000       0.00000000       0.00000000
Si       3.84683240      11.42453447      18.19611147  T       0.00000000       0.00000000       0.00000000
Si       3.84173377      13.44200073      16.92067071  T       0.00000000       0.00000000       0.00000000
Si       5.76185322      13.44105639      15.50318097  T       0.00000000       0.00000000       0.00000000
Si       5.76044539      11.52089079      14.07325000  F       0.00000000       0.00000000       0.00000000
Si       3.84029693      11.52089079      12.71550000  F       0.00000000       0.00000000       0.00000000
Si       3.84029693      13.44103925      11.35775000  F       0.00000000       0.00000000       0.00000000
Si       5.76044539      13.44103925      10.00000000  F       0.00000000       0.00000000       0.00000000
Si       1.91516852       3.12410991      19.42607912  T       0.00000000       0.00000000       0.00000000
Si       5.77547615       8.39132839      19.42836555  T       0.00000000       0.00000000       0.00000000
Si       3.86144672       7.76921290      18.18931150  T       0.00000000       0.00000000       0.00000000
Si       3.84404160       9.60049481      16.71017031  T       0.00000000       0.00000000       0.00000000
Si       5.76237420       9.60135469      15.38401373  T       0.00000000       0.00000000       0.00000000
Si       5.76044539       7.68059386      14.07325000  F       0.00000000       0.00000000       0.00000000
Si       3.84029693       9.60074232      11.35775000  F       0.00000000       0.00000000       0.00000000
Si       1.92014846       1.92014846      10.00000000  F       0.00000000       0.00000000       0.00000000
Si       2.31394765       7.76797825      21.84325585  T       0.00000000       0.00000000       0.00000000
Cl       1.15871762       8.78944757      23.23884460  T       0.00000000       0.00000000       0.00000000
Cl       3.46350610       6.06270856      22.18957091  T       0.00000000       0.00000000       0.00000000
H        3.44450437       8.75427515      21.73838985  T       0.00000000       0.00000000       0.00000000
H        1.02100951       6.73611184      21.66515255  T       0.00000000       0.00000000       0.00000000
H        1.25654021       7.34336172      20.68386768  T       0.00000000       0.00000000       0.00000000
181
Lattice="15.361187714496559 0.0 0.0 0.0 15.361187714496559 0.0 0.0 0.0 29.50425" Properties=species:S:1:pos:R:3:move_mask:L:1:momenta:R:3 source_member=data/TS/t12/CONTCAR source_doi=10.5281/zenodo.10211009 role=source_named_TS_unverified_here pbc="T T T"
H        1.85624406      11.39225723      20.82210578  T       0.00000000       0.00000000       0.00000000
H       13.44060775       0.15260512      20.81580816  T       0.00000000       0.00000000       0.00000000
H       13.41695297       3.64618692      20.84953689  T       0.00000000       0.00000000       0.00000000
H        9.60103008       3.66680908      20.82403499  T       0.00000000       0.00000000       0.00000000
H        9.60510642       0.16988795      20.82024771  T       0.00000000       0.00000000       0.00000000
H        5.76211277       3.66340353      20.82292699  T       0.00000000       0.00000000       0.00000000
H        5.75911554       0.16422152      20.81869121  T       0.00000000       0.00000000       0.00000000
H        1.92834002       0.12689876      20.80270856  T       0.00000000       0.00000000       0.00000000
H        1.99453286       3.56751518      20.86441727  T       0.00000000       0.00000000       0.00000000
H       13.44914559      11.38344811      20.80728839  T       0.00000000       0.00000000       0.00000000
H       13.42332495       7.90214896      20.83645868  T       0.00000000       0.00000000       0.00000000
H        9.59863887      11.34963738      20.81989849  T       0.00000000       0.00000000       0.00000000
H        9.59592914       7.85085751      20.81500197  T       0.00000000       0.00000000       0.00000000
H        5.78319408      11.34905047      20.83241554  T       0.00000000       0.00000000       0.00000000
H        5.84225225       7.80628463      20.81024707  T       0.00000000       0.00000000       0.00000000
H        5.76044539      14.63312426       9.15706861  F       0.00000000       0.00000000       0.00000000
H        1.92014846      12.24895424       9.15706861  F       0.00000000       0.00000000       0.00000000
H        1.92014846      14.63312426       9.15706861  F       0.00000000       0.00000000       0.00000000
H        5.76044539       0.72806346       9.15706861  F       0.00000000       0.00000000       0.00000000
H        5.76044539       3.11223347       9.15706861  F       0.00000000       0.00000000       0.00000000
H        5.76044539       4.56836038       9.15706861  F       0.00000000       0.00000000       0.00000000
H        5.76044539       6.95253040       9.15706861  F       0.00000000       0.00000000       0.00000000
H        5.76044539       8.40865731       9.15706861  F       0.00000000       0.00000000       0.00000000
H        5.76044539      10.79282733       9.15706861  F       0.00000000       0.00000000       0.00000000
H        5.76044539      12.24895424       9.15706861  F       0.00000000       0.00000000       0.00000000
H       13.44103925      12.24895424       9.15706861  F       0.00000000       0.00000000       0.00000000
H        9.60074232       0.72806346       9.15706861  F       0.00000000       0.00000000       0.00000000
H        1.92014846      10.79282733       9.15706861  F       0.00000000       0.00000000       0.00000000
H        9.60074232       3.11223347       9.15706861  F       0.00000000       0.00000000       0.00000000
H        9.60074232       6.95253040       9.15706861  F       0.00000000       0.00000000       0.00000000
H        9.60074232       8.40865731       9.15706861  F       0.00000000       0.00000000       0.00000000
H        9.60074232      10.79282733       9.15706861  F       0.00000000       0.00000000       0.00000000
H        9.60074232      12.24895424       9.15706861  F       0.00000000       0.00000000       0.00000000
H        9.60074232      14.63312426       9.15706861  F       0.00000000       0.00000000       0.00000000
H       13.44103925       0.72806346       9.15706861  F       0.00000000       0.00000000       0.00000000
H       13.44103925       3.11223347       9.15706861  F       0.00000000       0.00000000       0.00000000
H       13.44103925       4.56836038       9.15706861  F       0.00000000       0.00000000       0.00000000
H       13.44103925       6.95253040       9.15706861  F       0.00000000       0.00000000       0.00000000
H       13.44103925       8.40865731       9.15706861  F       0.00000000       0.00000000       0.00000000
H       13.44103925      10.79282733       9.15706861  F       0.00000000       0.00000000       0.00000000
H        9.60074232       4.56836038       9.15706861  F       0.00000000       0.00000000       0.00000000
H        1.92014846       8.40865731       9.15706861  F       0.00000000       0.00000000       0.00000000
H       13.44103925      14.63312426       9.15706861  F       0.00000000       0.00000000       0.00000000
H        1.92014846       6.95253040       9.15706861  F       0.00000000       0.00000000       0.00000000
H        1.92014846       3.11223347       9.15706861  F       0.00000000       0.00000000       0.00000000
H        1.92014846       0.72806346       9.15706861  F       0.00000000       0.00000000       0.00000000
H        1.92014846       4.56836038       9.15706861  F       0.00000000       0.00000000       0.00000000
Si       9.59825204      13.44187162      15.50043705  T       0.00000000       0.00000000       0.00000000
Si       7.68163640      13.44308717      16.92075287  T       0.00000000       0.00000000       0.00000000
Si       7.67908685      11.42403029      18.18933796  T       0.00000000       0.00000000       0.00000000
Si       9.59838025      10.80978094      19.41647715  T       0.00000000       0.00000000       0.00000000
Si      15.32744905       7.77746272      18.17697875  T       0.00000000       0.00000000       0.00000000
Si      13.44103925       1.92014846      10.00000000  F       0.00000000       0.00000000       0.00000000
Si      11.52089079       1.92014846      11.35775000  F       0.00000000       0.00000000       0.00000000
Si      11.52089079       0.00000000      12.71550000  F       0.00000000       0.00000000       0.00000000
Si      13.44103925       0.00000000      14.07325000  F       0.00000000       0.00000000       0.00000000
Si      13.44784667       1.92168192      15.38861548  T       0.00000000       0.00000000       0.00000000
Si      11.52462675       1.92588733      16.70596234  T       0.00000000       0.00000000       0.00000000
Si       9.60074232      11.52089079      14.07325000  F       0.00000000       0.00000000       0.00000000
Si       1.92580212       0.68571023      19.40632046  T       0.00000000       0.00000000       0.00000000
Si       7.68059386      11.52089079      12.71550000  F       0.00000000       0.00000000       0.00000000
Si       9.60074232      13.44103925      10.00000000  F       0.00000000       0.00000000       0.00000000
Si       1.92014846       5.76044539      10.00000000  F       0.00000000       0.00000000       0.00000000
Si       9.60535794       8.39375950      19.41288443  T       0.00000000       0.00000000       0.00000000
Si       7.69486214       7.77615823      18.17172287  T       0.00000000       0.00000000       0.00000000
Si       7.68344488       9.60425585      16.69923357  T       0.00000000       0.00000000       0.00000000
Si       9.60172571       9.60229212      15.37990889  T       0.00000000       0.00000000       0.00000000
Si       9.60074232       7.68059386      14.07325000  F       0.00000000       0.00000000       0.00000000
Si       7.68059386       7.68059386      12.71550000  F       0.00000000       0.00000000       0.00000000
Si       7.68059386       9.60074232      11.35775000  F       0.00000000       0.00000000       0.00000000
Si       9.60074232       9.60074232      10.00000000  F       0.00000000       0.00000000       0.00000000
Si       0.00000000       5.76044539      11.35775000  F       0.00000000       0.00000000       0.00000000
Si       0.00000000       3.84029693      12.71550000  F       0.00000000       0.00000000       0.00000000
Si       9.60655389       3.12862087      19.42006640  T       0.00000000       0.00000000       0.00000000
Si       7.68059386      13.44103925      11.35775000  F       0.00000000       0.00000000       0.00000000
Si      11.52366106       0.10138007      18.18888849  T       0.00000000       0.00000000       0.00000000
Si      13.44207288       0.70926606      19.41883956  T       0.00000000       0.00000000       0.00000000
Si      15.35899817       0.09960708      18.18519123  T       0.00000000       0.00000000       0.00000000
Si      13.43173490      10.83052523      19.40894327  T       0.00000000       0.00000000       0.00000000
Si      11.51171592      11.43500086      18.18552737  T       0.00000000       0.00000000       0.00000000
Si      11.51628812      13.44885060      16.91516317  T       0.00000000       0.00000000       0.00000000
Si      13.43468147      13.44263934      15.49606702  T       0.00000000       0.00000000       0.00000000
Si      13.44103925      11.52089079      14.07325000  F       0.00000000       0.00000000       0.00000000
Si      11.52089079      11.52089079      12.71550000  F       0.00000000       0.00000000       0.00000000
Si      11.52089079      13.44103925      11.35775000  F       0.00000000       0.00000000       0.00000000
Si      13.44103925      13.44103925      10.00000000  F       0.00000000       0.00000000       0.00000000
Si       0.00000000       1.92014846      11.35775000  F       0.00000000       0.00000000       0.00000000
Si       0.00000000       0.00000000      12.71550000  F       0.00000000       0.00000000       0.00000000
Si      13.43320446       8.41995944      19.43098107  T       0.00000000       0.00000000       0.00000000
Si      11.52764970       7.78401185      18.18957051  T       0.00000000       0.00000000       0.00000000
Si      11.51808544       9.60654771      16.70574252  T       0.00000000       0.00000000       0.00000000
Si      13.43379589       9.60127648      15.37918002  T       0.00000000       0.00000000       0.00000000
Si      13.44103925       7.68059386      14.07325000  F       0.00000000       0.00000000       0.00000000
Si      11.52089079       7.68059386      12.71550000  F       0.00000000       0.00000000       0.00000000
Si      11.52089079       9.60074232      11.35775000  F       0.00000000       0.00000000       0.00000000
Si      13.44103925       9.60074232      10.00000000  F       0.00000000       0.00000000       0.00000000
Si       1.92014846       0.00000000      14.07325000  F       0.00000000       0.00000000       0.00000000
Si       1.91576555       1.92075612      15.38827640  T       0.00000000       0.00000000       0.00000000
Si      13.44203716       3.12523306      19.44287071  T       0.00000000       0.00000000       0.00000000
Si      11.53102143       3.74200551      18.20028677  T       0.00000000       0.00000000       0.00000000
Si      11.52597078       5.75902498      16.92589346  T       0.00000000       0.00000000       0.00000000
Si      13.44611994       5.75874720      15.50852550  T       0.00000000       0.00000000       0.00000000
Si      13.44103925       3.84029693      14.07325000  F       0.00000000       0.00000000       0.00000000
Si      11.52089079       3.84029693      12.71550000  F       0.00000000       0.00000000       0.00000000
Si      11.52089079       5.76044539      11.35775000  F       0.00000000       0.00000000       0.00000000
Si      13.44103925       5.76044539      10.00000000  F       0.00000000       0.00000000       0.00000000
Si       0.00182002       1.93948584      16.72138796  T       0.00000000       0.00000000       0.00000000
Si       7.68554572       3.74042659      18.19440443  T       0.00000000       0.00000000       0.00000000
Si       7.68548562       5.75375395      16.91582558  T       0.00000000       0.00000000       0.00000000
Si       9.60074232       3.84029693      14.07325000  F       0.00000000       0.00000000       0.00000000
Si       1.91766080       8.48689177      19.30967609  T       0.00000000       0.00000000       0.00000000
Si       5.76527976       3.12374838      19.41918679  T       0.00000000       0.00000000       0.00000000
Si       3.83811085       3.72513808      18.20153564  T       0.00000000       0.00000000       0.00000000
Si       3.83456081       5.74066040      16.92670348  T       0.00000000       0.00000000       0.00000000
Si       5.76027102       5.76053795      15.50681645  T       0.00000000       0.00000000       0.00000000
Si       5.76044539       3.84029693      14.07325000  F       0.00000000       0.00000000       0.00000000
Si       3.84029693       3.84029693      12.71550000  F       0.00000000       0.00000000       0.00000000
Si       3.84029693       5.76044539      11.35775000  F       0.00000000       0.00000000       0.00000000
Si       5.76044539       5.76044539      10.00000000  F       0.00000000       0.00000000       0.00000000
Si       0.00000000       9.60074232      11.35775000  F       0.00000000       0.00000000       0.00000000
Si       0.00000000       7.68059386      12.71550000  F       0.00000000       0.00000000       0.00000000
Si       5.76182036       0.70731750      19.41643712  T       0.00000000       0.00000000       0.00000000
Si       3.84660255       0.09042875      18.18288434  T       0.00000000       0.00000000       0.00000000
Si       3.84229058       1.91645467      16.70080959  T       0.00000000       0.00000000       0.00000000
Si       5.76346296       1.91951268      15.38417251  T       0.00000000       0.00000000       0.00000000
Si       5.76044539       0.00000000      14.07325000  F       0.00000000       0.00000000       0.00000000
Si       3.84029693       0.00000000      12.71550000  F       0.00000000       0.00000000       0.00000000
Si       3.84029693       1.92014846      11.35775000  F       0.00000000       0.00000000       0.00000000
Si       5.76044539       1.92014846      10.00000000  F       0.00000000       0.00000000       0.00000000
Si       1.92014846       7.68059386      14.07325000  F       0.00000000       0.00000000       0.00000000
Si       1.92091781       9.59974587      15.38562892  T       0.00000000       0.00000000       0.00000000
Si       1.89287634      10.89478547      19.40905547  T       0.00000000       0.00000000       0.00000000
Si      15.33612616      11.44284680      18.16158686  T       0.00000000       0.00000000       0.00000000
Si      15.35462841      13.45771188      16.90343665  T       0.00000000       0.00000000       0.00000000
Si       1.92174433      13.44029712      15.50091098  T       0.00000000       0.00000000       0.00000000
Si       1.92014846      11.52089079      14.07325000  F       0.00000000       0.00000000       0.00000000
Si       0.00000000      11.52089079      12.71550000  F       0.00000000       0.00000000       0.00000000
Si       0.00000000      13.44103925      11.35775000  F       0.00000000       0.00000000       0.00000000
Si       1.92014846      13.44103925      10.00000000  F       0.00000000       0.00000000       0.00000000
Si      15.35616084       9.60635649      16.69425530  T       0.00000000       0.00000000       0.00000000
Si       1.92014846       9.60074232      10.00000000  F       0.00000000       0.00000000       0.00000000
Si       9.60650018       5.75919712      15.50310254  T       0.00000000       0.00000000       0.00000000
Si       5.76044539       9.60074232      10.00000000  F       0.00000000       0.00000000       0.00000000
Si       3.84029693       7.68059386      12.71550000  F       0.00000000       0.00000000       0.00000000
Si       7.68059386       3.84029693      12.71550000  F       0.00000000       0.00000000       0.00000000
Si       7.68059386       5.76044539      11.35775000  F       0.00000000       0.00000000       0.00000000
Si       9.60074232       5.76044539      10.00000000  F       0.00000000       0.00000000       0.00000000
Si       1.92014846       3.84029693      14.07325000  F       0.00000000       0.00000000       0.00000000
Si       1.91481534       5.76085417      15.50784223  T       0.00000000       0.00000000       0.00000000
Si       9.60493149       0.71226336      19.41768175  T       0.00000000       0.00000000       0.00000000
Si       7.68392827       0.09760376      18.19337338  T       0.00000000       0.00000000       0.00000000
Si       7.68357062       1.91909003      16.70562927  T       0.00000000       0.00000000       0.00000000
Si       9.60386306       1.92027283      15.38528013  T       0.00000000       0.00000000       0.00000000
Si       9.60074232       0.00000000      14.07325000  F       0.00000000       0.00000000       0.00000000
Si       7.68059386       0.00000000      12.71550000  F       0.00000000       0.00000000       0.00000000
Si       7.68059386       1.92014846      11.35775000  F       0.00000000       0.00000000       0.00000000
Si       9.60074232       1.92014846      10.00000000  F       0.00000000       0.00000000       0.00000000
Si       0.00271955       5.74421030      16.93589304  T       0.00000000       0.00000000       0.00000000
Si       0.01236259       3.74508636      18.24127647  T       0.00000000       0.00000000       0.00000000
Si       5.77137043      10.80291212      19.43335279  T       0.00000000       0.00000000       0.00000000
Si       3.85169925      11.43063231      18.20487293  T       0.00000000       0.00000000       0.00000000
Si       3.84742316      13.43937803      16.91432406  T       0.00000000       0.00000000       0.00000000
Si       5.76530572      13.43975967      15.50011809  T       0.00000000       0.00000000       0.00000000
Si       5.76044539      11.52089079      14.07325000  F       0.00000000       0.00000000       0.00000000
Si       3.84029693      11.52089079      12.71550000  F       0.00000000       0.00000000       0.00000000
Si       3.84029693      13.44103925      11.35775000  F       0.00000000       0.00000000       0.00000000
Si       5.76044539      13.44103925      10.00000000  F       0.00000000       0.00000000       0.00000000
Si       1.93506195       3.09490411      19.44577724  T       0.00000000       0.00000000       0.00000000
Si       5.79920651       8.38611268      19.42823012  T       0.00000000       0.00000000       0.00000000
Si       3.87617377       7.75672324      18.20891111  T       0.00000000       0.00000000       0.00000000
Si       3.83344470       9.59884520      16.72456102  T       0.00000000       0.00000000       0.00000000
Si       5.75641873       9.59925650      15.38972963  T       0.00000000       0.00000000       0.00000000
Si       5.76044539       7.68059386      14.07325000  F       0.00000000       0.00000000       0.00000000
Si       3.84029693       9.60074232      11.35775000  F       0.00000000       0.00000000       0.00000000
Si       1.92014846       1.92014846      10.00000000  F       0.00000000       0.00000000       0.00000000
Si       2.21404660       7.66017274      21.85245314  T       0.00000000       0.00000000       0.00000000
H        1.19267023       7.95145032      22.88023454  T       0.00000000       0.00000000       0.00000000
H        3.07231368       6.45543562      21.87599366  T       0.00000000       0.00000000       0.00000000
Cl       3.58637938       9.23896199      22.18749816  T       0.00000000       0.00000000       0.00000000
Cl       0.33820984       5.91661175      21.12565417  T       0.00000000       0.00000000       0.00000000
H        1.24461074       7.43875842      20.48778228  T       0.00000000       0.00000000       0.00000000
181
Lattice="15.361187714496559 0.0 0.0 0.0 15.361187714496559 0.0 0.0 0.0 29.50425" Properties=species:S:1:pos:R:3:move_mask:L:1:momenta:R:3 source_member=data/TS/t13/CONTCAR source_doi=10.5281/zenodo.10211009 role=source_named_TS_unverified_here pbc="T T T"
H        1.92115632      11.34261081      20.81805186  T       0.00000000       0.00000000       0.00000000
H       13.44099528       0.17349605      20.82358291  T       0.00000000       0.00000000       0.00000000
H       13.44380011       3.67020873      20.82208684  T       0.00000000       0.00000000       0.00000000
H        9.60034556       3.66860775      20.82286995  T       0.00000000       0.00000000       0.00000000
H        9.60153256       0.17249326      20.82327187  T       0.00000000       0.00000000       0.00000000
H        5.75951211       3.67185741      20.82384608  T       0.00000000       0.00000000       0.00000000
H        5.75922970       0.17367414      20.82390032  T       0.00000000       0.00000000       0.00000000
H        1.92003261       0.17227948      20.82380360  T       0.00000000       0.00000000       0.00000000
H        1.91520783       3.66197565      20.82489067  T       0.00000000       0.00000000       0.00000000
H       13.44415162      11.33814133      20.82541908  T       0.00000000       0.00000000       0.00000000
H       13.44314124       7.85763253      20.81773317  T       0.00000000       0.00000000       0.00000000
H        9.60029597      11.34530825      20.82433644  T       0.00000000       0.00000000       0.00000000
H        9.60047249       7.84882681      20.82174241  T       0.00000000       0.00000000       0.00000000
H        5.76160886      11.33585328      20.82721901  T       0.00000000       0.00000000       0.00000000
H        5.76872945       7.84506323      20.81126760  T       0.00000000       0.00000000       0.00000000
H        5.76044539      14.63312426       9.15706861  F       0.00000000       0.00000000       0.00000000
H        1.92014846      12.24895424       9.15706861  F       0.00000000       0.00000000       0.00000000
H        1.92014846      14.63312426       9.15706861  F       0.00000000       0.00000000       0.00000000
H        5.76044539       0.72806346       9.15706861  F       0.00000000       0.00000000       0.00000000
H        5.76044539       3.11223347       9.15706861  F       0.00000000       0.00000000       0.00000000
H        5.76044539       4.56836038       9.15706861  F       0.00000000       0.00000000       0.00000000
H        5.76044539       6.95253040       9.15706861  F       0.00000000       0.00000000       0.00000000
H        5.76044539       8.40865731       9.15706861  F       0.00000000       0.00000000       0.00000000
H        5.76044539      10.79282733       9.15706861  F       0.00000000       0.00000000       0.00000000
H        5.76044539      12.24895424       9.15706861  F       0.00000000       0.00000000       0.00000000
H       13.44103925      12.24895424       9.15706861  F       0.00000000       0.00000000       0.00000000
H        9.60074232       0.72806346       9.15706861  F       0.00000000       0.00000000       0.00000000
H        1.92014846      10.79282733       9.15706861  F       0.00000000       0.00000000       0.00000000
H        9.60074232       3.11223347       9.15706861  F       0.00000000       0.00000000       0.00000000
H        9.60074232       6.95253040       9.15706861  F       0.00000000       0.00000000       0.00000000
H        9.60074232       8.40865731       9.15706861  F       0.00000000       0.00000000       0.00000000
H        9.60074232      10.79282733       9.15706861  F       0.00000000       0.00000000       0.00000000
H        9.60074232      12.24895424       9.15706861  F       0.00000000       0.00000000       0.00000000
H        9.60074232      14.63312426       9.15706861  F       0.00000000       0.00000000       0.00000000
H       13.44103925       0.72806346       9.15706861  F       0.00000000       0.00000000       0.00000000
H       13.44103925       3.11223347       9.15706861  F       0.00000000       0.00000000       0.00000000
H       13.44103925       4.56836038       9.15706861  F       0.00000000       0.00000000       0.00000000
H       13.44103925       6.95253040       9.15706861  F       0.00000000       0.00000000       0.00000000
H       13.44103925       8.40865731       9.15706861  F       0.00000000       0.00000000       0.00000000
H       13.44103925      10.79282733       9.15706861  F       0.00000000       0.00000000       0.00000000
H        9.60074232       4.56836038       9.15706861  F       0.00000000       0.00000000       0.00000000
H        1.92014846       8.40865731       9.15706861  F       0.00000000       0.00000000       0.00000000
H       13.44103925      14.63312426       9.15706861  F       0.00000000       0.00000000       0.00000000
H        1.92014846       6.95253040       9.15706861  F       0.00000000       0.00000000       0.00000000
H        1.92014846       3.11223347       9.15706861  F       0.00000000       0.00000000       0.00000000
H        1.92014846       0.72806346       9.15706861  F       0.00000000       0.00000000       0.00000000
H        1.92014846       4.56836038       9.15706861  F       0.00000000       0.00000000       0.00000000
Si       9.60051594      13.44088619      15.50425465  T       0.00000000       0.00000000       0.00000000
Si       7.68007528      13.44153674      16.92186612  T       0.00000000       0.00000000       0.00000000
Si       7.68044711      11.42289618      18.19363330  T       0.00000000       0.00000000       0.00000000
Si       9.60057983      10.80701869      19.42032519  T       0.00000000       0.00000000       0.00000000
Si       0.02235025       7.77959577      18.18847488  T       0.00000000       0.00000000       0.00000000
Si      13.44103925       1.92014846      10.00000000  F       0.00000000       0.00000000       0.00000000
Si      11.52089079       1.92014846      11.35775000  F       0.00000000       0.00000000       0.00000000
Si      11.52089079       0.00000000      12.71550000  F       0.00000000       0.00000000       0.00000000
Si      13.44103925       0.00000000      14.07325000  F       0.00000000       0.00000000       0.00000000
Si      13.44104561       1.91984527      15.38517200  T       0.00000000       0.00000000       0.00000000
Si      11.52088823       1.91993877      16.70678130  T       0.00000000       0.00000000       0.00000000
Si       9.60074232      11.52089079      14.07325000  F       0.00000000       0.00000000       0.00000000
Si       1.91981039       0.70933165      19.41948915  T       0.00000000       0.00000000       0.00000000
Si       7.68059386      11.52089079      12.71550000  F       0.00000000       0.00000000       0.00000000
Si       9.60074232      13.44103925      10.00000000  F       0.00000000       0.00000000       0.00000000
Si       1.92014846       5.76044539      10.00000000  F       0.00000000       0.00000000       0.00000000
Si       9.60276248       8.39062699      19.41909744  T       0.00000000       0.00000000       0.00000000
Si       7.68433193       7.77504411      18.18825482  T       0.00000000       0.00000000       0.00000000
Si       7.68228371       9.60091828      16.70541820  T       0.00000000       0.00000000       0.00000000
Si       9.60273797       9.60044273      15.38550457  T       0.00000000       0.00000000       0.00000000
Si       9.60074232       7.68059386      14.07325000  F       0.00000000       0.00000000       0.00000000
Si       7.68059386       7.68059386      12.71550000  F       0.00000000       0.00000000       0.00000000
Si       7.68059386       9.60074232      11.35775000  F       0.00000000       0.00000000       0.00000000
Si       9.60074232       9.60074232      10.00000000  F       0.00000000       0.00000000       0.00000000
Si       0.00000000       5.76044539      11.35775000  F       0.00000000       0.00000000       0.00000000
Si       0.00000000       3.84029693      12.71550000  F       0.00000000       0.00000000       0.00000000
Si       9.60041141       3.12788589      19.41979931  T       0.00000000       0.00000000       0.00000000
Si       7.68059386      13.44103925      11.35775000  F       0.00000000       0.00000000       0.00000000
Si      11.52094773       0.09701809      18.19277236  T       0.00000000       0.00000000       0.00000000
Si      13.44083260       0.71208784      19.41970075  T       0.00000000       0.00000000       0.00000000
Si      15.36064577       0.09605791      18.19328965  T       0.00000000       0.00000000       0.00000000
Si      13.44365414      10.80604705      19.41863920  T       0.00000000       0.00000000       0.00000000
Si      11.52149268      11.42284934      18.19566224  T       0.00000000       0.00000000       0.00000000
Si      11.52168229      13.43995203      16.92163847  T       0.00000000       0.00000000       0.00000000
Si      13.44164835      13.44069300      15.50351978  T       0.00000000       0.00000000       0.00000000
Si      13.44103925      11.52089079      14.07325000  F       0.00000000       0.00000000       0.00000000
Si      11.52089079      11.52089079      12.71550000  F       0.00000000       0.00000000       0.00000000
Si      11.52089079      13.44103925      11.35775000  F       0.00000000       0.00000000       0.00000000
Si      13.44103925      13.44103925      10.00000000  F       0.00000000       0.00000000       0.00000000
Si       0.00000000       1.92014846      11.35775000  F       0.00000000       0.00000000       0.00000000
Si       0.00000000       0.00000000      12.71550000  F       0.00000000       0.00000000       0.00000000
Si      13.45026613       8.38972910      19.40780570  T       0.00000000       0.00000000       0.00000000
Si      11.52298397       7.77543204      18.19116918  T       0.00000000       0.00000000       0.00000000
Si      11.52284854       9.60113775      16.70731032  T       0.00000000       0.00000000       0.00000000
Si      13.44269938       9.60057787      15.38478965  T       0.00000000       0.00000000       0.00000000
Si      13.44103925       7.68059386      14.07325000  F       0.00000000       0.00000000       0.00000000
Si      11.52089079       7.68059386      12.71550000  F       0.00000000       0.00000000       0.00000000
Si      11.52089079       9.60074232      11.35775000  F       0.00000000       0.00000000       0.00000000
Si      13.44103925       9.60074232      10.00000000  F       0.00000000       0.00000000       0.00000000
Si       1.92014846       0.00000000      14.07325000  F       0.00000000       0.00000000       0.00000000
Si       1.92014860       1.92001574      15.38527048  T       0.00000000       0.00000000       0.00000000
Si      13.44155232       3.12854074      19.41886245  T       0.00000000       0.00000000       0.00000000
Si      11.52061144       3.74272373      18.19337672  T       0.00000000       0.00000000       0.00000000
Si      11.52165158       5.75839268      16.91996180  T       0.00000000       0.00000000       0.00000000
Si      13.44191341       5.76034374      15.50313394  T       0.00000000       0.00000000       0.00000000
Si      13.44103925       3.84029693      14.07325000  F       0.00000000       0.00000000       0.00000000
Si      11.52089079       3.84029693      12.71550000  F       0.00000000       0.00000000       0.00000000
Si      11.52089079       5.76044539      11.35775000  F       0.00000000       0.00000000       0.00000000
Si      13.44103925       5.76044539      10.00000000  F       0.00000000       0.00000000       0.00000000
Si       0.00011042       1.91858156      16.70634891  T       0.00000000       0.00000000       0.00000000
Si       7.68033284       3.74287977      18.19269271  T       0.00000000       0.00000000       0.00000000
Si       7.68108309       5.75832451      16.91823635  T       0.00000000       0.00000000       0.00000000
Si       9.60074232       3.84029693      14.07325000  F       0.00000000       0.00000000       0.00000000
Si       1.93553189       8.37197871      19.46036886  T       0.00000000       0.00000000       0.00000000
Si       5.76012264       3.12979708      19.42095316  T       0.00000000       0.00000000       0.00000000
Si       3.83940335       3.74614105      18.19617841  T       0.00000000       0.00000000       0.00000000
Si       3.83925177       5.76123899      16.91961070  T       0.00000000       0.00000000       0.00000000
Si       5.76019941       5.76031664      15.50308400  T       0.00000000       0.00000000       0.00000000
Si       5.76044539       3.84029693      14.07325000  F       0.00000000       0.00000000       0.00000000
Si       3.84029693       3.84029693      12.71550000  F       0.00000000       0.00000000       0.00000000
Si       3.84029693       5.76044539      11.35775000  F       0.00000000       0.00000000       0.00000000
Si       5.76044539       5.76044539      10.00000000  F       0.00000000       0.00000000       0.00000000
Si       0.00000000       9.60074232      11.35775000  F       0.00000000       0.00000000       0.00000000
Si       0.00000000       7.68059386      12.71550000  F       0.00000000       0.00000000       0.00000000
Si       5.75937277       0.71312973      19.42053116  T       0.00000000       0.00000000       0.00000000
Si       3.84030088       0.09808781      18.19257640  T       0.00000000       0.00000000       0.00000000
Si       3.83952840       1.92256240      16.70840575  T       0.00000000       0.00000000       0.00000000
Si       5.75958984       1.92023079      15.38563203  T       0.00000000       0.00000000       0.00000000
Si       5.76044539       0.00000000      14.07325000  F       0.00000000       0.00000000       0.00000000
Si       3.84029693       0.00000000      12.71550000  F       0.00000000       0.00000000       0.00000000
Si       3.84029693       1.92014846      11.35775000  F       0.00000000       0.00000000       0.00000000
Si       5.76044539       1.92014846      10.00000000  F       0.00000000       0.00000000       0.00000000
Si       1.92014846       7.68059386      14.07325000  F       0.00000000       0.00000000       0.00000000
Si       1.92119646       9.60103879      15.38456305  T       0.00000000       0.00000000       0.00000000
Si       1.91865261      10.78992783      19.41688364  T       0.00000000       0.00000000       0.00000000
Si       0.00241529      11.42229174      18.19411519  T       0.00000000       0.00000000       0.00000000
Si       0.00020045      13.43998837      16.92112675  T       0.00000000       0.00000000       0.00000000
Si       1.92072695      13.44080182      15.50417329  T       0.00000000       0.00000000       0.00000000
Si       1.92014846      11.52089079      14.07325000  F       0.00000000       0.00000000       0.00000000
Si       0.00000000      11.52089079      12.71550000  F       0.00000000       0.00000000       0.00000000
Si       0.00000000      13.44103925      11.35775000  F       0.00000000       0.00000000       0.00000000
Si       1.92014846      13.44103925      10.00000000  F       0.00000000       0.00000000       0.00000000
Si       0.00212809       9.60165835      16.70585768  T       0.00000000       0.00000000       0.00000000
Si       1.92014846       9.60074232      10.00000000  F       0.00000000       0.00000000       0.00000000
Si       9.60133337       5.75991339      15.50252901  T       0.00000000       0.00000000       0.00000000
Si       5.76044539       9.60074232      10.00000000  F       0.00000000       0.00000000       0.00000000
Si       3.84029693       7.68059386      12.71550000  F       0.00000000       0.00000000       0.00000000
Si       7.68059386       3.84029693      12.71550000  F       0.00000000       0.00000000       0.00000000
Si       7.68059386       5.76044539      11.35775000  F       0.00000000       0.00000000       0.00000000
Si       9.60074232       5.76044539      10.00000000  F       0.00000000       0.00000000       0.00000000
Si       1.92014846       3.84029693      14.07325000  F       0.00000000       0.00000000       0.00000000
Si       1.91988648       5.75966453      15.50225668  T       0.00000000       0.00000000       0.00000000
Si       9.60097242       0.71157730      19.41970189  T       0.00000000       0.00000000       0.00000000
Si       7.67984365       0.09759287      18.19432450  T       0.00000000       0.00000000       0.00000000
Si       7.68007330       1.91924272      16.70653615  T       0.00000000       0.00000000       0.00000000
Si       9.60030607       1.91984167      15.38528791  T       0.00000000       0.00000000       0.00000000
Si       9.60074232       0.00000000      14.07325000  F       0.00000000       0.00000000       0.00000000
Si       7.68059386       0.00000000      12.71550000  F       0.00000000       0.00000000       0.00000000
Si       7.68059386       1.92014846      11.35775000  F       0.00000000       0.00000000       0.00000000
Si       9.60074232       1.92014846      10.00000000  F       0.00000000       0.00000000       0.00000000
Si       0.00121474       5.76221216      16.91988660  T       0.00000000       0.00000000       0.00000000
Si      15.36103901       3.74399564      18.19091390  T       0.00000000       0.00000000       0.00000000
Si       5.76055407      10.80444736      19.42019367  T       0.00000000       0.00000000       0.00000000
Si       3.83907919      11.42353046      18.19783573  T       0.00000000       0.00000000       0.00000000
Si       3.84082303      13.44016346      16.92297748  T       0.00000000       0.00000000       0.00000000
Si       5.76033994      13.44086450      15.50368755  T       0.00000000       0.00000000       0.00000000
Si       5.76044539      11.52089079      14.07325000  F       0.00000000       0.00000000       0.00000000
Si       3.84029693      11.52089079      12.71550000  F       0.00000000       0.00000000       0.00000000
Si       3.84029693      13.44103925      11.35775000  F       0.00000000       0.00000000       0.00000000
Si       5.76044539      13.44103925      10.00000000  F       0.00000000       0.00000000       0.00000000
Si       1.91824645       3.12503974      19.41914470  T       0.00000000       0.00000000       0.00000000
Si       5.76010653       8.38812494      19.40689489  T       0.00000000       0.00000000       0.00000000
Si       3.83390315       7.78651235      18.17565281  T       0.00000000       0.00000000       0.00000000
Si       3.84334545       9.60999574      16.70128520  T       0.00000000       0.00000000       0.00000000
Si       5.76395456       9.60191538      15.38255010  T       0.00000000       0.00000000       0.00000000
Si       5.76044539       7.68059386      14.07325000  F       0.00000000       0.00000000       0.00000000
Si       3.84029693       9.60074232      11.35775000  F       0.00000000       0.00000000       0.00000000
Si       1.92014846       1.92014846      10.00000000  F       0.00000000       0.00000000       0.00000000
Si       2.49833778       7.31155658      21.78996265  T       0.00000000       0.00000000       0.00000000
Cl       2.42029150       6.58939031      23.79747431  T       0.00000000       0.00000000       0.00000000
H        2.96272679       6.10679531      21.06085105  T       0.00000000       0.00000000       0.00000000
H        3.26161667       8.56004639      22.05661235  T       0.00000000       0.00000000       0.00000000
H        0.75887881       7.14626762      21.96259068  T       0.00000000       0.00000000       0.00000000
H        0.98702837       7.58368681      21.12701574  T       0.00000000       0.00000000       0.00000000
181
Lattice="15.361187714496559 0.0 0.0 0.0 15.361187714496559 0.0 0.0 0.0 29.50425" Properties=species:S:1:pos:R:3:move_mask:L:1:momenta:R:3 source_member=data/TS/t19/CONTCAR source_doi=10.5281/zenodo.10211009 role=source_named_TS_unverified_here pbc="T T T"
H        1.92143108      11.35742596      20.83047945  T       0.00000000       0.00000000       0.00000000
H       13.44177586       0.16230597      20.82008865  T       0.00000000       0.00000000       0.00000000
H       13.43023892       3.65637450      20.83219965  T       0.00000000       0.00000000       0.00000000
H        9.60124357       3.66742798      20.82465944  T       0.00000000       0.00000000       0.00000000
H        9.60116136       0.17002734      20.82232343  T       0.00000000       0.00000000       0.00000000
H        5.76044624       3.66587559      20.82954579  T       0.00000000       0.00000000       0.00000000
H        5.75830940       0.16524584      20.82177377  T       0.00000000       0.00000000       0.00000000
H        1.92105365       0.14745856      20.81286572  T       0.00000000       0.00000000       0.00000000
H        1.93804710       3.57821967      20.85002177  T       0.00000000       0.00000000       0.00000000
H       13.44511654      11.35117072      20.82407389  T       0.00000000       0.00000000       0.00000000
H       13.45422308       7.85747190      20.81960320  T       0.00000000       0.00000000       0.00000000
H        9.59900435      11.34896844      20.82342132  T       0.00000000       0.00000000       0.00000000
H        9.59964571       7.85108331      20.82268215  T       0.00000000       0.00000000       0.00000000
H        5.76056222      11.34869064      20.82200949  T       0.00000000       0.00000000       0.00000000
H        5.77993437       7.86272025      20.82173565  T       0.00000000       0.00000000       0.00000000
H        5.76044539      14.63312426       9.15706861  F       0.00000000       0.00000000       0.00000000
H        1.92014846      12.24895424       9.15706861  F       0.00000000       0.00000000       0.00000000
H        1.92014846      14.63312426       9.15706861  F       0.00000000       0.00000000       0.00000000
H        5.76044539       0.72806346       9.15706861  F       0.00000000       0.00000000       0.00000000
H        5.76044539       3.11223347       9.15706861  F       0.00000000       0.00000000       0.00000000
H        5.76044539       4.56836038       9.15706861  F       0.00000000       0.00000000       0.00000000
H        5.76044539       6.95253040       9.15706861  F       0.00000000       0.00000000       0.00000000
H        5.76044539       8.40865731       9.15706861  F       0.00000000       0.00000000       0.00000000
H        5.76044539      10.79282733       9.15706861  F       0.00000000       0.00000000       0.00000000
H        5.76044539      12.24895424       9.15706861  F       0.00000000       0.00000000       0.00000000
H       13.44103925      12.24895424       9.15706861  F       0.00000000       0.00000000       0.00000000
H        9.60074232       0.72806346       9.15706861  F       0.00000000       0.00000000       0.00000000
H        1.92014846      10.79282733       9.15706861  F       0.00000000       0.00000000       0.00000000
H        9.60074232       3.11223347       9.15706861  F       0.00000000       0.00000000       0.00000000
H        9.60074232       6.95253040       9.15706861  F       0.00000000       0.00000000       0.00000000
H        9.60074232       8.40865731       9.15706861  F       0.00000000       0.00000000       0.00000000
H        9.60074232      10.79282733       9.15706861  F       0.00000000       0.00000000       0.00000000
H        9.60074232      12.24895424       9.15706861  F       0.00000000       0.00000000       0.00000000
H        9.60074232      14.63312426       9.15706861  F       0.00000000       0.00000000       0.00000000
H       13.44103925       0.72806346       9.15706861  F       0.00000000       0.00000000       0.00000000
H       13.44103925       3.11223347       9.15706861  F       0.00000000       0.00000000       0.00000000
H       13.44103925       4.56836038       9.15706861  F       0.00000000       0.00000000       0.00000000
H       13.44103925       6.95253040       9.15706861  F       0.00000000       0.00000000       0.00000000
H       13.44103925       8.40865731       9.15706861  F       0.00000000       0.00000000       0.00000000
H       13.44103925      10.79282733       9.15706861  F       0.00000000       0.00000000       0.00000000
H        9.60074232       4.56836038       9.15706861  F       0.00000000       0.00000000       0.00000000
H        1.92014846       8.40865731       9.15706861  F       0.00000000       0.00000000       0.00000000
H       13.44103925      14.63312426       9.15706861  F       0.00000000       0.00000000       0.00000000
H        1.92014846       6.95253040       9.15706861  F       0.00000000       0.00000000       0.00000000
H        1.92014846       3.11223347       9.15706861  F       0.00000000       0.00000000       0.00000000
H        1.92014846       0.72806346       9.15706861  F       0.00000000       0.00000000       0.00000000
H        1.92014846       4.56836038       9.15706861  F       0.00000000       0.00000000       0.00000000
Si       9.60081617      13.44110455      15.50255453  T       0.00000000       0.00000000       0.00000000
Si       7.68214906      13.44346433      16.92085211  T       0.00000000       0.00000000       0.00000000
Si       7.68306977      11.42529428      18.19045917  T       0.00000000       0.00000000       0.00000000
Si       9.60083739      10.80834274      19.42022899  T       0.00000000       0.00000000       0.00000000
Si      15.34490063       7.78315234      18.16782576  T       0.00000000       0.00000000       0.00000000
Si      13.44103925       1.92014846      10.00000000  F       0.00000000       0.00000000       0.00000000
Si      11.52089079       1.92014846      11.35775000  F       0.00000000       0.00000000       0.00000000
Si      11.52089079       0.00000000      12.71550000  F       0.00000000       0.00000000       0.00000000
Si      13.44103925       0.00000000      14.07325000  F       0.00000000       0.00000000       0.00000000
Si      13.44158696       1.92063197      15.38647920  T       0.00000000       0.00000000       0.00000000
Si      11.52054199       1.92102456      16.70679927  T       0.00000000       0.00000000       0.00000000
Si       9.60074232      11.52089079      14.07325000  F       0.00000000       0.00000000       0.00000000
Si       1.92073496       0.68761318      19.40953463  T       0.00000000       0.00000000       0.00000000
Si       7.68059386      11.52089079      12.71550000  F       0.00000000       0.00000000       0.00000000
Si       9.60074232      13.44103925      10.00000000  F       0.00000000       0.00000000       0.00000000
Si       1.92014846       5.76044539      10.00000000  F       0.00000000       0.00000000       0.00000000
Si       9.60015422       8.39171560      19.41974767  T       0.00000000       0.00000000       0.00000000
Si       7.68218508       7.77869689      18.18813387  T       0.00000000       0.00000000       0.00000000
Si       7.68238628       9.60199002      16.70455810  T       0.00000000       0.00000000       0.00000000
Si       9.60129612       9.60135891      15.38360755  T       0.00000000       0.00000000       0.00000000
Si       9.60074232       7.68059386      14.07325000  F       0.00000000       0.00000000       0.00000000
Si       7.68059386       7.68059386      12.71550000  F       0.00000000       0.00000000       0.00000000
Si       7.68059386       9.60074232      11.35775000  F       0.00000000       0.00000000       0.00000000
Si       9.60074232       9.60074232      10.00000000  F       0.00000000       0.00000000       0.00000000
Si       0.00000000       5.76044539      11.35775000  F       0.00000000       0.00000000       0.00000000
Si       0.00000000       3.84029693      12.71550000  F       0.00000000       0.00000000       0.00000000
Si       9.60124857       3.12800177      19.42120876  T       0.00000000       0.00000000       0.00000000
Si       7.68059386      13.44103925      11.35775000  F       0.00000000       0.00000000       0.00000000
Si      11.52043585       0.09716921      18.19158759  T       0.00000000       0.00000000       0.00000000
Si      13.43994600       0.70778208      19.41891754  T       0.00000000       0.00000000       0.00000000
Si      15.35685564       0.09315089      18.18793770  T       0.00000000       0.00000000       0.00000000
Si      13.44007825      10.81166235      19.42093707  T       0.00000000       0.00000000       0.00000000
Si      11.52031893      11.42649006      18.19433494  T       0.00000000       0.00000000       0.00000000
Si      11.52000598      13.44171294      16.92026231  T       0.00000000       0.00000000       0.00000000
Si      13.43863457      13.44030541      15.50100704  T       0.00000000       0.00000000       0.00000000
Si      13.44103925      11.52089079      14.07325000  F       0.00000000       0.00000000       0.00000000
Si      11.52089079      11.52089079      12.71550000  F       0.00000000       0.00000000       0.00000000
Si      11.52089079      13.44103925      11.35775000  F       0.00000000       0.00000000       0.00000000
Si      13.44103925      13.44103925      10.00000000  F       0.00000000       0.00000000       0.00000000
Si       0.00000000       1.92014846      11.35775000  F       0.00000000       0.00000000       0.00000000
Si       0.00000000       0.00000000      12.71550000  F       0.00000000       0.00000000       0.00000000
Si      13.43782492       8.39803481      19.41923681  T       0.00000000       0.00000000       0.00000000
Si      11.52039396       7.77812761      18.19216170  T       0.00000000       0.00000000       0.00000000
Si      11.51857113       9.60283901      16.70861337  T       0.00000000       0.00000000       0.00000000
Si      13.43542347       9.60216848      15.38255154  T       0.00000000       0.00000000       0.00000000
Si      13.44103925       7.68059386      14.07325000  F       0.00000000       0.00000000       0.00000000
Si      11.52089079       7.68059386      12.71550000  F       0.00000000       0.00000000       0.00000000
Si      11.52089079       9.60074232      11.35775000  F       0.00000000       0.00000000       0.00000000
Si      13.44103925       9.60074232      10.00000000  F       0.00000000       0.00000000       0.00000000
Si       1.92014846       0.00000000      14.07325000  F       0.00000000       0.00000000       0.00000000
Si       1.91952365       1.92057101      15.38697276  T       0.00000000       0.00000000       0.00000000
Si      13.43624402       3.12310029      19.42873957  T       0.00000000       0.00000000       0.00000000
Si      11.52191998       3.74145543      18.19545179  T       0.00000000       0.00000000       0.00000000
Si      11.52120359       5.75854319      16.92309061  T       0.00000000       0.00000000       0.00000000
Si      13.44069045       5.75884489      15.50442824  T       0.00000000       0.00000000       0.00000000
Si      13.44103925       3.84029693      14.07325000  F       0.00000000       0.00000000       0.00000000
Si      11.52089079       3.84029693      12.71550000  F       0.00000000       0.00000000       0.00000000
Si      11.52089079       5.76044539      11.35775000  F       0.00000000       0.00000000       0.00000000
Si      13.44103925       5.76044539      10.00000000  F       0.00000000       0.00000000       0.00000000
Si       0.00000760       1.92202763      16.71040402  T       0.00000000       0.00000000       0.00000000
Si       7.67979572       3.74232818      18.19616028  T       0.00000000       0.00000000       0.00000000
Si       7.68124319       5.75866286      16.92169617  T       0.00000000       0.00000000       0.00000000
Si       9.60074232       3.84029693      14.07325000  F       0.00000000       0.00000000       0.00000000
Si       1.91368698       8.43045389      19.36861644  T       0.00000000       0.00000000       0.00000000
Si       5.76167385       3.12645001      19.42635287  T       0.00000000       0.00000000       0.00000000
Si       3.83893127       3.73705433      18.20470030  T       0.00000000       0.00000000       0.00000000
Si       3.83886374       5.74790874      16.92138468  T       0.00000000       0.00000000       0.00000000
Si       5.76148772       5.75902559      15.50429154  T       0.00000000       0.00000000       0.00000000
Si       5.76044539       3.84029693      14.07325000  F       0.00000000       0.00000000       0.00000000
Si       3.84029693       3.84029693      12.71550000  F       0.00000000       0.00000000       0.00000000
Si       3.84029693       5.76044539      11.35775000  F       0.00000000       0.00000000       0.00000000
Si       5.76044539       5.76044539      10.00000000  F       0.00000000       0.00000000       0.00000000
Si       0.00000000       9.60074232      11.35775000  F       0.00000000       0.00000000       0.00000000
Si       0.00000000       7.68059386      12.71550000  F       0.00000000       0.00000000       0.00000000
Si       5.76066501       0.70969557      19.42013295  T       0.00000000       0.00000000       0.00000000
Si       3.84519289       0.09271232      18.18703983  T       0.00000000       0.00000000       0.00000000
Si       3.84043690       1.92090910      16.70799700  T       0.00000000       0.00000000       0.00000000
Si       5.76028174       1.92031719      15.38576877  T       0.00000000       0.00000000       0.00000000
Si       5.76044539       0.00000000      14.07325000  F       0.00000000       0.00000000       0.00000000
Si       3.84029693       0.00000000      12.71550000  F       0.00000000       0.00000000       0.00000000
Si       3.84029693       1.92014846      11.35775000  F       0.00000000       0.00000000       0.00000000
Si       5.76044539       1.92014846      10.00000000  F       0.00000000       0.00000000       0.00000000
Si       1.92014846       7.68059386      14.07325000  F       0.00000000       0.00000000       0.00000000
Si       1.91981537       9.60073034      15.38389324  T       0.00000000       0.00000000       0.00000000
Si       1.92189128      10.84195949      19.42052134  T       0.00000000       0.00000000       0.00000000
Si      15.35619443      11.43081003      18.19091415  T       0.00000000       0.00000000       0.00000000
Si      15.35856240      13.44349297      16.91445503  T       0.00000000       0.00000000       0.00000000
Si       1.92041711      13.44073541      15.50199342  T       0.00000000       0.00000000       0.00000000
Si       1.92014846      11.52089079      14.07325000  F       0.00000000       0.00000000       0.00000000
Si       0.00000000      11.52089079      12.71550000  F       0.00000000       0.00000000       0.00000000
Si       0.00000000      13.44103925      11.35775000  F       0.00000000       0.00000000       0.00000000
Si       1.92014846      13.44103925      10.00000000  F       0.00000000       0.00000000       0.00000000
Si      15.35778408       9.61292369      16.69820196  T       0.00000000       0.00000000       0.00000000
Si       1.92014846       9.60074232      10.00000000  F       0.00000000       0.00000000       0.00000000
Si       9.60134084       5.75987309      15.50384362  T       0.00000000       0.00000000       0.00000000
Si       5.76044539       9.60074232      10.00000000  F       0.00000000       0.00000000       0.00000000
Si       3.84029693       7.68059386      12.71550000  F       0.00000000       0.00000000       0.00000000
Si       7.68059386       3.84029693      12.71550000  F       0.00000000       0.00000000       0.00000000
Si       7.68059386       5.76044539      11.35775000  F       0.00000000       0.00000000       0.00000000
Si       9.60074232       5.76044539      10.00000000  F       0.00000000       0.00000000       0.00000000
Si       1.92014846       3.84029693      14.07325000  F       0.00000000       0.00000000       0.00000000
Si       1.91991411       5.75920053      15.50354460  T       0.00000000       0.00000000       0.00000000
Si       9.60144306       0.71167896      19.41961118  T       0.00000000       0.00000000       0.00000000
Si       7.68122785       0.09849930      18.19365442  T       0.00000000       0.00000000       0.00000000
Si       7.68051679       1.92100641      16.70701104  T       0.00000000       0.00000000       0.00000000
Si       9.60047000       1.91994519      15.38523496  T       0.00000000       0.00000000       0.00000000
Si       9.60074232       0.00000000      14.07325000  F       0.00000000       0.00000000       0.00000000
Si       7.68059386       0.00000000      12.71550000  F       0.00000000       0.00000000       0.00000000
Si       7.68059386       1.92014846      11.35775000  F       0.00000000       0.00000000       0.00000000
Si       9.60074232       1.92014846      10.00000000  F       0.00000000       0.00000000       0.00000000
Si       0.00166009       5.75146909      16.92172534  T       0.00000000       0.00000000       0.00000000
Si       0.00013213       3.73877255      18.20937735  T       0.00000000       0.00000000       0.00000000
Si       5.76421979      10.81078191      19.41799804  T       0.00000000       0.00000000       0.00000000
Si       3.84698987      11.42983110      18.19110234  T       0.00000000       0.00000000       0.00000000
Si       3.84473618      13.44189549      16.91344400  T       0.00000000       0.00000000       0.00000000
Si       5.76469814      13.44086826      15.50052914  T       0.00000000       0.00000000       0.00000000
Si       5.76044539      11.52089079      14.07325000  F       0.00000000       0.00000000       0.00000000
Si       3.84029693      11.52089079      12.71550000  F       0.00000000       0.00000000       0.00000000
Si       3.84029693      13.44103925      11.35775000  F       0.00000000       0.00000000       0.00000000
Si       5.76044539      13.44103925      10.00000000  F       0.00000000       0.00000000       0.00000000
Si       1.92288970       3.09879272      19.42653432  T       0.00000000       0.00000000       0.00000000
Si       5.76630657       8.39622834      19.41893186  T       0.00000000       0.00000000       0.00000000
Si       3.85199655       7.76803538      18.18492209  T       0.00000000       0.00000000       0.00000000
Si       3.83778886       9.60327953      16.70831347  T       0.00000000       0.00000000       0.00000000
Si       5.76101017       9.60006838      15.38567002  T       0.00000000       0.00000000       0.00000000
Si       5.76044539       7.68059386      14.07325000  F       0.00000000       0.00000000       0.00000000
Si       3.84029693       9.60074232      11.35775000  F       0.00000000       0.00000000       0.00000000
Si       1.92014846       1.92014846      10.00000000  F       0.00000000       0.00000000       0.00000000
Si       1.81115714       7.23275385      21.38237546  T       0.00000000       0.00000000       0.00000000
Cl       3.48611790       6.25513571      22.07904063  T       0.00000000       0.00000000       0.00000000
Cl       1.35104083       8.63176857      22.86711189  T       0.00000000       0.00000000       0.00000000
Cl      15.19760209       5.76069615      22.32848713  T       0.00000000       0.00000000       0.00000000
H        0.70089334       5.63331541      21.06757470  T       0.00000000       0.00000000       0.00000000
H        1.41906390       5.92825269      20.36905645  T       0.00000000       0.00000000       0.00000000
179
Lattice="15.361187714496559 0.0 0.0 0.0 15.361187714496559 0.0 0.0 0.0 29.50425" Properties=species:S:1:pos:R:3:move_mask:L:1:momenta:R:3 source_member=data/TS/t2/CONTCAR source_doi=10.5281/zenodo.10211009 role=source_named_TS_unverified_here pbc="T T T"
H       13.43721532       0.16840290      20.82858321  T       0.00000000       0.00000000       0.00000000
H       13.43934655       3.66881878      20.82582127  T       0.00000000       0.00000000       0.00000000
H        9.59980524       3.66828254      20.82362192  T       0.00000000       0.00000000       0.00000000
H        9.60154320       0.17109880      20.82367185  T       0.00000000       0.00000000       0.00000000
H        5.76446227       3.66917468      20.82533580  T       0.00000000       0.00000000       0.00000000
H        5.76348904       0.16864933      20.82882957  T       0.00000000       0.00000000       0.00000000
H        1.92071342       0.15514370      20.83584895  T       0.00000000       0.00000000       0.00000000
H        1.91980799       3.66856349      20.82807300  T       0.00000000       0.00000000       0.00000000
H       13.44610210      11.35761504      20.84012145  T       0.00000000       0.00000000       0.00000000
H       13.42772533       7.84466687      20.83733534  T       0.00000000       0.00000000       0.00000000
H        9.59960889      11.34929112      20.82478479  T       0.00000000       0.00000000       0.00000000
H        9.60058056       7.85064108      20.82282144  T       0.00000000       0.00000000       0.00000000
H        5.75621889      11.35742769      20.83922055  T       0.00000000       0.00000000       0.00000000
H        5.77370973       7.84439161      20.83536715  T       0.00000000       0.00000000       0.00000000
H        5.76044539      14.63312426       9.15706861  F       0.00000000       0.00000000       0.00000000
H        1.92014846      12.24895424       9.15706861  F       0.00000000       0.00000000       0.00000000
H        1.92014846      14.63312426       9.15706861  F       0.00000000       0.00000000       0.00000000
H        5.76044539       0.72806346       9.15706861  F       0.00000000       0.00000000       0.00000000
H        5.76044539       3.11223347       9.15706861  F       0.00000000       0.00000000       0.00000000
H        5.76044539       4.56836038       9.15706861  F       0.00000000       0.00000000       0.00000000
H        5.76044539       6.95253040       9.15706861  F       0.00000000       0.00000000       0.00000000
H        5.76044539       8.40865731       9.15706861  F       0.00000000       0.00000000       0.00000000
H        5.76044539      10.79282733       9.15706861  F       0.00000000       0.00000000       0.00000000
H        5.76044539      12.24895424       9.15706861  F       0.00000000       0.00000000       0.00000000
H       13.44103925      12.24895424       9.15706861  F       0.00000000       0.00000000       0.00000000
H        9.60074232       0.72806346       9.15706861  F       0.00000000       0.00000000       0.00000000
H        1.92014846      10.79282733       9.15706861  F       0.00000000       0.00000000       0.00000000
H        9.60074232       3.11223347       9.15706861  F       0.00000000       0.00000000       0.00000000
H        9.60074232       6.95253040       9.15706861  F       0.00000000       0.00000000       0.00000000
H        9.60074232       8.40865731       9.15706861  F       0.00000000       0.00000000       0.00000000
H        9.60074232      10.79282733       9.15706861  F       0.00000000       0.00000000       0.00000000
H        9.60074232      12.24895424       9.15706861  F       0.00000000       0.00000000       0.00000000
H        9.60074232      14.63312426       9.15706861  F       0.00000000       0.00000000       0.00000000
H       13.44103925       0.72806346       9.15706861  F       0.00000000       0.00000000       0.00000000
H       13.44103925       3.11223347       9.15706861  F       0.00000000       0.00000000       0.00000000
H       13.44103925       4.56836038       9.15706861  F       0.00000000       0.00000000       0.00000000
H       13.44103925       6.95253040       9.15706861  F       0.00000000       0.00000000       0.00000000
H       13.44103925       8.40865731       9.15706861  F       0.00000000       0.00000000       0.00000000
H       13.44103925      10.79282733       9.15706861  F       0.00000000       0.00000000       0.00000000
H        9.60074232       4.56836038       9.15706861  F       0.00000000       0.00000000       0.00000000
H        1.92014846       8.40865731       9.15706861  F       0.00000000       0.00000000       0.00000000
H       13.44103925      14.63312426       9.15706861  F       0.00000000       0.00000000       0.00000000
H        1.92014846       6.95253040       9.15706861  F       0.00000000       0.00000000       0.00000000
H        1.92014846       3.11223347       9.15706861  F       0.00000000       0.00000000       0.00000000
H        1.92014846       0.72806346       9.15706861  F       0.00000000       0.00000000       0.00000000
H        1.92014846       4.56836038       9.15706861  F       0.00000000       0.00000000       0.00000000
Si       9.60033705      13.44027579      15.50425033  T       0.00000000       0.00000000       0.00000000
Si       7.68116736      13.44412949      16.92381500  T       0.00000000       0.00000000       0.00000000
Si       7.68308263      11.42440103      18.19420595  T       0.00000000       0.00000000       0.00000000
Si       9.60012765      10.80814280      19.42225529  T       0.00000000       0.00000000       0.00000000
Si      15.33658738       7.78100969      18.19568028  T       0.00000000       0.00000000       0.00000000
Si      13.44103925       1.92014846      10.00000000  F       0.00000000       0.00000000       0.00000000
Si      11.52089079       1.92014846      11.35775000  F       0.00000000       0.00000000       0.00000000
Si      11.52089079       0.00000000      12.71550000  F       0.00000000       0.00000000       0.00000000
Si      13.44103925       0.00000000      14.07325000  F       0.00000000       0.00000000       0.00000000
Si      13.44247942       1.91995247      15.38694541  T       0.00000000       0.00000000       0.00000000
Si      11.52134056       1.92100981      16.70725560  T       0.00000000       0.00000000       0.00000000
Si       9.60074232      11.52089079      14.07325000  F       0.00000000       0.00000000       0.00000000
Si       1.92087273       0.70290778      19.43783283  T       0.00000000       0.00000000       0.00000000
Si       7.68059386      11.52089079      12.71550000  F       0.00000000       0.00000000       0.00000000
Si       9.60074232      13.44103925      10.00000000  F       0.00000000       0.00000000       0.00000000
Si       1.92014846       5.76044539      10.00000000  F       0.00000000       0.00000000       0.00000000
Si       9.60101535       8.39180641      19.42018866  T       0.00000000       0.00000000       0.00000000
Si       7.68452455       7.77643410      18.19229801  T       0.00000000       0.00000000       0.00000000
Si       7.68219269       9.60050277      16.70760221  T       0.00000000       0.00000000       0.00000000
Si       9.60122546       9.60086864      15.38670375  T       0.00000000       0.00000000       0.00000000
Si       9.60074232       7.68059386      14.07325000  F       0.00000000       0.00000000       0.00000000
Si       7.68059386       7.68059386      12.71550000  F       0.00000000       0.00000000       0.00000000
Si       7.68059386       9.60074232      11.35775000  F       0.00000000       0.00000000       0.00000000
Si       9.60074232       9.60074232      10.00000000  F       0.00000000       0.00000000       0.00000000
Si       0.00000000       5.76044539      11.35775000  F       0.00000000       0.00000000       0.00000000
Si       0.00000000       3.84029693      12.71550000  F       0.00000000       0.00000000       0.00000000
Si       9.60035121       3.12759403      19.42048070  T       0.00000000       0.00000000       0.00000000
Si       7.68059386      13.44103925      11.35775000  F       0.00000000       0.00000000       0.00000000
Si      11.52144894       0.09920202      18.19420372  T       0.00000000       0.00000000       0.00000000
Si      13.43896098       0.70927818      19.42651762  T       0.00000000       0.00000000       0.00000000
Si       0.00165069       0.10234732      18.20343908  T       0.00000000       0.00000000       0.00000000
Si      13.42083966      10.80263635      19.44475575  T       0.00000000       0.00000000       0.00000000
Si      11.51775687      11.42512780      18.19612923  T       0.00000000       0.00000000       0.00000000
Si      11.52036290      13.44312685      16.92296283  T       0.00000000       0.00000000       0.00000000
Si      13.43649262      13.44280411      15.49998338  T       0.00000000       0.00000000       0.00000000
Si      13.44103925      11.52089079      14.07325000  F       0.00000000       0.00000000       0.00000000
Si      11.52089079      11.52089079      12.71550000  F       0.00000000       0.00000000       0.00000000
Si      11.52089079      13.44103925      11.35775000  F       0.00000000       0.00000000       0.00000000
Si      13.44103925      13.44103925      10.00000000  F       0.00000000       0.00000000       0.00000000
Si       0.00000000       1.92014846      11.35775000  F       0.00000000       0.00000000       0.00000000
Si       0.00000000       0.00000000      12.71550000  F       0.00000000       0.00000000       0.00000000
Si      13.42604542       8.38798842      19.43541976  T       0.00000000       0.00000000       0.00000000
Si      11.51765852       7.77686224      18.19214943  T       0.00000000       0.00000000       0.00000000
Si      11.52068685       9.60198343      16.70886026  T       0.00000000       0.00000000       0.00000000
Si      13.43054462       9.59963108      15.37554721  T       0.00000000       0.00000000       0.00000000
Si      13.44103925       7.68059386      14.07325000  F       0.00000000       0.00000000       0.00000000
Si      11.52089079       7.68059386      12.71550000  F       0.00000000       0.00000000       0.00000000
Si      11.52089079       9.60074232      11.35775000  F       0.00000000       0.00000000       0.00000000
Si      13.44103925       9.60074232      10.00000000  F       0.00000000       0.00000000       0.00000000
Si       1.92014846       0.00000000      14.07325000  F       0.00000000       0.00000000       0.00000000
Si       1.91999951       1.91998741      15.38720459  T       0.00000000       0.00000000       0.00000000
Si      13.44045273       3.12575212      19.42362272  T       0.00000000       0.00000000       0.00000000
Si      11.52155781       3.74220548      18.19592203  T       0.00000000       0.00000000       0.00000000
Si      11.52107747       5.75806653      16.92180614  T       0.00000000       0.00000000       0.00000000
Si      13.44122249       5.76071088      15.50398532  T       0.00000000       0.00000000       0.00000000
Si      13.44103925       3.84029693      14.07325000  F       0.00000000       0.00000000       0.00000000
Si      11.52089079       3.84029693      12.71550000  F       0.00000000       0.00000000       0.00000000
Si      11.52089079       5.76044539      11.35775000  F       0.00000000       0.00000000       0.00000000
Si      13.44103925       5.76044539      10.00000000  F       0.00000000       0.00000000       0.00000000
Si       0.00088449       1.92025239      16.71023038  T       0.00000000       0.00000000       0.00000000
Si       7.67994484       3.74177931      18.19386256  T       0.00000000       0.00000000       0.00000000
Si       7.68093261       5.75861870      16.92133553  T       0.00000000       0.00000000       0.00000000
Si       9.60074232       3.84029693      14.07325000  F       0.00000000       0.00000000       0.00000000
Si       1.92057474       8.31163952      19.41907232  T       0.00000000       0.00000000       0.00000000
Si       5.76167751       3.12582217      19.42319813  T       0.00000000       0.00000000       0.00000000
Si       3.83894663       3.74116765      18.20108150  T       0.00000000       0.00000000       0.00000000
Si       3.84359047       5.75708657      16.92606895  T       0.00000000       0.00000000       0.00000000
Si       5.76107256       5.76051288      15.50378762  T       0.00000000       0.00000000       0.00000000
Si       5.76044539       3.84029693      14.07325000  F       0.00000000       0.00000000       0.00000000
Si       3.84029693       3.84029693      12.71550000  F       0.00000000       0.00000000       0.00000000
Si       3.84029693       5.76044539      11.35775000  F       0.00000000       0.00000000       0.00000000
Si       5.76044539       5.76044539      10.00000000  F       0.00000000       0.00000000       0.00000000
Si       0.00000000       9.60074232      11.35775000  F       0.00000000       0.00000000       0.00000000
Si       0.00000000       7.68059386      12.71550000  F       0.00000000       0.00000000       0.00000000
Si       5.76177633       0.70927919      19.42686956  T       0.00000000       0.00000000       0.00000000
Si       3.83897311       0.10159090      18.20260521  T       0.00000000       0.00000000       0.00000000
Si       3.83963249       1.92084872      16.71062080  T       0.00000000       0.00000000       0.00000000
Si       5.75897764       1.91993814      15.38675759  T       0.00000000       0.00000000       0.00000000
Si       5.76044539       0.00000000      14.07325000  F       0.00000000       0.00000000       0.00000000
Si       3.84029693       0.00000000      12.71550000  F       0.00000000       0.00000000       0.00000000
Si       3.84029693       1.92014846      11.35775000  F       0.00000000       0.00000000       0.00000000
Si       5.76044539       1.92014846      10.00000000  F       0.00000000       0.00000000       0.00000000
Si       1.92014846       7.68059386      14.07325000  F       0.00000000       0.00000000       0.00000000
Si       1.92005067       9.60042337      15.39316280  T       0.00000000       0.00000000       0.00000000
Si       1.92001965      10.72950699      19.18133325  T       0.00000000       0.00000000       0.00000000
Si      15.29324129      11.43117973      18.16285050  T       0.00000000       0.00000000       0.00000000
Si      15.35548018      13.45917295      16.91503770  T       0.00000000       0.00000000       0.00000000
Si       1.91986076      13.43958298      15.50350340  T       0.00000000       0.00000000       0.00000000
Si       1.92014846      11.52089079      14.07325000  F       0.00000000       0.00000000       0.00000000
Si       0.00000000      11.52089079      12.71550000  F       0.00000000       0.00000000       0.00000000
Si       0.00000000      13.44103925      11.35775000  F       0.00000000       0.00000000       0.00000000
Si       1.92014846      13.44103925      10.00000000  F       0.00000000       0.00000000       0.00000000
Si      15.34426056       9.59087652      16.69880847  T       0.00000000       0.00000000       0.00000000
Si       1.92014846       9.60074232      10.00000000  F       0.00000000       0.00000000       0.00000000
Si       9.60086416       5.76037426      15.50369531  T       0.00000000       0.00000000       0.00000000
Si       5.76044539       9.60074232      10.00000000  F       0.00000000       0.00000000       0.00000000
Si       3.84029693       7.68059386      12.71550000  F       0.00000000       0.00000000       0.00000000
Si       7.68059386       3.84029693      12.71550000  F       0.00000000       0.00000000       0.00000000
Si       7.68059386       5.76044539      11.35775000  F       0.00000000       0.00000000       0.00000000
Si       9.60074232       5.76044539      10.00000000  F       0.00000000       0.00000000       0.00000000
Si       1.92014846       3.84029693      14.07325000  F       0.00000000       0.00000000       0.00000000
Si       1.92007104       5.76225678      15.50851329  T       0.00000000       0.00000000       0.00000000
Si       9.60113058       0.71145395      19.42062891  T       0.00000000       0.00000000       0.00000000
Si       7.67988006       0.09948741      18.19565016  T       0.00000000       0.00000000       0.00000000
Si       7.68041867       1.91948425      16.70616316  T       0.00000000       0.00000000       0.00000000
Si       9.60091029       1.91987411      15.38550671  T       0.00000000       0.00000000       0.00000000
Si       9.60074232       0.00000000      14.07325000  F       0.00000000       0.00000000       0.00000000
Si       7.68059386       0.00000000      12.71550000  F       0.00000000       0.00000000       0.00000000
Si       7.68059386       1.92014846      11.35775000  F       0.00000000       0.00000000       0.00000000
Si       9.60074232       1.92014846      10.00000000  F       0.00000000       0.00000000       0.00000000
Si      15.35828937       5.75822946      16.92643824  T       0.00000000       0.00000000       0.00000000
Si       0.00130686       3.74100516      18.19978414  T       0.00000000       0.00000000       0.00000000
Si       5.78010407      10.80239789      19.44359295  T       0.00000000       0.00000000       0.00000000
Si       3.90690221      11.43129708      18.16147477  T       0.00000000       0.00000000       0.00000000
Si       3.84643987      13.45865890      16.91345485  T       0.00000000       0.00000000       0.00000000
Si       5.76609901      13.44313755      15.49956609  T       0.00000000       0.00000000       0.00000000
Si       5.76044539      11.52089079      14.07325000  F       0.00000000       0.00000000       0.00000000
Si       3.84029693      11.52089079      12.71550000  F       0.00000000       0.00000000       0.00000000
Si       3.84029693      13.44103925      11.35775000  F       0.00000000       0.00000000       0.00000000
Si       5.76044539      13.44103925      10.00000000  F       0.00000000       0.00000000       0.00000000
Si       1.91994628       3.12111739      19.42774654  T       0.00000000       0.00000000       0.00000000
Si       5.77520619       8.38773521      19.43333084  T       0.00000000       0.00000000       0.00000000
Si       3.86454940       7.78142285      18.19308085  T       0.00000000       0.00000000       0.00000000
Si       3.85798799       9.59195691      16.69755523  T       0.00000000       0.00000000       0.00000000
Si       5.77180784       9.59968842      15.37523387  T       0.00000000       0.00000000       0.00000000
Si       5.76044539       7.68059386      14.07325000  F       0.00000000       0.00000000       0.00000000
Si       3.84029693       9.60074232      11.35775000  F       0.00000000       0.00000000       0.00000000
Si       1.92014846       1.92014846      10.00000000  F       0.00000000       0.00000000       0.00000000
Si       1.93876839       9.63347991      21.38928118  T       0.00000000       0.00000000       0.00000000
H        0.65714880       9.47285104      22.12408189  T       0.00000000       0.00000000       0.00000000
H        3.24465168       9.47124371      22.08020777  T       0.00000000       0.00000000       0.00000000
Cl       1.96223747      12.08355075      22.47634347  T       0.00000000       0.00000000       0.00000000
H        1.93185464      11.34305279      20.85124814  T       0.00000000       0.00000000       0.00000000
181
Lattice="15.361187714496559 0.0 0.0 0.0 15.361187714496559 0.0 0.0 0.0 29.50425" Properties=species:S:1:pos:R:3:move_mask:L:1:momenta:R:3 source_member=data/TS/t20/CONTCAR source_doi=10.5281/zenodo.10211009 role=source_named_TS_unverified_here pbc="T T T"
H        1.92820999      11.33688641      20.81439976  T       0.00000000       0.00000000       0.00000000
H       13.44045026       0.14928415      20.81569127  T       0.00000000       0.00000000       0.00000000
H       13.41419402       3.63855313      20.84710963  T       0.00000000       0.00000000       0.00000000
H        9.60110042       3.66565739      20.82297806  T       0.00000000       0.00000000       0.00000000
H        9.60327674       0.16893475      20.82016256  T       0.00000000       0.00000000       0.00000000
H        5.75664282       3.66363286      20.81974218  T       0.00000000       0.00000000       0.00000000
H        5.75892586       0.16587396      20.81851976  T       0.00000000       0.00000000       0.00000000
H        1.93049039       0.13430799      20.80478400  T       0.00000000       0.00000000       0.00000000
H        1.99381073       3.56642084      20.84923225  T       0.00000000       0.00000000       0.00000000
H       13.43902281      11.37390833      20.81772490  T       0.00000000       0.00000000       0.00000000
H       13.38709396       7.89287783      20.84529823  T       0.00000000       0.00000000       0.00000000
H        9.59988200      11.35115760      20.82117087  T       0.00000000       0.00000000       0.00000000
H        9.59756290       7.85293821      20.82069769  T       0.00000000       0.00000000       0.00000000
H        5.75487056      11.35067040      20.82494971  T       0.00000000       0.00000000       0.00000000
H        5.77265034       7.84808206      20.82254145  T       0.00000000       0.00000000       0.00000000
H        5.76044539      14.63312426       9.15706861  F       0.00000000       0.00000000       0.00000000
H        1.92014846      12.24895424       9.15706861  F       0.00000000       0.00000000       0.00000000
H        1.92014846      14.63312426       9.15706861  F       0.00000000       0.00000000       0.00000000
H        5.76044539       0.72806346       9.15706861  F       0.00000000       0.00000000       0.00000000
H        5.76044539       3.11223347       9.15706861  F       0.00000000       0.00000000       0.00000000
H        5.76044539       4.56836038       9.15706861  F       0.00000000       0.00000000       0.00000000
H        5.76044539       6.95253040       9.15706861  F       0.00000000       0.00000000       0.00000000
H        5.76044539       8.40865731       9.15706861  F       0.00000000       0.00000000       0.00000000
H        5.76044539      10.79282733       9.15706861  F       0.00000000       0.00000000       0.00000000
H        5.76044539      12.24895424       9.15706861  F       0.00000000       0.00000000       0.00000000
H       13.44103925      12.24895424       9.15706861  F       0.00000000       0.00000000       0.00000000
H        9.60074232       0.72806346       9.15706861  F       0.00000000       0.00000000       0.00000000
H        1.92014846      10.79282733       9.15706861  F       0.00000000       0.00000000       0.00000000
H        9.60074232       3.11223347       9.15706861  F       0.00000000       0.00000000       0.00000000
H        9.60074232       6.95253040       9.15706861  F       0.00000000       0.00000000       0.00000000
H        9.60074232       8.40865731       9.15706861  F       0.00000000       0.00000000       0.00000000
H        9.60074232      10.79282733       9.15706861  F       0.00000000       0.00000000       0.00000000
H        9.60074232      12.24895424       9.15706861  F       0.00000000       0.00000000       0.00000000
H        9.60074232      14.63312426       9.15706861  F       0.00000000       0.00000000       0.00000000
H       13.44103925       0.72806346       9.15706861  F       0.00000000       0.00000000       0.00000000
H       13.44103925       3.11223347       9.15706861  F       0.00000000       0.00000000       0.00000000
H       13.44103925       4.56836038       9.15706861  F       0.00000000       0.00000000       0.00000000
H       13.44103925       6.95253040       9.15706861  F       0.00000000       0.00000000       0.00000000
H       13.44103925       8.40865731       9.15706861  F       0.00000000       0.00000000       0.00000000
H       13.44103925      10.79282733       9.15706861  F       0.00000000       0.00000000       0.00000000
H        9.60074232       4.56836038       9.15706861  F       0.00000000       0.00000000       0.00000000
H        1.92014846       8.40865731       9.15706861  F       0.00000000       0.00000000       0.00000000
H       13.44103925      14.63312426       9.15706861  F       0.00000000       0.00000000       0.00000000
H        1.92014846       6.95253040       9.15706861  F       0.00000000       0.00000000       0.00000000
H        1.92014846       3.11223347       9.15706861  F       0.00000000       0.00000000       0.00000000
H        1.92014846       0.72806346       9.15706861  F       0.00000000       0.00000000       0.00000000
H        1.92014846       4.56836038       9.15706861  F       0.00000000       0.00000000       0.00000000
Si       9.60004219      13.44123709      15.50071091  T       0.00000000       0.00000000       0.00000000
Si       7.68200241      13.44213502      16.91959035  T       0.00000000       0.00000000       0.00000000
Si       7.68328086      11.42523229      18.19214654  T       0.00000000       0.00000000       0.00000000
Si       9.60227538      10.81025357      19.41810554  T       0.00000000       0.00000000       0.00000000
Si      15.31767129       7.77025632      18.19843850  T       0.00000000       0.00000000       0.00000000
Si      13.44103925       1.92014846      10.00000000  F       0.00000000       0.00000000       0.00000000
Si      11.52089079       1.92014846      11.35775000  F       0.00000000       0.00000000       0.00000000
Si      11.52089079       0.00000000      12.71550000  F       0.00000000       0.00000000       0.00000000
Si      13.44103925       0.00000000      14.07325000  F       0.00000000       0.00000000       0.00000000
Si      13.44684157       1.92126771      15.38787426  T       0.00000000       0.00000000       0.00000000
Si      11.52427269       1.92294937      16.70591575  T       0.00000000       0.00000000       0.00000000
Si       9.60074232      11.52089079      14.07325000  F       0.00000000       0.00000000       0.00000000
Si       1.92593032       0.68202661      19.40448682  T       0.00000000       0.00000000       0.00000000
Si       7.68059386      11.52089079      12.71550000  F       0.00000000       0.00000000       0.00000000
Si       9.60074232      13.44103925      10.00000000  F       0.00000000       0.00000000       0.00000000
Si       1.92014846       5.76044539      10.00000000  F       0.00000000       0.00000000       0.00000000
Si       9.59932184       8.39412862      19.41684827  T       0.00000000       0.00000000       0.00000000
Si       7.68222151       7.77626793      18.18864173  T       0.00000000       0.00000000       0.00000000
Si       7.68014496       9.60181711      16.70654378  T       0.00000000       0.00000000       0.00000000
Si       9.59935422       9.60149449      15.38359726  T       0.00000000       0.00000000       0.00000000
Si       9.60074232       7.68059386      14.07325000  F       0.00000000       0.00000000       0.00000000
Si       7.68059386       7.68059386      12.71550000  F       0.00000000       0.00000000       0.00000000
Si       7.68059386       9.60074232      11.35775000  F       0.00000000       0.00000000       0.00000000
Si       9.60074232       9.60074232      10.00000000  F       0.00000000       0.00000000       0.00000000
Si       0.00000000       5.76044539      11.35775000  F       0.00000000       0.00000000       0.00000000
Si       0.00000000       3.84029693      12.71550000  F       0.00000000       0.00000000       0.00000000
Si       9.60602768       3.12768683      19.41895892  T       0.00000000       0.00000000       0.00000000
Si       7.68059386      13.44103925      11.35775000  F       0.00000000       0.00000000       0.00000000
Si      11.52288851       0.09770092      18.18864601  T       0.00000000       0.00000000       0.00000000
Si      13.44200092       0.70386014      19.41776906  T       0.00000000       0.00000000       0.00000000
Si      15.35869197       0.09228839      18.18475720  T       0.00000000       0.00000000       0.00000000
Si      13.43431362      10.82210286      19.41925661  T       0.00000000       0.00000000       0.00000000
Si      11.51829205      11.43037114      18.18749263  T       0.00000000       0.00000000       0.00000000
Si      11.51808129      13.44473085      16.91624564  T       0.00000000       0.00000000       0.00000000
Si      13.43836422      13.44056982      15.49931249  T       0.00000000       0.00000000       0.00000000
Si      13.44103925      11.52089079      14.07325000  F       0.00000000       0.00000000       0.00000000
Si      11.52089079      11.52089079      12.71550000  F       0.00000000       0.00000000       0.00000000
Si      11.52089079      13.44103925      11.35775000  F       0.00000000       0.00000000       0.00000000
Si      13.44103925      13.44103925      10.00000000  F       0.00000000       0.00000000       0.00000000
Si       0.00000000       1.92014846      11.35775000  F       0.00000000       0.00000000       0.00000000
Si       0.00000000       0.00000000      12.71550000  F       0.00000000       0.00000000       0.00000000
Si      13.41695754       8.41136182      19.44072796  T       0.00000000       0.00000000       0.00000000
Si      11.51851316       7.78327122      18.18966706  T       0.00000000       0.00000000       0.00000000
Si      11.51786741       9.60461019      16.70463480  T       0.00000000       0.00000000       0.00000000
Si      13.43713522       9.60170606      15.38257083  T       0.00000000       0.00000000       0.00000000
Si      13.44103925       7.68059386      14.07325000  F       0.00000000       0.00000000       0.00000000
Si      11.52089079       7.68059386      12.71550000  F       0.00000000       0.00000000       0.00000000
Si      11.52089079       9.60074232      11.35775000  F       0.00000000       0.00000000       0.00000000
Si      13.44103925       9.60074232      10.00000000  F       0.00000000       0.00000000       0.00000000
Si       1.92014846       0.00000000      14.07325000  F       0.00000000       0.00000000       0.00000000
Si       1.91676833       1.92036633      15.38718874  T       0.00000000       0.00000000       0.00000000
Si      13.43992772       3.11913935      19.43999537  T       0.00000000       0.00000000       0.00000000
Si      11.52994208       3.74083686      18.19768041  T       0.00000000       0.00000000       0.00000000
Si      11.52369503       5.75966718      16.92529298  T       0.00000000       0.00000000       0.00000000
Si      13.44445319       5.75877690      15.50821339  T       0.00000000       0.00000000       0.00000000
Si      13.44103925       3.84029693      14.07325000  F       0.00000000       0.00000000       0.00000000
Si      11.52089079       3.84029693      12.71550000  F       0.00000000       0.00000000       0.00000000
Si      11.52089079       5.76044539      11.35775000  F       0.00000000       0.00000000       0.00000000
Si      13.44103925       5.76044539      10.00000000  F       0.00000000       0.00000000       0.00000000
Si       0.00195635       1.93138524      16.71880315  T       0.00000000       0.00000000       0.00000000
Si       7.68482947       3.74131889      18.19402993  T       0.00000000       0.00000000       0.00000000
Si       7.68116099       5.75710726      16.92009529  T       0.00000000       0.00000000       0.00000000
Si       9.60074232       3.84029693      14.07325000  F       0.00000000       0.00000000       0.00000000
Si       1.89778461       8.42205928      19.34091179  T       0.00000000       0.00000000       0.00000000
Si       5.76331107       3.12341468      19.41574962  T       0.00000000       0.00000000       0.00000000
Si       3.84049338       3.73025530      18.19257586  T       0.00000000       0.00000000       0.00000000
Si       3.83525329       5.74830002      16.92037846  T       0.00000000       0.00000000       0.00000000
Si       5.75977729       5.76030681      15.50468187  T       0.00000000       0.00000000       0.00000000
Si       5.76044539       3.84029693      14.07325000  F       0.00000000       0.00000000       0.00000000
Si       3.84029693       3.84029693      12.71550000  F       0.00000000       0.00000000       0.00000000
Si       3.84029693       5.76044539      11.35775000  F       0.00000000       0.00000000       0.00000000
Si       5.76044539       5.76044539      10.00000000  F       0.00000000       0.00000000       0.00000000
Si       0.00000000       9.60074232      11.35775000  F       0.00000000       0.00000000       0.00000000
Si       0.00000000       7.68059386      12.71550000  F       0.00000000       0.00000000       0.00000000
Si       5.76227815       0.70680027      19.41538903  T       0.00000000       0.00000000       0.00000000
Si       3.84803932       0.08858420      18.18142564  T       0.00000000       0.00000000       0.00000000
Si       3.84307703       1.91496763      16.69977037  T       0.00000000       0.00000000       0.00000000
Si       5.76408037       1.91961727      15.38339861  T       0.00000000       0.00000000       0.00000000
Si       5.76044539       0.00000000      14.07325000  F       0.00000000       0.00000000       0.00000000
Si       3.84029693       0.00000000      12.71550000  F       0.00000000       0.00000000       0.00000000
Si       3.84029693       1.92014846      11.35775000  F       0.00000000       0.00000000       0.00000000
Si       5.76044539       1.92014846      10.00000000  F       0.00000000       0.00000000       0.00000000
Si       1.92014846       7.68059386      14.07325000  F       0.00000000       0.00000000       0.00000000
Si       1.91322058       9.59954100      15.38692911  T       0.00000000       0.00000000       0.00000000
Si       1.92622329      10.84152002      19.39411336  T       0.00000000       0.00000000       0.00000000
Si      15.34938936      11.42790277      18.18218843  T       0.00000000       0.00000000       0.00000000
Si      15.35851653      13.44312529      16.91226881  T       0.00000000       0.00000000       0.00000000
Si       1.91980662      13.44028972      15.50010538  T       0.00000000       0.00000000       0.00000000
Si       1.92014846      11.52089079      14.07325000  F       0.00000000       0.00000000       0.00000000
Si       0.00000000      11.52089079      12.71550000  F       0.00000000       0.00000000       0.00000000
Si       0.00000000      13.44103925      11.35775000  F       0.00000000       0.00000000       0.00000000
Si       1.92014846      13.44103925      10.00000000  F       0.00000000       0.00000000       0.00000000
Si      15.35240279       9.59445166      16.70876804  T       0.00000000       0.00000000       0.00000000
Si       1.92014846       9.60074232      10.00000000  F       0.00000000       0.00000000       0.00000000
Si       9.60368208       5.76028929      15.50483855  T       0.00000000       0.00000000       0.00000000
Si       5.76044539       9.60074232      10.00000000  F       0.00000000       0.00000000       0.00000000
Si       3.84029693       7.68059386      12.71550000  F       0.00000000       0.00000000       0.00000000
Si       7.68059386       3.84029693      12.71550000  F       0.00000000       0.00000000       0.00000000
Si       7.68059386       5.76044539      11.35775000  F       0.00000000       0.00000000       0.00000000
Si       9.60074232       5.76044539      10.00000000  F       0.00000000       0.00000000       0.00000000
Si       1.92014846       3.84029693      14.07325000  F       0.00000000       0.00000000       0.00000000
Si       1.91208560       5.76093089      15.50768023  T       0.00000000       0.00000000       0.00000000
Si       9.60442694       0.71116483      19.41740778  T       0.00000000       0.00000000       0.00000000
Si       7.68426300       0.09713014      18.19193659  T       0.00000000       0.00000000       0.00000000
Si       7.68339257       1.91997303      16.70588234  T       0.00000000       0.00000000       0.00000000
Si       9.60380292       1.92025792      15.38507380  T       0.00000000       0.00000000       0.00000000
Si       9.60074232       0.00000000      14.07325000  F       0.00000000       0.00000000       0.00000000
Si       7.68059386       0.00000000      12.71550000  F       0.00000000       0.00000000       0.00000000
Si       7.68059386       1.92014846      11.35775000  F       0.00000000       0.00000000       0.00000000
Si       9.60074232       1.92014846      10.00000000  F       0.00000000       0.00000000       0.00000000
Si      15.35966650       5.74708732      16.93848980  T       0.00000000       0.00000000       0.00000000
Si       0.00693495       3.74045785      18.23271399  T       0.00000000       0.00000000       0.00000000
Si       5.76470220      10.81151819      19.42138433  T       0.00000000       0.00000000       0.00000000
Si       3.85572796      11.42966421      18.18100683  T       0.00000000       0.00000000       0.00000000
Si       3.84782025      13.44183268      16.90649875  T       0.00000000       0.00000000       0.00000000
Si       5.76653476      13.44044785      15.49753222  T       0.00000000       0.00000000       0.00000000
Si       5.76044539      11.52089079      14.07325000  F       0.00000000       0.00000000       0.00000000
Si       3.84029693      11.52089079      12.71550000  F       0.00000000       0.00000000       0.00000000
Si       3.84029693      13.44103925      11.35775000  F       0.00000000       0.00000000       0.00000000
Si       5.76044539      13.44103925      10.00000000  F       0.00000000       0.00000000       0.00000000
Si       1.93541929       3.09090987      19.42864705  T       0.00000000       0.00000000       0.00000000
Si       5.76876843       8.39601094      19.42140292  T       0.00000000       0.00000000       0.00000000
Si       3.85685060       7.77395653      18.18341039  T       0.00000000       0.00000000       0.00000000
Si       3.84014401       9.60368256      16.70077731  T       0.00000000       0.00000000       0.00000000
Si       5.76262649       9.60041382      15.38265613  T       0.00000000       0.00000000       0.00000000
Si       5.76044539       7.68059386      14.07325000  F       0.00000000       0.00000000       0.00000000
Si       3.84029693       9.60074232      11.35775000  F       0.00000000       0.00000000       0.00000000
Si       1.92014846       1.92014846      10.00000000  F       0.00000000       0.00000000       0.00000000
Si       2.01047203       7.83876259      21.59544082  T       0.00000000       0.00000000       0.00000000
H        3.34949873       8.27865758      22.12853352  T       0.00000000       0.00000000       0.00000000
Cl       0.76346472       8.63576639      23.02266631  T       0.00000000       0.00000000       0.00000000
Cl       0.23658826       5.93798170      21.18520359  T       0.00000000       0.00000000       0.00000000
H        1.93353087       5.97516932      21.79134382  T       0.00000000       0.00000000       0.00000000
H        2.73400146       6.27579052      22.01516849  T       0.00000000       0.00000000       0.00000000
179
Lattice="15.361187714496559 0.0 0.0 0.0 15.361187714496559 0.0 0.0 0.0 29.50425" Properties=species:S:1:pos:R:3:move_mask:L:1:momenta:R:3 source_member=data/TS/t3/CONTCAR source_doi=10.5281/zenodo.10211009 role=source_named_TS_unverified_here pbc="T T T"
H       13.43955868       0.17099667      20.82522375  T       0.00000000       0.00000000       0.00000000
H       13.44029403       3.67192909      20.82561131  T       0.00000000       0.00000000       0.00000000
H        9.60042446       3.66946957      20.82305302  T       0.00000000       0.00000000       0.00000000
H        9.60097030       0.17133148      20.82490012  T       0.00000000       0.00000000       0.00000000
H        5.76174894       3.67024247      20.82284054  T       0.00000000       0.00000000       0.00000000
H        5.76106703       0.16907480      20.82738341  T       0.00000000       0.00000000       0.00000000
H        1.92157657       0.16871398      20.82853890  T       0.00000000       0.00000000       0.00000000
H        1.91923967       3.66921717      20.82320587  T       0.00000000       0.00000000       0.00000000
H       13.42168136      11.35183527      20.84052054  T       0.00000000       0.00000000       0.00000000
H       13.40261036       7.83074917      20.82959422  T       0.00000000       0.00000000       0.00000000
H        9.59954999      11.34816297      20.82202551  T       0.00000000       0.00000000       0.00000000
H        9.59928434       7.84747363      20.81744074  T       0.00000000       0.00000000       0.00000000
H        5.76836223      11.35222077      20.83643449  T       0.00000000       0.00000000       0.00000000
H        5.77139810       7.84445394      20.83890500  T       0.00000000       0.00000000       0.00000000
H        5.76044539      14.63312426       9.15706861  F       0.00000000       0.00000000       0.00000000
H        1.92014846      12.24895424       9.15706861  F       0.00000000       0.00000000       0.00000000
H        1.92014846      14.63312426       9.15706861  F       0.00000000       0.00000000       0.00000000
H        5.76044539       0.72806346       9.15706861  F       0.00000000       0.00000000       0.00000000
H        5.76044539       3.11223347       9.15706861  F       0.00000000       0.00000000       0.00000000
H        5.76044539       4.56836038       9.15706861  F       0.00000000       0.00000000       0.00000000
H        5.76044539       6.95253040       9.15706861  F       0.00000000       0.00000000       0.00000000
H        5.76044539       8.40865731       9.15706861  F       0.00000000       0.00000000       0.00000000
H        5.76044539      10.79282733       9.15706861  F       0.00000000       0.00000000       0.00000000
H        5.76044539      12.24895424       9.15706861  F       0.00000000       0.00000000       0.00000000
H       13.44103925      12.24895424       9.15706861  F       0.00000000       0.00000000       0.00000000
H        9.60074232       0.72806346       9.15706861  F       0.00000000       0.00000000       0.00000000
H        1.92014846      10.79282733       9.15706861  F       0.00000000       0.00000000       0.00000000
H        9.60074232       3.11223347       9.15706861  F       0.00000000       0.00000000       0.00000000
H        9.60074232       6.95253040       9.15706861  F       0.00000000       0.00000000       0.00000000
H        9.60074232       8.40865731       9.15706861  F       0.00000000       0.00000000       0.00000000
H        9.60074232      10.79282733       9.15706861  F       0.00000000       0.00000000       0.00000000
H        9.60074232      12.24895424       9.15706861  F       0.00000000       0.00000000       0.00000000
H        9.60074232      14.63312426       9.15706861  F       0.00000000       0.00000000       0.00000000
H       13.44103925       0.72806346       9.15706861  F       0.00000000       0.00000000       0.00000000
H       13.44103925       3.11223347       9.15706861  F       0.00000000       0.00000000       0.00000000
H       13.44103925       4.56836038       9.15706861  F       0.00000000       0.00000000       0.00000000
H       13.44103925       6.95253040       9.15706861  F       0.00000000       0.00000000       0.00000000
H       13.44103925       8.40865731       9.15706861  F       0.00000000       0.00000000       0.00000000
H       13.44103925      10.79282733       9.15706861  F       0.00000000       0.00000000       0.00000000
H        9.60074232       4.56836038       9.15706861  F       0.00000000       0.00000000       0.00000000
H        1.92014846       8.40865731       9.15706861  F       0.00000000       0.00000000       0.00000000
H       13.44103925      14.63312426       9.15706861  F       0.00000000       0.00000000       0.00000000
H        1.92014846       6.95253040       9.15706861  F       0.00000000       0.00000000       0.00000000
H        1.92014846       3.11223347       9.15706861  F       0.00000000       0.00000000       0.00000000
H        1.92014846       0.72806346       9.15706861  F       0.00000000       0.00000000       0.00000000
H        1.92014846       4.56836038       9.15706861  F       0.00000000       0.00000000       0.00000000
Si       9.60066469      13.44109539      15.50488070  T       0.00000000       0.00000000       0.00000000
Si       7.68111759      13.44183602      16.92165255  T       0.00000000       0.00000000       0.00000000
Si       7.68842431      11.42413795      18.19035126  T       0.00000000       0.00000000       0.00000000
Si       9.59962171      10.80639359      19.41910709  T       0.00000000       0.00000000       0.00000000
Si      15.35180397       7.76149596      18.21490065  T       0.00000000       0.00000000       0.00000000
Si      13.44103925       1.92014846      10.00000000  F       0.00000000       0.00000000       0.00000000
Si      11.52089079       1.92014846      11.35775000  F       0.00000000       0.00000000       0.00000000
Si      11.52089079       0.00000000      12.71550000  F       0.00000000       0.00000000       0.00000000
Si      13.44103925       0.00000000      14.07325000  F       0.00000000       0.00000000       0.00000000
Si      13.44065804       1.91958434      15.38501573  T       0.00000000       0.00000000       0.00000000
Si      11.52009755       1.91929648      16.70668406  T       0.00000000       0.00000000       0.00000000
Si       9.60074232      11.52089079      14.07325000  F       0.00000000       0.00000000       0.00000000
Si       1.92131600       0.71092760      19.42511897  T       0.00000000       0.00000000       0.00000000
Si       7.68059386      11.52089079      12.71550000  F       0.00000000       0.00000000       0.00000000
Si       9.60074232      13.44103925      10.00000000  F       0.00000000       0.00000000       0.00000000
Si       1.92014846       5.76044539      10.00000000  F       0.00000000       0.00000000       0.00000000
Si       9.60322426       8.38915826      19.42081237  T       0.00000000       0.00000000       0.00000000
Si       7.68418983       7.77520429      18.19099419  T       0.00000000       0.00000000       0.00000000
Si       7.68174467       9.59896223      16.70379673  T       0.00000000       0.00000000       0.00000000
Si       9.60139154       9.60082818      15.38304419  T       0.00000000       0.00000000       0.00000000
Si       9.60074232       7.68059386      14.07325000  F       0.00000000       0.00000000       0.00000000
Si       7.68059386       7.68059386      12.71550000  F       0.00000000       0.00000000       0.00000000
Si       7.68059386       9.60074232      11.35775000  F       0.00000000       0.00000000       0.00000000
Si       9.60074232       9.60074232      10.00000000  F       0.00000000       0.00000000       0.00000000
Si       0.00000000       5.76044539      11.35775000  F       0.00000000       0.00000000       0.00000000
Si       0.00000000       3.84029693      12.71550000  F       0.00000000       0.00000000       0.00000000
Si       9.60058464       3.12686628      19.41918340  T       0.00000000       0.00000000       0.00000000
Si       7.68059386      13.44103925      11.35775000  F       0.00000000       0.00000000       0.00000000
Si      11.52073564       0.09772893      18.19437407  T       0.00000000       0.00000000       0.00000000
Si      13.43703281       0.71217321      19.42440585  T       0.00000000       0.00000000       0.00000000
Si      15.36016792       0.10353683      18.19928878  T       0.00000000       0.00000000       0.00000000
Si      13.41084818      10.79381031      19.44144972  T       0.00000000       0.00000000       0.00000000
Si      11.51372662      11.42082879      18.19263425  T       0.00000000       0.00000000       0.00000000
Si      11.52019535      13.44162556      16.92201570  T       0.00000000       0.00000000       0.00000000
Si      13.43289865      13.44372115      15.49514115  T       0.00000000       0.00000000       0.00000000
Si      13.44103925      11.52089079      14.07325000  F       0.00000000       0.00000000       0.00000000
Si      11.52089079      11.52089079      12.71550000  F       0.00000000       0.00000000       0.00000000
Si      11.52089079      13.44103925      11.35775000  F       0.00000000       0.00000000       0.00000000
Si      13.44103925      13.44103925      10.00000000  F       0.00000000       0.00000000       0.00000000
Si       0.00000000       1.92014846      11.35775000  F       0.00000000       0.00000000       0.00000000
Si       0.00000000       0.00000000      12.71550000  F       0.00000000       0.00000000       0.00000000
Si      13.42989684       8.37772614      19.42958209  T       0.00000000       0.00000000       0.00000000
Si      11.51469168       7.77688095      18.18597597  T       0.00000000       0.00000000       0.00000000
Si      11.52347366       9.60034883      16.70437848  T       0.00000000       0.00000000       0.00000000
Si      13.44200904       9.60019055      15.38838851  T       0.00000000       0.00000000       0.00000000
Si      13.44103925       7.68059386      14.07325000  F       0.00000000       0.00000000       0.00000000
Si      11.52089079       7.68059386      12.71550000  F       0.00000000       0.00000000       0.00000000
Si      11.52089079       9.60074232      11.35775000  F       0.00000000       0.00000000       0.00000000
Si      13.44103925       9.60074232      10.00000000  F       0.00000000       0.00000000       0.00000000
Si       1.92014846       0.00000000      14.07325000  F       0.00000000       0.00000000       0.00000000
Si       1.91923316       1.91950906      15.38436940  T       0.00000000       0.00000000       0.00000000
Si      13.44216540       3.12795213      19.41523949  T       0.00000000       0.00000000       0.00000000
Si      11.52041217       3.74194581      18.19363281  T       0.00000000       0.00000000       0.00000000
Si      11.51897606       5.75991087      16.91936985  T       0.00000000       0.00000000       0.00000000
Si      13.43552621       5.76048402      15.50225035  T       0.00000000       0.00000000       0.00000000
Si      13.44103925       3.84029693      14.07325000  F       0.00000000       0.00000000       0.00000000
Si      11.52089079       3.84029693      12.71550000  F       0.00000000       0.00000000       0.00000000
Si      11.52089079       5.76044539      11.35775000  F       0.00000000       0.00000000       0.00000000
Si      13.44103925       5.76044539      10.00000000  F       0.00000000       0.00000000       0.00000000
Si       0.00020338       1.91991786      16.70819046  T       0.00000000       0.00000000       0.00000000
Si       7.68002803       3.74176654      18.19186678  T       0.00000000       0.00000000       0.00000000
Si       7.68099795       5.75722731      16.92122171  T       0.00000000       0.00000000       0.00000000
Si       9.60074232       3.84029693      14.07325000  F       0.00000000       0.00000000       0.00000000
Si       1.93584287       8.35435478      19.42286208  T       0.00000000       0.00000000       0.00000000
Si       5.75955187       3.12713486      19.41993797  T       0.00000000       0.00000000       0.00000000
Si       3.84115345       3.73935285      18.19418617  T       0.00000000       0.00000000       0.00000000
Si       3.84509947       5.75680437      16.91944299  T       0.00000000       0.00000000       0.00000000
Si       5.76332719       5.75942394      15.50057282  T       0.00000000       0.00000000       0.00000000
Si       5.76044539       3.84029693      14.07325000  F       0.00000000       0.00000000       0.00000000
Si       3.84029693       3.84029693      12.71550000  F       0.00000000       0.00000000       0.00000000
Si       3.84029693       5.76044539      11.35775000  F       0.00000000       0.00000000       0.00000000
Si       5.76044539       5.76044539      10.00000000  F       0.00000000       0.00000000       0.00000000
Si       0.00000000       9.60074232      11.35775000  F       0.00000000       0.00000000       0.00000000
Si       0.00000000       7.68059386      12.71550000  F       0.00000000       0.00000000       0.00000000
Si       5.76240277       0.71091558      19.42356450  T       0.00000000       0.00000000       0.00000000
Si       3.84117919       0.10184331      18.19929740  T       0.00000000       0.00000000       0.00000000
Si       3.84282207       1.91879588      16.70744125  T       0.00000000       0.00000000       0.00000000
Si       5.75742843       1.91988968      15.38541697  T       0.00000000       0.00000000       0.00000000
Si       5.76044539       0.00000000      14.07325000  F       0.00000000       0.00000000       0.00000000
Si       3.84029693       0.00000000      12.71550000  F       0.00000000       0.00000000       0.00000000
Si       3.84029693       1.92014846      11.35775000  F       0.00000000       0.00000000       0.00000000
Si       5.76044539       1.92014846      10.00000000  F       0.00000000       0.00000000       0.00000000
Si       1.92014846       7.68059386      14.07325000  F       0.00000000       0.00000000       0.00000000
Si       1.92171535       9.60158058      15.39593942  T       0.00000000       0.00000000       0.00000000
Si       1.91948139      10.79273002      19.23266297  T       0.00000000       0.00000000       0.00000000
Si      15.29476653      11.44742562      18.17720667  T       0.00000000       0.00000000       0.00000000
Si      15.34882218      13.45956231      16.91127091  T       0.00000000       0.00000000       0.00000000
Si       1.92064232      13.44100130      15.50285274  T       0.00000000       0.00000000       0.00000000
Si       1.92014846      11.52089079      14.07325000  F       0.00000000       0.00000000       0.00000000
Si       0.00000000      11.52089079      12.71550000  F       0.00000000       0.00000000       0.00000000
Si       0.00000000      13.44103925      11.35775000  F       0.00000000       0.00000000       0.00000000
Si       1.92014846      13.44103925      10.00000000  F       0.00000000       0.00000000       0.00000000
Si       0.00024118       9.58596108      16.72894339  T       0.00000000       0.00000000       0.00000000
Si       1.92014846       9.60074232      10.00000000  F       0.00000000       0.00000000       0.00000000
Si       9.59934625       5.75968948      15.50177746  T       0.00000000       0.00000000       0.00000000
Si       5.76044539       9.60074232      10.00000000  F       0.00000000       0.00000000       0.00000000
Si       3.84029693       7.68059386      12.71550000  F       0.00000000       0.00000000       0.00000000
Si       7.68059386       3.84029693      12.71550000  F       0.00000000       0.00000000       0.00000000
Si       7.68059386       5.76044539      11.35775000  F       0.00000000       0.00000000       0.00000000
Si       9.60074232       5.76044539      10.00000000  F       0.00000000       0.00000000       0.00000000
Si       1.92014846       3.84029693      14.07325000  F       0.00000000       0.00000000       0.00000000
Si       1.91771570       5.75959202      15.50515349  T       0.00000000       0.00000000       0.00000000
Si       9.60041260       0.71202382      19.42007461  T       0.00000000       0.00000000       0.00000000
Si       7.67991127       0.09826527      18.19342764  T       0.00000000       0.00000000       0.00000000
Si       7.68100647       1.91829288      16.71063426  T       0.00000000       0.00000000       0.00000000
Si       9.60198620       1.92005632      15.38438555  T       0.00000000       0.00000000       0.00000000
Si       9.60074232       0.00000000      14.07325000  F       0.00000000       0.00000000       0.00000000
Si       7.68059386       0.00000000      12.71550000  F       0.00000000       0.00000000       0.00000000
Si       7.68059386       1.92014846      11.35775000  F       0.00000000       0.00000000       0.00000000
Si       9.60074232       1.92014846      10.00000000  F       0.00000000       0.00000000       0.00000000
Si      15.35845999       5.76209125      16.92372370  T       0.00000000       0.00000000       0.00000000
Si      15.35877342       3.73549403      18.19473785  T       0.00000000       0.00000000       0.00000000
Si       5.77931414      10.80182031      19.43074491  T       0.00000000       0.00000000       0.00000000
Si       3.90146597      11.43853417      18.16988470  T       0.00000000       0.00000000       0.00000000
Si       3.85130897      13.46227814      16.90577041  T       0.00000000       0.00000000       0.00000000
Si       5.76601721      13.44374625      15.49652184  T       0.00000000       0.00000000       0.00000000
Si       5.76044539      11.52089079      14.07325000  F       0.00000000       0.00000000       0.00000000
Si       3.84029693      11.52089079      12.71550000  F       0.00000000       0.00000000       0.00000000
Si       3.84029693      13.44103925      11.35775000  F       0.00000000       0.00000000       0.00000000
Si       5.76044539      13.44103925      10.00000000  F       0.00000000       0.00000000       0.00000000
Si       1.91921217       3.12884720      19.41600494  T       0.00000000       0.00000000       0.00000000
Si       5.77039199       8.39186876      19.40217554  T       0.00000000       0.00000000       0.00000000
Si       3.85397359       7.77026025      18.19175654  T       0.00000000       0.00000000       0.00000000
Si       3.84816647       9.59329658      16.70662238  T       0.00000000       0.00000000       0.00000000
Si       5.76966693       9.60035561      15.38191519  T       0.00000000       0.00000000       0.00000000
Si       5.76044539       7.68059386      14.07325000  F       0.00000000       0.00000000       0.00000000
Si       3.84029693       9.60074232      11.35775000  F       0.00000000       0.00000000       0.00000000
Si       1.92014846       1.92014846      10.00000000  F       0.00000000       0.00000000       0.00000000
Si       1.97878211       9.84139215      21.36562882  T       0.00000000       0.00000000       0.00000000
Cl       0.41714083       9.40241054      22.60116993  T       0.00000000       0.00000000       0.00000000
Cl       3.09457650      11.49739682      22.86229142  T       0.00000000       0.00000000       0.00000000
H        3.34839934       9.04683722      21.99410630  T       0.00000000       0.00000000       0.00000000
H        3.50638781       9.90537734      22.47124761  T       0.00000000       0.00000000       0.00000000
179
Lattice="15.361187714496559 0.0 0.0 0.0 15.361187714496559 0.0 0.0 0.0 29.50425" Properties=species:S:1:pos:R:3:move_mask:L:1:momenta:R:3 source_member=data/TS/t4/CONTCAR source_doi=10.5281/zenodo.10211009 role=source_named_TS_unverified_here pbc="T T T"
H       13.43802746       0.16976689      20.83077834  T       0.00000000       0.00000000       0.00000000
H       13.43841378       3.67298813      20.82464088  T       0.00000000       0.00000000       0.00000000
H        9.60029713       3.67083158      20.82281408  T       0.00000000       0.00000000       0.00000000
H        9.60049276       0.17184895      20.82531493  T       0.00000000       0.00000000       0.00000000
H        5.76400564       3.67192455      20.82374373  T       0.00000000       0.00000000       0.00000000
H        5.76356980       0.16969340      20.83156776  T       0.00000000       0.00000000       0.00000000
H        1.91886217       0.15478819      20.84904474  T       0.00000000       0.00000000       0.00000000
H        1.91869854       3.67271451      20.82507216  T       0.00000000       0.00000000       0.00000000
H       13.45238792      11.37522386      20.85558276  T       0.00000000       0.00000000       0.00000000
H       13.42367282       7.84869143      20.84057750  T       0.00000000       0.00000000       0.00000000
H        9.59921941      11.35107326      20.82529006  T       0.00000000       0.00000000       0.00000000
H        9.59885789       7.85016579      20.82024607  T       0.00000000       0.00000000       0.00000000
H        5.77093394      11.37266574      20.83712270  T       0.00000000       0.00000000       0.00000000
H        5.80361883       7.83586527      20.83643649  T       0.00000000       0.00000000       0.00000000
H        5.76044539      14.63312426       9.15706861  F       0.00000000       0.00000000       0.00000000
H        1.92014846      12.24895424       9.15706861  F       0.00000000       0.00000000       0.00000000
H        1.92014846      14.63312426       9.15706861  F       0.00000000       0.00000000       0.00000000
H        5.76044539       0.72806346       9.15706861  F       0.00000000       0.00000000       0.00000000
H        5.76044539       3.11223347       9.15706861  F       0.00000000       0.00000000       0.00000000
H        5.76044539       4.56836038       9.15706861  F       0.00000000       0.00000000       0.00000000
H        5.76044539       6.95253040       9.15706861  F       0.00000000       0.00000000       0.00000000
H        5.76044539       8.40865731       9.15706861  F       0.00000000       0.00000000       0.00000000
H        5.76044539      10.79282733       9.15706861  F       0.00000000       0.00000000       0.00000000
H        5.76044539      12.24895424       9.15706861  F       0.00000000       0.00000000       0.00000000
H       13.44103925      12.24895424       9.15706861  F       0.00000000       0.00000000       0.00000000
H        9.60074232       0.72806346       9.15706861  F       0.00000000       0.00000000       0.00000000
H        1.92014846      10.79282733       9.15706861  F       0.00000000       0.00000000       0.00000000
H        9.60074232       3.11223347       9.15706861  F       0.00000000       0.00000000       0.00000000
H        9.60074232       6.95253040       9.15706861  F       0.00000000       0.00000000       0.00000000
H        9.60074232       8.40865731       9.15706861  F       0.00000000       0.00000000       0.00000000
H        9.60074232      10.79282733       9.15706861  F       0.00000000       0.00000000       0.00000000
H        9.60074232      12.24895424       9.15706861  F       0.00000000       0.00000000       0.00000000
H        9.60074232      14.63312426       9.15706861  F       0.00000000       0.00000000       0.00000000
H       13.44103925       0.72806346       9.15706861  F       0.00000000       0.00000000       0.00000000
H       13.44103925       3.11223347       9.15706861  F       0.00000000       0.00000000       0.00000000
H       13.44103925       4.56836038       9.15706861  F       0.00000000       0.00000000       0.00000000
H       13.44103925       6.95253040       9.15706861  F       0.00000000       0.00000000       0.00000000
H       13.44103925       8.40865731       9.15706861  F       0.00000000       0.00000000       0.00000000
H       13.44103925      10.79282733       9.15706861  F       0.00000000       0.00000000       0.00000000
H        9.60074232       4.56836038       9.15706861  F       0.00000000       0.00000000       0.00000000
H        1.92014846       8.40865731       9.15706861  F       0.00000000       0.00000000       0.00000000
H       13.44103925      14.63312426       9.15706861  F       0.00000000       0.00000000       0.00000000
H        1.92014846       6.95253040       9.15706861  F       0.00000000       0.00000000       0.00000000
H        1.92014846       3.11223347       9.15706861  F       0.00000000       0.00000000       0.00000000
H        1.92014846       0.72806346       9.15706861  F       0.00000000       0.00000000       0.00000000
H        1.92014846       4.56836038       9.15706861  F       0.00000000       0.00000000       0.00000000
Si       9.59947043      13.44121223      15.50364947  T       0.00000000       0.00000000       0.00000000
Si       7.68152280      13.44414378      16.92385644  T       0.00000000       0.00000000       0.00000000
Si       7.68389546      11.42469670      18.19327139  T       0.00000000       0.00000000       0.00000000
Si       9.60033905      10.80939628      19.41805030  T       0.00000000       0.00000000       0.00000000
Si      15.34794378       7.79231077      18.21673005  T       0.00000000       0.00000000       0.00000000
Si      13.44103925       1.92014846      10.00000000  F       0.00000000       0.00000000       0.00000000
Si      11.52089079       1.92014846      11.35775000  F       0.00000000       0.00000000       0.00000000
Si      11.52089079       0.00000000      12.71550000  F       0.00000000       0.00000000       0.00000000
Si      13.44103925       0.00000000      14.07325000  F       0.00000000       0.00000000       0.00000000
Si      13.44169747       1.91995916      15.38665206  T       0.00000000       0.00000000       0.00000000
Si      11.52061048       1.92150534      16.70687369  T       0.00000000       0.00000000       0.00000000
Si       9.60074232      11.52089079      14.07325000  F       0.00000000       0.00000000       0.00000000
Si       1.91930040       0.70874073      19.42849886  T       0.00000000       0.00000000       0.00000000
Si       7.68059386      11.52089079      12.71550000  F       0.00000000       0.00000000       0.00000000
Si       9.60074232      13.44103925      10.00000000  F       0.00000000       0.00000000       0.00000000
Si       1.92014846       5.76044539      10.00000000  F       0.00000000       0.00000000       0.00000000
Si       9.59779362       8.39131969      19.42174930  T       0.00000000       0.00000000       0.00000000
Si       7.68099787       7.77721559      18.18821174  T       0.00000000       0.00000000       0.00000000
Si       7.68552120       9.60170022      16.70674290  T       0.00000000       0.00000000       0.00000000
Si       9.60134451       9.60121098      15.38429045  T       0.00000000       0.00000000       0.00000000
Si       9.60074232       7.68059386      14.07325000  F       0.00000000       0.00000000       0.00000000
Si       7.68059386       7.68059386      12.71550000  F       0.00000000       0.00000000       0.00000000
Si       7.68059386       9.60074232      11.35775000  F       0.00000000       0.00000000       0.00000000
Si       9.60074232       9.60074232      10.00000000  F       0.00000000       0.00000000       0.00000000
Si       0.00000000       5.76044539      11.35775000  F       0.00000000       0.00000000       0.00000000
Si       0.00000000       3.84029693      12.71550000  F       0.00000000       0.00000000       0.00000000
Si       9.60030969       3.12872288      19.41923875  T       0.00000000       0.00000000       0.00000000
Si       7.68059386      13.44103925      11.35775000  F       0.00000000       0.00000000       0.00000000
Si      11.52137898       0.10149993      18.19644697  T       0.00000000       0.00000000       0.00000000
Si      13.43909817       0.71325285      19.42573485  T       0.00000000       0.00000000       0.00000000
Si       0.00202502       0.10814007      18.20607696  T       0.00000000       0.00000000       0.00000000
Si      13.42134892      10.79569522      19.41642339  T       0.00000000       0.00000000       0.00000000
Si      11.51640056      11.42654968      18.19692349  T       0.00000000       0.00000000       0.00000000
Si      11.51920997      13.44594645      16.92322066  T       0.00000000       0.00000000       0.00000000
Si      13.42940649      13.44713815      15.49355560  T       0.00000000       0.00000000       0.00000000
Si      13.44103925      11.52089079      14.07325000  F       0.00000000       0.00000000       0.00000000
Si      11.52089079      11.52089079      12.71550000  F       0.00000000       0.00000000       0.00000000
Si      11.52089079      13.44103925      11.35775000  F       0.00000000       0.00000000       0.00000000
Si      13.44103925      13.44103925      10.00000000  F       0.00000000       0.00000000       0.00000000
Si       0.00000000       1.92014846      11.35775000  F       0.00000000       0.00000000       0.00000000
Si       0.00000000       0.00000000      12.71550000  F       0.00000000       0.00000000       0.00000000
Si      13.42718165       8.39327784      19.42739711  T       0.00000000       0.00000000       0.00000000
Si      11.51912992       7.77778749      18.19279214  T       0.00000000       0.00000000       0.00000000
Si      11.52030932       9.60202205      16.70867417  T       0.00000000       0.00000000       0.00000000
Si      13.43073166       9.59605193      15.37957005  T       0.00000000       0.00000000       0.00000000
Si      13.44103925       7.68059386      14.07325000  F       0.00000000       0.00000000       0.00000000
Si      11.52089079       7.68059386      12.71550000  F       0.00000000       0.00000000       0.00000000
Si      11.52089079       9.60074232      11.35775000  F       0.00000000       0.00000000       0.00000000
Si      13.44103925       9.60074232      10.00000000  F       0.00000000       0.00000000       0.00000000
Si       1.92014846       0.00000000      14.07325000  F       0.00000000       0.00000000       0.00000000
Si       1.91986475       1.91993517      15.38684292  T       0.00000000       0.00000000       0.00000000
Si      13.44124561       3.12851701      19.42241243  T       0.00000000       0.00000000       0.00000000
Si      11.52103315       3.74273754      18.19487682  T       0.00000000       0.00000000       0.00000000
Si      11.51999998       5.75868500      16.92030827  T       0.00000000       0.00000000       0.00000000
Si      13.44764032       5.76564368      15.51223554  T       0.00000000       0.00000000       0.00000000
Si      13.44103925       3.84029693      14.07325000  F       0.00000000       0.00000000       0.00000000
Si      11.52089079       3.84029693      12.71550000  F       0.00000000       0.00000000       0.00000000
Si      11.52089079       5.76044539      11.35775000  F       0.00000000       0.00000000       0.00000000
Si      13.44103925       5.76044539      10.00000000  F       0.00000000       0.00000000       0.00000000
Si       0.00099849       1.92326372      16.70973414  T       0.00000000       0.00000000       0.00000000
Si       7.68003782       3.74236990      18.19388517  T       0.00000000       0.00000000       0.00000000
Si       7.68155874       5.75930227      16.92066600  T       0.00000000       0.00000000       0.00000000
Si       9.60074232       3.84029693      14.07325000  F       0.00000000       0.00000000       0.00000000
Si       1.90406757       8.37516317      19.44714767  T       0.00000000       0.00000000       0.00000000
Si       5.76061209       3.12914949      19.42489361  T       0.00000000       0.00000000       0.00000000
Si       3.83769068       3.74533270      18.19847327  T       0.00000000       0.00000000       0.00000000
Si       3.83514564       5.77976109      16.94872202  T       0.00000000       0.00000000       0.00000000
Si       5.75325343       5.76719480      15.51389458  T       0.00000000       0.00000000       0.00000000
Si       5.76044539       3.84029693      14.07325000  F       0.00000000       0.00000000       0.00000000
Si       3.84029693       3.84029693      12.71550000  F       0.00000000       0.00000000       0.00000000
Si       3.84029693       5.76044539      11.35775000  F       0.00000000       0.00000000       0.00000000
Si       5.76044539       5.76044539      10.00000000  F       0.00000000       0.00000000       0.00000000
Si       0.00000000       9.60074232      11.35775000  F       0.00000000       0.00000000       0.00000000
Si       0.00000000       7.68059386      12.71550000  F       0.00000000       0.00000000       0.00000000
Si       5.76234621       0.71377399      19.42427701  T       0.00000000       0.00000000       0.00000000
Si       3.83761551       0.10788198      18.20651643  T       0.00000000       0.00000000       0.00000000
Si       3.83985449       1.92431966      16.71043027  T       0.00000000       0.00000000       0.00000000
Si       5.75884330       1.91993314      15.38704350  T       0.00000000       0.00000000       0.00000000
Si       5.76044539       0.00000000      14.07325000  F       0.00000000       0.00000000       0.00000000
Si       3.84029693       0.00000000      12.71550000  F       0.00000000       0.00000000       0.00000000
Si       3.84029693       1.92014846      11.35775000  F       0.00000000       0.00000000       0.00000000
Si       5.76044539       1.92014846      10.00000000  F       0.00000000       0.00000000       0.00000000
Si       1.92014846       7.68059386      14.07325000  F       0.00000000       0.00000000       0.00000000
Si       1.92194392       9.60078793      15.39862804  T       0.00000000       0.00000000       0.00000000
Si       1.92344522      10.77006225      19.12279207  T       0.00000000       0.00000000       0.00000000
Si      15.26974302      11.45180242      18.12999844  T       0.00000000       0.00000000       0.00000000
Si      15.34666191      13.47567281      16.89981554  T       0.00000000       0.00000000       0.00000000
Si       1.91974521      13.44209014      15.49978605  T       0.00000000       0.00000000       0.00000000
Si       1.92014846      11.52089079      14.07325000  F       0.00000000       0.00000000       0.00000000
Si       0.00000000      11.52089079      12.71550000  F       0.00000000       0.00000000       0.00000000
Si       0.00000000      13.44103925      11.35775000  F       0.00000000       0.00000000       0.00000000
Si       1.92014846      13.44103925      10.00000000  F       0.00000000       0.00000000       0.00000000
Si      15.34858528       9.58892761      16.70045141  T       0.00000000       0.00000000       0.00000000
Si       1.92014846       9.60074232      10.00000000  F       0.00000000       0.00000000       0.00000000
Si       9.60071765       5.76063570      15.50143505  T       0.00000000       0.00000000       0.00000000
Si       5.76044539       9.60074232      10.00000000  F       0.00000000       0.00000000       0.00000000
Si       3.84029693       7.68059386      12.71550000  F       0.00000000       0.00000000       0.00000000
Si       7.68059386       3.84029693      12.71550000  F       0.00000000       0.00000000       0.00000000
Si       7.68059386       5.76044539      11.35775000  F       0.00000000       0.00000000       0.00000000
Si       9.60074232       5.76044539      10.00000000  F       0.00000000       0.00000000       0.00000000
Si       1.92014846       3.84029693      14.07325000  F       0.00000000       0.00000000       0.00000000
Si       1.92067554       5.76628937      15.51426623  T       0.00000000       0.00000000       0.00000000
Si       9.60026533       0.71398361      19.42013405  T       0.00000000       0.00000000       0.00000000
Si       7.67905857       0.10026880      18.19620097  T       0.00000000       0.00000000       0.00000000
Si       7.68028379       1.92124878      16.70783822  T       0.00000000       0.00000000       0.00000000
Si       9.60050828       1.91996001      15.38552073  T       0.00000000       0.00000000       0.00000000
Si       9.60074232       0.00000000      14.07325000  F       0.00000000       0.00000000       0.00000000
Si       7.68059386       0.00000000      12.71550000  F       0.00000000       0.00000000       0.00000000
Si       7.68059386       1.92014846      11.35775000  F       0.00000000       0.00000000       0.00000000
Si       9.60074232       1.92014846      10.00000000  F       0.00000000       0.00000000       0.00000000
Si       0.00266553       5.77517600      16.94190199  T       0.00000000       0.00000000       0.00000000
Si       0.00224189       3.74581096      18.19791386  T       0.00000000       0.00000000       0.00000000
Si       5.78868826      10.80262478      19.45227337  T       0.00000000       0.00000000       0.00000000
Si       3.93190294      11.44630946      18.14150471  T       0.00000000       0.00000000       0.00000000
Si       3.85304051      13.47208771      16.90479888  T       0.00000000       0.00000000       0.00000000
Si       5.77050789      13.44682543      15.49449865  T       0.00000000       0.00000000       0.00000000
Si       5.76044539      11.52089079      14.07325000  F       0.00000000       0.00000000       0.00000000
Si       3.84029693      11.52089079      12.71550000  F       0.00000000       0.00000000       0.00000000
Si       3.84029693      13.44103925      11.35775000  F       0.00000000       0.00000000       0.00000000
Si       5.76044539      13.44103925      10.00000000  F       0.00000000       0.00000000       0.00000000
Si       1.91947995       3.12101279      19.42756838  T       0.00000000       0.00000000       0.00000000
Si       5.77820619       8.38668354      19.44510573  T       0.00000000       0.00000000       0.00000000
Si       3.84711524       7.79514485      18.23722312  T       0.00000000       0.00000000       0.00000000
Si       3.85904251       9.58656311      16.71054178  T       0.00000000       0.00000000       0.00000000
Si       5.76905247       9.59491567      15.38071021  T       0.00000000       0.00000000       0.00000000
Si       5.76044539       7.68059386      14.07325000  F       0.00000000       0.00000000       0.00000000
Si       3.84029693       9.60074232      11.35775000  F       0.00000000       0.00000000       0.00000000
Si       1.92014846       1.92014846      10.00000000  F       0.00000000       0.00000000       0.00000000
Si       1.79422281       9.76043590      21.32737463  T       0.00000000       0.00000000       0.00000000
H        0.45607737       9.80849980      21.99033236  T       0.00000000       0.00000000       0.00000000
Cl       3.44357738       9.49927605      22.56836646  T       0.00000000       0.00000000       0.00000000
Cl       1.76286801      12.38845336      22.20944848  T       0.00000000       0.00000000       0.00000000
H        1.90094897      11.53702732      20.74509878  T       0.00000000       0.00000000       0.00000000
179
Lattice="15.361187714496559 0.0 0.0 0.0 15.361187714496559 0.0 0.0 0.0 29.50425" Properties=species:S:1:pos:R:3:move_mask:L:1:momenta:R:3 source_member=data/TS/t5/CONTCAR source_doi=10.5281/zenodo.10211009 role=source_named_TS_unverified_here pbc="T T T"
H       13.44342158       0.15689514      20.81899140  T       0.00000000       0.00000000       0.00000000
H       13.42292866       3.65054201      20.83866566  T       0.00000000       0.00000000       0.00000000
H        9.60212031       3.67019816      20.82264611  T       0.00000000       0.00000000       0.00000000
H        9.60262088       0.17270366      20.82264759  T       0.00000000       0.00000000       0.00000000
H        5.76364841       3.66637401      20.82512223  T       0.00000000       0.00000000       0.00000000
H        5.75722314       0.16644082      20.81957993  T       0.00000000       0.00000000       0.00000000
H        1.92780533       0.12593182      20.80369016  T       0.00000000       0.00000000       0.00000000
H        1.96029403       3.60124797      20.85368106  T       0.00000000       0.00000000       0.00000000
H       13.45648054      11.36632627      20.81356819  T       0.00000000       0.00000000       0.00000000
H       13.38004218       7.88878384      20.83637863  T       0.00000000       0.00000000       0.00000000
H        9.59810516      11.34862235      20.82346889  T       0.00000000       0.00000000       0.00000000
H        9.59538809       7.85166474      20.82143950  T       0.00000000       0.00000000       0.00000000
H        5.75617167      11.35950542      20.83042273  T       0.00000000       0.00000000       0.00000000
H        5.76966933       7.86123035      20.84529988  T       0.00000000       0.00000000       0.00000000
H        5.76044539      14.63312426       9.15706861  F       0.00000000       0.00000000       0.00000000
H        1.92014846      12.24895424       9.15706861  F       0.00000000       0.00000000       0.00000000
H        1.92014846      14.63312426       9.15706861  F       0.00000000       0.00000000       0.00000000
H        5.76044539       0.72806346       9.15706861  F       0.00000000       0.00000000       0.00000000
H        5.76044539       3.11223347       9.15706861  F       0.00000000       0.00000000       0.00000000
H        5.76044539       4.56836038       9.15706861  F       0.00000000       0.00000000       0.00000000
H        5.76044539       6.95253040       9.15706861  F       0.00000000       0.00000000       0.00000000
H        5.76044539       8.40865731       9.15706861  F       0.00000000       0.00000000       0.00000000
H        5.76044539      10.79282733       9.15706861  F       0.00000000       0.00000000       0.00000000
H        5.76044539      12.24895424       9.15706861  F       0.00000000       0.00000000       0.00000000
H       13.44103925      12.24895424       9.15706861  F       0.00000000       0.00000000       0.00000000
H        9.60074232       0.72806346       9.15706861  F       0.00000000       0.00000000       0.00000000
H        1.92014846      10.79282733       9.15706861  F       0.00000000       0.00000000       0.00000000
H        9.60074232       3.11223347       9.15706861  F       0.00000000       0.00000000       0.00000000
H        9.60074232       6.95253040       9.15706861  F       0.00000000       0.00000000       0.00000000
H        9.60074232       8.40865731       9.15706861  F       0.00000000       0.00000000       0.00000000
H        9.60074232      10.79282733       9.15706861  F       0.00000000       0.00000000       0.00000000
H        9.60074232      12.24895424       9.15706861  F       0.00000000       0.00000000       0.00000000
H        9.60074232      14.63312426       9.15706861  F       0.00000000       0.00000000       0.00000000
H       13.44103925       0.72806346       9.15706861  F       0.00000000       0.00000000       0.00000000
H       13.44103925       3.11223347       9.15706861  F       0.00000000       0.00000000       0.00000000
H       13.44103925       4.56836038       9.15706861  F       0.00000000       0.00000000       0.00000000
H       13.44103925       6.95253040       9.15706861  F       0.00000000       0.00000000       0.00000000
H       13.44103925       8.40865731       9.15706861  F       0.00000000       0.00000000       0.00000000
H       13.44103925      10.79282733       9.15706861  F       0.00000000       0.00000000       0.00000000
H        9.60074232       4.56836038       9.15706861  F       0.00000000       0.00000000       0.00000000
H        1.92014846       8.40865731       9.15706861  F       0.00000000       0.00000000       0.00000000
H       13.44103925      14.63312426       9.15706861  F       0.00000000       0.00000000       0.00000000
H        1.92014846       6.95253040       9.15706861  F       0.00000000       0.00000000       0.00000000
H        1.92014846       3.11223347       9.15706861  F       0.00000000       0.00000000       0.00000000
H        1.92014846       0.72806346       9.15706861  F       0.00000000       0.00000000       0.00000000
H        1.92014846       4.56836038       9.15706861  F       0.00000000       0.00000000       0.00000000
Si       9.59886942      13.44132700      15.50214915  T       0.00000000       0.00000000       0.00000000
Si       7.68132886      13.44312351      16.92288738  T       0.00000000       0.00000000       0.00000000
Si       7.68044272      11.42431270      18.19353896  T       0.00000000       0.00000000       0.00000000
Si       9.59811366      10.80741593      19.42031900  T       0.00000000       0.00000000       0.00000000
Si      15.33075299       7.77301011      18.18948785  T       0.00000000       0.00000000       0.00000000
Si      13.44103925       1.92014846      10.00000000  F       0.00000000       0.00000000       0.00000000
Si      11.52089079       1.92014846      11.35775000  F       0.00000000       0.00000000       0.00000000
Si      11.52089079       0.00000000      12.71550000  F       0.00000000       0.00000000       0.00000000
Si      13.44103925       0.00000000      14.07325000  F       0.00000000       0.00000000       0.00000000
Si      13.44494517       1.92132166      15.38713149  T       0.00000000       0.00000000       0.00000000
Si      11.52349901       1.92291794      16.70642095  T       0.00000000       0.00000000       0.00000000
Si       9.60074232      11.52089079      14.07325000  F       0.00000000       0.00000000       0.00000000
Si       1.92383664       0.68855691      19.40928955  T       0.00000000       0.00000000       0.00000000
Si       7.68059386      11.52089079      12.71550000  F       0.00000000       0.00000000       0.00000000
Si       9.60074232      13.44103925      10.00000000  F       0.00000000       0.00000000       0.00000000
Si       1.92014846       5.76044539      10.00000000  F       0.00000000       0.00000000       0.00000000
Si       9.59397834       8.39145254      19.41796913  T       0.00000000       0.00000000       0.00000000
Si       7.67179711       7.77848684      18.19513643  T       0.00000000       0.00000000       0.00000000
Si       7.67288821       9.60100755      16.70737420  T       0.00000000       0.00000000       0.00000000
Si       9.59375409       9.60125652      15.38531702  T       0.00000000       0.00000000       0.00000000
Si       9.60074232       7.68059386      14.07325000  F       0.00000000       0.00000000       0.00000000
Si       7.68059386       7.68059386      12.71550000  F       0.00000000       0.00000000       0.00000000
Si       7.68059386       9.60074232      11.35775000  F       0.00000000       0.00000000       0.00000000
Si       9.60074232       9.60074232      10.00000000  F       0.00000000       0.00000000       0.00000000
Si       0.00000000       5.76044539      11.35775000  F       0.00000000       0.00000000       0.00000000
Si       0.00000000       3.84029693      12.71550000  F       0.00000000       0.00000000       0.00000000
Si       9.60350189       3.13072191      19.41910416  T       0.00000000       0.00000000       0.00000000
Si       7.68059386      13.44103925      11.35775000  F       0.00000000       0.00000000       0.00000000
Si      11.52101140       0.09923843      18.19141374  T       0.00000000       0.00000000       0.00000000
Si      13.44126060       0.70727732      19.41943427  T       0.00000000       0.00000000       0.00000000
Si      15.35798506       0.09724825      18.18674905  T       0.00000000       0.00000000       0.00000000
Si      13.42677042      10.81068292      19.41669581  T       0.00000000       0.00000000       0.00000000
Si      11.51263589      11.42776387      18.19030469  T       0.00000000       0.00000000       0.00000000
Si      11.51625816      13.44453693      16.91977023  T       0.00000000       0.00000000       0.00000000
Si      13.43229492      13.44240420      15.49677523  T       0.00000000       0.00000000       0.00000000
Si      13.44103925      11.52089079      14.07325000  F       0.00000000       0.00000000       0.00000000
Si      11.52089079      11.52089079      12.71550000  F       0.00000000       0.00000000       0.00000000
Si      11.52089079      13.44103925      11.35775000  F       0.00000000       0.00000000       0.00000000
Si      13.44103925      13.44103925      10.00000000  F       0.00000000       0.00000000       0.00000000
Si       0.00000000       1.92014846      11.35775000  F       0.00000000       0.00000000       0.00000000
Si       0.00000000       0.00000000      12.71550000  F       0.00000000       0.00000000       0.00000000
Si      13.41760236       8.40005652      19.42711581  T       0.00000000       0.00000000       0.00000000
Si      11.51186098       7.78095160      18.18768181  T       0.00000000       0.00000000       0.00000000
Si      11.51278824       9.60368120      16.70440074  T       0.00000000       0.00000000       0.00000000
Si      13.42929164       9.60198784      15.37810140  T       0.00000000       0.00000000       0.00000000
Si      13.44103925       7.68059386      14.07325000  F       0.00000000       0.00000000       0.00000000
Si      11.52089079       7.68059386      12.71550000  F       0.00000000       0.00000000       0.00000000
Si      11.52089079       9.60074232      11.35775000  F       0.00000000       0.00000000       0.00000000
Si      13.44103925       9.60074232      10.00000000  F       0.00000000       0.00000000       0.00000000
Si       1.92014846       0.00000000      14.07325000  F       0.00000000       0.00000000       0.00000000
Si       1.91905687       1.92101582      15.38647042  T       0.00000000       0.00000000       0.00000000
Si      13.44004260       3.12308942      19.43155307  T       0.00000000       0.00000000       0.00000000
Si      11.52589135       3.74328462      18.19558704  T       0.00000000       0.00000000       0.00000000
Si      11.52046679       5.76020741      16.92158443  T       0.00000000       0.00000000       0.00000000
Si      13.44230743       5.75804529      15.50631148  T       0.00000000       0.00000000       0.00000000
Si      13.44103925       3.84029693      14.07325000  F       0.00000000       0.00000000       0.00000000
Si      11.52089079       3.84029693      12.71550000  F       0.00000000       0.00000000       0.00000000
Si      11.52089079       5.76044539      11.35775000  F       0.00000000       0.00000000       0.00000000
Si      13.44103925       5.76044539      10.00000000  F       0.00000000       0.00000000       0.00000000
Si       0.00207712       1.92943517      16.71420724  T       0.00000000       0.00000000       0.00000000
Si       7.68213074       3.74390631      18.19402468  T       0.00000000       0.00000000       0.00000000
Si       7.67711291       5.76087334      16.92206448  T       0.00000000       0.00000000       0.00000000
Si       9.60074232       3.84029693      14.07325000  F       0.00000000       0.00000000       0.00000000
Si       1.89935559       8.37206660      19.37978632  T       0.00000000       0.00000000       0.00000000
Si       5.76318226       3.12787644      19.42105184  T       0.00000000       0.00000000       0.00000000
Si       3.83824448       3.73674452      18.20105372  T       0.00000000       0.00000000       0.00000000
Si       3.83520800       5.75675501      16.93165580  T       0.00000000       0.00000000       0.00000000
Si       5.75463796       5.76042003      15.50799880  T       0.00000000       0.00000000       0.00000000
Si       5.76044539       3.84029693      14.07325000  F       0.00000000       0.00000000       0.00000000
Si       3.84029693       3.84029693      12.71550000  F       0.00000000       0.00000000       0.00000000
Si       3.84029693       5.76044539      11.35775000  F       0.00000000       0.00000000       0.00000000
Si       5.76044539       5.76044539      10.00000000  F       0.00000000       0.00000000       0.00000000
Si       0.00000000       9.60074232      11.35775000  F       0.00000000       0.00000000       0.00000000
Si       0.00000000       7.68059386      12.71550000  F       0.00000000       0.00000000       0.00000000
Si       5.76264605       0.71185770      19.41820939  T       0.00000000       0.00000000       0.00000000
Si       3.84728571       0.09908845      18.18339973  T       0.00000000       0.00000000       0.00000000
Si       3.84238423       1.92446641      16.70320707  T       0.00000000       0.00000000       0.00000000
Si       5.76307530       1.92054812      15.38429325  T       0.00000000       0.00000000       0.00000000
Si       5.76044539       0.00000000      14.07325000  F       0.00000000       0.00000000       0.00000000
Si       3.84029693       0.00000000      12.71550000  F       0.00000000       0.00000000       0.00000000
Si       3.84029693       1.92014846      11.35775000  F       0.00000000       0.00000000       0.00000000
Si       5.76044539       1.92014846      10.00000000  F       0.00000000       0.00000000       0.00000000
Si       1.92014846       7.68059386      14.07325000  F       0.00000000       0.00000000       0.00000000
Si       1.91580710       9.59993368      15.39168249  T       0.00000000       0.00000000       0.00000000
Si       1.89064206      10.75998240      19.33345670  T       0.00000000       0.00000000       0.00000000
Si      15.32233945      11.43483681      18.16304226  T       0.00000000       0.00000000       0.00000000
Si      15.35321747      13.45301949      16.90477585  T       0.00000000       0.00000000       0.00000000
Si       1.91969564      13.44083326      15.49978575  T       0.00000000       0.00000000       0.00000000
Si       1.92014846      11.52089079      14.07325000  F       0.00000000       0.00000000       0.00000000
Si       0.00000000      11.52089079      12.71550000  F       0.00000000       0.00000000       0.00000000
Si       0.00000000      13.44103925      11.35775000  F       0.00000000       0.00000000       0.00000000
Si       1.92014846      13.44103925      10.00000000  F       0.00000000       0.00000000       0.00000000
Si      15.34537403       9.58748474      16.69967951  T       0.00000000       0.00000000       0.00000000
Si       1.92014846       9.60074232      10.00000000  F       0.00000000       0.00000000       0.00000000
Si       9.59914328       5.76066705      15.50476575  T       0.00000000       0.00000000       0.00000000
Si       5.76044539       9.60074232      10.00000000  F       0.00000000       0.00000000       0.00000000
Si       3.84029693       7.68059386      12.71550000  F       0.00000000       0.00000000       0.00000000
Si       7.68059386       3.84029693      12.71550000  F       0.00000000       0.00000000       0.00000000
Si       7.68059386       5.76044539      11.35775000  F       0.00000000       0.00000000       0.00000000
Si       9.60074232       5.76044539      10.00000000  F       0.00000000       0.00000000       0.00000000
Si       1.92014846       3.84029693      14.07325000  F       0.00000000       0.00000000       0.00000000
Si       1.91506938       5.76113872      15.51070366  T       0.00000000       0.00000000       0.00000000
Si       9.60283247       0.71424434      19.41969986  T       0.00000000       0.00000000       0.00000000
Si       7.68307453       0.09968616      18.19348238  T       0.00000000       0.00000000       0.00000000
Si       7.68275935       1.92191102      16.70659821  T       0.00000000       0.00000000       0.00000000
Si       9.60274356       1.92037364      15.38523059  T       0.00000000       0.00000000       0.00000000
Si       9.60074232       0.00000000      14.07325000  F       0.00000000       0.00000000       0.00000000
Si       7.68059386       0.00000000      12.71550000  F       0.00000000       0.00000000       0.00000000
Si       7.68059386       1.92014846      11.35775000  F       0.00000000       0.00000000       0.00000000
Si       9.60074232       1.92014846      10.00000000  F       0.00000000       0.00000000       0.00000000
Si      15.35608350       5.75125035      16.93327321  T       0.00000000       0.00000000       0.00000000
Si       0.00731192       3.74014647      18.22032358  T       0.00000000       0.00000000       0.00000000
Si       5.76878744      10.80706924      19.43190002  T       0.00000000       0.00000000       0.00000000
Si       3.85951995      11.44491175      18.20470316  T       0.00000000       0.00000000       0.00000000
Si       3.84588340      13.45025894      16.91081084  T       0.00000000       0.00000000       0.00000000
Si       5.76678806      13.44074558      15.49907728  T       0.00000000       0.00000000       0.00000000
Si       5.76044539      11.52089079      14.07325000  F       0.00000000       0.00000000       0.00000000
Si       3.84029693      11.52089079      12.71550000  F       0.00000000       0.00000000       0.00000000
Si       3.84029693      13.44103925      11.35775000  F       0.00000000       0.00000000       0.00000000
Si       5.76044539      13.44103925      10.00000000  F       0.00000000       0.00000000       0.00000000
Si       1.92995848       3.10266013      19.43793168  T       0.00000000       0.00000000       0.00000000
Si       5.75831131       8.39011692      19.43731597  T       0.00000000       0.00000000       0.00000000
Si       3.84264710       7.77182562      18.20821708  T       0.00000000       0.00000000       0.00000000
Si       3.83553767       9.59681250      16.72092108  T       0.00000000       0.00000000       0.00000000
Si       5.75371395       9.60350374      15.38465406  T       0.00000000       0.00000000       0.00000000
Si       5.76044539       7.68059386      14.07325000  F       0.00000000       0.00000000       0.00000000
Si       3.84029693       9.60074232      11.35775000  F       0.00000000       0.00000000       0.00000000
Si       1.92014846       1.92014846      10.00000000  F       0.00000000       0.00000000       0.00000000
Si       1.55004013       8.01941593      21.65364825  T       0.00000000       0.00000000       0.00000000
Cl       0.28887529       6.29318238      21.69338429  T       0.00000000       0.00000000       0.00000000
H        2.77241178       7.39181598      22.28208505  T       0.00000000       0.00000000       0.00000000
H        1.33714248      10.04903808      21.73187228  T       0.00000000       0.00000000       0.00000000
H        1.59107462      10.91231545      21.04236575  T       0.00000000       0.00000000       0.00000000
179
Lattice="15.361187714496559 0.0 0.0 0.0 15.361187714496559 0.0 0.0 0.0 29.50425" Properties=species:S:1:pos:R:3:move_mask:L:1:momenta:R:3 source_member=data/TS/t6/CONTCAR source_doi=10.5281/zenodo.10211009 role=source_named_TS_unverified_here pbc="T T T"
H       13.43825649       0.17000090      20.82852226  T       0.00000000       0.00000000       0.00000000
H       13.43835107       3.67230027      20.82450990  T       0.00000000       0.00000000       0.00000000
H        9.60059951       3.67069348      20.82244758  T       0.00000000       0.00000000       0.00000000
H        9.60066261       0.17205264      20.82438002  T       0.00000000       0.00000000       0.00000000
H        5.76426466       3.67179050      20.82497978  T       0.00000000       0.00000000       0.00000000
H        5.76375089       0.16951908      20.82880088  T       0.00000000       0.00000000       0.00000000
H        1.91977375       0.15374727      20.83482454  T       0.00000000       0.00000000       0.00000000
H        1.91942218       3.66827299      20.82766860  T       0.00000000       0.00000000       0.00000000
H       13.42544298      11.36191475      20.83824359  T       0.00000000       0.00000000       0.00000000
H       13.36729950       7.81282856      20.82193806  T       0.00000000       0.00000000       0.00000000
H        9.60060859      11.34407858      20.82136702  T       0.00000000       0.00000000       0.00000000
H        9.59999076       7.84107827      20.81002807  T       0.00000000       0.00000000       0.00000000
H        5.77293533      11.36080346      20.83814018  T       0.00000000       0.00000000       0.00000000
H        5.83430598       7.81204523      20.82041061  T       0.00000000       0.00000000       0.00000000
H        5.76044539      14.63312426       9.15706861  F       0.00000000       0.00000000       0.00000000
H        1.92014846      12.24895424       9.15706861  F       0.00000000       0.00000000       0.00000000
H        1.92014846      14.63312426       9.15706861  F       0.00000000       0.00000000       0.00000000
H        5.76044539       0.72806346       9.15706861  F       0.00000000       0.00000000       0.00000000
H        5.76044539       3.11223347       9.15706861  F       0.00000000       0.00000000       0.00000000
H        5.76044539       4.56836038       9.15706861  F       0.00000000       0.00000000       0.00000000
H        5.76044539       6.95253040       9.15706861  F       0.00000000       0.00000000       0.00000000
H        5.76044539       8.40865731       9.15706861  F       0.00000000       0.00000000       0.00000000
H        5.76044539      10.79282733       9.15706861  F       0.00000000       0.00000000       0.00000000
H        5.76044539      12.24895424       9.15706861  F       0.00000000       0.00000000       0.00000000
H       13.44103925      12.24895424       9.15706861  F       0.00000000       0.00000000       0.00000000
H        9.60074232       0.72806346       9.15706861  F       0.00000000       0.00000000       0.00000000
H        1.92014846      10.79282733       9.15706861  F       0.00000000       0.00000000       0.00000000
H        9.60074232       3.11223347       9.15706861  F       0.00000000       0.00000000       0.00000000
H        9.60074232       6.95253040       9.15706861  F       0.00000000       0.00000000       0.00000000
H        9.60074232       8.40865731       9.15706861  F       0.00000000       0.00000000       0.00000000
H        9.60074232      10.79282733       9.15706861  F       0.00000000       0.00000000       0.00000000
H        9.60074232      12.24895424       9.15706861  F       0.00000000       0.00000000       0.00000000
H        9.60074232      14.63312426       9.15706861  F       0.00000000       0.00000000       0.00000000
H       13.44103925       0.72806346       9.15706861  F       0.00000000       0.00000000       0.00000000
H       13.44103925       3.11223347       9.15706861  F       0.00000000       0.00000000       0.00000000
H       13.44103925       4.56836038       9.15706861  F       0.00000000       0.00000000       0.00000000
H       13.44103925       6.95253040       9.15706861  F       0.00000000       0.00000000       0.00000000
H       13.44103925       8.40865731       9.15706861  F       0.00000000       0.00000000       0.00000000
H       13.44103925      10.79282733       9.15706861  F       0.00000000       0.00000000       0.00000000
H        9.60074232       4.56836038       9.15706861  F       0.00000000       0.00000000       0.00000000
H        1.92014846       8.40865731       9.15706861  F       0.00000000       0.00000000       0.00000000
H       13.44103925      14.63312426       9.15706861  F       0.00000000       0.00000000       0.00000000
H        1.92014846       6.95253040       9.15706861  F       0.00000000       0.00000000       0.00000000
H        1.92014846       3.11223347       9.15706861  F       0.00000000       0.00000000       0.00000000
H        1.92014846       0.72806346       9.15706861  F       0.00000000       0.00000000       0.00000000
H        1.92014846       4.56836038       9.15706861  F       0.00000000       0.00000000       0.00000000
Si       9.60043867      13.44106982      15.50405954  T       0.00000000       0.00000000       0.00000000
Si       7.68205188      13.44347988      16.92370333  T       0.00000000       0.00000000       0.00000000
Si       7.68452701      11.42324358      18.19170997  T       0.00000000       0.00000000       0.00000000
Si       9.60040965      10.80491983      19.41816220  T       0.00000000       0.00000000       0.00000000
Si      15.31882627       7.77032343      18.20417929  T       0.00000000       0.00000000       0.00000000
Si      13.44103925       1.92014846      10.00000000  F       0.00000000       0.00000000       0.00000000
Si      11.52089079       1.92014846      11.35775000  F       0.00000000       0.00000000       0.00000000
Si      11.52089079       0.00000000      12.71550000  F       0.00000000       0.00000000       0.00000000
Si      13.44103925       0.00000000      14.07325000  F       0.00000000       0.00000000       0.00000000
Si      13.44170893       1.92001688      15.38644079  T       0.00000000       0.00000000       0.00000000
Si      11.52088185       1.92009258      16.70694725  T       0.00000000       0.00000000       0.00000000
Si       9.60074232      11.52089079      14.07325000  F       0.00000000       0.00000000       0.00000000
Si       1.92007096       0.70200827      19.43706600  T       0.00000000       0.00000000       0.00000000
Si       7.68059386      11.52089079      12.71550000  F       0.00000000       0.00000000       0.00000000
Si       9.60074232      13.44103925      10.00000000  F       0.00000000       0.00000000       0.00000000
Si       1.92014846       5.76044539      10.00000000  F       0.00000000       0.00000000       0.00000000
Si       9.59981257       8.38925611      19.41011224  T       0.00000000       0.00000000       0.00000000
Si       7.68951515       7.77720629      18.17462045  T       0.00000000       0.00000000       0.00000000
Si       7.68418210       9.60473308      16.70081538  T       0.00000000       0.00000000       0.00000000
Si       9.60061936       9.60258426      15.37993665  T       0.00000000       0.00000000       0.00000000
Si       9.60074232       7.68059386      14.07325000  F       0.00000000       0.00000000       0.00000000
Si       7.68059386       7.68059386      12.71550000  F       0.00000000       0.00000000       0.00000000
Si       7.68059386       9.60074232      11.35775000  F       0.00000000       0.00000000       0.00000000
Si       9.60074232       9.60074232      10.00000000  F       0.00000000       0.00000000       0.00000000
Si       0.00000000       5.76044539      11.35775000  F       0.00000000       0.00000000       0.00000000
Si       0.00000000       3.84029693      12.71550000  F       0.00000000       0.00000000       0.00000000
Si       9.60066786       3.12878288      19.42002664  T       0.00000000       0.00000000       0.00000000
Si       7.68059386      13.44103925      11.35775000  F       0.00000000       0.00000000       0.00000000
Si      11.52135988       0.09963386      18.19567272  T       0.00000000       0.00000000       0.00000000
Si      13.43892817       0.71152354      19.42688766  T       0.00000000       0.00000000       0.00000000
Si       0.00039708       0.10311118      18.20270788  T       0.00000000       0.00000000       0.00000000
Si      13.41271066      10.79950302      19.44737607  T       0.00000000       0.00000000       0.00000000
Si      11.51635319      11.42332080      18.19134565  T       0.00000000       0.00000000       0.00000000
Si      11.51912335      13.44388944      16.92344376  T       0.00000000       0.00000000       0.00000000
Si      13.43378671      13.44339402      15.49882877  T       0.00000000       0.00000000       0.00000000
Si      13.44103925      11.52089079      14.07325000  F       0.00000000       0.00000000       0.00000000
Si      11.52089079      11.52089079      12.71550000  F       0.00000000       0.00000000       0.00000000
Si      11.52089079      13.44103925      11.35775000  F       0.00000000       0.00000000       0.00000000
Si      13.44103925      13.44103925      10.00000000  F       0.00000000       0.00000000       0.00000000
Si       0.00000000       1.92014846      11.35775000  F       0.00000000       0.00000000       0.00000000
Si       0.00000000       0.00000000      12.71550000  F       0.00000000       0.00000000       0.00000000
Si      13.40362655       8.38266555      19.43497444  T       0.00000000       0.00000000       0.00000000
Si      11.51086189       7.77754347      18.17529395  T       0.00000000       0.00000000       0.00000000
Si      11.51725043       9.60476037      16.70057167  T       0.00000000       0.00000000       0.00000000
Si      13.43456369       9.59991463      15.37974900  T       0.00000000       0.00000000       0.00000000
Si      13.44103925       7.68059386      14.07325000  F       0.00000000       0.00000000       0.00000000
Si      11.52089079       7.68059386      12.71550000  F       0.00000000       0.00000000       0.00000000
Si      11.52089079       9.60074232      11.35775000  F       0.00000000       0.00000000       0.00000000
Si      13.44103925       9.60074232      10.00000000  F       0.00000000       0.00000000       0.00000000
Si       1.92014846       0.00000000      14.07325000  F       0.00000000       0.00000000       0.00000000
Si       1.92024510       1.91998158      15.38673732  T       0.00000000       0.00000000       0.00000000
Si      13.43945158       3.12801498      19.42317365  T       0.00000000       0.00000000       0.00000000
Si      11.52109922       3.74243447      18.19364451  T       0.00000000       0.00000000       0.00000000
Si      11.51883677       5.75602587      16.91603859  T       0.00000000       0.00000000       0.00000000
Si      13.44045049       5.76028820      15.50256430  T       0.00000000       0.00000000       0.00000000
Si      13.44103925       3.84029693      14.07325000  F       0.00000000       0.00000000       0.00000000
Si      11.52089079       3.84029693      12.71550000  F       0.00000000       0.00000000       0.00000000
Si      11.52089079       5.76044539      11.35775000  F       0.00000000       0.00000000       0.00000000
Si      13.44103925       5.76044539      10.00000000  F       0.00000000       0.00000000       0.00000000
Si       0.00038119       1.91957349      16.70897302  T       0.00000000       0.00000000       0.00000000
Si       7.68039639       3.74229525      18.19357155  T       0.00000000       0.00000000       0.00000000
Si       7.68245088       5.75559931      16.91598402  T       0.00000000       0.00000000       0.00000000
Si       9.60074232       3.84029693      14.07325000  F       0.00000000       0.00000000       0.00000000
Si       1.91945609       8.35145231      19.38178902  T       0.00000000       0.00000000       0.00000000
Si       5.76263106       3.12753951      19.42359715  T       0.00000000       0.00000000       0.00000000
Si       3.83926753       3.73784328      18.20040602  T       0.00000000       0.00000000       0.00000000
Si       3.84426210       5.75257126      16.92628589  T       0.00000000       0.00000000       0.00000000
Si       5.76123569       5.76016232      15.50247870  T       0.00000000       0.00000000       0.00000000
Si       5.76044539       3.84029693      14.07325000  F       0.00000000       0.00000000       0.00000000
Si       3.84029693       3.84029693      12.71550000  F       0.00000000       0.00000000       0.00000000
Si       3.84029693       5.76044539      11.35775000  F       0.00000000       0.00000000       0.00000000
Si       5.76044539       5.76044539      10.00000000  F       0.00000000       0.00000000       0.00000000
Si       0.00000000       9.60074232      11.35775000  F       0.00000000       0.00000000       0.00000000
Si       0.00000000       7.68059386      12.71550000  F       0.00000000       0.00000000       0.00000000
Si       5.76282564       0.71106644      19.42721399  T       0.00000000       0.00000000       0.00000000
Si       3.83991366       0.10267511      18.20316224  T       0.00000000       0.00000000       0.00000000
Si       3.83994447       1.91936140      16.70939705  T       0.00000000       0.00000000       0.00000000
Si       5.75974378       1.91999881      15.38665888  T       0.00000000       0.00000000       0.00000000
Si       5.76044539       0.00000000      14.07325000  F       0.00000000       0.00000000       0.00000000
Si       3.84029693       0.00000000      12.71550000  F       0.00000000       0.00000000       0.00000000
Si       3.84029693       1.92014846      11.35775000  F       0.00000000       0.00000000       0.00000000
Si       5.76044539       1.92014846      10.00000000  F       0.00000000       0.00000000       0.00000000
Si       1.92014846       7.68059386      14.07325000  F       0.00000000       0.00000000       0.00000000
Si       1.91985090       9.59927315      15.39784185  T       0.00000000       0.00000000       0.00000000
Si       1.92107736      10.74329755      19.18260951  T       0.00000000       0.00000000       0.00000000
Si      15.28855813      11.44033065      18.16903735  T       0.00000000       0.00000000       0.00000000
Si      15.35160869      13.46131058      16.91326876  T       0.00000000       0.00000000       0.00000000
Si       1.91980259      13.43930534      15.50511745  T       0.00000000       0.00000000       0.00000000
Si       1.92014846      11.52089079      14.07325000  F       0.00000000       0.00000000       0.00000000
Si       0.00000000      11.52089079      12.71550000  F       0.00000000       0.00000000       0.00000000
Si       0.00000000      13.44103925      11.35775000  F       0.00000000       0.00000000       0.00000000
Si       1.92014846      13.44103925      10.00000000  F       0.00000000       0.00000000       0.00000000
Si      15.34812576       9.59100502      16.71236377  T       0.00000000       0.00000000       0.00000000
Si       1.92014846       9.60074232      10.00000000  F       0.00000000       0.00000000       0.00000000
Si       9.60056822       5.75854995      15.49962041  T       0.00000000       0.00000000       0.00000000
Si       5.76044539       9.60074232      10.00000000  F       0.00000000       0.00000000       0.00000000
Si       3.84029693       7.68059386      12.71550000  F       0.00000000       0.00000000       0.00000000
Si       7.68059386       3.84029693      12.71550000  F       0.00000000       0.00000000       0.00000000
Si       7.68059386       5.76044539      11.35775000  F       0.00000000       0.00000000       0.00000000
Si       9.60074232       5.76044539      10.00000000  F       0.00000000       0.00000000       0.00000000
Si       1.92014846       3.84029693      14.07325000  F       0.00000000       0.00000000       0.00000000
Si       1.92012782       5.76267513      15.50896269  T       0.00000000       0.00000000       0.00000000
Si       9.60058721       0.71219568      19.42145920  T       0.00000000       0.00000000       0.00000000
Si       7.68004585       0.09911519      18.19569231  T       0.00000000       0.00000000       0.00000000
Si       7.68054390       1.91976409      16.70726518  T       0.00000000       0.00000000       0.00000000
Si       9.60060182       1.92003666      15.38547371  T       0.00000000       0.00000000       0.00000000
Si       9.60074232       0.00000000      14.07325000  F       0.00000000       0.00000000       0.00000000
Si       7.68059386       0.00000000      12.71550000  F       0.00000000       0.00000000       0.00000000
Si       7.68059386       1.92014846      11.35775000  F       0.00000000       0.00000000       0.00000000
Si       9.60074232       1.92014846      10.00000000  F       0.00000000       0.00000000       0.00000000
Si      15.35737647       5.75325469      16.92629279  T       0.00000000       0.00000000       0.00000000
Si       0.00111929       3.73818245      18.19934663  T       0.00000000       0.00000000       0.00000000
Si       5.78781839      10.79907420      19.44697659  T       0.00000000       0.00000000       0.00000000
Si       3.91354021      11.43940446      18.16680817  T       0.00000000       0.00000000       0.00000000
Si       3.84967453      13.46128928      16.91243027  T       0.00000000       0.00000000       0.00000000
Si       5.76775612      13.44345854      15.49871013  T       0.00000000       0.00000000       0.00000000
Si       5.76044539      11.52089079      14.07325000  F       0.00000000       0.00000000       0.00000000
Si       3.84029693      11.52089079      12.71550000  F       0.00000000       0.00000000       0.00000000
Si       3.84029693      13.44103925      11.35775000  F       0.00000000       0.00000000       0.00000000
Si       5.76044539      13.44103925      10.00000000  F       0.00000000       0.00000000       0.00000000
Si       1.91979559       3.12043624      19.42783231  T       0.00000000       0.00000000       0.00000000
Si       5.79658948       8.38218171      19.43363936  T       0.00000000       0.00000000       0.00000000
Si       3.88096790       7.76983680      18.20374549  T       0.00000000       0.00000000       0.00000000
Si       3.85338119       9.58989123      16.71110456  T       0.00000000       0.00000000       0.00000000
Si       5.76732743       9.59974226      15.37951103  T       0.00000000       0.00000000       0.00000000
Si       5.76044539       7.68059386      14.07325000  F       0.00000000       0.00000000       0.00000000
Si       3.84029693       9.60074232      11.35775000  F       0.00000000       0.00000000       0.00000000
Si       1.92014846       1.92014846      10.00000000  F       0.00000000       0.00000000       0.00000000
Si       1.92384047       9.55227251      21.41675378  T       0.00000000       0.00000000       0.00000000
Cl       0.18150298       9.22328253      22.45060756  T       0.00000000       0.00000000       0.00000000
Cl       3.65700615       9.19462134      22.45691499  T       0.00000000       0.00000000       0.00000000
Cl       1.94753996      12.07895915      22.44210521  T       0.00000000       0.00000000       0.00000000
H        1.93072309      11.27891338      20.86717788  T       0.00000000       0.00000000       0.00000000
179
Lattice="15.361187714496559 0.0 0.0 0.0 15.361187714496559 0.0 0.0 0.0 29.50425" Properties=species:S:1:pos:R:3:move_mask:L:1:momenta:R:3 source_member=data/TS/t7/CONTCAR source_doi=10.5281/zenodo.10211009 role=source_named_TS_unverified_here pbc="T T T"
H       13.44114234       0.17318354      20.82284787  T       0.00000000       0.00000000       0.00000000
H       13.43825404       3.67165622      20.82427689  T       0.00000000       0.00000000       0.00000000
H        9.60046967       3.67201441      20.82173472  T       0.00000000       0.00000000       0.00000000
H        9.60077294       0.17497512      20.82283679  T       0.00000000       0.00000000       0.00000000
H        5.76409483       3.67109154      20.82468421  T       0.00000000       0.00000000       0.00000000
H        5.76005948       0.17286423      20.82280652  T       0.00000000       0.00000000       0.00000000
H        1.91981705       0.16823325      20.82056673  T       0.00000000       0.00000000       0.00000000
H        1.91919004       3.66445124      20.82795470  T       0.00000000       0.00000000       0.00000000
H       13.41860723      11.36528729      20.82656320  T       0.00000000       0.00000000       0.00000000
H       13.35126515       7.82604705      20.81686379  T       0.00000000       0.00000000       0.00000000
H        9.60075032      11.34818809      20.81641744  T       0.00000000       0.00000000       0.00000000
H        9.60031959       7.84559085      20.80698985  T       0.00000000       0.00000000       0.00000000
H        5.78209431      11.36468423      20.82652014  T       0.00000000       0.00000000       0.00000000
H        5.85031959       7.82606369      20.81578101  T       0.00000000       0.00000000       0.00000000
H        5.76044539      14.63312426       9.15706861  F       0.00000000       0.00000000       0.00000000
H        1.92014846      12.24895424       9.15706861  F       0.00000000       0.00000000       0.00000000
H        1.92014846      14.63312426       9.15706861  F       0.00000000       0.00000000       0.00000000
H        5.76044539       0.72806346       9.15706861  F       0.00000000       0.00000000       0.00000000
H        5.76044539       3.11223347       9.15706861  F       0.00000000       0.00000000       0.00000000
H        5.76044539       4.56836038       9.15706861  F       0.00000000       0.00000000       0.00000000
H        5.76044539       6.95253040       9.15706861  F       0.00000000       0.00000000       0.00000000
H        5.76044539       8.40865731       9.15706861  F       0.00000000       0.00000000       0.00000000
H        5.76044539      10.79282733       9.15706861  F       0.00000000       0.00000000       0.00000000
H        5.76044539      12.24895424       9.15706861  F       0.00000000       0.00000000       0.00000000
H       13.44103925      12.24895424       9.15706861  F       0.00000000       0.00000000       0.00000000
H        9.60074232       0.72806346       9.15706861  F       0.00000000       0.00000000       0.00000000
H        1.92014846      10.79282733       9.15706861  F       0.00000000       0.00000000       0.00000000
H        9.60074232       3.11223347       9.15706861  F       0.00000000       0.00000000       0.00000000
H        9.60074232       6.95253040       9.15706861  F       0.00000000       0.00000000       0.00000000
H        9.60074232       8.40865731       9.15706861  F       0.00000000       0.00000000       0.00000000
H        9.60074232      10.79282733       9.15706861  F       0.00000000       0.00000000       0.00000000
H        9.60074232      12.24895424       9.15706861  F       0.00000000       0.00000000       0.00000000
H        9.60074232      14.63312426       9.15706861  F       0.00000000       0.00000000       0.00000000
H       13.44103925       0.72806346       9.15706861  F       0.00000000       0.00000000       0.00000000
H       13.44103925       3.11223347       9.15706861  F       0.00000000       0.00000000       0.00000000
H       13.44103925       4.56836038       9.15706861  F       0.00000000       0.00000000       0.00000000
H       13.44103925       6.95253040       9.15706861  F       0.00000000       0.00000000       0.00000000
H       13.44103925       8.40865731       9.15706861  F       0.00000000       0.00000000       0.00000000
H       13.44103925      10.79282733       9.15706861  F       0.00000000       0.00000000       0.00000000
H        9.60074232       4.56836038       9.15706861  F       0.00000000       0.00000000       0.00000000
H        1.92014846       8.40865731       9.15706861  F       0.00000000       0.00000000       0.00000000
H       13.44103925      14.63312426       9.15706861  F       0.00000000       0.00000000       0.00000000
H        1.92014846       6.95253040       9.15706861  F       0.00000000       0.00000000       0.00000000
H        1.92014846       3.11223347       9.15706861  F       0.00000000       0.00000000       0.00000000
H        1.92014846       0.72806346       9.15706861  F       0.00000000       0.00000000       0.00000000
H        1.92014846       4.56836038       9.15706861  F       0.00000000       0.00000000       0.00000000
Si       9.60049712      13.44221885      15.50206932  T       0.00000000       0.00000000       0.00000000
Si       7.68226865      13.44475856      16.91956861  T       0.00000000       0.00000000       0.00000000
Si       7.68606711      11.42600569      18.18630931  T       0.00000000       0.00000000       0.00000000
Si       9.60097297      10.80780265      19.41307320  T       0.00000000       0.00000000       0.00000000
Si      15.32498216       7.78186703      18.21186297  T       0.00000000       0.00000000       0.00000000
Si      13.44103925       1.92014846      10.00000000  F       0.00000000       0.00000000       0.00000000
Si      11.52089079       1.92014846      11.35775000  F       0.00000000       0.00000000       0.00000000
Si      11.52089079       0.00000000      12.71550000  F       0.00000000       0.00000000       0.00000000
Si      13.44103925       0.00000000      14.07325000  F       0.00000000       0.00000000       0.00000000
Si      13.44107361       1.92061235      15.38528541  T       0.00000000       0.00000000       0.00000000
Si      11.52075696       1.92300828      16.70662652  T       0.00000000       0.00000000       0.00000000
Si       9.60074232      11.52089079      14.07325000  F       0.00000000       0.00000000       0.00000000
Si       1.91970003       0.71121851      19.41774638  T       0.00000000       0.00000000       0.00000000
Si       7.68059386      11.52089079      12.71550000  F       0.00000000       0.00000000       0.00000000
Si       9.60074232      13.44103925      10.00000000  F       0.00000000       0.00000000       0.00000000
Si       1.92014846       5.76044539      10.00000000  F       0.00000000       0.00000000       0.00000000
Si       9.60032939       8.39244794      19.40617565  T       0.00000000       0.00000000       0.00000000
Si       7.68997004       7.78176100      18.17056976  T       0.00000000       0.00000000       0.00000000
Si       7.68379129       9.60730663      16.69574386  T       0.00000000       0.00000000       0.00000000
Si       9.60062526       9.60325257      15.37788882  T       0.00000000       0.00000000       0.00000000
Si       9.60074232       7.68059386      14.07325000  F       0.00000000       0.00000000       0.00000000
Si       7.68059386       7.68059386      12.71550000  F       0.00000000       0.00000000       0.00000000
Si       7.68059386       9.60074232      11.35775000  F       0.00000000       0.00000000       0.00000000
Si       9.60074232       9.60074232      10.00000000  F       0.00000000       0.00000000       0.00000000
Si       0.00000000       5.76044539      11.35775000  F       0.00000000       0.00000000       0.00000000
Si       0.00000000       3.84029693      12.71550000  F       0.00000000       0.00000000       0.00000000
Si       9.60048780       3.13161437      19.41863788  T       0.00000000       0.00000000       0.00000000
Si       7.68059386      13.44103925      11.35775000  F       0.00000000       0.00000000       0.00000000
Si      11.52014271       0.10044267      18.19270892  T       0.00000000       0.00000000       0.00000000
Si      13.43929459       0.71524168      19.42003623  T       0.00000000       0.00000000       0.00000000
Si      15.35879011       0.10252680      18.19256230  T       0.00000000       0.00000000       0.00000000
Si      13.41970382      10.80960167      19.43031945  T       0.00000000       0.00000000       0.00000000
Si      11.51593873      11.42610836      18.18635672  T       0.00000000       0.00000000       0.00000000
Si      11.51894207      13.44521488      16.91948924  T       0.00000000       0.00000000       0.00000000
Si      13.43501899      13.44372994      15.49768077  T       0.00000000       0.00000000       0.00000000
Si      13.44103925      11.52089079      14.07325000  F       0.00000000       0.00000000       0.00000000
Si      11.52089079      11.52089079      12.71550000  F       0.00000000       0.00000000       0.00000000
Si      11.52089079      13.44103925      11.35775000  F       0.00000000       0.00000000       0.00000000
Si      13.44103925      13.44103925      10.00000000  F       0.00000000       0.00000000       0.00000000
Si       0.00000000       1.92014846      11.35775000  F       0.00000000       0.00000000       0.00000000
Si       0.00000000       0.00000000      12.71550000  F       0.00000000       0.00000000       0.00000000
Si      13.40151972       8.39247306      19.42864354  T       0.00000000       0.00000000       0.00000000
Si      11.51107956       7.78202936      18.17090078  T       0.00000000       0.00000000       0.00000000
Si      11.51758745       9.60747781      16.69572564  T       0.00000000       0.00000000       0.00000000
Si      13.43932301       9.59949132      15.38167028  T       0.00000000       0.00000000       0.00000000
Si      13.44103925       7.68059386      14.07325000  F       0.00000000       0.00000000       0.00000000
Si      11.52089079       7.68059386      12.71550000  F       0.00000000       0.00000000       0.00000000
Si      11.52089079       9.60074232      11.35775000  F       0.00000000       0.00000000       0.00000000
Si      13.44103925       9.60074232      10.00000000  F       0.00000000       0.00000000       0.00000000
Si       1.92014846       0.00000000      14.07325000  F       0.00000000       0.00000000       0.00000000
Si       1.92014758       1.92074728      15.38518188  T       0.00000000       0.00000000       0.00000000
Si      13.43937857       3.13143307      19.42089046  T       0.00000000       0.00000000       0.00000000
Si      11.52064106       3.74644906      18.19230907  T       0.00000000       0.00000000       0.00000000
Si      11.51938563       5.75968378      16.91412275  T       0.00000000       0.00000000       0.00000000
Si      13.44259522       5.76158707      15.50327680  T       0.00000000       0.00000000       0.00000000
Si      13.44103925       3.84029693      14.07325000  F       0.00000000       0.00000000       0.00000000
Si      11.52089079       3.84029693      12.71550000  F       0.00000000       0.00000000       0.00000000
Si      11.52089079       5.76044539      11.35775000  F       0.00000000       0.00000000       0.00000000
Si      13.44103925       5.76044539      10.00000000  F       0.00000000       0.00000000       0.00000000
Si      15.36118494       1.92503772      16.70683042  T       0.00000000       0.00000000       0.00000000
Si       7.68059569       3.74612777      18.19217051  T       0.00000000       0.00000000       0.00000000
Si       7.68195008       5.75936787      16.91425292  T       0.00000000       0.00000000       0.00000000
Si       9.60074232       3.84029693      14.07325000  F       0.00000000       0.00000000       0.00000000
Si       1.92012914       8.41902951      19.37448798  T       0.00000000       0.00000000       0.00000000
Si       5.76230176       3.13115344      19.42131832  T       0.00000000       0.00000000       0.00000000
Si       3.84008489       3.74501837      18.19813542  T       0.00000000       0.00000000       0.00000000
Si       3.84226792       5.76358065      16.92976920  T       0.00000000       0.00000000       0.00000000
Si       5.75918611       5.76146630      15.50320818  T       0.00000000       0.00000000       0.00000000
Si       5.76044539       3.84029693      14.07325000  F       0.00000000       0.00000000       0.00000000
Si       3.84029693       3.84029693      12.71550000  F       0.00000000       0.00000000       0.00000000
Si       3.84029693       5.76044539      11.35775000  F       0.00000000       0.00000000       0.00000000
Si       5.76044539       5.76044539      10.00000000  F       0.00000000       0.00000000       0.00000000
Si       0.00000000       9.60074232      11.35775000  F       0.00000000       0.00000000       0.00000000
Si       0.00000000       7.68059386      12.71550000  F       0.00000000       0.00000000       0.00000000
Si       5.76190831       0.71489782      19.42000366  T       0.00000000       0.00000000       0.00000000
Si       3.84210315       0.10287351      18.19240249  T       0.00000000       0.00000000       0.00000000
Si       3.84023214       1.92569180      16.70694737  T       0.00000000       0.00000000       0.00000000
Si       5.76050625       1.92061552      15.38543318  T       0.00000000       0.00000000       0.00000000
Si       5.76044539       0.00000000      14.07325000  F       0.00000000       0.00000000       0.00000000
Si       3.84029693       0.00000000      12.71550000  F       0.00000000       0.00000000       0.00000000
Si       3.84029693       1.92014846      11.35775000  F       0.00000000       0.00000000       0.00000000
Si       5.76044539       1.92014846      10.00000000  F       0.00000000       0.00000000       0.00000000
Si       1.92014846       7.68059386      14.07325000  F       0.00000000       0.00000000       0.00000000
Si       1.91978955       9.59969539      15.39839623  T       0.00000000       0.00000000       0.00000000
Si       1.92149245      10.83858241      19.31368104  T       0.00000000       0.00000000       0.00000000
Si      15.31823469      11.43789538      18.17604562  T       0.00000000       0.00000000       0.00000000
Si      15.35117226      13.45380224      16.91230448  T       0.00000000       0.00000000       0.00000000
Si       1.91963276      13.44055832      15.50443868  T       0.00000000       0.00000000       0.00000000
Si       1.92014846      11.52089079      14.07325000  F       0.00000000       0.00000000       0.00000000
Si       0.00000000      11.52089079      12.71550000  F       0.00000000       0.00000000       0.00000000
Si       0.00000000      13.44103925      11.35775000  F       0.00000000       0.00000000       0.00000000
Si       1.92014846      13.44103925      10.00000000  F       0.00000000       0.00000000       0.00000000
Si      15.35213253       9.59940196      16.71610877  T       0.00000000       0.00000000       0.00000000
Si       1.92014846       9.60074232      10.00000000  F       0.00000000       0.00000000       0.00000000
Si       9.60055693       5.75877750      15.49893840  T       0.00000000       0.00000000       0.00000000
Si       5.76044539       9.60074232      10.00000000  F       0.00000000       0.00000000       0.00000000
Si       3.84029693       7.68059386      12.71550000  F       0.00000000       0.00000000       0.00000000
Si       7.68059386       3.84029693      12.71550000  F       0.00000000       0.00000000       0.00000000
Si       7.68059386       5.76044539      11.35775000  F       0.00000000       0.00000000       0.00000000
Si       9.60074232       5.76044539      10.00000000  F       0.00000000       0.00000000       0.00000000
Si       1.92014846       3.84029693      14.07325000  F       0.00000000       0.00000000       0.00000000
Si       1.91997907       5.76422085      15.50993362  T       0.00000000       0.00000000       0.00000000
Si       9.60047249       0.71501821      19.41938926  T       0.00000000       0.00000000       0.00000000
Si       7.68098105       0.09963487      18.19302075  T       0.00000000       0.00000000       0.00000000
Si       7.68059906       1.92234456      16.70708618  T       0.00000000       0.00000000       0.00000000
Si       9.60057300       1.92037522      15.38509400  T       0.00000000       0.00000000       0.00000000
Si       9.60074232       0.00000000      14.07325000  F       0.00000000       0.00000000       0.00000000
Si       7.68059386       0.00000000      12.71550000  F       0.00000000       0.00000000       0.00000000
Si       7.68059386       1.92014846      11.35775000  F       0.00000000       0.00000000       0.00000000
Si       9.60074232       1.92014846      10.00000000  F       0.00000000       0.00000000       0.00000000
Si      15.35924427       5.76391530      16.93000584  T       0.00000000       0.00000000       0.00000000
Si      15.36107202       3.74492362      18.19695049  T       0.00000000       0.00000000       0.00000000
Si       5.78233637      10.80968528      19.43019898  T       0.00000000       0.00000000       0.00000000
Si       3.88497505      11.43813081      18.17457430  T       0.00000000       0.00000000       0.00000000
Si       3.84984224      13.45442161      16.91152263  T       0.00000000       0.00000000       0.00000000
Si       5.76638011      13.44380535      15.49758806  T       0.00000000       0.00000000       0.00000000
Si       5.76044539      11.52089079      14.07325000  F       0.00000000       0.00000000       0.00000000
Si       3.84029693      11.52089079      12.71550000  F       0.00000000       0.00000000       0.00000000
Si       3.84029693      13.44103925      11.35775000  F       0.00000000       0.00000000       0.00000000
Si       5.76044539      13.44103925      10.00000000  F       0.00000000       0.00000000       0.00000000
Si       1.91952576       3.12808500      19.42324436  T       0.00000000       0.00000000       0.00000000
Si       5.79952001       8.39238124      19.42789801  T       0.00000000       0.00000000       0.00000000
Si       3.87602066       7.78172292      18.21125911  T       0.00000000       0.00000000       0.00000000
Si       3.84912230       9.59913634      16.71535782  T       0.00000000       0.00000000       0.00000000
Si       5.76226777       9.59944490      15.38146210  T       0.00000000       0.00000000       0.00000000
Si       5.76044539       7.68059386      14.07325000  F       0.00000000       0.00000000       0.00000000
Si       3.84029693       9.60074232      11.35775000  F       0.00000000       0.00000000       0.00000000
Si       1.92014846       1.92014846      10.00000000  F       0.00000000       0.00000000       0.00000000
Si       1.92214103       9.47412871      21.48722700  T       0.00000000       0.00000000       0.00000000
Cl       0.13025827       9.09712802      22.46534389  T       0.00000000       0.00000000       0.00000000
Cl       3.70767808       9.07830187      22.46976587  T       0.00000000       0.00000000       0.00000000
H        1.93051186      10.95838430      22.36771721  T       0.00000000       0.00000000       0.00000000
H        1.92805130      11.14295404      21.32156720  T       0.00000000       0.00000000       0.00000000
181
Lattice="15.361187714496559 0.0 0.0 0.0 15.361187714496559 0.0 0.0 0.0 29.50425" Properties=species:S:1:pos:R:3:move_mask:L:1:momenta:R:3 source_member=data/TS/t8/CONTCAR source_doi=10.5281/zenodo.10211009 role=source_named_TS_unverified_here pbc="T T T"
H        1.83603837      11.38933669      20.81601372  T       0.00000000       0.00000000       0.00000000
H       13.44430017       0.15930666      20.81961450  T       0.00000000       0.00000000       0.00000000
H       13.43457297       3.67413615      20.84745387  T       0.00000000       0.00000000       0.00000000
H        9.59863502       3.66899785      20.82447307  T       0.00000000       0.00000000       0.00000000
H        9.60269536       0.17218999      20.82101060  T       0.00000000       0.00000000       0.00000000
H        5.76647669       3.66167247      20.82695568  T       0.00000000       0.00000000       0.00000000
H        5.76059382       0.16356256      20.81849643  T       0.00000000       0.00000000       0.00000000
H        1.92497861       0.12298027      20.79884151  T       0.00000000       0.00000000       0.00000000
H        1.97123071       3.55560677      20.86992621  T       0.00000000       0.00000000       0.00000000
H       13.45666410      11.38399767      20.80047931  T       0.00000000       0.00000000       0.00000000
H       13.43138482       7.89718121      20.82945729  T       0.00000000       0.00000000       0.00000000
H        9.59364963      11.34975217      20.81879880  T       0.00000000       0.00000000       0.00000000
H        9.58611313       7.84928323      20.81197097  T       0.00000000       0.00000000       0.00000000
H        5.77857250      11.34458993      20.82823104  T       0.00000000       0.00000000       0.00000000
H        5.85156321       7.81330876      20.80045923  T       0.00000000       0.00000000       0.00000000
H        5.76044539      14.63312426       9.15706861  F       0.00000000       0.00000000       0.00000000
H        1.92014846      12.24895424       9.15706861  F       0.00000000       0.00000000       0.00000000
H        1.92014846      14.63312426       9.15706861  F       0.00000000       0.00000000       0.00000000
H        5.76044539       0.72806346       9.15706861  F       0.00000000       0.00000000       0.00000000
H        5.76044539       3.11223347       9.15706861  F       0.00000000       0.00000000       0.00000000
H        5.76044539       4.56836038       9.15706861  F       0.00000000       0.00000000       0.00000000
H        5.76044539       6.95253040       9.15706861  F       0.00000000       0.00000000       0.00000000
H        5.76044539       8.40865731       9.15706861  F       0.00000000       0.00000000       0.00000000
H        5.76044539      10.79282733       9.15706861  F       0.00000000       0.00000000       0.00000000
H        5.76044539      12.24895424       9.15706861  F       0.00000000       0.00000000       0.00000000
H       13.44103925      12.24895424       9.15706861  F       0.00000000       0.00000000       0.00000000
H        9.60074232       0.72806346       9.15706861  F       0.00000000       0.00000000       0.00000000
H        1.92014846      10.79282733       9.15706861  F       0.00000000       0.00000000       0.00000000
H        9.60074232       3.11223347       9.15706861  F       0.00000000       0.00000000       0.00000000
H        9.60074232       6.95253040       9.15706861  F       0.00000000       0.00000000       0.00000000
H        9.60074232       8.40865731       9.15706861  F       0.00000000       0.00000000       0.00000000
H        9.60074232      10.79282733       9.15706861  F       0.00000000       0.00000000       0.00000000
H        9.60074232      12.24895424       9.15706861  F       0.00000000       0.00000000       0.00000000
H        9.60074232      14.63312426       9.15706861  F       0.00000000       0.00000000       0.00000000
H       13.44103925       0.72806346       9.15706861  F       0.00000000       0.00000000       0.00000000
H       13.44103925       3.11223347       9.15706861  F       0.00000000       0.00000000       0.00000000
H       13.44103925       4.56836038       9.15706861  F       0.00000000       0.00000000       0.00000000
H       13.44103925       6.95253040       9.15706861  F       0.00000000       0.00000000       0.00000000
H       13.44103925       8.40865731       9.15706861  F       0.00000000       0.00000000       0.00000000
H       13.44103925      10.79282733       9.15706861  F       0.00000000       0.00000000       0.00000000
H        9.60074232       4.56836038       9.15706861  F       0.00000000       0.00000000       0.00000000
H        1.92014846       8.40865731       9.15706861  F       0.00000000       0.00000000       0.00000000
H       13.44103925      14.63312426       9.15706861  F       0.00000000       0.00000000       0.00000000
H        1.92014846       6.95253040       9.15706861  F       0.00000000       0.00000000       0.00000000
H        1.92014846       3.11223347       9.15706861  F       0.00000000       0.00000000       0.00000000
H        1.92014846       0.72806346       9.15706861  F       0.00000000       0.00000000       0.00000000
H        1.92014846       4.56836038       9.15706861  F       0.00000000       0.00000000       0.00000000
Si       9.59950119      13.44296806      15.50060352  T       0.00000000       0.00000000       0.00000000
Si       7.68204133      13.44668714      16.91907785  T       0.00000000       0.00000000       0.00000000
Si       7.68141112      11.42796091      18.18607948  T       0.00000000       0.00000000       0.00000000
Si       9.59785856      10.81004147      19.41553851  T       0.00000000       0.00000000       0.00000000
Si      15.32776829       7.76458628      18.18903239  T       0.00000000       0.00000000       0.00000000
Si      13.44103925       1.92014846      10.00000000  F       0.00000000       0.00000000       0.00000000
Si      11.52089079       1.92014846      11.35775000  F       0.00000000       0.00000000       0.00000000
Si      11.52089079       0.00000000      12.71550000  F       0.00000000       0.00000000       0.00000000
Si      13.44103925       0.00000000      14.07325000  F       0.00000000       0.00000000       0.00000000
Si      13.44718755       1.92183317      15.38828196  T       0.00000000       0.00000000       0.00000000
Si      11.52564551       1.92884624      16.70827356  T       0.00000000       0.00000000       0.00000000
Si       9.60074232      11.52089079      14.07325000  F       0.00000000       0.00000000       0.00000000
Si       1.92412038       0.68572241      19.40420444  T       0.00000000       0.00000000       0.00000000
Si       7.68059386      11.52089079      12.71550000  F       0.00000000       0.00000000       0.00000000
Si       9.60074232      13.44103925      10.00000000  F       0.00000000       0.00000000       0.00000000
Si       1.92014846       5.76044539      10.00000000  F       0.00000000       0.00000000       0.00000000
Si       9.60546687       8.39389372      19.41120711  T       0.00000000       0.00000000       0.00000000
Si       7.69975996       7.77730261      18.16332811  T       0.00000000       0.00000000       0.00000000
Si       7.68321365       9.60823039      16.69644097  T       0.00000000       0.00000000       0.00000000
Si       9.60053409       9.60306028      15.37762131  T       0.00000000       0.00000000       0.00000000
Si       9.60074232       7.68059386      14.07325000  F       0.00000000       0.00000000       0.00000000
Si       7.68059386       7.68059386      12.71550000  F       0.00000000       0.00000000       0.00000000
Si       7.68059386       9.60074232      11.35775000  F       0.00000000       0.00000000       0.00000000
Si       9.60074232       9.60074232      10.00000000  F       0.00000000       0.00000000       0.00000000
Si       0.00000000       5.76044539      11.35775000  F       0.00000000       0.00000000       0.00000000
Si       0.00000000       3.84029693      12.71550000  F       0.00000000       0.00000000       0.00000000
Si       9.60668175       3.13199691      19.42028247  T       0.00000000       0.00000000       0.00000000
Si       7.68059386      13.44103925      11.35775000  F       0.00000000       0.00000000       0.00000000
Si      11.52619016       0.10644334      18.19385494  T       0.00000000       0.00000000       0.00000000
Si      13.44389780       0.72014880      19.42431928  T       0.00000000       0.00000000       0.00000000
Si      15.35614244       0.10470253      18.18449961  T       0.00000000       0.00000000       0.00000000
Si      13.43316287      10.83114099      19.40285198  T       0.00000000       0.00000000       0.00000000
Si      11.51058891      11.43731516      18.18386372  T       0.00000000       0.00000000       0.00000000
Si      11.51608805      13.45397314      16.91757361  T       0.00000000       0.00000000       0.00000000
Si      13.43232796      13.44370718      15.49532499  T       0.00000000       0.00000000       0.00000000
Si      13.44103925      11.52089079      14.07325000  F       0.00000000       0.00000000       0.00000000
Si      11.52089079      11.52089079      12.71550000  F       0.00000000       0.00000000       0.00000000
Si      11.52089079      13.44103925      11.35775000  F       0.00000000       0.00000000       0.00000000
Si      13.44103925      13.44103925      10.00000000  F       0.00000000       0.00000000       0.00000000
Si       0.00000000       1.92014846      11.35775000  F       0.00000000       0.00000000       0.00000000
Si       0.00000000       0.00000000      12.71550000  F       0.00000000       0.00000000       0.00000000
Si      13.43593895       8.42231132      19.42881317  T       0.00000000       0.00000000       0.00000000
Si      11.52939630       7.78514336      18.18858868  T       0.00000000       0.00000000       0.00000000
Si      11.51449415       9.60765075      16.70565348  T       0.00000000       0.00000000       0.00000000
Si      13.43153368       9.59973938      15.38123584  T       0.00000000       0.00000000       0.00000000
Si      13.44103925       7.68059386      14.07325000  F       0.00000000       0.00000000       0.00000000
Si      11.52089079       7.68059386      12.71550000  F       0.00000000       0.00000000       0.00000000
Si      11.52089079       9.60074232      11.35775000  F       0.00000000       0.00000000       0.00000000
Si      13.44103925       9.60074232      10.00000000  F       0.00000000       0.00000000       0.00000000
Si       1.92014846       0.00000000      14.07325000  F       0.00000000       0.00000000       0.00000000
Si       1.91632455       1.92092898      15.38908114  T       0.00000000       0.00000000       0.00000000
Si      13.44773325       3.13820396      19.44693095  T       0.00000000       0.00000000       0.00000000
Si      11.53374121       3.74540198      18.20304986  T       0.00000000       0.00000000       0.00000000
Si      11.52607591       5.76022644      16.92551320  T       0.00000000       0.00000000       0.00000000
Si      13.44650006       5.75988413      15.50815435  T       0.00000000       0.00000000       0.00000000
Si      13.44103925       3.84029693      14.07325000  F       0.00000000       0.00000000       0.00000000
Si      11.52089079       3.84029693      12.71550000  F       0.00000000       0.00000000       0.00000000
Si      11.52089079       5.76044539      11.35775000  F       0.00000000       0.00000000       0.00000000
Si      13.44103925       5.76044539      10.00000000  F       0.00000000       0.00000000       0.00000000
Si       0.00088750       1.94328609      16.71931286  T       0.00000000       0.00000000       0.00000000
Si       7.68437209       3.74170293      18.19570492  T       0.00000000       0.00000000       0.00000000
Si       7.68528155       5.75219677      16.91368406  T       0.00000000       0.00000000       0.00000000
Si       9.60074232       3.84029693      14.07325000  F       0.00000000       0.00000000       0.00000000
Si       1.92502037       8.51675984      19.23527637  T       0.00000000       0.00000000       0.00000000
Si       5.76502813       3.12525741      19.42222250  T       0.00000000       0.00000000       0.00000000
Si       3.83445249       3.72598055      18.20998030  T       0.00000000       0.00000000       0.00000000
Si       3.83345447       5.73559733      16.92613240  T       0.00000000       0.00000000       0.00000000
Si       5.75926345       5.76008414      15.50646576  T       0.00000000       0.00000000       0.00000000
Si       5.76044539       3.84029693      14.07325000  F       0.00000000       0.00000000       0.00000000
Si       3.84029693       3.84029693      12.71550000  F       0.00000000       0.00000000       0.00000000
Si       3.84029693       5.76044539      11.35775000  F       0.00000000       0.00000000       0.00000000
Si       5.76044539       5.76044539      10.00000000  F       0.00000000       0.00000000       0.00000000
Si       0.00000000       9.60074232      11.35775000  F       0.00000000       0.00000000       0.00000000
Si       0.00000000       7.68059386      12.71550000  F       0.00000000       0.00000000       0.00000000
Si       5.76218313       0.70833934      19.41698963  T       0.00000000       0.00000000       0.00000000
Si       3.84637342       0.09187527      18.18358855  T       0.00000000       0.00000000       0.00000000
Si       3.84179321       1.91952424      16.70410376  T       0.00000000       0.00000000       0.00000000
Si       5.76214522       1.92020040      15.38521084  T       0.00000000       0.00000000       0.00000000
Si       5.76044539       0.00000000      14.07325000  F       0.00000000       0.00000000       0.00000000
Si       3.84029693       0.00000000      12.71550000  F       0.00000000       0.00000000       0.00000000
Si       3.84029693       1.92014846      11.35775000  F       0.00000000       0.00000000       0.00000000
Si       5.76044539       1.92014846      10.00000000  F       0.00000000       0.00000000       0.00000000
Si       1.92014846       7.68059386      14.07325000  F       0.00000000       0.00000000       0.00000000
Si       1.92002669       9.60026821      15.38275055  T       0.00000000       0.00000000       0.00000000
Si       1.89253317      10.91433312      19.39659921  T       0.00000000       0.00000000       0.00000000
Si      15.33303463      11.44894063      18.15142797  T       0.00000000       0.00000000       0.00000000
Si      15.35160253      13.46470951      16.90041488  T       0.00000000       0.00000000       0.00000000
Si       1.92033365      13.44178709      15.50012298  T       0.00000000       0.00000000       0.00000000
Si       1.92014846      11.52089079      14.07325000  F       0.00000000       0.00000000       0.00000000
Si       0.00000000      11.52089079      12.71550000  F       0.00000000       0.00000000       0.00000000
Si       0.00000000      13.44103925      11.35775000  F       0.00000000       0.00000000       0.00000000
Si       1.92014846      13.44103925      10.00000000  F       0.00000000       0.00000000       0.00000000
Si      15.36018077       9.60381976      16.69572148  T       0.00000000       0.00000000       0.00000000
Si       1.92014846       9.60074232      10.00000000  F       0.00000000       0.00000000       0.00000000
Si       9.60710477       5.75925323      15.50228240  T       0.00000000       0.00000000       0.00000000
Si       5.76044539       9.60074232      10.00000000  F       0.00000000       0.00000000       0.00000000
Si       3.84029693       7.68059386      12.71550000  F       0.00000000       0.00000000       0.00000000
Si       7.68059386       3.84029693      12.71550000  F       0.00000000       0.00000000       0.00000000
Si       7.68059386       5.76044539      11.35775000  F       0.00000000       0.00000000       0.00000000
Si       9.60074232       5.76044539      10.00000000  F       0.00000000       0.00000000       0.00000000
Si       1.92014846       3.84029693      14.07325000  F       0.00000000       0.00000000       0.00000000
Si       1.91489562       5.76191177      15.50636767  T       0.00000000       0.00000000       0.00000000
Si       9.60430318       0.71512719      19.41886888  T       0.00000000       0.00000000       0.00000000
Si       7.68419826       0.10029583      18.19315748  T       0.00000000       0.00000000       0.00000000
Si       7.68294378       1.92174871      16.70581726  T       0.00000000       0.00000000       0.00000000
Si       9.60483502       1.92075253      15.38660795  T       0.00000000       0.00000000       0.00000000
Si       9.60074232       0.00000000      14.07325000  F       0.00000000       0.00000000       0.00000000
Si       7.68059386       0.00000000      12.71550000  F       0.00000000       0.00000000       0.00000000
Si       7.68059386       1.92014846      11.35775000  F       0.00000000       0.00000000       0.00000000
Si       9.60074232       1.92014846      10.00000000  F       0.00000000       0.00000000       0.00000000
Si       0.00489294       5.74463365      16.93422781  T       0.00000000       0.00000000       0.00000000
Si       0.01454170       3.74892099      18.24002536  T       0.00000000       0.00000000       0.00000000
Si       5.77304762      10.80681348      19.42519990  T       0.00000000       0.00000000       0.00000000
Si       3.85408916      11.44156676      18.19983918  T       0.00000000       0.00000000       0.00000000
Si       3.84869740      13.44609128      16.90948454  T       0.00000000       0.00000000       0.00000000
Si       5.76611806      13.44057621      15.49811747  T       0.00000000       0.00000000       0.00000000
Si       5.76044539      11.52089079      14.07325000  F       0.00000000       0.00000000       0.00000000
Si       3.84029693      11.52089079      12.71550000  F       0.00000000       0.00000000       0.00000000
Si       3.84029693      13.44103925      11.35775000  F       0.00000000       0.00000000       0.00000000
Si       5.76044539      13.44103925      10.00000000  F       0.00000000       0.00000000       0.00000000
Si       1.92841315       3.09425990      19.44976195  T       0.00000000       0.00000000       0.00000000
Si       5.80939815       8.39282282      19.41983518  T       0.00000000       0.00000000       0.00000000
Si       3.89066235       7.75166043      18.20455011  T       0.00000000       0.00000000       0.00000000
Si       3.82948663       9.60498915      16.72413680  T       0.00000000       0.00000000       0.00000000
Si       5.75538804       9.59907655      15.38943421  T       0.00000000       0.00000000       0.00000000
Si       5.76044539       7.68059386      14.07325000  F       0.00000000       0.00000000       0.00000000
Si       3.84029693       9.60074232      11.35775000  F       0.00000000       0.00000000       0.00000000
Si       1.92014846       1.92014846      10.00000000  F       0.00000000       0.00000000       0.00000000
Si       2.27205315       7.58251502      21.98418797  T       0.00000000       0.00000000       0.00000000
Cl       1.07035903       7.87887817      23.59240445  T       0.00000000       0.00000000       0.00000000
Cl       3.55461514       6.00005683      22.04739956  T       0.00000000       0.00000000       0.00000000
Cl       3.55365021       9.24249850      22.10860523  T       0.00000000       0.00000000       0.00000000
Cl       0.34574231       5.90640950      21.01116131  T       0.00000000       0.00000000       0.00000000
H        1.50152846       7.61725788      20.58276471  T       0.00000000       0.00000000       0.00000000
181
Lattice="15.361187714496559 0.0 0.0 0.0 15.361187714496559 0.0 0.0 0.0 29.50425" Properties=species:S:1:pos:R:3:move_mask:L:1:momenta:R:3 source_member=data/TS/t9/CONTCAR source_doi=10.5281/zenodo.10211009 role=source_named_TS_unverified_here pbc="T T T"
H        1.86933854      11.38165577      20.82428787  T       0.00000000       0.00000000       0.00000000
H       13.44197643       0.17069266      20.82188980  T       0.00000000       0.00000000       0.00000000
H       13.44256917       3.67144607      20.82373787  T       0.00000000       0.00000000       0.00000000
H        9.59916973       3.66918010      20.82314736  T       0.00000000       0.00000000       0.00000000
H        9.59985776       0.17169601      20.82271307  T       0.00000000       0.00000000       0.00000000
H        5.76444681       3.66757461      20.83014423  T       0.00000000       0.00000000       0.00000000
H        5.75949004       0.16816445      20.82370641  T       0.00000000       0.00000000       0.00000000
H        1.91430349       0.15879782      20.81658050  T       0.00000000       0.00000000       0.00000000
H        1.89484083       3.63793447      20.83299434  T       0.00000000       0.00000000       0.00000000
H       13.45304509      11.35003308      20.82129229  T       0.00000000       0.00000000       0.00000000
H       13.46438992       7.85215995      20.82144882  T       0.00000000       0.00000000       0.00000000
H        9.59981232      11.34432476      20.82341076  T       0.00000000       0.00000000       0.00000000
H        9.59391320       7.84593223      20.81682961  T       0.00000000       0.00000000       0.00000000
H        5.77487751      11.34525050      20.83559813  T       0.00000000       0.00000000       0.00000000
H        5.84219603       7.81687492      20.81709624  T       0.00000000       0.00000000       0.00000000
H        5.76044539      14.63312426       9.15706861  F       0.00000000       0.00000000       0.00000000
H        1.92014846      12.24895424       9.15706861  F       0.00000000       0.00000000       0.00000000
H        1.92014846      14.63312426       9.15706861  F       0.00000000       0.00000000       0.00000000
H        5.76044539       0.72806346       9.15706861  F       0.00000000       0.00000000       0.00000000
H        5.76044539       3.11223347       9.15706861  F       0.00000000       0.00000000       0.00000000
H        5.76044539       4.56836038       9.15706861  F       0.00000000       0.00000000       0.00000000
H        5.76044539       6.95253040       9.15706861  F       0.00000000       0.00000000       0.00000000
H        5.76044539       8.40865731       9.15706861  F       0.00000000       0.00000000       0.00000000
H        5.76044539      10.79282733       9.15706861  F       0.00000000       0.00000000       0.00000000
H        5.76044539      12.24895424       9.15706861  F       0.00000000       0.00000000       0.00000000
H       13.44103925      12.24895424       9.15706861  F       0.00000000       0.00000000       0.00000000
H        9.60074232       0.72806346       9.15706861  F       0.00000000       0.00000000       0.00000000
H        1.92014846      10.79282733       9.15706861  F       0.00000000       0.00000000       0.00000000
H        9.60074232       3.11223347       9.15706861  F       0.00000000       0.00000000       0.00000000
H        9.60074232       6.95253040       9.15706861  F       0.00000000       0.00000000       0.00000000
H        9.60074232       8.40865731       9.15706861  F       0.00000000       0.00000000       0.00000000
H        9.60074232      10.79282733       9.15706861  F       0.00000000       0.00000000       0.00000000
H        9.60074232      12.24895424       9.15706861  F       0.00000000       0.00000000       0.00000000
H        9.60074232      14.63312426       9.15706861  F       0.00000000       0.00000000       0.00000000
H       13.44103925       0.72806346       9.15706861  F       0.00000000       0.00000000       0.00000000
H       13.44103925       3.11223347       9.15706861  F       0.00000000       0.00000000       0.00000000
H       13.44103925       4.56836038       9.15706861  F       0.00000000       0.00000000       0.00000000
H       13.44103925       6.95253040       9.15706861  F       0.00000000       0.00000000       0.00000000
H       13.44103925       8.40865731       9.15706861  F       0.00000000       0.00000000       0.00000000
H       13.44103925      10.79282733       9.15706861  F       0.00000000       0.00000000       0.00000000
H        9.60074232       4.56836038       9.15706861  F       0.00000000       0.00000000       0.00000000
H        1.92014846       8.40865731       9.15706861  F       0.00000000       0.00000000       0.00000000
H       13.44103925      14.63312426       9.15706861  F       0.00000000       0.00000000       0.00000000
H        1.92014846       6.95253040       9.15706861  F       0.00000000       0.00000000       0.00000000
H        1.92014846       3.11223347       9.15706861  F       0.00000000       0.00000000       0.00000000
H        1.92014846       0.72806346       9.15706861  F       0.00000000       0.00000000       0.00000000
H        1.92014846       4.56836038       9.15706861  F       0.00000000       0.00000000       0.00000000
Si       9.59928277      13.44101524      15.50411219  T       0.00000000       0.00000000       0.00000000
Si       7.68029654      13.44062315      16.92330576  T       0.00000000       0.00000000       0.00000000
Si       7.67756838      11.42272295      18.19453342  T       0.00000000       0.00000000       0.00000000
Si       9.59822210      10.80587050      19.41952833  T       0.00000000       0.00000000       0.00000000
Si      15.35744612       7.77655148      18.16641899  T       0.00000000       0.00000000       0.00000000
Si      13.44103925       1.92014846      10.00000000  F       0.00000000       0.00000000       0.00000000
Si      11.52089079       1.92014846      11.35775000  F       0.00000000       0.00000000       0.00000000
Si      11.52089079       0.00000000      12.71550000  F       0.00000000       0.00000000       0.00000000
Si      13.44103925       0.00000000      14.07325000  F       0.00000000       0.00000000       0.00000000
Si      13.43898612       1.92014685      15.38460955  T       0.00000000       0.00000000       0.00000000
Si      11.51926625       1.92083711      16.70667263  T       0.00000000       0.00000000       0.00000000
Si       9.60074232      11.52089079      14.07325000  F       0.00000000       0.00000000       0.00000000
Si       1.91698218       0.70251278      19.41470564  T       0.00000000       0.00000000       0.00000000
Si       7.68059386      11.52089079      12.71550000  F       0.00000000       0.00000000       0.00000000
Si       9.60074232      13.44103925      10.00000000  F       0.00000000       0.00000000       0.00000000
Si       1.92014846       5.76044539      10.00000000  F       0.00000000       0.00000000       0.00000000
Si       9.60326150       8.38944443      19.41511659  T       0.00000000       0.00000000       0.00000000
Si       7.68980822       7.77906979      18.17512080  T       0.00000000       0.00000000       0.00000000
Si       7.68517627       9.60578066      16.70110314  T       0.00000000       0.00000000       0.00000000
Si       9.60417999       9.60183435      15.38284472  T       0.00000000       0.00000000       0.00000000
Si       9.60074232       7.68059386      14.07325000  F       0.00000000       0.00000000       0.00000000
Si       7.68059386       7.68059386      12.71550000  F       0.00000000       0.00000000       0.00000000
Si       7.68059386       9.60074232      11.35775000  F       0.00000000       0.00000000       0.00000000
Si       9.60074232       9.60074232      10.00000000  F       0.00000000       0.00000000       0.00000000
Si       0.00000000       5.76044539      11.35775000  F       0.00000000       0.00000000       0.00000000
Si       0.00000000       3.84029693      12.71550000  F       0.00000000       0.00000000       0.00000000
Si       9.59839956       3.12891197      19.42002468  T       0.00000000       0.00000000       0.00000000
Si       7.68059386      13.44103925      11.35775000  F       0.00000000       0.00000000       0.00000000
Si      11.51934985       0.09865700      18.19348505  T       0.00000000       0.00000000       0.00000000
Si      13.43956837       0.71327801      19.41964654  T       0.00000000       0.00000000       0.00000000
Si      15.35676269       0.09793974      18.18941659  T       0.00000000       0.00000000       0.00000000
Si      13.43963712      10.80925842      19.41878115  T       0.00000000       0.00000000       0.00000000
Si      11.51775771      11.42385642      18.19475276  T       0.00000000       0.00000000       0.00000000
Si      11.51901696      13.44187023      16.92217026  T       0.00000000       0.00000000       0.00000000
Si      13.43524124      13.44234609      15.49938191  T       0.00000000       0.00000000       0.00000000
Si      13.44103925      11.52089079      14.07325000  F       0.00000000       0.00000000       0.00000000
Si      11.52089079      11.52089079      12.71550000  F       0.00000000       0.00000000       0.00000000
Si      11.52089079      13.44103925      11.35775000  F       0.00000000       0.00000000       0.00000000
Si      13.44103925      13.44103925      10.00000000  F       0.00000000       0.00000000       0.00000000
Si       0.00000000       1.92014846      11.35775000  F       0.00000000       0.00000000       0.00000000
Si       0.00000000       0.00000000      12.71550000  F       0.00000000       0.00000000       0.00000000
Si      13.45070963       8.39362948      19.41965834  T       0.00000000       0.00000000       0.00000000
Si      11.52808804       7.77670681      18.19413642  T       0.00000000       0.00000000       0.00000000
Si      11.52206567       9.60082041      16.70885457  T       0.00000000       0.00000000       0.00000000
Si      13.43798688       9.60029826      15.38233883  T       0.00000000       0.00000000       0.00000000
Si      13.44103925       7.68059386      14.07325000  F       0.00000000       0.00000000       0.00000000
Si      11.52089079       7.68059386      12.71550000  F       0.00000000       0.00000000       0.00000000
Si      11.52089079       9.60074232      11.35775000  F       0.00000000       0.00000000       0.00000000
Si      13.44103925       9.60074232      10.00000000  F       0.00000000       0.00000000       0.00000000
Si       1.92014846       0.00000000      14.07325000  F       0.00000000       0.00000000       0.00000000
Si       1.91982087       1.92039998      15.38634464  T       0.00000000       0.00000000       0.00000000
Si      13.43947839       3.13011833      19.42123978  T       0.00000000       0.00000000       0.00000000
Si      11.51935317       3.74271833      18.19413100  T       0.00000000       0.00000000       0.00000000
Si      11.52147401       5.75948192      16.92177178  T       0.00000000       0.00000000       0.00000000
Si      13.43912705       5.75961510      15.50191044  T       0.00000000       0.00000000       0.00000000
Si      13.44103925       3.84029693      14.07325000  F       0.00000000       0.00000000       0.00000000
Si      11.52089079       3.84029693      12.71550000  F       0.00000000       0.00000000       0.00000000
Si      11.52089079       5.76044539      11.35775000  F       0.00000000       0.00000000       0.00000000
Si      13.44103925       5.76044539      10.00000000  F       0.00000000       0.00000000       0.00000000
Si      15.35877983       1.92137488      16.70479380  T       0.00000000       0.00000000       0.00000000
Si       7.67766696       3.74332932      18.19443104  T       0.00000000       0.00000000       0.00000000
Si       7.68303501       5.75753048      16.91730422  T       0.00000000       0.00000000       0.00000000
Si       9.60074232       3.84029693      14.07325000  F       0.00000000       0.00000000       0.00000000
Si       1.93507879       8.45956033      19.36400117  T       0.00000000       0.00000000       0.00000000
Si       5.76024479       3.12889486      19.42687659  T       0.00000000       0.00000000       0.00000000
Si       3.83491783       3.73905890      18.20751900  T       0.00000000       0.00000000       0.00000000
Si       3.83771467       5.75198941      16.92800148  T       0.00000000       0.00000000       0.00000000
Si       5.75959736       5.76029825      15.50583607  T       0.00000000       0.00000000       0.00000000
Si       5.76044539       3.84029693      14.07325000  F       0.00000000       0.00000000       0.00000000
Si       3.84029693       3.84029693      12.71550000  F       0.00000000       0.00000000       0.00000000
Si       3.84029693       5.76044539      11.35775000  F       0.00000000       0.00000000       0.00000000
Si       5.76044539       5.76044539      10.00000000  F       0.00000000       0.00000000       0.00000000
Si       0.00000000       9.60074232      11.35775000  F       0.00000000       0.00000000       0.00000000
Si       0.00000000       7.68059386      12.71550000  F       0.00000000       0.00000000       0.00000000
Si       5.75978335       0.71192320      19.42191313  T       0.00000000       0.00000000       0.00000000
Si       3.84123270       0.09637486      18.19247868  T       0.00000000       0.00000000       0.00000000
Si       3.83892291       1.92263334      16.71023681  T       0.00000000       0.00000000       0.00000000
Si       5.75844611       1.92055824      15.38631320  T       0.00000000       0.00000000       0.00000000
Si       5.76044539       0.00000000      14.07325000  F       0.00000000       0.00000000       0.00000000
Si       3.84029693       0.00000000      12.71550000  F       0.00000000       0.00000000       0.00000000
Si       3.84029693       1.92014846      11.35775000  F       0.00000000       0.00000000       0.00000000
Si       5.76044539       1.92014846      10.00000000  F       0.00000000       0.00000000       0.00000000
Si       1.92014846       7.68059386      14.07325000  F       0.00000000       0.00000000       0.00000000
Si       1.92824373       9.60015976      15.38611809  T       0.00000000       0.00000000       0.00000000
Si       1.89870609      10.86815590      19.41689086  T       0.00000000       0.00000000       0.00000000
Si      15.34438041      11.43485924      18.17610426  T       0.00000000       0.00000000       0.00000000
Si      15.35486010      13.44995294      16.90954079  T       0.00000000       0.00000000       0.00000000
Si       1.92165149      13.44060081      15.50380378  T       0.00000000       0.00000000       0.00000000
Si       1.92014846      11.52089079      14.07325000  F       0.00000000       0.00000000       0.00000000
Si       0.00000000      11.52089079      12.71550000  F       0.00000000       0.00000000       0.00000000
Si       0.00000000      13.44103925      11.35775000  F       0.00000000       0.00000000       0.00000000
Si       1.92014846      13.44103925      10.00000000  F       0.00000000       0.00000000       0.00000000
Si       0.00244477       9.61094084      16.69523447  T       0.00000000       0.00000000       0.00000000
Si       1.92014846       9.60074232      10.00000000  F       0.00000000       0.00000000       0.00000000
Si       9.60214854       5.75948198      15.50178790  T       0.00000000       0.00000000       0.00000000
Si       5.76044539       9.60074232      10.00000000  F       0.00000000       0.00000000       0.00000000
Si       3.84029693       7.68059386      12.71550000  F       0.00000000       0.00000000       0.00000000
Si       7.68059386       3.84029693      12.71550000  F       0.00000000       0.00000000       0.00000000
Si       7.68059386       5.76044539      11.35775000  F       0.00000000       0.00000000       0.00000000
Si       9.60074232       5.76044539      10.00000000  F       0.00000000       0.00000000       0.00000000
Si       1.92014846       3.84029693      14.07325000  F       0.00000000       0.00000000       0.00000000
Si       1.92257744       5.76040289      15.50286150  T       0.00000000       0.00000000       0.00000000
Si       9.59893859       0.71240757      19.41967097  T       0.00000000       0.00000000       0.00000000
Si       7.67890280       0.09764729      18.19368502  T       0.00000000       0.00000000       0.00000000
Si       7.67867093       1.92068638      16.70776387  T       0.00000000       0.00000000       0.00000000
Si       9.59879597       1.92022138      15.38549258  T       0.00000000       0.00000000       0.00000000
Si       9.60074232       0.00000000      14.07325000  F       0.00000000       0.00000000       0.00000000
Si       7.68059386       0.00000000      12.71550000  F       0.00000000       0.00000000       0.00000000
Si       7.68059386       1.92014846      11.35775000  F       0.00000000       0.00000000       0.00000000
Si       9.60074232       1.92014846      10.00000000  F       0.00000000       0.00000000       0.00000000
Si       0.00112497       5.75126608      16.91342030  T       0.00000000       0.00000000       0.00000000
Si      15.35997404       3.74040280      18.19483938  T       0.00000000       0.00000000       0.00000000
Si       5.76831077      10.79950266      19.43604323  T       0.00000000       0.00000000       0.00000000
Si       3.84934601      11.42522051      18.20585766  T       0.00000000       0.00000000       0.00000000
Si       3.84351118      13.44011143      16.92222323  T       0.00000000       0.00000000       0.00000000
Si       5.76228482      13.44056306      15.50318193  T       0.00000000       0.00000000       0.00000000
Si       5.76044539      11.52089079      14.07325000  F       0.00000000       0.00000000       0.00000000
Si       3.84029693      11.52089079      12.71550000  F       0.00000000       0.00000000       0.00000000
Si       3.84029693      13.44103925      11.35775000  F       0.00000000       0.00000000       0.00000000
Si       5.76044539      13.44103925      10.00000000  F       0.00000000       0.00000000       0.00000000
Si       1.91151467       3.11635667      19.42641622  T       0.00000000       0.00000000       0.00000000
Si       5.79182792       8.38414912      19.43225233  T       0.00000000       0.00000000       0.00000000
Si       3.87041476       7.76892430      18.20301636  T       0.00000000       0.00000000       0.00000000
Si       3.84374475       9.60024480      16.71897695  T       0.00000000       0.00000000       0.00000000
Si       5.76153149       9.60136953      15.38666295  T       0.00000000       0.00000000       0.00000000
Si       5.76044539       7.68059386      14.07325000  F       0.00000000       0.00000000       0.00000000
Si       3.84029693       9.60074232      11.35775000  F       0.00000000       0.00000000       0.00000000
Si       1.92014846       1.92014846      10.00000000  F       0.00000000       0.00000000       0.00000000
Si       2.09937783       7.48957922      21.83721914  T       0.00000000       0.00000000       0.00000000
Cl       0.67717910       8.02182560      23.24216717  T       0.00000000       0.00000000       0.00000000
Cl       3.44547783       5.93098136      22.05187450  T       0.00000000       0.00000000       0.00000000
Cl       3.47110618       9.09283817      22.21459678  T       0.00000000       0.00000000       0.00000000
H        1.01732854       6.37639675      21.30545951  T       0.00000000       0.00000000       0.00000000
H        1.28016344       7.24314243      20.46348008  T       0.00000000       0.00000000       0.00000000
177
Lattice="15.361187714496559 0.0 0.0 0.0 15.361187714496559 0.0 0.0 0.0 29.50425" Properties=species:S:1:pos:R:3:move_mask:L:1:momenta:R:3 source_member=data/adsorbates/SiCl2/CONTCAR source_doi=10.5281/zenodo.10211009 role=adsorbate_geometry pbc="T T T"
H       13.43934307       0.17087245      20.82413882  F       0.00000000       0.00000000       0.00000000
H       13.44010359       3.66995248      20.82390590  F       0.00000000       0.00000000       0.00000000
H        9.60066352       3.66877255      20.82270053  F       0.00000000       0.00000000       0.00000000
H        9.60074236       0.17151951      20.82260293  F       0.00000000       0.00000000       0.00000000
H        5.76258814       3.66973896      20.82422129  F       0.00000000       0.00000000       0.00000000
H        5.76221978       0.17058045      20.82429314  F       0.00000000       0.00000000       0.00000000
H        1.91996062       0.17232130      20.82454771  F       0.00000000       0.00000000       0.00000000
H        1.92008161       3.66839213      20.82417307  F       0.00000000       0.00000000       0.00000000
H       13.39857751      11.36836381      20.83184263  F       0.00000000       0.00000000       0.00000000
H       13.39344387       7.83210471      20.83169805  F       0.00000000       0.00000000       0.00000000
H        9.59853478      11.35098509      20.81500566  F       0.00000000       0.00000000       0.00000000
H        9.60231363       7.84916048      20.81430616  F       0.00000000       0.00000000       0.00000000
H        5.80733939      11.36847455      20.83151749  F       0.00000000       0.00000000       0.00000000
H        5.80271286       7.83233925      20.83100956  F       0.00000000       0.00000000       0.00000000
H        5.76044539      14.63312426       9.15706861  F       0.00000000       0.00000000       0.00000000
H        1.92014846      12.24895424       9.15706861  F       0.00000000       0.00000000       0.00000000
H        1.92014846      14.63312426       9.15706861  F       0.00000000       0.00000000       0.00000000
H        5.76044539       0.72806346       9.15706861  F       0.00000000       0.00000000       0.00000000
H        5.76044539       3.11223347       9.15706861  F       0.00000000       0.00000000       0.00000000
H        5.76044539       4.56836038       9.15706861  F       0.00000000       0.00000000       0.00000000
H        5.76044539       6.95253040       9.15706861  F       0.00000000       0.00000000       0.00000000
H        5.76044539       8.40865731       9.15706861  F       0.00000000       0.00000000       0.00000000
H        5.76044539      10.79282733       9.15706861  F       0.00000000       0.00000000       0.00000000
H        5.76044539      12.24895424       9.15706861  F       0.00000000       0.00000000       0.00000000
H       13.44103925      12.24895424       9.15706861  F       0.00000000       0.00000000       0.00000000
H        9.60074232       0.72806346       9.15706861  F       0.00000000       0.00000000       0.00000000
H        1.92014846      10.79282733       9.15706861  F       0.00000000       0.00000000       0.00000000
H        9.60074232       3.11223347       9.15706861  F       0.00000000       0.00000000       0.00000000
H        9.60074232       6.95253040       9.15706861  F       0.00000000       0.00000000       0.00000000
H        9.60074232       8.40865731       9.15706861  F       0.00000000       0.00000000       0.00000000
H        9.60074232      10.79282733       9.15706861  F       0.00000000       0.00000000       0.00000000
H        9.60074232      12.24895424       9.15706861  F       0.00000000       0.00000000       0.00000000
H        9.60074232      14.63312426       9.15706861  F       0.00000000       0.00000000       0.00000000
H       13.44103925       0.72806346       9.15706861  F       0.00000000       0.00000000       0.00000000
H       13.44103925       3.11223347       9.15706861  F       0.00000000       0.00000000       0.00000000
H       13.44103925       4.56836038       9.15706861  F       0.00000000       0.00000000       0.00000000
H       13.44103925       6.95253040       9.15706861  F       0.00000000       0.00000000       0.00000000
H       13.44103925       8.40865731       9.15706861  F       0.00000000       0.00000000       0.00000000
H       13.44103925      10.79282733       9.15706861  F       0.00000000       0.00000000       0.00000000
H        9.60074232       4.56836038       9.15706861  F       0.00000000       0.00000000       0.00000000
H        1.92014846       8.40865731       9.15706861  F       0.00000000       0.00000000       0.00000000
H       13.44103925      14.63312426       9.15706861  F       0.00000000       0.00000000       0.00000000
H        1.92014846       6.95253040       9.15706861  F       0.00000000       0.00000000       0.00000000
H        1.92014846       3.11223347       9.15706861  F       0.00000000       0.00000000       0.00000000
H        1.92014846       0.72806346       9.15706861  F       0.00000000       0.00000000       0.00000000
H        1.92014846       4.56836038       9.15706861  F       0.00000000       0.00000000       0.00000000
Si       9.60048784      13.44192653      15.50184230  F       0.00000000       0.00000000       0.00000000
Si       7.68185001      13.44249275      16.91902687  F       0.00000000       0.00000000       0.00000000
Si       7.68530096      11.42231990      18.18349617  F       0.00000000       0.00000000       0.00000000
Si       9.59956938      10.80799003      19.41281547  F       0.00000000       0.00000000       0.00000000
Si      15.31599007       7.76687094      18.19548031  F       0.00000000       0.00000000       0.00000000
Si      13.44103925       1.92014846      10.00000000  F       0.00000000       0.00000000       0.00000000
Si      11.52089079       1.92014846      11.35775000  F       0.00000000       0.00000000       0.00000000
Si      11.52089079       0.00000000      12.71550000  F       0.00000000       0.00000000       0.00000000
Si      13.44103925       0.00000000      14.07325000  F       0.00000000       0.00000000       0.00000000
Si      13.44117233       1.92011999      15.38545778  F       0.00000000       0.00000000       0.00000000
Si      11.52083593       1.92079438      16.70665886  F       0.00000000       0.00000000       0.00000000
Si       9.60074232      11.52089079      14.07325000  F       0.00000000       0.00000000       0.00000000
Si       1.91996752       0.71178256      19.42112276  F       0.00000000       0.00000000       0.00000000
Si       7.68059386      11.52089079      12.71550000  F       0.00000000       0.00000000       0.00000000
Si       9.60074232      13.44103925      10.00000000  F       0.00000000       0.00000000       0.00000000
Si       1.92014846       5.76044539      10.00000000  F       0.00000000       0.00000000       0.00000000
Si       9.60148239       8.39264152      19.41228359  F       0.00000000       0.00000000       0.00000000
Si       7.68665890       7.77902815      18.18397706  F       0.00000000       0.00000000       0.00000000
Si       7.68170096       9.60062204      16.69900350  F       0.00000000       0.00000000       0.00000000
Si       9.60051349       9.60074032      15.38088869  F       0.00000000       0.00000000       0.00000000
Si       9.60074232       7.68059386      14.07325000  F       0.00000000       0.00000000       0.00000000
Si       7.68059386       7.68059386      12.71550000  F       0.00000000       0.00000000       0.00000000
Si       7.68059386       9.60074232      11.35775000  F       0.00000000       0.00000000       0.00000000
Si       9.60074232       9.60074232      10.00000000  F       0.00000000       0.00000000       0.00000000
Si       0.00000000       5.76044539      11.35775000  F       0.00000000       0.00000000       0.00000000
Si       0.00000000       3.84029693      12.71550000  F       0.00000000       0.00000000       0.00000000
Si       9.60087859       3.12840546      19.41942461  F       0.00000000       0.00000000       0.00000000
Si       7.68059386      13.44103925      11.35775000  F       0.00000000       0.00000000       0.00000000
Si      11.52049836       0.09808358      18.19283258  F       0.00000000       0.00000000       0.00000000
Si      13.43913359       0.71235499      19.42134750  F       0.00000000       0.00000000       0.00000000
Si      15.35979954       0.09981392      18.19576877  F       0.00000000       0.00000000       0.00000000
Si      13.41159128      10.80876726      19.43888343  F       0.00000000       0.00000000       0.00000000
Si      11.51453366      11.42296135      18.18479934  F       0.00000000       0.00000000       0.00000000
Si      11.51921571      13.44311153      16.91925151  F       0.00000000       0.00000000       0.00000000
Si      13.43695053      13.44248253      15.49954502  F       0.00000000       0.00000000       0.00000000
Si      13.44103925      11.52089079      14.07325000  F       0.00000000       0.00000000       0.00000000
Si      11.52089079      11.52089079      12.71550000  F       0.00000000       0.00000000       0.00000000
Si      11.52089079      13.44103925      11.35775000  F       0.00000000       0.00000000       0.00000000
Si      13.44103925      13.44103925      10.00000000  F       0.00000000       0.00000000       0.00000000
Si       0.00000000       1.92014846      11.35775000  F       0.00000000       0.00000000       0.00000000
Si       0.00000000       0.00000000      12.71550000  F       0.00000000       0.00000000       0.00000000
Si      13.41220087       8.39180599      19.43894395  F       0.00000000       0.00000000       0.00000000
Si      11.51608341       7.77968759      18.18281907  F       0.00000000       0.00000000       0.00000000
Si      11.51944944       9.60189545      16.69894603  F       0.00000000       0.00000000       0.00000000
Si      13.43996808       9.60059346      15.38180460  F       0.00000000       0.00000000       0.00000000
Si      13.44103925       7.68059386      14.07325000  F       0.00000000       0.00000000       0.00000000
Si      11.52089079       7.68059386      12.71550000  F       0.00000000       0.00000000       0.00000000
Si      11.52089079       9.60074232      11.35775000  F       0.00000000       0.00000000       0.00000000
Si      13.44103925       9.60074232      10.00000000  F       0.00000000       0.00000000       0.00000000
Si       1.92014846       0.00000000      14.07325000  F       0.00000000       0.00000000       0.00000000
Si       1.92010536       1.92009962      15.38542778  F       0.00000000       0.00000000       0.00000000
Si      13.43969808       3.12847484      19.42114708  F       0.00000000       0.00000000       0.00000000
Si      11.52081787       3.74352179      18.19306140  F       0.00000000       0.00000000       0.00000000
Si      11.51972348       5.75915541      16.91860413  F       0.00000000       0.00000000       0.00000000
Si      13.43776375       5.75938684      15.49966952  F       0.00000000       0.00000000       0.00000000
Si      13.44103925       3.84029693      14.07325000  F       0.00000000       0.00000000       0.00000000
Si      11.52089079       3.84029693      12.71550000  F       0.00000000       0.00000000       0.00000000
Si      11.52089079       5.76044539      11.35775000  F       0.00000000       0.00000000       0.00000000
Si      13.44103925       5.76044539      10.00000000  F       0.00000000       0.00000000       0.00000000
Si      15.36116129       1.92012510      16.70713634  F       0.00000000       0.00000000       0.00000000
Si       7.68117941       3.74317190      18.19287759  F       0.00000000       0.00000000       0.00000000
Si       7.68229480       5.75889734      16.91908121  F       0.00000000       0.00000000       0.00000000
Si       9.60074232       3.84029693      14.07325000  F       0.00000000       0.00000000       0.00000000
Si       1.92337475       8.36105622      19.32982995  F       0.00000000       0.00000000       0.00000000
Si       5.76287664       3.12813876      19.42154754  F       0.00000000       0.00000000       0.00000000
Si       3.84204453       3.74081774      18.19567315  F       0.00000000       0.00000000       0.00000000
Si       3.84896313       5.75236863      16.91787627  F       0.00000000       0.00000000       0.00000000
Si       5.76497373       5.75915815      15.49930356  F       0.00000000       0.00000000       0.00000000
Si       5.76044539       3.84029693      14.07325000  F       0.00000000       0.00000000       0.00000000
Si       3.84029693       3.84029693      12.71550000  F       0.00000000       0.00000000       0.00000000
Si       3.84029693       5.76044539      11.35775000  F       0.00000000       0.00000000       0.00000000
Si       5.76044539       5.76044539      10.00000000  F       0.00000000       0.00000000       0.00000000
Si       0.00000000       9.60074232      11.35775000  F       0.00000000       0.00000000       0.00000000
Si       0.00000000       7.68059386      12.71550000  F       0.00000000       0.00000000       0.00000000
Si       5.76253174       0.71201395      19.42152109  F       0.00000000       0.00000000       0.00000000
Si       3.84158370       0.10036620      18.19570427  F       0.00000000       0.00000000       0.00000000
Si       3.84051487       1.92051159      16.70688363  F       0.00000000       0.00000000       0.00000000
Si       5.76068922       1.92010183      15.38545225  F       0.00000000       0.00000000       0.00000000
Si       5.76044539       0.00000000      14.07325000  F       0.00000000       0.00000000       0.00000000
Si       3.84029693       0.00000000      12.71550000  F       0.00000000       0.00000000       0.00000000
Si       3.84029693       1.92014846      11.35775000  F       0.00000000       0.00000000       0.00000000
Si       5.76044539       1.92014846      10.00000000  F       0.00000000       0.00000000       0.00000000
Si       1.92014846       7.68059386      14.07325000  F       0.00000000       0.00000000       0.00000000
Si       1.91980241       9.60064790      15.39999562  F       0.00000000       0.00000000       0.00000000
Si       1.91720915      10.83999137      19.32973086  F       0.00000000       0.00000000       0.00000000
Si      15.31282224      11.43420618      18.19198695  F       0.00000000       0.00000000       0.00000000
Si      15.35274282      13.44920147      16.91849625  F       0.00000000       0.00000000       0.00000000
Si       1.91999740      13.43910532      15.50722335  F       0.00000000       0.00000000       0.00000000
Si       1.92014846      11.52089079      14.07325000  F       0.00000000       0.00000000       0.00000000
Si       0.00000000      11.52089079      12.71550000  F       0.00000000       0.00000000       0.00000000
Si       0.00000000      13.44103925      11.35775000  F       0.00000000       0.00000000       0.00000000
Si       1.92014846      13.44103925      10.00000000  F       0.00000000       0.00000000       0.00000000
Si      15.35233810       9.59961138      16.71914615  F       0.00000000       0.00000000       0.00000000
Si       1.92014846       9.60074232      10.00000000  F       0.00000000       0.00000000       0.00000000
Si       9.60077212       5.75973709      15.50170425  F       0.00000000       0.00000000       0.00000000
Si       5.76044539       9.60074232      10.00000000  F       0.00000000       0.00000000       0.00000000
Si       3.84029693       7.68059386      12.71550000  F       0.00000000       0.00000000       0.00000000
Si       7.68059386       3.84029693      12.71550000  F       0.00000000       0.00000000       0.00000000
Si       7.68059386       5.76044539      11.35775000  F       0.00000000       0.00000000       0.00000000
Si       9.60074232       5.76044539      10.00000000  F       0.00000000       0.00000000       0.00000000
Si       1.92014846       3.84029693      14.07325000  F       0.00000000       0.00000000       0.00000000
Si       1.92024116       5.76260261      15.50694501  F       0.00000000       0.00000000       0.00000000
Si       9.60050909       0.71192186      19.41934207  F       0.00000000       0.00000000       0.00000000
Si       7.68078759       0.09711662      18.19300080  F       0.00000000       0.00000000       0.00000000
Si       7.68080284       1.92006985      16.70713924  F       0.00000000       0.00000000       0.00000000
Si       9.60063604       1.92012351      15.38509546  F       0.00000000       0.00000000       0.00000000
Si       9.60074232       0.00000000      14.07325000  F       0.00000000       0.00000000       0.00000000
Si       7.68059386       0.00000000      12.71550000  F       0.00000000       0.00000000       0.00000000
Si       7.68059386       1.92014846      11.35775000  F       0.00000000       0.00000000       0.00000000
Si       9.60074232       1.92014846      10.00000000  F       0.00000000       0.00000000       0.00000000
Si      15.35369025       5.75322454      16.91909788  F       0.00000000       0.00000000       0.00000000
Si      15.36018359       3.74093587      18.19504710  F       0.00000000       0.00000000       0.00000000
Si       5.78898909      10.80909706      19.43862335  F       0.00000000       0.00000000       0.00000000
Si       3.88559278      11.43467562      18.19474187  F       0.00000000       0.00000000       0.00000000
Si       3.84817961      13.44920051      16.91917266  F       0.00000000       0.00000000       0.00000000
Si       5.76415804      13.44232192      15.49977319  F       0.00000000       0.00000000       0.00000000
Si       5.76044539      11.52089079      14.07325000  F       0.00000000       0.00000000       0.00000000
Si       3.84029693      11.52089079      12.71550000  F       0.00000000       0.00000000       0.00000000
Si       3.84029693      13.44103925      11.35775000  F       0.00000000       0.00000000       0.00000000
Si       5.76044539      13.44103925      10.00000000  F       0.00000000       0.00000000       0.00000000
Si       1.92018480       3.12886206      19.42082208  F       0.00000000       0.00000000       0.00000000
Si       5.78962672       8.39223884      19.43819593  F       0.00000000       0.00000000       0.00000000
Si       3.88853832       7.76714345      18.19153866  F       0.00000000       0.00000000       0.00000000
Si       3.84864774       9.60174204      16.71873665  F       0.00000000       0.00000000       0.00000000
Si       5.76139075       9.60082341      15.38178006  F       0.00000000       0.00000000       0.00000000
Si       5.76044539       7.68059386      14.07325000  F       0.00000000       0.00000000       0.00000000
Si       3.84029693       9.60074232      11.35775000  F       0.00000000       0.00000000       0.00000000
Si       1.92014846       1.92014846      10.00000000  F       0.00000000       0.00000000       0.00000000
Si       1.91959068       9.60035811      21.29817982  T       0.00000000       0.00000000       0.00000000
Cl       3.60475425       9.61976643      22.50099851  T       0.00000000       0.00000000       0.00000000
Cl       0.23416344       9.58024006      22.47060935  T       0.00000000       0.00000000       0.00000000
179
Lattice="15.361187714496559 0.0 0.0 0.0 15.361187714496559 0.0 0.0 0.0 29.50425" Properties=species:S:1:pos:R:3:move_mask:L:1:momenta:R:3 source_member=data/adsorbates/SiCl2H/CONTCAR source_doi=10.5281/zenodo.10211009 role=adsorbate_geometry pbc="T T T"
H        1.92581902      11.35273744      20.82177536  F       0.00000000       0.00000000       0.00000000
H       13.44134008       0.17481938      20.82411081  F       0.00000000       0.00000000       0.00000000
H       13.44230322       3.67377109      20.82315079  F       0.00000000       0.00000000       0.00000000
H        9.60103308       3.67022220      20.82276005  F       0.00000000       0.00000000       0.00000000
H        9.60080251       0.17306764      20.82293601  F       0.00000000       0.00000000       0.00000000
H        5.75934585       3.67129577      20.82495465  F       0.00000000       0.00000000       0.00000000
H        5.76122075       0.17119175      20.82343437  F       0.00000000       0.00000000       0.00000000
H        1.91985719       0.17192320      20.82434419  F       0.00000000       0.00000000       0.00000000
H        1.92094276       3.67163834      20.82478625  F       0.00000000       0.00000000       0.00000000
H       13.44105172      11.34182442      20.82999609  F       0.00000000       0.00000000       0.00000000
H       13.42589767       7.83265014      20.80978585  F       0.00000000       0.00000000       0.00000000
H        9.59945133      11.34633937      20.82244508  F       0.00000000       0.00000000       0.00000000
H        9.59948537       7.84784689      20.81650380  F       0.00000000       0.00000000       0.00000000
H        5.76254552      11.35030277      20.82415531  F       0.00000000       0.00000000       0.00000000
H        5.80857327       7.85224348      20.82384587  F       0.00000000       0.00000000       0.00000000
H        5.76044539      14.63312426       9.15706861  F       0.00000000       0.00000000       0.00000000
H        1.92014846      12.24895424       9.15706861  F       0.00000000       0.00000000       0.00000000
H        1.92014846      14.63312426       9.15706861  F       0.00000000       0.00000000       0.00000000
H        5.76044539       0.72806346       9.15706861  F       0.00000000       0.00000000       0.00000000
H        5.76044539       3.11223347       9.15706861  F       0.00000000       0.00000000       0.00000000
H        5.76044539       4.56836038       9.15706861  F       0.00000000       0.00000000       0.00000000
H        5.76044539       6.95253040       9.15706861  F       0.00000000       0.00000000       0.00000000
H        5.76044539       8.40865731       9.15706861  F       0.00000000       0.00000000       0.00000000
H        5.76044539      10.79282733       9.15706861  F       0.00000000       0.00000000       0.00000000
H        5.76044539      12.24895424       9.15706861  F       0.00000000       0.00000000       0.00000000
H       13.44103925      12.24895424       9.15706861  F       0.00000000       0.00000000       0.00000000
H        9.60074232       0.72806346       9.15706861  F       0.00000000       0.00000000       0.00000000
H        1.92014846      10.79282733       9.15706861  F       0.00000000       0.00000000       0.00000000
H        9.60074232       3.11223347       9.15706861  F       0.00000000       0.00000000       0.00000000
H        9.60074232       6.95253040       9.15706861  F       0.00000000       0.00000000       0.00000000
H        9.60074232       8.40865731       9.15706861  F       0.00000000       0.00000000       0.00000000
H        9.60074232      10.79282733       9.15706861  F       0.00000000       0.00000000       0.00000000
H        9.60074232      12.24895424       9.15706861  F       0.00000000       0.00000000       0.00000000
H        9.60074232      14.63312426       9.15706861  F       0.00000000       0.00000000       0.00000000
H       13.44103925       0.72806346       9.15706861  F       0.00000000       0.00000000       0.00000000
H       13.44103925       3.11223347       9.15706861  F       0.00000000       0.00000000       0.00000000
H       13.44103925       4.56836038       9.15706861  F       0.00000000       0.00000000       0.00000000
H       13.44103925       6.95253040       9.15706861  F       0.00000000       0.00000000       0.00000000
H       13.44103925       8.40865731       9.15706861  F       0.00000000       0.00000000       0.00000000
H       13.44103925      10.79282733       9.15706861  F       0.00000000       0.00000000       0.00000000
H        9.60074232       4.56836038       9.15706861  F       0.00000000       0.00000000       0.00000000
H        1.92014846       8.40865731       9.15706861  F       0.00000000       0.00000000       0.00000000
H       13.44103925      14.63312426       9.15706861  F       0.00000000       0.00000000       0.00000000
H        1.92014846       6.95253040       9.15706861  F       0.00000000       0.00000000       0.00000000
H        1.92014846       3.11223347       9.15706861  F       0.00000000       0.00000000       0.00000000
H        1.92014846       0.72806346       9.15706861  F       0.00000000       0.00000000       0.00000000
H        1.92014846       4.56836038       9.15706861  F       0.00000000       0.00000000       0.00000000
Si       9.60136256      13.44128535      15.50384577  F       0.00000000       0.00000000       0.00000000
Si       7.68140569      13.44222264      16.92113659  F       0.00000000       0.00000000       0.00000000
Si       7.68191957      11.42484009      18.19204166  F       0.00000000       0.00000000       0.00000000
Si       9.60124290      10.80794287      19.41847339  F       0.00000000       0.00000000       0.00000000
Si      15.35097855       7.78614111      18.17487511  F       0.00000000       0.00000000       0.00000000
Si      13.44103925       1.92014846      10.00000000  F       0.00000000       0.00000000       0.00000000
Si      11.52089079       1.92014846      11.35775000  F       0.00000000       0.00000000       0.00000000
Si      11.52089079       0.00000000      12.71550000  F       0.00000000       0.00000000       0.00000000
Si      13.44103925       0.00000000      14.07325000  F       0.00000000       0.00000000       0.00000000
Si      13.44140957       1.92041524      15.38556335  F       0.00000000       0.00000000       0.00000000
Si      11.52107471       1.92131955      16.70686362  F       0.00000000       0.00000000       0.00000000
Si       9.60074232      11.52089079      14.07325000  F       0.00000000       0.00000000       0.00000000
Si       1.92043160       0.71208830      19.42107647  F       0.00000000       0.00000000       0.00000000
Si       7.68059386      11.52089079      12.71550000  F       0.00000000       0.00000000       0.00000000
Si       9.60074232      13.44103925      10.00000000  F       0.00000000       0.00000000       0.00000000
Si       1.92014846       5.76044539      10.00000000  F       0.00000000       0.00000000       0.00000000
Si       9.60115206       8.39167564      19.41469046  F       0.00000000       0.00000000       0.00000000
Si       7.68438868       7.78024006      18.18268595  F       0.00000000       0.00000000       0.00000000
Si       7.68134052       9.60457854      16.70262731  F       0.00000000       0.00000000       0.00000000
Si       9.60031308       9.60201941      15.38260215  F       0.00000000       0.00000000       0.00000000
Si       9.60074232       7.68059386      14.07325000  F       0.00000000       0.00000000       0.00000000
Si       7.68059386       7.68059386      12.71550000  F       0.00000000       0.00000000       0.00000000
Si       7.68059386       9.60074232      11.35775000  F       0.00000000       0.00000000       0.00000000
Si       9.60074232       9.60074232      10.00000000  F       0.00000000       0.00000000       0.00000000
Si       0.00000000       5.76044539      11.35775000  F       0.00000000       0.00000000       0.00000000
Si       0.00000000       3.84029693      12.71550000  F       0.00000000       0.00000000       0.00000000
Si       9.60073769       3.12971508      19.41958311  F       0.00000000       0.00000000       0.00000000
Si       7.68059386      13.44103925      11.35775000  F       0.00000000       0.00000000       0.00000000
Si      11.52135670       0.09903718      18.19360268  F       0.00000000       0.00000000       0.00000000
Si      13.44094437       0.71490464      19.42075961  F       0.00000000       0.00000000       0.00000000
Si      15.36092521       0.09995693      18.19449532  F       0.00000000       0.00000000       0.00000000
Si      13.43947488      10.80461813      19.42637189  F       0.00000000       0.00000000       0.00000000
Si      11.52264781      11.42431930      18.19539250  F       0.00000000       0.00000000       0.00000000
Si      11.52136227      13.44182041      16.92243576  F       0.00000000       0.00000000       0.00000000
Si      13.44039765      13.44147964      15.50351637  F       0.00000000       0.00000000       0.00000000
Si      13.44103925      11.52089079      14.07325000  F       0.00000000       0.00000000       0.00000000
Si      11.52089079      11.52089079      12.71550000  F       0.00000000       0.00000000       0.00000000
Si      11.52089079      13.44103925      11.35775000  F       0.00000000       0.00000000       0.00000000
Si      13.44103925      13.44103925      10.00000000  F       0.00000000       0.00000000       0.00000000
Si       0.00000000       1.92014846      11.35775000  F       0.00000000       0.00000000       0.00000000
Si       0.00000000       0.00000000      12.71550000  F       0.00000000       0.00000000       0.00000000
Si      13.43366755       8.38906336      19.41462224  F       0.00000000       0.00000000       0.00000000
Si      11.51842062       7.77829868      18.18405042  F       0.00000000       0.00000000       0.00000000
Si      11.51860173       9.60477069      16.70480837  F       0.00000000       0.00000000       0.00000000
Si      13.43646460       9.60230763      15.38182817  F       0.00000000       0.00000000       0.00000000
Si      13.44103925       7.68059386      14.07325000  F       0.00000000       0.00000000       0.00000000
Si      11.52089079       7.68059386      12.71550000  F       0.00000000       0.00000000       0.00000000
Si      11.52089079       9.60074232      11.35775000  F       0.00000000       0.00000000       0.00000000
Si      13.44103925       9.60074232      10.00000000  F       0.00000000       0.00000000       0.00000000
Si       1.92014846       0.00000000      14.07325000  F       0.00000000       0.00000000       0.00000000
Si       1.92021244       1.92025726      15.38552638  F       0.00000000       0.00000000       0.00000000
Si      13.44114427       3.13168457      19.42044362  F       0.00000000       0.00000000       0.00000000
Si      11.52087686       3.74454199      18.19295379  F       0.00000000       0.00000000       0.00000000
Si      11.51973172       5.75963992      16.91790646  F       0.00000000       0.00000000       0.00000000
Si      13.44072574       5.76049075      15.50265926  F       0.00000000       0.00000000       0.00000000
Si      13.44103925       3.84029693      14.07325000  F       0.00000000       0.00000000       0.00000000
Si      11.52089079       3.84029693      12.71550000  F       0.00000000       0.00000000       0.00000000
Si      11.52089079       5.76044539      11.35775000  F       0.00000000       0.00000000       0.00000000
Si      13.44103925       5.76044539      10.00000000  F       0.00000000       0.00000000       0.00000000
Si       0.00041132       1.92231052      16.70764091  F       0.00000000       0.00000000       0.00000000
Si       7.68025669       3.74417507      18.19363024  F       0.00000000       0.00000000       0.00000000
Si       7.68124909       5.75974913      16.91908229  F       0.00000000       0.00000000       0.00000000
Si       9.60074232       3.84029693      14.07325000  F       0.00000000       0.00000000       0.00000000
Si       1.91618200       8.40916351      19.39921253  F       0.00000000       0.00000000       0.00000000
Si       5.76144608       3.12945822      19.42250120  F       0.00000000       0.00000000       0.00000000
Si       3.84110310       3.74098708      18.19556596  F       0.00000000       0.00000000       0.00000000
Si       3.84013798       5.75700270      16.92362870  F       0.00000000       0.00000000       0.00000000
Si       5.76051660       5.76091064      15.50391091  F       0.00000000       0.00000000       0.00000000
Si       5.76044539       3.84029693      14.07325000  F       0.00000000       0.00000000       0.00000000
Si       3.84029693       3.84029693      12.71550000  F       0.00000000       0.00000000       0.00000000
Si       3.84029693       5.76044539      11.35775000  F       0.00000000       0.00000000       0.00000000
Si       5.76044539       5.76044539      10.00000000  F       0.00000000       0.00000000       0.00000000
Si       0.00000000       9.60074232      11.35775000  F       0.00000000       0.00000000       0.00000000
Si       0.00000000       7.68059386      12.71550000  F       0.00000000       0.00000000       0.00000000
Si       5.76137513       0.71266325      19.42062557  F       0.00000000       0.00000000       0.00000000
Si       3.84094724       0.09744772      18.19446436  F       0.00000000       0.00000000       0.00000000
Si       3.84032319       1.91963337      16.70719001  F       0.00000000       0.00000000       0.00000000
Si       5.76066646       1.92017615      15.38549242  F       0.00000000       0.00000000       0.00000000
Si       5.76044539       0.00000000      14.07325000  F       0.00000000       0.00000000       0.00000000
Si       3.84029693       0.00000000      12.71550000  F       0.00000000       0.00000000       0.00000000
Si       3.84029693       1.92014846      11.35775000  F       0.00000000       0.00000000       0.00000000
Si       5.76044539       1.92014846      10.00000000  F       0.00000000       0.00000000       0.00000000
Si       1.92014846       7.68059386      14.07325000  F       0.00000000       0.00000000       0.00000000
Si       1.92140307       9.60009910      15.38687042  F       0.00000000       0.00000000       0.00000000
Si       1.92201212      10.82592049      19.41538436  F       0.00000000       0.00000000       0.00000000
Si      15.35509609      11.42647657      18.19480034  F       0.00000000       0.00000000       0.00000000
Si      15.35964047      13.44401056      16.92186301  F       0.00000000       0.00000000       0.00000000
Si       1.91950685      13.44093950      15.50442848  F       0.00000000       0.00000000       0.00000000
Si       1.92014846      11.52089079      14.07325000  F       0.00000000       0.00000000       0.00000000
Si       0.00000000      11.52089079      12.71550000  F       0.00000000       0.00000000       0.00000000
Si       0.00000000      13.44103925      11.35775000  F       0.00000000       0.00000000       0.00000000
Si       1.92014846      13.44103925      10.00000000  F       0.00000000       0.00000000       0.00000000
Si      15.35668089       9.61176466      16.69955651  F       0.00000000       0.00000000       0.00000000
Si       1.92014846       9.60074232      10.00000000  F       0.00000000       0.00000000       0.00000000
Si       9.60013009       5.75965097      15.50144183  F       0.00000000       0.00000000       0.00000000
Si       5.76044539       9.60074232      10.00000000  F       0.00000000       0.00000000       0.00000000
Si       3.84029693       7.68059386      12.71550000  F       0.00000000       0.00000000       0.00000000
Si       7.68059386       3.84029693      12.71550000  F       0.00000000       0.00000000       0.00000000
Si       7.68059386       5.76044539      11.35775000  F       0.00000000       0.00000000       0.00000000
Si       9.60074232       5.76044539      10.00000000  F       0.00000000       0.00000000       0.00000000
Si       1.92014846       3.84029693      14.07325000  F       0.00000000       0.00000000       0.00000000
Si       1.92106082       5.76104375      15.50355504  F       0.00000000       0.00000000       0.00000000
Si       9.60080703       0.71321576      19.41956616  F       0.00000000       0.00000000       0.00000000
Si       7.68083637       0.09809407      18.19332667  F       0.00000000       0.00000000       0.00000000
Si       7.68060991       1.92103872      16.70742682  F       0.00000000       0.00000000       0.00000000
Si       9.60061276       1.92027876      15.38535002  F       0.00000000       0.00000000       0.00000000
Si       9.60074232       0.00000000      14.07325000  F       0.00000000       0.00000000       0.00000000
Si       7.68059386       0.00000000      12.71550000  F       0.00000000       0.00000000       0.00000000
Si       7.68059386       1.92014846      11.35775000  F       0.00000000       0.00000000       0.00000000
Si       9.60074232       1.92014846      10.00000000  F       0.00000000       0.00000000       0.00000000
Si       0.00089415       5.75964122      16.91890144  F       0.00000000       0.00000000       0.00000000
Si       0.00096083       3.74513977      18.19508486  F       0.00000000       0.00000000       0.00000000
Si       5.76465200      10.80830068      19.42182705  F       0.00000000       0.00000000       0.00000000
Si       3.84685499      11.42352503      18.19180642  F       0.00000000       0.00000000       0.00000000
Si       3.84150306      13.44187928      16.91992501  F       0.00000000       0.00000000       0.00000000
Si       5.76176884      13.44149440      15.50304015  F       0.00000000       0.00000000       0.00000000
Si       5.76044539      11.52089079      14.07325000  F       0.00000000       0.00000000       0.00000000
Si       3.84029693      11.52089079      12.71550000  F       0.00000000       0.00000000       0.00000000
Si       3.84029693      13.44103925      11.35775000  F       0.00000000       0.00000000       0.00000000
Si       5.76044539      13.44103925      10.00000000  F       0.00000000       0.00000000       0.00000000
Si       1.92052328       3.12886125      19.42210156  F       0.00000000       0.00000000       0.00000000
Si       5.77710478       8.39284293      19.42508281  F       0.00000000       0.00000000       0.00000000
Si       3.85342831       7.76977621      18.20509579  F       0.00000000       0.00000000       0.00000000
Si       3.84013598       9.59536497      16.71365351  F       0.00000000       0.00000000       0.00000000
Si       5.75872469       9.59975987      15.38580038  F       0.00000000       0.00000000       0.00000000
Si       5.76044539       7.68059386      14.07325000  F       0.00000000       0.00000000       0.00000000
Si       3.84029693       9.60074232      11.35775000  F       0.00000000       0.00000000       0.00000000
Si       1.92014846       1.92014846      10.00000000  F       0.00000000       0.00000000       0.00000000
Si       1.62693535       7.55623094      21.56634853  T       0.00000000       0.00000000       0.00000000
Cl       0.48639176       8.90147997      22.65743081  T       0.00000000       0.00000000       0.00000000
Cl       3.41022029       7.23419837      22.56540520  T       0.00000000       0.00000000       0.00000000
H        0.88959309       6.25786288      21.56701589  T       0.00000000       0.00000000       0.00000000
179
Lattice="15.361187714496559 0.0 0.0 0.0 15.361187714496559 0.0 0.0 0.0 29.50425" Properties=species:S:1:pos:R:3:move_mask:L:1:momenta:R:3 source_member=data/adsorbates/SiCl3/CONTCAR source_doi=10.5281/zenodo.10211009 role=adsorbate_geometry pbc="T T T"
H        1.90700261      11.37920811      20.80496864  F       0.00000000       0.00000000       0.00000000
H       13.44153541       0.16845979      20.82088817  F       0.00000000       0.00000000       0.00000000
H       13.44333508       3.66923766      20.82418811  F       0.00000000       0.00000000       0.00000000
H        9.59887964       3.67068186      20.82325619  F       0.00000000       0.00000000       0.00000000
H        9.59935584       0.17343700      20.82253623  F       0.00000000       0.00000000       0.00000000
H        5.76463013       3.66680625      20.83037368  F       0.00000000       0.00000000       0.00000000
H        5.75773983       0.16904558      20.82204916  F       0.00000000       0.00000000       0.00000000
H        1.91605540       0.15176972      20.81181743  F       0.00000000       0.00000000       0.00000000
H        1.88122747       3.60960066      20.83470521  F       0.00000000       0.00000000       0.00000000
H       13.44443900      11.35818838      20.82127929  F       0.00000000       0.00000000       0.00000000
H       13.39125247       7.85993144      20.82776037  F       0.00000000       0.00000000       0.00000000
H        9.60168120      11.35260273      20.82085524  F       0.00000000       0.00000000       0.00000000
H        9.60407706       7.85338287      20.81852662  F       0.00000000       0.00000000       0.00000000
H        5.76188330      11.36097342      20.82310237  F       0.00000000       0.00000000       0.00000000
H        5.78611693       7.86626985      20.82240549  F       0.00000000       0.00000000       0.00000000
H        5.76044539      14.63312426       9.15706861  F       0.00000000       0.00000000       0.00000000
H        1.92014846      12.24895424       9.15706861  F       0.00000000       0.00000000       0.00000000
H        1.92014846      14.63312426       9.15706861  F       0.00000000       0.00000000       0.00000000
H        5.76044539       0.72806346       9.15706861  F       0.00000000       0.00000000       0.00000000
H        5.76044539       3.11223347       9.15706861  F       0.00000000       0.00000000       0.00000000
H        5.76044539       4.56836038       9.15706861  F       0.00000000       0.00000000       0.00000000
H        5.76044539       6.95253040       9.15706861  F       0.00000000       0.00000000       0.00000000
H        5.76044539       8.40865731       9.15706861  F       0.00000000       0.00000000       0.00000000
H        5.76044539      10.79282733       9.15706861  F       0.00000000       0.00000000       0.00000000
H        5.76044539      12.24895424       9.15706861  F       0.00000000       0.00000000       0.00000000
H       13.44103925      12.24895424       9.15706861  F       0.00000000       0.00000000       0.00000000
H        9.60074232       0.72806346       9.15706861  F       0.00000000       0.00000000       0.00000000
H        1.92014846      10.79282733       9.15706861  F       0.00000000       0.00000000       0.00000000
H        9.60074232       3.11223347       9.15706861  F       0.00000000       0.00000000       0.00000000
H        9.60074232       6.95253040       9.15706861  F       0.00000000       0.00000000       0.00000000
H        9.60074232       8.40865731       9.15706861  F       0.00000000       0.00000000       0.00000000
H        9.60074232      10.79282733       9.15706861  F       0.00000000       0.00000000       0.00000000
H        9.60074232      12.24895424       9.15706861  F       0.00000000       0.00000000       0.00000000
H        9.60074232      14.63312426       9.15706861  F       0.00000000       0.00000000       0.00000000
H       13.44103925       0.72806346       9.15706861  F       0.00000000       0.00000000       0.00000000
H       13.44103925       3.11223347       9.15706861  F       0.00000000       0.00000000       0.00000000
H       13.44103925       4.56836038       9.15706861  F       0.00000000       0.00000000       0.00000000
H       13.44103925       6.95253040       9.15706861  F       0.00000000       0.00000000       0.00000000
H       13.44103925       8.40865731       9.15706861  F       0.00000000       0.00000000       0.00000000
H       13.44103925      10.79282733       9.15706861  F       0.00000000       0.00000000       0.00000000
H        9.60074232       4.56836038       9.15706861  F       0.00000000       0.00000000       0.00000000
H        1.92014846       8.40865731       9.15706861  F       0.00000000       0.00000000       0.00000000
H       13.44103925      14.63312426       9.15706861  F       0.00000000       0.00000000       0.00000000
H        1.92014846       6.95253040       9.15706861  F       0.00000000       0.00000000       0.00000000
H        1.92014846       3.11223347       9.15706861  F       0.00000000       0.00000000       0.00000000
H        1.92014846       0.72806346       9.15706861  F       0.00000000       0.00000000       0.00000000
H        1.92014846       4.56836038       9.15706861  F       0.00000000       0.00000000       0.00000000
Si       9.60041917      13.44199805      15.50227178  F       0.00000000       0.00000000       0.00000000
Si       7.68178518      13.44545352      16.91971659  F       0.00000000       0.00000000       0.00000000
Si       7.68207148      11.42944473      18.19051118  F       0.00000000       0.00000000       0.00000000
Si       9.60048914      10.81199649      19.41775253  F       0.00000000       0.00000000       0.00000000
Si      15.35045402       7.76989414      18.21501798  F       0.00000000       0.00000000       0.00000000
Si      13.44103925       1.92014846      10.00000000  F       0.00000000       0.00000000       0.00000000
Si      11.52089079       1.92014846      11.35775000  F       0.00000000       0.00000000       0.00000000
Si      11.52089079       0.00000000      12.71550000  F       0.00000000       0.00000000       0.00000000
Si      13.44103925       0.00000000      14.07325000  F       0.00000000       0.00000000       0.00000000
Si      13.43833482       1.91999763      15.38400163  F       0.00000000       0.00000000       0.00000000
Si      11.51907037       1.92301005      16.70687134  F       0.00000000       0.00000000       0.00000000
Si       9.60074232      11.52089079      14.07325000  F       0.00000000       0.00000000       0.00000000
Si       1.91622673       0.69420410      19.40934856  F       0.00000000       0.00000000       0.00000000
Si       7.68059386      11.52089079      12.71550000  F       0.00000000       0.00000000       0.00000000
Si       9.60074232      13.44103925      10.00000000  F       0.00000000       0.00000000       0.00000000
Si       1.92014846       5.76044539      10.00000000  F       0.00000000       0.00000000       0.00000000
Si       9.60234011       8.39580718      19.41621015  F       0.00000000       0.00000000       0.00000000
Si       7.68436531       7.78255926      18.18735613  F       0.00000000       0.00000000       0.00000000
Si       7.68453393       9.60606209      16.70482409  F       0.00000000       0.00000000       0.00000000
Si       9.60218535       9.60216491      15.38234878  F       0.00000000       0.00000000       0.00000000
Si       9.60074232       7.68059386      14.07325000  F       0.00000000       0.00000000       0.00000000
Si       7.68059386       7.68059386      12.71550000  F       0.00000000       0.00000000       0.00000000
Si       7.68059386       9.60074232      11.35775000  F       0.00000000       0.00000000       0.00000000
Si       9.60074232       9.60074232      10.00000000  F       0.00000000       0.00000000       0.00000000
Si       0.00000000       5.76044539      11.35775000  F       0.00000000       0.00000000       0.00000000
Si       0.00000000       3.84029693      12.71550000  F       0.00000000       0.00000000       0.00000000
Si       9.59796314       3.13075097      19.41986803  F       0.00000000       0.00000000       0.00000000
Si       7.68059386      13.44103925      11.35775000  F       0.00000000       0.00000000       0.00000000
Si      11.51880366       0.10016980      18.19269884  F       0.00000000       0.00000000       0.00000000
Si      13.43964632       0.71130973      19.41864601  F       0.00000000       0.00000000       0.00000000
Si      15.35509254       0.09273459      18.18633323  F       0.00000000       0.00000000       0.00000000
Si      13.43816874      10.81360232      19.41993934  F       0.00000000       0.00000000       0.00000000
Si      11.51964208      11.42741045      18.19102482  F       0.00000000       0.00000000       0.00000000
Si      11.51927665      13.44467387      16.92005969  F       0.00000000       0.00000000       0.00000000
Si      13.43634132      13.44170237      15.49898074  F       0.00000000       0.00000000       0.00000000
Si      13.44103925      11.52089079      14.07325000  F       0.00000000       0.00000000       0.00000000
Si      11.52089079      11.52089079      12.71550000  F       0.00000000       0.00000000       0.00000000
Si      11.52089079      13.44103925      11.35775000  F       0.00000000       0.00000000       0.00000000
Si      13.44103925      13.44103925      10.00000000  F       0.00000000       0.00000000       0.00000000
Si       0.00000000       1.92014846      11.35775000  F       0.00000000       0.00000000       0.00000000
Si       0.00000000       0.00000000      12.71550000  F       0.00000000       0.00000000       0.00000000
Si      13.42448522       8.39818638      19.42778446  F       0.00000000       0.00000000       0.00000000
Si      11.51860867       7.78221665      18.18354420  F       0.00000000       0.00000000       0.00000000
Si      11.52140295       9.60596606      16.70263156  F       0.00000000       0.00000000       0.00000000
Si      13.44436140       9.59877219      15.38637180  F       0.00000000       0.00000000       0.00000000
Si      13.44103925       7.68059386      14.07325000  F       0.00000000       0.00000000       0.00000000
Si      11.52089079       7.68059386      12.71550000  F       0.00000000       0.00000000       0.00000000
Si      11.52089079       9.60074232      11.35775000  F       0.00000000       0.00000000       0.00000000
Si      13.44103925       9.60074232      10.00000000  F       0.00000000       0.00000000       0.00000000
Si       1.92014846       0.00000000      14.07325000  F       0.00000000       0.00000000       0.00000000
Si       1.91993753       1.92051876      15.38598857  F       0.00000000       0.00000000       0.00000000
Si      13.43908298       3.12804761      19.42144668  F       0.00000000       0.00000000       0.00000000
Si      11.51940661       3.74479193      18.19492568  F       0.00000000       0.00000000       0.00000000
Si      11.52009827       5.76063923      16.92015420  F       0.00000000       0.00000000       0.00000000
Si      13.44268306       5.76176667      15.50649264  F       0.00000000       0.00000000       0.00000000
Si      13.44103925       3.84029693      14.07325000  F       0.00000000       0.00000000       0.00000000
Si      11.52089079       3.84029693      12.71550000  F       0.00000000       0.00000000       0.00000000
Si      11.52089079       5.76044539      11.35775000  F       0.00000000       0.00000000       0.00000000
Si      13.44103925       5.76044539      10.00000000  F       0.00000000       0.00000000       0.00000000
Si      15.35811758       1.91806504      16.70334981  F       0.00000000       0.00000000       0.00000000
Si       7.67667215       3.74531954      18.19502841  F       0.00000000       0.00000000       0.00000000
Si       7.67975460       5.76172339      16.92154464  F       0.00000000       0.00000000       0.00000000
Si       9.60074232       3.84029693      14.07325000  F       0.00000000       0.00000000       0.00000000
Si       1.93313051       8.43373396      19.39084219  F       0.00000000       0.00000000       0.00000000
Si       5.75876894       3.12977080      19.42617507  F       0.00000000       0.00000000       0.00000000
Si       3.83253353       3.74388585      18.20998880  F       0.00000000       0.00000000       0.00000000
Si       3.83769459       5.75902294      16.92986492  F       0.00000000       0.00000000       0.00000000
Si       5.75814195       5.76073234      15.50665990  F       0.00000000       0.00000000       0.00000000
Si       5.76044539       3.84029693      14.07325000  F       0.00000000       0.00000000       0.00000000
Si       3.84029693       3.84029693      12.71550000  F       0.00000000       0.00000000       0.00000000
Si       3.84029693       5.76044539      11.35775000  F       0.00000000       0.00000000       0.00000000
Si       5.76044539       5.76044539      10.00000000  F       0.00000000       0.00000000       0.00000000
Si       0.00000000       9.60074232      11.35775000  F       0.00000000       0.00000000       0.00000000
Si       0.00000000       7.68059386      12.71550000  F       0.00000000       0.00000000       0.00000000
Si       5.75874906       0.71308217      19.42026263  F       0.00000000       0.00000000       0.00000000
Si       3.84215693       0.09835210      18.18787761  F       0.00000000       0.00000000       0.00000000
Si       3.83867892       1.92800673      16.71059592  F       0.00000000       0.00000000       0.00000000
Si       5.75795147       1.92110147      15.38622645  F       0.00000000       0.00000000       0.00000000
Si       5.76044539       0.00000000      14.07325000  F       0.00000000       0.00000000       0.00000000
Si       3.84029693       0.00000000      12.71550000  F       0.00000000       0.00000000       0.00000000
Si       3.84029693       1.92014846      11.35775000  F       0.00000000       0.00000000       0.00000000
Si       5.76044539       1.92014846      10.00000000  F       0.00000000       0.00000000       0.00000000
Si       1.92014846       7.68059386      14.07325000  F       0.00000000       0.00000000       0.00000000
Si       1.92099883       9.59966083      15.38737558  F       0.00000000       0.00000000       0.00000000
Si       1.91690712      10.85015663      19.40007046  F       0.00000000       0.00000000       0.00000000
Si      15.34989231      11.42904426      18.18123941  F       0.00000000       0.00000000       0.00000000
Si      15.35532863      13.44312763      16.91021542  F       0.00000000       0.00000000       0.00000000
Si       1.92014951      13.44138465      15.50139175  F       0.00000000       0.00000000       0.00000000
Si       1.92014846      11.52089079      14.07325000  F       0.00000000       0.00000000       0.00000000
Si       0.00000000      11.52089079      12.71550000  F       0.00000000       0.00000000       0.00000000
Si       0.00000000      13.44103925      11.35775000  F       0.00000000       0.00000000       0.00000000
Si       1.92014846      13.44103925      10.00000000  F       0.00000000       0.00000000       0.00000000
Si       0.00256974       9.59301857      16.71495324  F       0.00000000       0.00000000       0.00000000
Si       1.92014846       9.60074232      10.00000000  F       0.00000000       0.00000000       0.00000000
Si       9.59964707       5.76030789      15.50307115  F       0.00000000       0.00000000       0.00000000
Si       5.76044539       9.60074232      10.00000000  F       0.00000000       0.00000000       0.00000000
Si       3.84029693       7.68059386      12.71550000  F       0.00000000       0.00000000       0.00000000
Si       7.68059386       3.84029693      12.71550000  F       0.00000000       0.00000000       0.00000000
Si       7.68059386       5.76044539      11.35775000  F       0.00000000       0.00000000       0.00000000
Si       9.60074232       5.76044539      10.00000000  F       0.00000000       0.00000000       0.00000000
Si       1.92014846       3.84029693      14.07325000  F       0.00000000       0.00000000       0.00000000
Si       1.92081497       5.76193220      15.50691116  F       0.00000000       0.00000000       0.00000000
Si       9.59884129       0.71420849      19.41946233  F       0.00000000       0.00000000       0.00000000
Si       7.67891974       0.10042893      18.19310231  F       0.00000000       0.00000000       0.00000000
Si       7.67831725       1.92330497      16.70735996  F       0.00000000       0.00000000       0.00000000
Si       9.59876257       1.92054705      15.38558978  F       0.00000000       0.00000000       0.00000000
Si       9.60074232       0.00000000      14.07325000  F       0.00000000       0.00000000       0.00000000
Si       7.68059386       0.00000000      12.71550000  F       0.00000000       0.00000000       0.00000000
Si       7.68059386       1.92014846      11.35775000  F       0.00000000       0.00000000       0.00000000
Si       9.60074232       1.92014846      10.00000000  F       0.00000000       0.00000000       0.00000000
Si       0.00294521       5.75619704      16.92890252  F       0.00000000       0.00000000       0.00000000
Si      15.35890404       3.73573356      18.19390898  F       0.00000000       0.00000000       0.00000000
Si       5.76497843      10.81854519      19.42140462  F       0.00000000       0.00000000       0.00000000
Si       3.85101994      11.43492116      18.18568958  F       0.00000000       0.00000000       0.00000000
Si       3.84458602      13.44794292      16.91286676  F       0.00000000       0.00000000       0.00000000
Si       5.76393954      13.44191274      15.49988210  F       0.00000000       0.00000000       0.00000000
Si       5.76044539      11.52089079      14.07325000  F       0.00000000       0.00000000       0.00000000
Si       3.84029693      11.52089079      12.71550000  F       0.00000000       0.00000000       0.00000000
Si       3.84029693      13.44103925      11.35775000  F       0.00000000       0.00000000       0.00000000
Si       5.76044539      13.44103925      10.00000000  F       0.00000000       0.00000000       0.00000000
Si       1.90901170       3.10500202      19.42294376  F       0.00000000       0.00000000       0.00000000
Si       5.77527586       8.40558045      19.42209909  F       0.00000000       0.00000000       0.00000000
Si       3.86123532       7.78996023      18.18456102  F       0.00000000       0.00000000       0.00000000
Si       3.84691654       9.61136113      16.70097473  F       0.00000000       0.00000000       0.00000000
Si       5.76649970       9.60214393      15.38184424  F       0.00000000       0.00000000       0.00000000
Si       5.76044539       7.68059386      14.07325000  F       0.00000000       0.00000000       0.00000000
Si       3.84029693       9.60074232      11.35775000  F       0.00000000       0.00000000       0.00000000
Si       1.92014846       1.92014846      10.00000000  F       0.00000000       0.00000000       0.00000000
Si       2.21089510       7.71466149      21.60829079  T       0.00000000       0.00000000       0.00000000
Cl       3.23557077       9.15137030      22.68662401  T       0.00000000       0.00000000       0.00000000
Cl       0.43814342       7.33529074      22.59263419  T       0.00000000       0.00000000       0.00000000
Cl       3.34978894       5.98993387      21.66764606  T       0.00000000       0.00000000       0.00000000
177
Lattice="15.361187714496559 0.0 0.0 0.0 15.361187714496559 0.0 0.0 0.0 29.50425" Properties=species:S:1:pos:R:3:move_mask:L:1:momenta:R:3 source_member=data/adsorbates/SiClH/CONTCAR source_doi=10.5281/zenodo.10211009 role=adsorbate_geometry pbc="T T T"
H       13.43981404       0.17179184      20.82358898  F       0.00000000       0.00000000       0.00000000
H       13.43991403       3.67007574      20.82373394  F       0.00000000       0.00000000       0.00000000
H        9.60022195       3.66896494      20.82291252  F       0.00000000       0.00000000       0.00000000
H        9.60063939       0.17211005      20.82263050  F       0.00000000       0.00000000       0.00000000
H        5.76266893       3.66965121      20.82474086  F       0.00000000       0.00000000       0.00000000
H        5.76158109       0.17132010      20.82415492  F       0.00000000       0.00000000       0.00000000
H        1.91885845       0.17202368      20.82383114  F       0.00000000       0.00000000       0.00000000
H        1.91839716       3.66781421      20.82497584  F       0.00000000       0.00000000       0.00000000
H       13.42384558      11.35694943      20.83428194  F       0.00000000       0.00000000       0.00000000
H       13.42172637       7.85239867      20.83717233  F       0.00000000       0.00000000       0.00000000
H        9.59983275      11.35288543      20.81783018  F       0.00000000       0.00000000       0.00000000
H        9.60050102       7.85220106      20.81901037  F       0.00000000       0.00000000       0.00000000
H        5.79700009      11.37212586      20.83537299  F       0.00000000       0.00000000       0.00000000
H        5.79616019       7.84034385      20.83884836  F       0.00000000       0.00000000       0.00000000
H        5.76044539      14.63312426       9.15706861  F       0.00000000       0.00000000       0.00000000
H        1.92014846      12.24895424       9.15706861  F       0.00000000       0.00000000       0.00000000
H        1.92014846      14.63312426       9.15706861  F       0.00000000       0.00000000       0.00000000
H        5.76044539       0.72806346       9.15706861  F       0.00000000       0.00000000       0.00000000
H        5.76044539       3.11223347       9.15706861  F       0.00000000       0.00000000       0.00000000
H        5.76044539       4.56836038       9.15706861  F       0.00000000       0.00000000       0.00000000
H        5.76044539       6.95253040       9.15706861  F       0.00000000       0.00000000       0.00000000
H        5.76044539       8.40865731       9.15706861  F       0.00000000       0.00000000       0.00000000
H        5.76044539      10.79282733       9.15706861  F       0.00000000       0.00000000       0.00000000
H        5.76044539      12.24895424       9.15706861  F       0.00000000       0.00000000       0.00000000
H       13.44103925      12.24895424       9.15706861  F       0.00000000       0.00000000       0.00000000
H        9.60074232       0.72806346       9.15706861  F       0.00000000       0.00000000       0.00000000
H        1.92014846      10.79282733       9.15706861  F       0.00000000       0.00000000       0.00000000
H        9.60074232       3.11223347       9.15706861  F       0.00000000       0.00000000       0.00000000
H        9.60074232       6.95253040       9.15706861  F       0.00000000       0.00000000       0.00000000
H        9.60074232       8.40865731       9.15706861  F       0.00000000       0.00000000       0.00000000
H        9.60074232      10.79282733       9.15706861  F       0.00000000       0.00000000       0.00000000
H        9.60074232      12.24895424       9.15706861  F       0.00000000       0.00000000       0.00000000
H        9.60074232      14.63312426       9.15706861  F       0.00000000       0.00000000       0.00000000
H       13.44103925       0.72806346       9.15706861  F       0.00000000       0.00000000       0.00000000
H       13.44103925       3.11223347       9.15706861  F       0.00000000       0.00000000       0.00000000
H       13.44103925       4.56836038       9.15706861  F       0.00000000       0.00000000       0.00000000
H       13.44103925       6.95253040       9.15706861  F       0.00000000       0.00000000       0.00000000
H       13.44103925       8.40865731       9.15706861  F       0.00000000       0.00000000       0.00000000
H       13.44103925      10.79282733       9.15706861  F       0.00000000       0.00000000       0.00000000
H        9.60074232       4.56836038       9.15706861  F       0.00000000       0.00000000       0.00000000
H        1.92014846       8.40865731       9.15706861  F       0.00000000       0.00000000       0.00000000
H       13.44103925      14.63312426       9.15706861  F       0.00000000       0.00000000       0.00000000
H        1.92014846       6.95253040       9.15706861  F       0.00000000       0.00000000       0.00000000
H        1.92014846       3.11223347       9.15706861  F       0.00000000       0.00000000       0.00000000
H        1.92014846       0.72806346       9.15706861  F       0.00000000       0.00000000       0.00000000
H        1.92014846       4.56836038       9.15706861  F       0.00000000       0.00000000       0.00000000
Si       9.60037108      13.44154168      15.50255027  F       0.00000000       0.00000000       0.00000000
Si       7.68141946      13.44266277      16.91989064  F       0.00000000       0.00000000       0.00000000
Si       7.68518694      11.42345219      18.18684397  F       0.00000000       0.00000000       0.00000000
Si       9.60053877      10.80962925      19.41562309  F       0.00000000       0.00000000       0.00000000
Si      15.32240512       7.76891457      18.18955998  F       0.00000000       0.00000000       0.00000000
Si      13.44103925       1.92014846      10.00000000  F       0.00000000       0.00000000       0.00000000
Si      11.52089079       1.92014846      11.35775000  F       0.00000000       0.00000000       0.00000000
Si      11.52089079       0.00000000      12.71550000  F       0.00000000       0.00000000       0.00000000
Si      13.44103925       0.00000000      14.07325000  F       0.00000000       0.00000000       0.00000000
Si      13.44105067       1.92026633      15.38536549  F       0.00000000       0.00000000       0.00000000
Si      11.52058888       1.92150721      16.70644182  F       0.00000000       0.00000000       0.00000000
Si       9.60074232      11.52089079      14.07325000  F       0.00000000       0.00000000       0.00000000
Si       1.91959712       0.71201779      19.42055780  F       0.00000000       0.00000000       0.00000000
Si       7.68059386      11.52089079      12.71550000  F       0.00000000       0.00000000       0.00000000
Si       9.60074232      13.44103925      10.00000000  F       0.00000000       0.00000000       0.00000000
Si       1.92014846       5.76044539      10.00000000  F       0.00000000       0.00000000       0.00000000
Si       9.60053406       8.39416529      19.41631521  F       0.00000000       0.00000000       0.00000000
Si       7.68442679       7.78064399      18.18870628  F       0.00000000       0.00000000       0.00000000
Si       7.68363182       9.60132331      16.70152671  F       0.00000000       0.00000000       0.00000000
Si       9.60367090       9.60077586      15.38417727  F       0.00000000       0.00000000       0.00000000
Si       9.60074232       7.68059386      14.07325000  F       0.00000000       0.00000000       0.00000000
Si       7.68059386       7.68059386      12.71550000  F       0.00000000       0.00000000       0.00000000
Si       7.68059386       9.60074232      11.35775000  F       0.00000000       0.00000000       0.00000000
Si       9.60074232       9.60074232      10.00000000  F       0.00000000       0.00000000       0.00000000
Si       0.00000000       5.76044539      11.35775000  F       0.00000000       0.00000000       0.00000000
Si       0.00000000       3.84029693      12.71550000  F       0.00000000       0.00000000       0.00000000
Si       9.60004592       3.12892479      19.41940772  F       0.00000000       0.00000000       0.00000000
Si       7.68059386      13.44103925      11.35775000  F       0.00000000       0.00000000       0.00000000
Si      11.52023250       0.09894268      18.19286037  F       0.00000000       0.00000000       0.00000000
Si      13.43932825       0.71316560      19.42062403  F       0.00000000       0.00000000       0.00000000
Si      15.35970014       0.10086114      18.19458750  F       0.00000000       0.00000000       0.00000000
Si      13.42252678      10.81100226      19.43326047  F       0.00000000       0.00000000       0.00000000
Si      11.51698282      11.42476078      18.18937418  F       0.00000000       0.00000000       0.00000000
Si      11.51989157      13.44358639      16.91996900  F       0.00000000       0.00000000       0.00000000
Si      13.43621758      13.44304908      15.49825330  F       0.00000000       0.00000000       0.00000000
Si      13.44103925      11.52089079      14.07325000  F       0.00000000       0.00000000       0.00000000
Si      11.52089079      11.52089079      12.71550000  F       0.00000000       0.00000000       0.00000000
Si      11.52089079      13.44103925      11.35775000  F       0.00000000       0.00000000       0.00000000
Si      13.44103925      13.44103925      10.00000000  F       0.00000000       0.00000000       0.00000000
Si       0.00000000       1.92014846      11.35775000  F       0.00000000       0.00000000       0.00000000
Si       0.00000000       0.00000000      12.71550000  F       0.00000000       0.00000000       0.00000000
Si      13.42216981       8.39508770      19.43486430  F       0.00000000       0.00000000       0.00000000
Si      11.51726103       7.77981514      18.19007659  F       0.00000000       0.00000000       0.00000000
Si      11.52386369       9.60190100      16.70332975  F       0.00000000       0.00000000       0.00000000
Si      13.44160334       9.60060364      15.38106048  F       0.00000000       0.00000000       0.00000000
Si      13.44103925       7.68059386      14.07325000  F       0.00000000       0.00000000       0.00000000
Si      11.52089079       7.68059386      12.71550000  F       0.00000000       0.00000000       0.00000000
Si      11.52089079       9.60074232      11.35775000  F       0.00000000       0.00000000       0.00000000
Si      13.44103925       9.60074232      10.00000000  F       0.00000000       0.00000000       0.00000000
Si       1.92014846       0.00000000      14.07325000  F       0.00000000       0.00000000       0.00000000
Si       1.92008571       1.92030225      15.38533674  F       0.00000000       0.00000000       0.00000000
Si      13.43969619       3.12914874      19.42055695  F       0.00000000       0.00000000       0.00000000
Si      11.52028263       3.74399975      18.19335258  F       0.00000000       0.00000000       0.00000000
Si      11.52018929       5.76058582      16.92056170  F       0.00000000       0.00000000       0.00000000
Si      13.43739217       5.75951762      15.49965050  F       0.00000000       0.00000000       0.00000000
Si      13.44103925       3.84029693      14.07325000  F       0.00000000       0.00000000       0.00000000
Si      11.52089079       3.84029693      12.71550000  F       0.00000000       0.00000000       0.00000000
Si      11.52089079       5.76044539      11.35775000  F       0.00000000       0.00000000       0.00000000
Si      13.44103925       5.76044539      10.00000000  F       0.00000000       0.00000000       0.00000000
Si      15.36103202       1.92151255      16.70700559  F       0.00000000       0.00000000       0.00000000
Si       7.68028699       3.74414371      18.19306338  F       0.00000000       0.00000000       0.00000000
Si       7.68097685       5.76099939      16.92082748  F       0.00000000       0.00000000       0.00000000
Si       9.60074232       3.84029693      14.07325000  F       0.00000000       0.00000000       0.00000000
Si       1.91927391       8.37544834      19.33045132  F       0.00000000       0.00000000       0.00000000
Si       5.76184110       3.12888406      19.42162143  F       0.00000000       0.00000000       0.00000000
Si       3.84091662       3.74338912      18.19653342  F       0.00000000       0.00000000       0.00000000
Si       3.84603460       5.75952368      16.92423695  F       0.00000000       0.00000000       0.00000000
Si       5.76224442       5.76067597      15.50204270  F       0.00000000       0.00000000       0.00000000
Si       5.76044539       3.84029693      14.07325000  F       0.00000000       0.00000000       0.00000000
Si       3.84029693       3.84029693      12.71550000  F       0.00000000       0.00000000       0.00000000
Si       3.84029693       5.76044539      11.35775000  F       0.00000000       0.00000000       0.00000000
Si       5.76044539       5.76044539      10.00000000  F       0.00000000       0.00000000       0.00000000
Si       0.00000000       9.60074232      11.35775000  F       0.00000000       0.00000000       0.00000000
Si       0.00000000       7.68059386      12.71550000  F       0.00000000       0.00000000       0.00000000
Si       5.76176462       0.71273722      19.42131900  F       0.00000000       0.00000000       0.00000000
Si       3.84112091       0.10058474      18.19523717  F       0.00000000       0.00000000       0.00000000
Si       3.84008220       1.92225084      16.70747398  F       0.00000000       0.00000000       0.00000000
Si       5.76017125       1.92027107      15.38557096  F       0.00000000       0.00000000       0.00000000
Si       5.76044539       0.00000000      14.07325000  F       0.00000000       0.00000000       0.00000000
Si       3.84029693       0.00000000      12.71550000  F       0.00000000       0.00000000       0.00000000
Si       3.84029693       1.92014846      11.35775000  F       0.00000000       0.00000000       0.00000000
Si       5.76044539       1.92014846      10.00000000  F       0.00000000       0.00000000       0.00000000
Si       1.92014846       7.68059386      14.07325000  F       0.00000000       0.00000000       0.00000000
Si       1.92380579       9.60078162      15.39909995  F       0.00000000       0.00000000       0.00000000
Si       1.91949124      10.84143942      19.32034190  F       0.00000000       0.00000000       0.00000000
Si      15.31971246      11.43789968      18.18328320  F       0.00000000       0.00000000       0.00000000
Si      15.35210568      13.45250373      16.91449527  F       0.00000000       0.00000000       0.00000000
Si       1.92045161      13.43976182      15.50619507  F       0.00000000       0.00000000       0.00000000
Si       1.92014846      11.52089079      14.07325000  F       0.00000000       0.00000000       0.00000000
Si       0.00000000      11.52089079      12.71550000  F       0.00000000       0.00000000       0.00000000
Si       0.00000000      13.44103925      11.35775000  F       0.00000000       0.00000000       0.00000000
Si       1.92014846      13.44103925      10.00000000  F       0.00000000       0.00000000       0.00000000
Si      15.35497287       9.60124773      16.71512183  F       0.00000000       0.00000000       0.00000000
Si       1.92014846       9.60074232      10.00000000  F       0.00000000       0.00000000       0.00000000
Si       9.60024542       5.76073010      15.50312739  F       0.00000000       0.00000000       0.00000000
Si       5.76044539       9.60074232      10.00000000  F       0.00000000       0.00000000       0.00000000
Si       3.84029693       7.68059386      12.71550000  F       0.00000000       0.00000000       0.00000000
Si       7.68059386       3.84029693      12.71550000  F       0.00000000       0.00000000       0.00000000
Si       7.68059386       5.76044539      11.35775000  F       0.00000000       0.00000000       0.00000000
Si       9.60074232       5.76044539      10.00000000  F       0.00000000       0.00000000       0.00000000
Si       1.92014846       3.84029693      14.07325000  F       0.00000000       0.00000000       0.00000000
Si       1.92076642       5.76285163      15.50726815  F       0.00000000       0.00000000       0.00000000
Si       9.60006683       0.71251495      19.41928526  F       0.00000000       0.00000000       0.00000000
Si       7.68034149       0.09774428      18.19311931  F       0.00000000       0.00000000       0.00000000
Si       7.68030757       1.92082246      16.70721176  F       0.00000000       0.00000000       0.00000000
Si       9.60023291       1.92020407      15.38513426  F       0.00000000       0.00000000       0.00000000
Si       9.60074232       0.00000000      14.07325000  F       0.00000000       0.00000000       0.00000000
Si       7.68059386       0.00000000      12.71550000  F       0.00000000       0.00000000       0.00000000
Si       7.68059386       1.92014846      11.35775000  F       0.00000000       0.00000000       0.00000000
Si       9.60074232       1.92014846      10.00000000  F       0.00000000       0.00000000       0.00000000
Si      15.35362657       5.75371922      16.91758549  F       0.00000000       0.00000000       0.00000000
Si      15.36029356       3.74224918      18.19484808  F       0.00000000       0.00000000       0.00000000
Si       5.78709644      10.81206035      19.44226892  F       0.00000000       0.00000000       0.00000000
Si       3.88732878      11.42782822      18.18965654  F       0.00000000       0.00000000       0.00000000
Si       3.84703201      13.44757240      16.92072262  F       0.00000000       0.00000000       0.00000000
Si       5.76323192      13.44203493      15.50060635  F       0.00000000       0.00000000       0.00000000
Si       5.76044539      11.52089079      14.07325000  F       0.00000000       0.00000000       0.00000000
Si       3.84029693      11.52089079      12.71550000  F       0.00000000       0.00000000       0.00000000
Si       3.84029693      13.44103925      11.35775000  F       0.00000000       0.00000000       0.00000000
Si       5.76044539      13.44103925      10.00000000  F       0.00000000       0.00000000       0.00000000
Si       1.91959202       3.12894910      19.42123036  F       0.00000000       0.00000000       0.00000000
Si       5.78658518       8.39602250      19.44386131  F       0.00000000       0.00000000       0.00000000
Si       3.88408150       7.78062097      18.19539138  F       0.00000000       0.00000000       0.00000000
Si       3.85824828       9.60202271      16.71013077  F       0.00000000       0.00000000       0.00000000
Si       5.76845454       9.60058962      15.37683901  F       0.00000000       0.00000000       0.00000000
Si       5.76044539       7.68059386      14.07325000  F       0.00000000       0.00000000       0.00000000
Si       3.84029693       9.60074232      11.35775000  F       0.00000000       0.00000000       0.00000000
Si       1.92014846       1.92014846      10.00000000  F       0.00000000       0.00000000       0.00000000
Si       1.84950574       9.61961414      21.29747257  T       0.00000000       0.00000000       0.00000000
Cl       3.44755062       9.63397985      22.61712428  T       0.00000000       0.00000000       0.00000000
H        0.57107209       9.62488217      22.04714810  T       0.00000000       0.00000000       0.00000000
179
Lattice="15.361187714496559 0.0 0.0 0.0 15.361187714496559 0.0 0.0 0.0 29.50425" Properties=species:S:1:pos:R:3:move_mask:L:1:momenta:R:3 source_member=data/adsorbates/SiClH2/CONTCAR source_doi=10.5281/zenodo.10211009 role=adsorbate_geometry pbc="T T T"
H        1.90948327      11.35326033      20.81363991  F       0.00000000       0.00000000       0.00000000
H       13.44113368       0.17243153      20.82272881  F       0.00000000       0.00000000       0.00000000
H       13.44116169       3.66966903      20.82257520  F       0.00000000       0.00000000       0.00000000
H        9.60015044       3.66912662      20.82255188  F       0.00000000       0.00000000       0.00000000
H        9.60041649       0.17224942      20.82263117  F       0.00000000       0.00000000       0.00000000
H        5.76024125       3.67073558      20.82354036  F       0.00000000       0.00000000       0.00000000
H        5.75975903       0.17252585      20.82316819  F       0.00000000       0.00000000       0.00000000
H        1.91941394       0.17013993      20.82204946  F       0.00000000       0.00000000       0.00000000
H        1.91929612       3.66585524      20.82390062  F       0.00000000       0.00000000       0.00000000
H       13.44365325      11.34853957      20.82227922  F       0.00000000       0.00000000       0.00000000
H       13.43152028       7.85206804      20.81984189  F       0.00000000       0.00000000       0.00000000
H        9.60016531      11.34699682      20.82284443  F       0.00000000       0.00000000       0.00000000
H        9.59871088       7.84952304      20.81943104  F       0.00000000       0.00000000       0.00000000
H        5.76118686      11.34789650      20.83063895  F       0.00000000       0.00000000       0.00000000
H        5.78331536       7.83630767      20.82225505  F       0.00000000       0.00000000       0.00000000
H        5.76044539      14.63312426       9.15706861  F       0.00000000       0.00000000       0.00000000
H        1.92014846      12.24895424       9.15706861  F       0.00000000       0.00000000       0.00000000
H        1.92014846      14.63312426       9.15706861  F       0.00000000       0.00000000       0.00000000
H        5.76044539       0.72806346       9.15706861  F       0.00000000       0.00000000       0.00000000
H        5.76044539       3.11223347       9.15706861  F       0.00000000       0.00000000       0.00000000
H        5.76044539       4.56836038       9.15706861  F       0.00000000       0.00000000       0.00000000
H        5.76044539       6.95253040       9.15706861  F       0.00000000       0.00000000       0.00000000
H        5.76044539       8.40865731       9.15706861  F       0.00000000       0.00000000       0.00000000
H        5.76044539      10.79282733       9.15706861  F       0.00000000       0.00000000       0.00000000
H        5.76044539      12.24895424       9.15706861  F       0.00000000       0.00000000       0.00000000
H       13.44103925      12.24895424       9.15706861  F       0.00000000       0.00000000       0.00000000
H        9.60074232       0.72806346       9.15706861  F       0.00000000       0.00000000       0.00000000
H        1.92014846      10.79282733       9.15706861  F       0.00000000       0.00000000       0.00000000
H        9.60074232       3.11223347       9.15706861  F       0.00000000       0.00000000       0.00000000
H        9.60074232       6.95253040       9.15706861  F       0.00000000       0.00000000       0.00000000
H        9.60074232       8.40865731       9.15706861  F       0.00000000       0.00000000       0.00000000
H        9.60074232      10.79282733       9.15706861  F       0.00000000       0.00000000       0.00000000
H        9.60074232      12.24895424       9.15706861  F       0.00000000       0.00000000       0.00000000
H        9.60074232      14.63312426       9.15706861  F       0.00000000       0.00000000       0.00000000
H       13.44103925       0.72806346       9.15706861  F       0.00000000       0.00000000       0.00000000
H       13.44103925       3.11223347       9.15706861  F       0.00000000       0.00000000       0.00000000
H       13.44103925       4.56836038       9.15706861  F       0.00000000       0.00000000       0.00000000
H       13.44103925       6.95253040       9.15706861  F       0.00000000       0.00000000       0.00000000
H       13.44103925       8.40865731       9.15706861  F       0.00000000       0.00000000       0.00000000
H       13.44103925      10.79282733       9.15706861  F       0.00000000       0.00000000       0.00000000
H        9.60074232       4.56836038       9.15706861  F       0.00000000       0.00000000       0.00000000
H        1.92014846       8.40865731       9.15706861  F       0.00000000       0.00000000       0.00000000
H       13.44103925      14.63312426       9.15706861  F       0.00000000       0.00000000       0.00000000
H        1.92014846       6.95253040       9.15706861  F       0.00000000       0.00000000       0.00000000
H        1.92014846       3.11223347       9.15706861  F       0.00000000       0.00000000       0.00000000
H        1.92014846       0.72806346       9.15706861  F       0.00000000       0.00000000       0.00000000
H        1.92014846       4.56836038       9.15706861  F       0.00000000       0.00000000       0.00000000
Si       9.59945394      13.44105410      15.50385461  F       0.00000000       0.00000000       0.00000000
Si       7.67975899      13.44033754      16.92239653  F       0.00000000       0.00000000       0.00000000
Si       7.67703235      11.42313781      18.19527753  F       0.00000000       0.00000000       0.00000000
Si       9.59846912      10.80802286      19.41902674  F       0.00000000       0.00000000       0.00000000
Si      15.35411309       7.77951703      18.18684570  F       0.00000000       0.00000000       0.00000000
Si      13.44103925       1.92014846      10.00000000  F       0.00000000       0.00000000       0.00000000
Si      11.52089079       1.92014846      11.35775000  F       0.00000000       0.00000000       0.00000000
Si      11.52089079       0.00000000      12.71550000  F       0.00000000       0.00000000       0.00000000
Si      13.44103925       0.00000000      14.07325000  F       0.00000000       0.00000000       0.00000000
Si      13.44089431       1.92026739      15.38524266  F       0.00000000       0.00000000       0.00000000
Si      11.52052618       1.92079493      16.70649977  F       0.00000000       0.00000000       0.00000000
Si       9.60074232      11.52089079      14.07325000  F       0.00000000       0.00000000       0.00000000
Si       1.91973567       0.70998242      19.41860197  F       0.00000000       0.00000000       0.00000000
Si       7.68059386      11.52089079      12.71550000  F       0.00000000       0.00000000       0.00000000
Si       9.60074232      13.44103925      10.00000000  F       0.00000000       0.00000000       0.00000000
Si       1.92014846       5.76044539      10.00000000  F       0.00000000       0.00000000       0.00000000
Si       9.59808762       8.39170030      19.41685797  F       0.00000000       0.00000000       0.00000000
Si       7.67967000       7.77853141      18.18770500  F       0.00000000       0.00000000       0.00000000
Si       7.68048443       9.60280224      16.70571261  F       0.00000000       0.00000000       0.00000000
Si       9.59970955       9.60136599      15.38414399  F       0.00000000       0.00000000       0.00000000
Si       9.60074232       7.68059386      14.07325000  F       0.00000000       0.00000000       0.00000000
Si       7.68059386       7.68059386      12.71550000  F       0.00000000       0.00000000       0.00000000
Si       7.68059386       9.60074232      11.35775000  F       0.00000000       0.00000000       0.00000000
Si       9.60074232       9.60074232      10.00000000  F       0.00000000       0.00000000       0.00000000
Si       0.00000000       5.76044539      11.35775000  F       0.00000000       0.00000000       0.00000000
Si       0.00000000       3.84029693      12.71550000  F       0.00000000       0.00000000       0.00000000
Si       9.59974250       3.12877139      19.41921922  F       0.00000000       0.00000000       0.00000000
Si       7.68059386      13.44103925      11.35775000  F       0.00000000       0.00000000       0.00000000
Si      11.52019500       0.09814886      18.19287132  F       0.00000000       0.00000000       0.00000000
Si      13.44064515       0.71228555      19.41919842  F       0.00000000       0.00000000       0.00000000
Si      15.36036039       0.09749012      18.19253460  F       0.00000000       0.00000000       0.00000000
Si      13.43922079      10.80960469      19.41844902  F       0.00000000       0.00000000       0.00000000
Si      11.51841254      11.42427703      18.19315305  F       0.00000000       0.00000000       0.00000000
Si      11.51972967      13.44177938      16.92100996  F       0.00000000       0.00000000       0.00000000
Si      13.43875757      13.44178365      15.50186382  F       0.00000000       0.00000000       0.00000000
Si      13.44103925      11.52089079      14.07325000  F       0.00000000       0.00000000       0.00000000
Si      11.52089079      11.52089079      12.71550000  F       0.00000000       0.00000000       0.00000000
Si      11.52089079      13.44103925      11.35775000  F       0.00000000       0.00000000       0.00000000
Si      13.44103925      13.44103925      10.00000000  F       0.00000000       0.00000000       0.00000000
Si       0.00000000       1.92014846      11.35775000  F       0.00000000       0.00000000       0.00000000
Si       0.00000000       0.00000000      12.71550000  F       0.00000000       0.00000000       0.00000000
Si      13.43519546       8.39349952      19.41706209  F       0.00000000       0.00000000       0.00000000
Si      11.51746615       7.77846052      18.18919456  F       0.00000000       0.00000000       0.00000000
Si      11.51939687       9.60257064      16.70539186  F       0.00000000       0.00000000       0.00000000
Si      13.43844642       9.60075387      15.38306025  F       0.00000000       0.00000000       0.00000000
Si      13.44103925       7.68059386      14.07325000  F       0.00000000       0.00000000       0.00000000
Si      11.52089079       7.68059386      12.71550000  F       0.00000000       0.00000000       0.00000000
Si      11.52089079       9.60074232      11.35775000  F       0.00000000       0.00000000       0.00000000
Si      13.44103925       9.60074232      10.00000000  F       0.00000000       0.00000000       0.00000000
Si       1.92014846       0.00000000      14.07325000  F       0.00000000       0.00000000       0.00000000
Si       1.91999168       1.92030914      15.38526583  F       0.00000000       0.00000000       0.00000000
Si      13.44026151       3.12884310      19.41919770  F       0.00000000       0.00000000       0.00000000
Si      11.52000063       3.74370148      18.19287884  F       0.00000000       0.00000000       0.00000000
Si      11.51984957       5.76022676      16.91984210  F       0.00000000       0.00000000       0.00000000
Si      13.44040449       5.76070647      15.50337018  F       0.00000000       0.00000000       0.00000000
Si      13.44103925       3.84029693      14.07325000  F       0.00000000       0.00000000       0.00000000
Si      11.52089079       3.84029693      12.71550000  F       0.00000000       0.00000000       0.00000000
Si      11.52089079       5.76044539      11.35775000  F       0.00000000       0.00000000       0.00000000
Si      13.44103925       5.76044539      10.00000000  F       0.00000000       0.00000000       0.00000000
Si      15.36105519       1.92077970      16.70696272  F       0.00000000       0.00000000       0.00000000
Si       7.67993864       3.74417799      18.19266353  F       0.00000000       0.00000000       0.00000000
Si       7.68034020       5.76048153      16.91952803  F       0.00000000       0.00000000       0.00000000
Si       9.60074232       3.84029693      14.07325000  F       0.00000000       0.00000000       0.00000000
Si       1.91680854       8.40746202      19.41013430  F       0.00000000       0.00000000       0.00000000
Si       5.76053539       3.12974835      19.42048955  F       0.00000000       0.00000000       0.00000000
Si       3.83971325       3.74394963      18.19490128  F       0.00000000       0.00000000       0.00000000
Si       3.83825489       5.76195350      16.92420362  F       0.00000000       0.00000000       0.00000000
Si       5.75914461       5.76113573      15.50442412  F       0.00000000       0.00000000       0.00000000
Si       5.76044539       3.84029693      14.07325000  F       0.00000000       0.00000000       0.00000000
Si       3.84029693       3.84029693      12.71550000  F       0.00000000       0.00000000       0.00000000
Si       3.84029693       5.76044539      11.35775000  F       0.00000000       0.00000000       0.00000000
Si       5.76044539       5.76044539      10.00000000  F       0.00000000       0.00000000       0.00000000
Si       0.00000000       9.60074232      11.35775000  F       0.00000000       0.00000000       0.00000000
Si       0.00000000       7.68059386      12.71550000  F       0.00000000       0.00000000       0.00000000
Si       5.76045328       0.71317043      19.42000485  F       0.00000000       0.00000000       0.00000000
Si       3.84097200       0.09845411      18.19256124  F       0.00000000       0.00000000       0.00000000
Si       3.84010493       1.92181308      16.70688997  F       0.00000000       0.00000000       0.00000000
Si       5.76038828       1.92029924      15.38522099  F       0.00000000       0.00000000       0.00000000
Si       5.76044539       0.00000000      14.07325000  F       0.00000000       0.00000000       0.00000000
Si       3.84029693       0.00000000      12.71550000  F       0.00000000       0.00000000       0.00000000
Si       3.84029693       1.92014846      11.35775000  F       0.00000000       0.00000000       0.00000000
Si       5.76044539       1.92014846      10.00000000  F       0.00000000       0.00000000       0.00000000
Si       1.92014846       7.68059386      14.07325000  F       0.00000000       0.00000000       0.00000000
Si       1.92135958       9.60030326      15.38659819  F       0.00000000       0.00000000       0.00000000
Si       1.91616703      10.82394497      19.40699712  F       0.00000000       0.00000000       0.00000000
Si      15.35445562      11.42692217      18.18601649  F       0.00000000       0.00000000       0.00000000
Si      15.35853571      13.44404443      16.91681640  F       0.00000000       0.00000000       0.00000000
Si       1.92055724      13.44104411      15.50363833  F       0.00000000       0.00000000       0.00000000
Si       1.92014846      11.52089079      14.07325000  F       0.00000000       0.00000000       0.00000000
Si       0.00000000      11.52089079      12.71550000  F       0.00000000       0.00000000       0.00000000
Si       0.00000000      13.44103925      11.35775000  F       0.00000000       0.00000000       0.00000000
Si       1.92014846      13.44103925      10.00000000  F       0.00000000       0.00000000       0.00000000
Si      15.35842496       9.60346679      16.70280106  F       0.00000000       0.00000000       0.00000000
Si       1.92014846       9.60074232      10.00000000  F       0.00000000       0.00000000       0.00000000
Si       9.59993328       5.76015435      15.50240296  F       0.00000000       0.00000000       0.00000000
Si       5.76044539       9.60074232      10.00000000  F       0.00000000       0.00000000       0.00000000
Si       3.84029693       7.68059386      12.71550000  F       0.00000000       0.00000000       0.00000000
Si       7.68059386       3.84029693      12.71550000  F       0.00000000       0.00000000       0.00000000
Si       7.68059386       5.76044539      11.35775000  F       0.00000000       0.00000000       0.00000000
Si       9.60074232       5.76044539      10.00000000  F       0.00000000       0.00000000       0.00000000
Si       1.92014846       3.84029693      14.07325000  F       0.00000000       0.00000000       0.00000000
Si       1.92022842       5.76104685      15.50371429  F       0.00000000       0.00000000       0.00000000
Si       9.59986139       0.71234893      19.41919250  F       0.00000000       0.00000000       0.00000000
Si       7.67990636       0.09739515      18.19310967  F       0.00000000       0.00000000       0.00000000
Si       7.68021026       1.92052564      16.70729584  F       0.00000000       0.00000000       0.00000000
Si       9.60014742       1.92016576      15.38515760  F       0.00000000       0.00000000       0.00000000
Si       9.60074232       0.00000000      14.07325000  F       0.00000000       0.00000000       0.00000000
Si       7.68059386       0.00000000      12.71550000  F       0.00000000       0.00000000       0.00000000
Si       7.68059386       1.92014846      11.35775000  F       0.00000000       0.00000000       0.00000000
Si       9.60074232       1.92014846      10.00000000  F       0.00000000       0.00000000       0.00000000
Si       0.00007687       5.75898828      16.92024554  F       0.00000000       0.00000000       0.00000000
Si      15.36115376       3.74323591      18.19403759  F       0.00000000       0.00000000       0.00000000
Si       5.76129865      10.80530168      19.42905039  F       0.00000000       0.00000000       0.00000000
Si       3.84695664      11.42582798      18.19432330  F       0.00000000       0.00000000       0.00000000
Si       3.84227293      13.44232978      16.92038231  F       0.00000000       0.00000000       0.00000000
Si       5.76145519      13.44146914      15.50277322  F       0.00000000       0.00000000       0.00000000
Si       5.76044539      11.52089079      14.07325000  F       0.00000000       0.00000000       0.00000000
Si       3.84029693      11.52089079      12.71550000  F       0.00000000       0.00000000       0.00000000
Si       3.84029693      13.44103925      11.35775000  F       0.00000000       0.00000000       0.00000000
Si       5.76044539      13.44103925      10.00000000  F       0.00000000       0.00000000       0.00000000
Si       1.91974431       3.12614890      19.42005855  F       0.00000000       0.00000000       0.00000000
Si       5.76796234       8.38891544      19.42630038  F       0.00000000       0.00000000       0.00000000
Si       3.84663069       7.78131200      18.19633757  F       0.00000000       0.00000000       0.00000000
Si       3.84256064       9.60300318      16.70862190  F       0.00000000       0.00000000       0.00000000
Si       5.76103313       9.60093953      15.38439179  F       0.00000000       0.00000000       0.00000000
Si       5.76044539       7.68059386      14.07325000  F       0.00000000       0.00000000       0.00000000
Si       3.84029693       9.60074232      11.35775000  F       0.00000000       0.00000000       0.00000000
Si       1.92014846       1.92014846      10.00000000  F       0.00000000       0.00000000       0.00000000
Si       1.87169772       7.68630117      21.64087878  T       0.00000000       0.00000000       0.00000000
Cl       3.30820106       8.73412148      22.72332594  T       0.00000000       0.00000000       0.00000000
H        2.17681984       6.22915224      21.78640567  T       0.00000000       0.00000000       0.00000000
H        0.54726791       7.97174336      22.24448757  T       0.00000000       0.00000000       0.00000000
177
Lattice="15.361187714496559 0.0 0.0 0.0 15.361187714496559 0.0 0.0 0.0 29.50425" Properties=species:S:1:pos:R:3:move_mask:L:1:momenta:R:3 source_member=data/adsorbates/SiH2/CONTCAR source_doi=10.5281/zenodo.10211009 role=adsorbate_geometry pbc="T T T"
H       13.43946176       0.17227417      20.82423384  F       0.00000000       0.00000000       0.00000000
H       13.43966571       3.66955104      20.82307532  F       0.00000000       0.00000000       0.00000000
H        9.60049261       3.66816460      20.82249760  F       0.00000000       0.00000000       0.00000000
H        9.60049173       0.17181853      20.82238895  F       0.00000000       0.00000000       0.00000000
H        5.76246503       3.66810582      20.82427022  F       0.00000000       0.00000000       0.00000000
H        5.76238333       0.17091398      20.82340506  F       0.00000000       0.00000000       0.00000000
H        1.92068176       0.17242994      20.82458639  F       0.00000000       0.00000000       0.00000000
H        1.91875477       3.66777301      20.82445430  F       0.00000000       0.00000000       0.00000000
H       13.41717803      11.34799431      20.84042811  F       0.00000000       0.00000000       0.00000000
H       13.41832001       7.84360896      20.83653087  F       0.00000000       0.00000000       0.00000000
H        9.60178996      11.35060650      20.81863832  F       0.00000000       0.00000000       0.00000000
H        9.59943699       7.85059050      20.81857027  F       0.00000000       0.00000000       0.00000000
H        5.78321685      11.35763166      20.83668655  F       0.00000000       0.00000000       0.00000000
H        5.78460882       7.85313051      20.84021465  F       0.00000000       0.00000000       0.00000000
H        5.76044539      14.63312426       9.15706861  F       0.00000000       0.00000000       0.00000000
H        1.92014846      12.24895424       9.15706861  F       0.00000000       0.00000000       0.00000000
H        1.92014846      14.63312426       9.15706861  F       0.00000000       0.00000000       0.00000000
H        5.76044539       0.72806346       9.15706861  F       0.00000000       0.00000000       0.00000000
H        5.76044539       3.11223347       9.15706861  F       0.00000000       0.00000000       0.00000000
H        5.76044539       4.56836038       9.15706861  F       0.00000000       0.00000000       0.00000000
H        5.76044539       6.95253040       9.15706861  F       0.00000000       0.00000000       0.00000000
H        5.76044539       8.40865731       9.15706861  F       0.00000000       0.00000000       0.00000000
H        5.76044539      10.79282733       9.15706861  F       0.00000000       0.00000000       0.00000000
H        5.76044539      12.24895424       9.15706861  F       0.00000000       0.00000000       0.00000000
H       13.44103925      12.24895424       9.15706861  F       0.00000000       0.00000000       0.00000000
H        9.60074232       0.72806346       9.15706861  F       0.00000000       0.00000000       0.00000000
H        1.92014846      10.79282733       9.15706861  F       0.00000000       0.00000000       0.00000000
H        9.60074232       3.11223347       9.15706861  F       0.00000000       0.00000000       0.00000000
H        9.60074232       6.95253040       9.15706861  F       0.00000000       0.00000000       0.00000000
H        9.60074232       8.40865731       9.15706861  F       0.00000000       0.00000000       0.00000000
H        9.60074232      10.79282733       9.15706861  F       0.00000000       0.00000000       0.00000000
H        9.60074232      12.24895424       9.15706861  F       0.00000000       0.00000000       0.00000000
H        9.60074232      14.63312426       9.15706861  F       0.00000000       0.00000000       0.00000000
H       13.44103925       0.72806346       9.15706861  F       0.00000000       0.00000000       0.00000000
H       13.44103925       3.11223347       9.15706861  F       0.00000000       0.00000000       0.00000000
H       13.44103925       4.56836038       9.15706861  F       0.00000000       0.00000000       0.00000000
H       13.44103925       6.95253040       9.15706861  F       0.00000000       0.00000000       0.00000000
H       13.44103925       8.40865731       9.15706861  F       0.00000000       0.00000000       0.00000000
H       13.44103925      10.79282733       9.15706861  F       0.00000000       0.00000000       0.00000000
H        9.60074232       4.56836038       9.15706861  F       0.00000000       0.00000000       0.00000000
H        1.92014846       8.40865731       9.15706861  F       0.00000000       0.00000000       0.00000000
H       13.44103925      14.63312426       9.15706861  F       0.00000000       0.00000000       0.00000000
H        1.92014846       6.95253040       9.15706861  F       0.00000000       0.00000000       0.00000000
H        1.92014846       3.11223347       9.15706861  F       0.00000000       0.00000000       0.00000000
H        1.92014846       0.72806346       9.15706861  F       0.00000000       0.00000000       0.00000000
H        1.92014846       4.56836038       9.15706861  F       0.00000000       0.00000000       0.00000000
Si       9.60149730      13.44106813      15.50299087  F       0.00000000       0.00000000       0.00000000
Si       7.68160000      13.44222369      16.91977109  F       0.00000000       0.00000000       0.00000000
Si       7.68612431      11.42379494      18.18910117  F       0.00000000       0.00000000       0.00000000
Si       9.60198545      10.80824760      19.41593169  F       0.00000000       0.00000000       0.00000000
Si      15.32253394       7.77474744      18.19114737  F       0.00000000       0.00000000       0.00000000
Si      13.44103925       1.92014846      10.00000000  F       0.00000000       0.00000000       0.00000000
Si      11.52089079       1.92014846      11.35775000  F       0.00000000       0.00000000       0.00000000
Si      11.52089079       0.00000000      12.71550000  F       0.00000000       0.00000000       0.00000000
Si      13.44103925       0.00000000      14.07325000  F       0.00000000       0.00000000       0.00000000
Si      13.44149788       1.92004359      15.38538878  F       0.00000000       0.00000000       0.00000000
Si      11.52091545       1.92009725      16.70640685  F       0.00000000       0.00000000       0.00000000
Si       9.60074232      11.52089079      14.07325000  F       0.00000000       0.00000000       0.00000000
Si       1.92015800       0.71180621      19.42087562  F       0.00000000       0.00000000       0.00000000
Si       7.68059386      11.52089079      12.71550000  F       0.00000000       0.00000000       0.00000000
Si       9.60074232      13.44103925      10.00000000  F       0.00000000       0.00000000       0.00000000
Si       1.92014846       5.76044539      10.00000000  F       0.00000000       0.00000000       0.00000000
Si       9.59963518       8.39292337      19.41587062  F       0.00000000       0.00000000       0.00000000
Si       7.68301797       7.77923807      18.18977307  F       0.00000000       0.00000000       0.00000000
Si       7.67940480       9.60119914      16.70279147  F       0.00000000       0.00000000       0.00000000
Si       9.60059384       9.60072549      15.38541291  F       0.00000000       0.00000000       0.00000000
Si       9.60074232       7.68059386      14.07325000  F       0.00000000       0.00000000       0.00000000
Si       7.68059386       7.68059386      12.71550000  F       0.00000000       0.00000000       0.00000000
Si       7.68059386       9.60074232      11.35775000  F       0.00000000       0.00000000       0.00000000
Si       9.60074232       9.60074232      10.00000000  F       0.00000000       0.00000000       0.00000000
Si       0.00000000       5.76044539      11.35775000  F       0.00000000       0.00000000       0.00000000
Si       0.00000000       3.84029693      12.71550000  F       0.00000000       0.00000000       0.00000000
Si       9.60047615       3.12823738      19.41882275  F       0.00000000       0.00000000       0.00000000
Si       7.68059386      13.44103925      11.35775000  F       0.00000000       0.00000000       0.00000000
Si      11.52119018       0.09750447      18.19305969  F       0.00000000       0.00000000       0.00000000
Si      13.44030264       0.71243330      19.42070025  F       0.00000000       0.00000000       0.00000000
Si      15.36073940       0.09813313      18.19541923  F       0.00000000       0.00000000       0.00000000
Si      13.42130676      10.80582457      19.43774984  F       0.00000000       0.00000000       0.00000000
Si      11.51868830      11.42259264      18.18996118  F       0.00000000       0.00000000       0.00000000
Si      11.52150831      13.44176351      16.92065601  F       0.00000000       0.00000000       0.00000000
Si      13.43990907      13.44156369      15.50139073  F       0.00000000       0.00000000       0.00000000
Si      13.44103925      11.52089079      14.07325000  F       0.00000000       0.00000000       0.00000000
Si      11.52089079      11.52089079      12.71550000  F       0.00000000       0.00000000       0.00000000
Si      11.52089079      13.44103925      11.35775000  F       0.00000000       0.00000000       0.00000000
Si      13.44103925      13.44103925      10.00000000  F       0.00000000       0.00000000       0.00000000
Si       0.00000000       1.92014846      11.35775000  F       0.00000000       0.00000000       0.00000000
Si       0.00000000       0.00000000      12.71550000  F       0.00000000       0.00000000       0.00000000
Si      13.41969597       8.39070561      19.43574056  F       0.00000000       0.00000000       0.00000000
Si      11.51574078       7.77822411      18.18881026  F       0.00000000       0.00000000       0.00000000
Si      11.52201133       9.60085328      16.70249336  F       0.00000000       0.00000000       0.00000000
Si      13.43754085       9.60076540      15.37762256  F       0.00000000       0.00000000       0.00000000
Si      13.44103925       7.68059386      14.07325000  F       0.00000000       0.00000000       0.00000000
Si      11.52089079       7.68059386      12.71550000  F       0.00000000       0.00000000       0.00000000
Si      11.52089079       9.60074232      11.35775000  F       0.00000000       0.00000000       0.00000000
Si      13.44103925       9.60074232      10.00000000  F       0.00000000       0.00000000       0.00000000
Si       1.92014846       0.00000000      14.07325000  F       0.00000000       0.00000000       0.00000000
Si       1.91999519       1.92010462      15.38530245  F       0.00000000       0.00000000       0.00000000
Si      13.44020694       3.12846045      19.41987593  F       0.00000000       0.00000000       0.00000000
Si      11.52063233       3.74304154      18.19266842  F       0.00000000       0.00000000       0.00000000
Si      11.52003088       5.75945642      16.91967033  F       0.00000000       0.00000000       0.00000000
Si      13.43892854       5.75993998      15.50081288  F       0.00000000       0.00000000       0.00000000
Si      13.44103925       3.84029693      14.07325000  F       0.00000000       0.00000000       0.00000000
Si      11.52089079       3.84029693      12.71550000  F       0.00000000       0.00000000       0.00000000
Si      11.52089079       5.76044539      11.35775000  F       0.00000000       0.00000000       0.00000000
Si      13.44103925       5.76044539      10.00000000  F       0.00000000       0.00000000       0.00000000
Si       0.00010395       1.91973162      16.70761390  F       0.00000000       0.00000000       0.00000000
Si       7.68037591       3.74349786      18.19299168  F       0.00000000       0.00000000       0.00000000
Si       7.68026750       5.76014617      16.92057673  F       0.00000000       0.00000000       0.00000000
Si       9.60074232       3.84029693      14.07325000  F       0.00000000       0.00000000       0.00000000
Si       1.91771147       8.37511657      19.33268980  F       0.00000000       0.00000000       0.00000000
Si       5.76156991       3.12793889      19.42071424  F       0.00000000       0.00000000       0.00000000
Si       3.84078451       3.74254024      18.19560259  F       0.00000000       0.00000000       0.00000000
Si       3.84664904       5.75777319      16.92244653  F       0.00000000       0.00000000       0.00000000
Si       5.76225926       5.76013429      15.50116099  F       0.00000000       0.00000000       0.00000000
Si       5.76044539       3.84029693      14.07325000  F       0.00000000       0.00000000       0.00000000
Si       3.84029693       3.84029693      12.71550000  F       0.00000000       0.00000000       0.00000000
Si       3.84029693       5.76044539      11.35775000  F       0.00000000       0.00000000       0.00000000
Si       5.76044539       5.76044539      10.00000000  F       0.00000000       0.00000000       0.00000000
Si       0.00000000       9.60074232      11.35775000  F       0.00000000       0.00000000       0.00000000
Si       0.00000000       7.68059386      12.71550000  F       0.00000000       0.00000000       0.00000000
Si       5.76186785       0.71197721      19.42020958  F       0.00000000       0.00000000       0.00000000
Si       3.84094263       0.09923537      18.19489262  F       0.00000000       0.00000000       0.00000000
Si       3.83999331       1.92106529      16.70753152  F       0.00000000       0.00000000       0.00000000
Si       5.75998058       1.92017157      15.38547569  F       0.00000000       0.00000000       0.00000000
Si       5.76044539       0.00000000      14.07325000  F       0.00000000       0.00000000       0.00000000
Si       3.84029693       0.00000000      12.71550000  F       0.00000000       0.00000000       0.00000000
Si       3.84029693       1.92014846      11.35775000  F       0.00000000       0.00000000       0.00000000
Si       5.76044539       1.92014846      10.00000000  F       0.00000000       0.00000000       0.00000000
Si       1.92014846       7.68059386      14.07325000  F       0.00000000       0.00000000       0.00000000
Si       1.92004865       9.60067389      15.40004900  F       0.00000000       0.00000000       0.00000000
Si       1.92363949      10.82631164      19.33184591  F       0.00000000       0.00000000       0.00000000
Si      15.32496263      11.42552263      18.19448325  F       0.00000000       0.00000000       0.00000000
Si      15.35536458      13.44402090      16.92284507  F       0.00000000       0.00000000       0.00000000
Si       1.91994491      13.43917904      15.50736504  F       0.00000000       0.00000000       0.00000000
Si       1.92014846      11.52089079      14.07325000  F       0.00000000       0.00000000       0.00000000
Si       0.00000000      11.52089079      12.71550000  F       0.00000000       0.00000000       0.00000000
Si       0.00000000      13.44103925      11.35775000  F       0.00000000       0.00000000       0.00000000
Si       1.92014846      13.44103925      10.00000000  F       0.00000000       0.00000000       0.00000000
Si      15.34766761       9.60113909      16.71218651  F       0.00000000       0.00000000       0.00000000
Si       1.92014846       9.60074232      10.00000000  F       0.00000000       0.00000000       0.00000000
Si       9.59994260       5.76061803      15.50290734  F       0.00000000       0.00000000       0.00000000
Si       5.76044539       9.60074232      10.00000000  F       0.00000000       0.00000000       0.00000000
Si       3.84029693       7.68059386      12.71550000  F       0.00000000       0.00000000       0.00000000
Si       7.68059386       3.84029693      12.71550000  F       0.00000000       0.00000000       0.00000000
Si       7.68059386       5.76044539      11.35775000  F       0.00000000       0.00000000       0.00000000
Si       9.60074232       5.76044539      10.00000000  F       0.00000000       0.00000000       0.00000000
Si       1.92014846       3.84029693      14.07325000  F       0.00000000       0.00000000       0.00000000
Si       1.92058758       5.76256855      15.50718035  F       0.00000000       0.00000000       0.00000000
Si       9.60071423       0.71186365      19.41877814  F       0.00000000       0.00000000       0.00000000
Si       7.68085065       0.09730514      18.19268780  F       0.00000000       0.00000000       0.00000000
Si       7.68032833       1.92048611      16.70685476  F       0.00000000       0.00000000       0.00000000
Si       9.60047055       1.92009898      15.38510617  F       0.00000000       0.00000000       0.00000000
Si       9.60074232       0.00000000      14.07325000  F       0.00000000       0.00000000       0.00000000
Si       7.68059386       0.00000000      12.71550000  F       0.00000000       0.00000000       0.00000000
Si       7.68059386       1.92014846      11.35775000  F       0.00000000       0.00000000       0.00000000
Si       9.60074232       1.92014846      10.00000000  F       0.00000000       0.00000000       0.00000000
Si      15.35524534       5.75654917      16.92066651  F       0.00000000       0.00000000       0.00000000
Si      15.36070749       3.74206792      18.19428409  F       0.00000000       0.00000000       0.00000000
Si       5.78255437      10.81066489      19.43591425  F       0.00000000       0.00000000       0.00000000
Si       3.88015897      11.42748497      18.19058110  F       0.00000000       0.00000000       0.00000000
Si       3.84698332      13.44606869      16.92062347  F       0.00000000       0.00000000       0.00000000
Si       5.76306622      13.44185626      15.50067576  F       0.00000000       0.00000000       0.00000000
Si       5.76044539      11.52089079      14.07325000  F       0.00000000       0.00000000       0.00000000
Si       3.84029693      11.52089079      12.71550000  F       0.00000000       0.00000000       0.00000000
Si       3.84029693      13.44103925      11.35775000  F       0.00000000       0.00000000       0.00000000
Si       5.76044539      13.44103925      10.00000000  F       0.00000000       0.00000000       0.00000000
Si       1.91973236       3.12846720      19.42071641  F       0.00000000       0.00000000       0.00000000
Si       5.78044064       8.39545531      19.43760926  F       0.00000000       0.00000000       0.00000000
Si       3.87696877       7.77624726      18.19425923  F       0.00000000       0.00000000       0.00000000
Si       3.85388786       9.60060432      16.71193212  F       0.00000000       0.00000000       0.00000000
Si       5.76409554       9.60061317      15.37764794  F       0.00000000       0.00000000       0.00000000
Si       5.76044539       7.68059386      14.07325000  F       0.00000000       0.00000000       0.00000000
Si       3.84029693       9.60074232      11.35775000  F       0.00000000       0.00000000       0.00000000
Si       1.92014846       1.92014846      10.00000000  F       0.00000000       0.00000000       0.00000000
Si       1.92028301       9.60135228      21.31754198  T       0.00000000       0.00000000       0.00000000
H        0.67952456       9.61141313      22.15514002  T       0.00000000       0.00000000       0.00000000
H        3.16105462       9.59099356      22.12542821  T       0.00000000       0.00000000       0.00000000
179
Lattice="15.361187714496559 0.0 0.0 0.0 15.361187714496559 0.0 0.0 0.0 29.50425" Properties=species:S:1:pos:R:3:move_mask:L:1:momenta:R:3 source_member=data/adsorbates/SiH3/CONTCAR source_doi=10.5281/zenodo.10211009 role=adsorbate_geometry pbc="T T T"
H        1.91974040      11.34974725      20.81264162  F       0.00000000       0.00000000       0.00000000
H       13.44137339       0.17175543      20.82223871  F       0.00000000       0.00000000       0.00000000
H       13.44130950       3.66872197      20.82289492  F       0.00000000       0.00000000       0.00000000
H        9.60035024       3.66837200      20.82229350  F       0.00000000       0.00000000       0.00000000
H        9.60065209       0.17200181      20.82220051  F       0.00000000       0.00000000       0.00000000
H        5.76053068       3.66922416      20.82303510  F       0.00000000       0.00000000       0.00000000
H        5.75971248       0.17213673      20.82219741  F       0.00000000       0.00000000       0.00000000
H        1.92023142       0.16836812      20.82072297  F       0.00000000       0.00000000       0.00000000
H        1.91934001       3.66066401      20.82490039  F       0.00000000       0.00000000       0.00000000
H       13.44316803      11.34806325      20.82298485  F       0.00000000       0.00000000       0.00000000
H       13.43611957       7.85200388      20.82240707  F       0.00000000       0.00000000       0.00000000
H        9.60082952      11.34799347      20.82272024  F       0.00000000       0.00000000       0.00000000
H        9.60153885       7.85133902      20.82168931  F       0.00000000       0.00000000       0.00000000
H        5.75872761      11.34788042      20.82342425  F       0.00000000       0.00000000       0.00000000
H        5.76024718       7.85141521      20.82126033  F       0.00000000       0.00000000       0.00000000
H        5.76044539      14.63312426       9.15706861  F       0.00000000       0.00000000       0.00000000
H        1.92014846      12.24895424       9.15706861  F       0.00000000       0.00000000       0.00000000
H        1.92014846      14.63312426       9.15706861  F       0.00000000       0.00000000       0.00000000
H        5.76044539       0.72806346       9.15706861  F       0.00000000       0.00000000       0.00000000
H        5.76044539       3.11223347       9.15706861  F       0.00000000       0.00000000       0.00000000
H        5.76044539       4.56836038       9.15706861  F       0.00000000       0.00000000       0.00000000
H        5.76044539       6.95253040       9.15706861  F       0.00000000       0.00000000       0.00000000
H        5.76044539       8.40865731       9.15706861  F       0.00000000       0.00000000       0.00000000
H        5.76044539      10.79282733       9.15706861  F       0.00000000       0.00000000       0.00000000
H        5.76044539      12.24895424       9.15706861  F       0.00000000       0.00000000       0.00000000
H       13.44103925      12.24895424       9.15706861  F       0.00000000       0.00000000       0.00000000
H        9.60074232       0.72806346       9.15706861  F       0.00000000       0.00000000       0.00000000
H        1.92014846      10.79282733       9.15706861  F       0.00000000       0.00000000       0.00000000
H        9.60074232       3.11223347       9.15706861  F       0.00000000       0.00000000       0.00000000
H        9.60074232       6.95253040       9.15706861  F       0.00000000       0.00000000       0.00000000
H        9.60074232       8.40865731       9.15706861  F       0.00000000       0.00000000       0.00000000
H        9.60074232      10.79282733       9.15706861  F       0.00000000       0.00000000       0.00000000
H        9.60074232      12.24895424       9.15706861  F       0.00000000       0.00000000       0.00000000
H        9.60074232      14.63312426       9.15706861  F       0.00000000       0.00000000       0.00000000
H       13.44103925       0.72806346       9.15706861  F       0.00000000       0.00000000       0.00000000
H       13.44103925       3.11223347       9.15706861  F       0.00000000       0.00000000       0.00000000
H       13.44103925       4.56836038       9.15706861  F       0.00000000       0.00000000       0.00000000
H       13.44103925       6.95253040       9.15706861  F       0.00000000       0.00000000       0.00000000
H       13.44103925       8.40865731       9.15706861  F       0.00000000       0.00000000       0.00000000
H       13.44103925      10.79282733       9.15706861  F       0.00000000       0.00000000       0.00000000
H        9.60074232       4.56836038       9.15706861  F       0.00000000       0.00000000       0.00000000
H        1.92014846       8.40865731       9.15706861  F       0.00000000       0.00000000       0.00000000
H       13.44103925      14.63312426       9.15706861  F       0.00000000       0.00000000       0.00000000
H        1.92014846       6.95253040       9.15706861  F       0.00000000       0.00000000       0.00000000
H        1.92014846       3.11223347       9.15706861  F       0.00000000       0.00000000       0.00000000
H        1.92014846       0.72806346       9.15706861  F       0.00000000       0.00000000       0.00000000
H        1.92014846       4.56836038       9.15706861  F       0.00000000       0.00000000       0.00000000
Si       9.60060698      13.44107733      15.50350274  F       0.00000000       0.00000000       0.00000000
Si       7.68056183      13.44096507      16.92097326  F       0.00000000       0.00000000       0.00000000
Si       7.68053280      11.42385849      18.19336452  F       0.00000000       0.00000000       0.00000000
Si       9.60069813      10.80834691      19.41900845  F       0.00000000       0.00000000       0.00000000
Si       0.00224941       7.78020992      18.19346027  F       0.00000000       0.00000000       0.00000000
Si      13.44103925       1.92014846      10.00000000  F       0.00000000       0.00000000       0.00000000
Si      11.52089079       1.92014846      11.35775000  F       0.00000000       0.00000000       0.00000000
Si      11.52089079       0.00000000      12.71550000  F       0.00000000       0.00000000       0.00000000
Si      13.44103925       0.00000000      14.07325000  F       0.00000000       0.00000000       0.00000000
Si      13.44125844       1.92022311      15.38512251  F       0.00000000       0.00000000       0.00000000
Si      11.52090097       1.92076689      16.70641759  F       0.00000000       0.00000000       0.00000000
Si       9.60074232      11.52089079      14.07325000  F       0.00000000       0.00000000       0.00000000
Si       1.91992690       0.70903607      19.41740107  F       0.00000000       0.00000000       0.00000000
Si       7.68059386      11.52089079      12.71550000  F       0.00000000       0.00000000       0.00000000
Si       9.60074232      13.44103925      10.00000000  F       0.00000000       0.00000000       0.00000000
Si       1.92014846       5.76044539      10.00000000  F       0.00000000       0.00000000       0.00000000
Si       9.60109142       8.39193548      19.41836618  F       0.00000000       0.00000000       0.00000000
Si       7.68091939       7.77729945      18.19221291  F       0.00000000       0.00000000       0.00000000
Si       7.68089003       9.60099583      16.70707159  F       0.00000000       0.00000000       0.00000000
Si       9.60059988       9.60084440      15.38502716  F       0.00000000       0.00000000       0.00000000
Si       9.60074232       7.68059386      14.07325000  F       0.00000000       0.00000000       0.00000000
Si       7.68059386       7.68059386      12.71550000  F       0.00000000       0.00000000       0.00000000
Si       7.68059386       9.60074232      11.35775000  F       0.00000000       0.00000000       0.00000000
Si       9.60074232       9.60074232      10.00000000  F       0.00000000       0.00000000       0.00000000
Si       0.00000000       5.76044539      11.35775000  F       0.00000000       0.00000000       0.00000000
Si       0.00000000       3.84029693      12.71550000  F       0.00000000       0.00000000       0.00000000
Si       9.60040501       3.12844931      19.41866982  F       0.00000000       0.00000000       0.00000000
Si       7.68059386      13.44103925      11.35775000  F       0.00000000       0.00000000       0.00000000
Si      11.52086445       0.09780507      18.19247557  F       0.00000000       0.00000000       0.00000000
Si      13.44118473       0.71210630      19.41880165  F       0.00000000       0.00000000       0.00000000
Si      15.36049877       0.09663099      18.19186222  F       0.00000000       0.00000000       0.00000000
Si      13.44103595      10.80772312      19.41956052  F       0.00000000       0.00000000       0.00000000
Si      11.52100905      11.42374157      18.19329676  F       0.00000000       0.00000000       0.00000000
Si      11.52083419      13.44122912      16.92101092  F       0.00000000       0.00000000       0.00000000
Si      13.44012117      13.44133986      15.50233509  F       0.00000000       0.00000000       0.00000000
Si      13.44103925      11.52089079      14.07325000  F       0.00000000       0.00000000       0.00000000
Si      11.52089079      11.52089079      12.71550000  F       0.00000000       0.00000000       0.00000000
Si      11.52089079      13.44103925      11.35775000  F       0.00000000       0.00000000       0.00000000
Si      13.44103925      13.44103925      10.00000000  F       0.00000000       0.00000000       0.00000000
Si       0.00000000       1.92014846      11.35775000  F       0.00000000       0.00000000       0.00000000
Si       0.00000000       0.00000000      12.71550000  F       0.00000000       0.00000000       0.00000000
Si      13.44066972       8.39132953      19.41872067  F       0.00000000       0.00000000       0.00000000
Si      11.52119540       7.77820823      18.19107124  F       0.00000000       0.00000000       0.00000000
Si      11.52092395       9.60159675      16.70597765  F       0.00000000       0.00000000       0.00000000
Si      13.44057556       9.60068979      15.38424575  F       0.00000000       0.00000000       0.00000000
Si      13.44103925       7.68059386      14.07325000  F       0.00000000       0.00000000       0.00000000
Si      11.52089079       7.68059386      12.71550000  F       0.00000000       0.00000000       0.00000000
Si      11.52089079       9.60074232      11.35775000  F       0.00000000       0.00000000       0.00000000
Si      13.44103925       9.60074232      10.00000000  F       0.00000000       0.00000000       0.00000000
Si       1.92014846       0.00000000      14.07325000  F       0.00000000       0.00000000       0.00000000
Si       1.91993685       1.92028066      15.38516084  F       0.00000000       0.00000000       0.00000000
Si      13.44117231       3.12862075      19.41929717  F       0.00000000       0.00000000       0.00000000
Si      11.52092347       3.74364239      18.19285130  F       0.00000000       0.00000000       0.00000000
Si      11.52098103       5.76059292      16.92024736  F       0.00000000       0.00000000       0.00000000
Si      13.44205223       5.76097751      15.50425631  F       0.00000000       0.00000000       0.00000000
Si      13.44103925       3.84029693      14.07325000  F       0.00000000       0.00000000       0.00000000
Si      11.52089079       3.84029693      12.71550000  F       0.00000000       0.00000000       0.00000000
Si      11.52089079       5.76044539      11.35775000  F       0.00000000       0.00000000       0.00000000
Si      13.44103925       5.76044539      10.00000000  F       0.00000000       0.00000000       0.00000000
Si       0.00002039       1.92077251      16.70716827  F       0.00000000       0.00000000       0.00000000
Si       7.68021537       3.74362636      18.19259301  F       0.00000000       0.00000000       0.00000000
Si       7.68042787       5.76038738      16.92028317  F       0.00000000       0.00000000       0.00000000
Si       9.60074232       3.84029693      14.07325000  F       0.00000000       0.00000000       0.00000000
Si       1.92188528       8.39317071      19.43172786  F       0.00000000       0.00000000       0.00000000
Si       5.76016728       3.12918869      19.41943098  F       0.00000000       0.00000000       0.00000000
Si       3.83906499       3.74439464      18.19475958  F       0.00000000       0.00000000       0.00000000
Si       3.83869223       5.76209463      16.92259647  F       0.00000000       0.00000000       0.00000000
Si       5.75954245       5.76096951      15.50422026  F       0.00000000       0.00000000       0.00000000
Si       5.76044539       3.84029693      14.07325000  F       0.00000000       0.00000000       0.00000000
Si       3.84029693       3.84029693      12.71550000  F       0.00000000       0.00000000       0.00000000
Si       3.84029693       5.76044539      11.35775000  F       0.00000000       0.00000000       0.00000000
Si       5.76044539       5.76044539      10.00000000  F       0.00000000       0.00000000       0.00000000
Si       0.00000000       9.60074232      11.35775000  F       0.00000000       0.00000000       0.00000000
Si       0.00000000       7.68059386      12.71550000  F       0.00000000       0.00000000       0.00000000
Si       5.76034141       0.71262022      19.41880661  F       0.00000000       0.00000000       0.00000000
Si       3.84089041       0.09801836      18.19135039  F       0.00000000       0.00000000       0.00000000
Si       3.84004955       1.92218287      16.70679006  F       0.00000000       0.00000000       0.00000000
Si       5.76030063       1.92029919      15.38514703  F       0.00000000       0.00000000       0.00000000
Si       5.76044539       0.00000000      14.07325000  F       0.00000000       0.00000000       0.00000000
Si       3.84029693       0.00000000      12.71550000  F       0.00000000       0.00000000       0.00000000
Si       3.84029693       1.92014846      11.35775000  F       0.00000000       0.00000000       0.00000000
Si       5.76044539       1.92014846      10.00000000  F       0.00000000       0.00000000       0.00000000
Si       1.92014846       7.68059386      14.07325000  F       0.00000000       0.00000000       0.00000000
Si       1.91983371       9.60067575      15.38520272  F       0.00000000       0.00000000       0.00000000
Si       1.91948270      10.81108710      19.40769716  F       0.00000000       0.00000000       0.00000000
Si      15.35763029      11.42481651      18.18937163  F       0.00000000       0.00000000       0.00000000
Si      15.35980094      13.44185819      16.91858786  F       0.00000000       0.00000000       0.00000000
Si       1.92005426      13.44111064      15.50304961  F       0.00000000       0.00000000       0.00000000
Si       1.92014846      11.52089079      14.07325000  F       0.00000000       0.00000000       0.00000000
Si       0.00000000      11.52089079      12.71550000  F       0.00000000       0.00000000       0.00000000
Si       0.00000000      13.44103925      11.35775000  F       0.00000000       0.00000000       0.00000000
Si       1.92014846      13.44103925      10.00000000  F       0.00000000       0.00000000       0.00000000
Si      15.36023960       9.60078881      16.70602429  F       0.00000000       0.00000000       0.00000000
Si       1.92014846       9.60074232      10.00000000  F       0.00000000       0.00000000       0.00000000
Si       9.60060037       5.76045559      15.50304268  F       0.00000000       0.00000000       0.00000000
Si       5.76044539       9.60074232      10.00000000  F       0.00000000       0.00000000       0.00000000
Si       3.84029693       7.68059386      12.71550000  F       0.00000000       0.00000000       0.00000000
Si       7.68059386       3.84029693      12.71550000  F       0.00000000       0.00000000       0.00000000
Si       7.68059386       5.76044539      11.35775000  F       0.00000000       0.00000000       0.00000000
Si       9.60074232       5.76044539      10.00000000  F       0.00000000       0.00000000       0.00000000
Si       1.92014846       3.84029693      14.07325000  F       0.00000000       0.00000000       0.00000000
Si       1.91989365       5.76070108      15.50363654  F       0.00000000       0.00000000       0.00000000
Si       9.60047290       0.71206432      19.41864020  F       0.00000000       0.00000000       0.00000000
Si       7.68033585       0.09719035      18.19279080  F       0.00000000       0.00000000       0.00000000
Si       7.68034790       1.92029822      16.70690147  F       0.00000000       0.00000000       0.00000000
Si       9.60048963       1.92015274      15.38511152  F       0.00000000       0.00000000       0.00000000
Si       9.60074232       0.00000000      14.07325000  F       0.00000000       0.00000000       0.00000000
Si       7.68059386       0.00000000      12.71550000  F       0.00000000       0.00000000       0.00000000
Si       7.68059386       1.92014846      11.35775000  F       0.00000000       0.00000000       0.00000000
Si       9.60074232       1.92014846      10.00000000  F       0.00000000       0.00000000       0.00000000
Si       0.00135585       5.76125010      16.92292415  F       0.00000000       0.00000000       0.00000000
Si       0.00062432       3.74343015      18.19404573  F       0.00000000       0.00000000       0.00000000
Si       5.76078372      10.80803386      19.41985311  F       0.00000000       0.00000000       0.00000000
Si       3.84375337      11.42535705      18.18987246  F       0.00000000       0.00000000       0.00000000
Si       3.84154864      13.44272429      16.91885143  F       0.00000000       0.00000000       0.00000000
Si       5.76141722      13.44130069      15.50243910  F       0.00000000       0.00000000       0.00000000
Si       5.76044539      11.52089079      14.07325000  F       0.00000000       0.00000000       0.00000000
Si       3.84029693      11.52089079      12.71550000  F       0.00000000       0.00000000       0.00000000
Si       3.84029693      13.44103925      11.35775000  F       0.00000000       0.00000000       0.00000000
Si       5.76044539      13.44103925      10.00000000  F       0.00000000       0.00000000       0.00000000
Si       1.91964184       3.12455245      19.42016079  F       0.00000000       0.00000000       0.00000000
Si       5.76082521       8.39178618      19.41769741  F       0.00000000       0.00000000       0.00000000
Si       3.83922886       7.78360571      18.18916335  F       0.00000000       0.00000000       0.00000000
Si       3.84203511       9.60372682      16.70346786  F       0.00000000       0.00000000       0.00000000
Si       5.76224614       9.60103277      15.38374317  F       0.00000000       0.00000000       0.00000000
Si       5.76044539       7.68059386      14.07325000  F       0.00000000       0.00000000       0.00000000
Si       3.84029693       9.60074232      11.35775000  F       0.00000000       0.00000000       0.00000000
Si       1.92014846       1.92014846      10.00000000  F       0.00000000       0.00000000       0.00000000
Si       1.95041861       7.63400361      21.65266807  T       0.00000000       0.00000000       0.00000000
H        3.07434158       8.29085574      22.39282503  T       0.00000000       0.00000000       0.00000000
H        2.13908171       6.14930655      21.70801175  T       0.00000000       0.00000000       0.00000000
H        0.66173706       7.98262296      22.30103197  T       0.00000000       0.00000000       0.00000000
