41
Lattice="11.518769465528859 0.0 0.0 3.839589821842953 6.650364651656328 0.0 0.0 0.0 32.62128289467409" Properties=species:S:1:pos:R:3:move_mask:L:1:tags:I:1:forces:R:3 surface=Si111 species=CH3F height_A=6.5 substrate_atoms=36 calculation_kind="Rigid approach energy evaluation; not NEB or TS" energy=-191.1666435316117 pbc="T T F"
Si       1.91979491       1.10839411      12.00000000  F        6      -0.00000000       0.00000000       0.17150952
Si       5.75938473       1.10839411      12.00000000  F        6      -0.00000000       0.00000000       0.17150952
Si       9.59897455       1.10839411      12.00000000  F        6       0.00000000       0.00000000       0.17150952
Si       3.83958982       4.43357643      12.00000000  F        6      -0.00000000      -0.00000000       0.17150952
Si       7.67917964       4.43357643      12.00000000  F        6       0.00000000      -0.00000000       0.17150952
Si      11.51876947       4.43357643      12.00000000  F        6       0.00000000      -0.00000000       0.17150952
Si       1.91979491       1.10839411      14.35125897  F        5       0.00000000       0.00000000      -0.37518449
Si       5.75938473       1.10839411      14.35125897  F        5      -0.00000000       0.00000000      -0.37518449
Si       9.59897455       1.10839411      14.35125897  F        5      -0.00000000       0.00000000      -0.37518449
Si       3.83958982       4.43357643      14.35125897  F        5       0.00000000      -0.00000000      -0.37518449
Si       7.67917964       4.43357643      14.35125897  F        5      -0.00000000      -0.00000000      -0.37518449
Si      11.51876947       4.43357643      14.35125897  F        5      -0.00000000      -0.00000000      -0.37518449
Si      -0.00000000       2.21678822      15.13501196  F        4       0.00000000      -0.00000000      -0.14263620
Si       3.83958982       2.21678822      15.13501196  F        4      -0.00000000      -0.00000000      -0.14263620
Si       7.67917964       2.21678822      15.13501196  F        4      -0.00000000       0.00000000      -0.14263620
Si       1.91979491       5.54197054      15.13501196  F        4       0.00000000       0.00000000      -0.14263620
Si       5.75938473       5.54197054      15.13501196  F        4       0.00000000       0.00000000      -0.14263620
Si       9.59897455       5.54197054      15.13501196  F        4       0.00000000       0.00000000      -0.14263620
Si      -0.00000000       2.21678822      17.48627093  F        3       0.00000000       0.00000000       0.14263620
Si       3.83958982       2.21678822      17.48627093  F        3      -0.00000000       0.00000000       0.14263620
Si       7.67917964       2.21678822      17.48627093  F        3      -0.00000000       0.00000000       0.14263620
Si       1.91979491       5.54197054      17.48627093  F        3       0.00000000       0.00000000       0.14263620
Si       5.75938473       5.54197054      17.48627093  F        3       0.00000000       0.00000000       0.14263620
Si       9.59897455       5.54197054      17.48627093  F        3      -0.00000000       0.00000000       0.14263620
Si       0.00000000       0.00000000      18.27002392  F        2      -0.00000000      -0.00000000       0.37518449
Si       3.83958982       0.00000000      18.27002392  F        2       0.00000000      -0.00000000       0.37518449
Si       7.67917964       0.00000000      18.27002392  F        2       0.00000000      -0.00000000       0.37518449
Si       1.91979491       3.32518233      18.27002392  F        2      -0.00000000      -0.00000000       0.37518449
Si       5.75938473       3.32518233      18.27002392  F        2       0.00000000       0.00000000       0.37518449
Si       9.59897455       3.32518233      18.27002392  F        2       0.00000000      -0.00000000       0.37518449
Si       0.00000000       0.00000000      20.62128289  F        1       0.00000000       0.00000000      -0.17150952
Si       3.83958982       0.00000000      20.62128289  F        1      -0.00000000      -0.00000000      -0.17150952
Si       7.67917964       0.00000000      20.62128289  F        1      -0.00000000       0.00000000      -0.17150952
Si       1.91979491       3.32518233      20.62128289  F        1      -0.00000000      -0.00000000      -0.17150952
Si       5.75938473       3.32518233      20.62128289  F        1      -0.00000000       0.00000000      -0.17150952
Si       9.59897455       3.32518233      20.62128289  F        1       0.00000000       0.00000000      -0.17150952
F        5.75938473       3.32518233      27.12128289  F        0      -0.00000000      -0.00000000      -0.00285964
C        5.75938473       3.32518233      28.54093502  F        0       0.00000000       0.00000000       0.00319186
H        6.80615116       3.32518233      28.86065702  F        0      -0.00125404      -0.00000000      -0.00011074
H        5.23600152       4.23170864      28.86065702  F        0       0.00062702      -0.00108603      -0.00011074
H        5.23600152       2.41865601      28.86065702  F        0       0.00062702       0.00108603      -0.00011074
41
Lattice="11.518769465528859 0.0 0.0 3.839589821842953 6.650364651656328 0.0 0.0 0.0 32.62128289467409" Properties=species:S:1:pos:R:3:move_mask:L:1:tags:I:1:forces:R:3 surface=Si111 species=CH3F height_A=5.0 substrate_atoms=36 calculation_kind="Rigid approach energy evaluation; not NEB or TS" energy=-191.1666435316117 pbc="T T F"
Si       1.91979491       1.10839411      12.00000000  F        6       0.00000000       0.00000000       0.17150952
Si       5.75938473       1.10839411      12.00000000  F        6      -0.00000000       0.00000000       0.17150952
Si       9.59897455       1.10839411      12.00000000  F        6       0.00000000       0.00000000       0.17150952
Si       3.83958982       4.43357643      12.00000000  F        6      -0.00000000      -0.00000000       0.17150952
Si       7.67917964       4.43357643      12.00000000  F        6       0.00000000      -0.00000000       0.17150952
Si      11.51876947       4.43357643      12.00000000  F        6       0.00000000      -0.00000000       0.17150952
Si       1.91979491       1.10839411      14.35125897  F        5       0.00000000       0.00000000      -0.37518449
Si       5.75938473       1.10839411      14.35125897  F        5      -0.00000000       0.00000000      -0.37518449
Si       9.59897455       1.10839411      14.35125897  F        5      -0.00000000       0.00000000      -0.37518449
Si       3.83958982       4.43357643      14.35125897  F        5       0.00000000      -0.00000000      -0.37518449
Si       7.67917964       4.43357643      14.35125897  F        5      -0.00000000      -0.00000000      -0.37518449
Si      11.51876947       4.43357643      14.35125897  F        5      -0.00000000      -0.00000000      -0.37518449
Si      -0.00000000       2.21678822      15.13501196  F        4      -0.00000000      -0.00000000      -0.14263620
Si       3.83958982       2.21678822      15.13501196  F        4      -0.00000000      -0.00000000      -0.14263620
Si       7.67917964       2.21678822      15.13501196  F        4      -0.00000000       0.00000000      -0.14263620
Si       1.91979491       5.54197054      15.13501196  F        4       0.00000000       0.00000000      -0.14263620
Si       5.75938473       5.54197054      15.13501196  F        4       0.00000000       0.00000000      -0.14263620
Si       9.59897455       5.54197054      15.13501196  F        4      -0.00000000       0.00000000      -0.14263620
Si      -0.00000000       2.21678822      17.48627093  F        3       0.00000000       0.00000000       0.14263620
Si       3.83958982       2.21678822      17.48627093  F        3      -0.00000000       0.00000000       0.14263620
Si       7.67917964       2.21678822      17.48627093  F        3      -0.00000000       0.00000000       0.14263620
Si       1.91979491       5.54197054      17.48627093  F        3       0.00000000       0.00000000       0.14263620
Si       5.75938473       5.54197054      17.48627093  F        3       0.00000000       0.00000000       0.14263620
Si       9.59897455       5.54197054      17.48627093  F        3       0.00000000       0.00000000       0.14263620
Si       0.00000000       0.00000000      18.27002392  F        2      -0.00000000      -0.00000000       0.37518449
Si       3.83958982       0.00000000      18.27002392  F        2       0.00000000      -0.00000000       0.37518449
Si       7.67917964       0.00000000      18.27002392  F        2      -0.00000000      -0.00000000       0.37518449
Si       1.91979491       3.32518233      18.27002392  F        2      -0.00000000      -0.00000000       0.37518449
Si       5.75938473       3.32518233      18.27002392  F        2       0.00000000       0.00000000       0.37518449
Si       9.59897455       3.32518233      18.27002392  F        2      -0.00000000      -0.00000000       0.37518449
Si       0.00000000       0.00000000      20.62128289  F        1      -0.00000000       0.00000000      -0.17150952
Si       3.83958982       0.00000000      20.62128289  F        1       0.00000000       0.00000000      -0.17150952
Si       7.67917964       0.00000000      20.62128289  F        1      -0.00000000      -0.00000000      -0.17150952
Si       1.91979491       3.32518233      20.62128289  F        1      -0.00000000      -0.00000000      -0.17150952
Si       5.75938473       3.32518233      20.62128289  F        1       0.00000000      -0.00000000      -0.17150952
Si       9.59897455       3.32518233      20.62128289  F        1       0.00000000       0.00000000      -0.17150952
F        5.75938473       3.32518233      25.62128289  F        0       0.00000000       0.00000000      -0.00285964
C        5.75938473       3.32518233      27.04093502  F        0       0.00000000      -0.00000000       0.00319186
H        6.80615116       3.32518233      27.36065702  F        0      -0.00125404      -0.00000000      -0.00011074
H        5.23600152       4.23170864      27.36065702  F        0       0.00062702      -0.00108603      -0.00011074
H        5.23600152       2.41865601      27.36065702  F        0       0.00062702       0.00108603      -0.00011074
41
Lattice="11.518769465528859 0.0 0.0 3.839589821842953 6.650364651656328 0.0 0.0 0.0 32.62128289467409" Properties=species:S:1:pos:R:3:move_mask:L:1:tags:I:1:forces:R:3 surface=Si111 species=CH3F height_A=4.0 substrate_atoms=36 calculation_kind="Rigid approach energy evaluation; not NEB or TS" energy=-191.21481501103293 pbc="T T F"
Si       1.91979491       1.10839411      12.00000000  F        6      -0.00007382       0.00005146       0.17202567
Si       5.75938473       1.10839411      12.00000000  F        6       0.00000907      -0.00005787       0.17133045
Si       9.59897455       1.10839411      12.00000000  F        6       0.00006475      -0.00003290       0.17174130
Si       3.83958982       4.43357643      12.00000000  F        6      -0.00005659       0.00002383       0.17127319
Si       7.67917964       4.43357643      12.00000000  F        6       0.00005465       0.00002108       0.17133045
Si      11.51876947       4.43357643      12.00000000  F        6       0.00000194      -0.00000561       0.17145155
Si       1.91979491       1.10839411      14.35125897  F        5       0.00118376      -0.00073553      -0.37176175
Si       5.75938473       1.10839411      14.35125897  F        5      -0.00040308       0.00143355      -0.37131590
Si       9.59897455       1.10839411      14.35125897  F        5      -0.00078063       0.00052933      -0.37266092
Si       3.83958982       4.43357643      14.35125897  F        5       0.00137067      -0.00073927      -0.37175713
Si       7.67917964       4.43357643      14.35125897  F        5      -0.00148345      -0.00034436      -0.37138785
Si      11.51876947       4.43357643      14.35125897  F        5       0.00011280      -0.00014376      -0.37310861
Si      -0.00000000       2.21678822      15.13501196  F        4       0.00034863      -0.00052753      -0.14146334
Si       3.83958982       2.21678822      15.13501196  F        4      -0.00245667      -0.00197222      -0.14038354
Si       7.67917964       2.21678822      15.13501196  F        4       0.00210794      -0.00124816      -0.14061316
Si       1.91979491       5.54197054      15.13501196  F        4      -0.00076636       0.00076871      -0.14223449
Si       5.75938473       5.54197054      15.13501196  F        4       0.00046300       0.00312327      -0.14024184
Si       9.59897455       5.54197054      15.13501196  F        4       0.00030326      -0.00014394      -0.14298079
Si      -0.00000000       2.21678822      17.48627093  F        3      -0.00067634       0.00124252       0.14185740
Si       3.83958982       2.21678822      17.48627093  F        3       0.00815167       0.00537511       0.14087563
Si       7.67917964       2.21678822      17.48627093  F        3      -0.00748424       0.00396459       0.14195342
Si       1.91979491       5.54197054      17.48627093  F        3      -0.00091330      -0.00032474       0.14099227
Si       5.75938473       5.54197054      17.48627093  F        3      -0.00068169      -0.00968791       0.14096623
Si       9.59897455       5.54197054      17.48627093  F        3       0.00159603      -0.00056503       0.13979120
Si       0.00000000       0.00000000      18.27002392  F        2      -0.00549784       0.00986422       0.38065497
Si       3.83958982       0.00000000      18.27002392  F        2      -0.00061514       0.00015314       0.39189466
Si       7.67917964       0.00000000      18.27002392  F        2       0.00611632      -0.00938656       0.38024129
Si       1.91979491       3.32518233      18.27002392  F        2      -0.01547623       0.00224516       0.38509957
Si       5.75938473       3.32518233      18.27002392  F        2       0.00013937       0.00012155       0.38611708
Si       9.59897455       3.32518233      18.27002392  F        2       0.01533685      -0.00299943       0.38494412
Si       0.00000000       0.00000000      20.62128289  F        1      -0.01541660       0.02224217      -0.18302940
Si       3.83958982       0.00000000      20.62128289  F        1       0.00285428      -0.00182448      -0.20021760
Si       7.67917964       0.00000000      20.62128289  F        1       0.01256793      -0.02389827      -0.18288065
Si       1.91979491       3.32518233      20.62128289  F        1      -0.02837847       0.00304292      -0.18269570
Si       5.75938473       3.32518233      20.62128289  F        1       0.00018674       0.00006874      -0.05108682
Si       9.59897455       3.32518233      20.62128289  F        1       0.02819076       0.00036622      -0.18262378
F        5.75938473       3.32518233      24.62128289  F        0       0.00000000       0.00000000      -0.02700796
C        5.75938473       3.32518233      26.04093502  F        0       0.00000000       0.00000000      -0.11522788
H        6.80615116       3.32518233      26.36065702  F        0       0.00643927       0.00000000       0.00671289
H        5.23600152       4.23170864      26.36065702  F        0      -0.00321964       0.00557657       0.00671289
H        5.23600152       2.41865601      26.36065702  F        0      -0.00321964      -0.00557657       0.00671289
41
Lattice="11.518769465528859 0.0 0.0 3.839589821842953 6.650364651656328 0.0 0.0 0.0 32.62128289467409" Properties=species:S:1:pos:R:3:move_mask:L:1:tags:I:1:forces:R:3 surface=Si111 species=CH3F height_A=3.25 substrate_atoms=36 calculation_kind="Rigid approach energy evaluation; not NEB or TS" energy=-191.3923334577284 pbc="T T F"
Si       1.91979491       1.10839411      12.00000000  F        6      -0.00013377       0.00007652       0.17202173
Si       5.75938473       1.10839411      12.00000000  F        6       0.00001258      -0.00009914       0.17039002
Si       9.59897455       1.10839411      12.00000000  F        6       0.00012119      -0.00004842       0.17166192
Si       3.83958982       4.43357643      12.00000000  F        6      -0.00011951       0.00006971       0.17035483
Si       7.67917964       4.43357643      12.00000000  F        6       0.00009215       0.00003868       0.17039002
Si      11.51876947       4.43357643      12.00000000  F        6       0.00002736      -0.00003735       0.17123112
Si       1.91979491       1.10839411      14.35125897  F        5       0.00017754      -0.00019332      -0.37417556
Si       5.75938473       1.10839411      14.35125897  F        5      -0.00056172       0.00354437      -0.36796011
Si       9.59897455       1.10839411      14.35125897  F        5       0.00038436      -0.00002272      -0.37471873
Si       3.83958982       4.43357643      14.35125897  F        5       0.00322222      -0.00176953      -0.36898610
Si       7.67917964       4.43357643      14.35125897  F        5      -0.00343384      -0.00123753      -0.36809421
Si      11.51876947       4.43357643      14.35125897  F        5       0.00021166      -0.00032139      -0.37468688
Si      -0.00000000       2.21678822      15.13501196  F        4       0.00010585      -0.00034877      -0.14105061
Si       3.83958982       2.21678822      15.13501196  F        4       0.00064608      -0.00040386      -0.13061488
Si       7.67917964       2.21678822      15.13501196  F        4      -0.00075218       0.00028966      -0.13136559
Si       1.91979491       5.54197054      15.13501196  F        4      -0.00122281       0.00099365      -0.14200019
Si       5.75938473       5.54197054      15.13501196  F        4       0.00059848      -0.00031469      -0.13043810
Si       9.59897455       5.54197054      15.13501196  F        4       0.00062423      -0.00021579      -0.14220441
Si      -0.00000000       2.21678822      17.48627093  F        3      -0.00057500       0.00166149       0.13844991
Si       3.83958982       2.21678822      17.48627093  F        3       0.02529096       0.01794027       0.15842196
Si       7.67917964       2.21678822      17.48627093  F        3      -0.02474212       0.01441478       0.15962599
Si       1.91979491       5.54197054      17.48627093  F        3       0.00592438      -0.00474996       0.13853907
Si       5.75938473       5.54197054      17.48627093  F        3      -0.00271756      -0.03097303       0.15836294
Si       9.59897455       5.54197054      17.48627093  F        3      -0.00320023       0.00171774       0.13819970
Si       0.00000000       0.00000000      18.27002392  F        2       0.00627354      -0.00432418       0.38521803
Si       3.83958982       0.00000000      18.27002392  F        2      -0.00408712       0.00220481       0.38039090
Si       7.67917964       0.00000000      18.27002392  F        2      -0.00217914       0.00698040       0.38495211
Si       1.91979491       3.32518233      18.27002392  F        2       0.00219706      -0.00056632       0.40255913
Si       5.75938473       3.32518233      18.27002392  F        2      -0.00033139       0.00034622       0.41015647
Si       9.59897455       3.32518233      18.27002392  F        2      -0.00186584      -0.00464503       0.40243108
Si       0.00000000       0.00000000      20.62128289  F        1      -0.04647727       0.07148136      -0.18911493
Si       3.83958982       0.00000000      20.62128289  F        1       0.00332900      -0.00210648      -0.19553551
Si       7.67917964       0.00000000      20.62128289  F        1       0.04316660      -0.07340626      -0.18864955
Si       1.91979491       3.32518233      20.62128289  F        1      -0.08855870       0.00648170      -0.19823204
Si       5.75938473       3.32518233      20.62128289  F        1       0.00015116       0.00009721       0.29586477
Si       9.59897455       3.32518233      20.62128289  F        1       0.08840181      -0.00255480      -0.19800702
F        5.75938473       3.32518233      23.87128289  F        0      -0.00000000       0.00000000      -0.34016592
C        5.75938473       3.32518233      25.29093502  F        0       0.00000000      -0.00000000      -0.17515512
H        6.80615116       3.32518233      25.61065702  F        0       0.02579824      -0.00000000      -0.01602209
H        5.23600152       4.23170864      25.61065702  F        0      -0.01289912       0.02234193      -0.01602209
H        5.23600152       2.41865601      25.61065702  F        0      -0.01289912      -0.02234193      -0.01602209
41
Lattice="11.518769465528859 0.0 0.0 3.839589821842953 6.650364651656328 0.0 0.0 0.0 32.62128289467409" Properties=species:S:1:pos:R:3:move_mask:L:1:tags:I:1:forces:R:3 surface=Si111 species=CH3F height_A=2.75 substrate_atoms=36 calculation_kind="Rigid approach energy evaluation; not NEB or TS" energy=-191.6331941451986 pbc="T T F"
Si       1.91979491       1.10839411      12.00000000  F        6      -0.00015772       0.00010567       0.17241646
Si       5.75938473       1.10839411      12.00000000  F        6       0.00004275      -0.00008865       0.16904737
Si       9.59897455       1.10839411      12.00000000  F        6       0.00011497      -0.00004475       0.17173864
Si       3.83958982       4.43357643      12.00000000  F        6      -0.00012842       0.00005953       0.16895305
Si       7.67917964       4.43357643      12.00000000  F        6       0.00009815       0.00000730       0.16904737
Si      11.51876947       4.43357643      12.00000000  F        6       0.00003027      -0.00003910       0.17090499
Si       1.91979491       1.10839411      14.35125897  F        5      -0.00003661      -0.00021235      -0.37579725
Si       5.75938473       1.10839411      14.35125897  F        5      -0.00154100      -0.00086647      -0.37205274
Si       9.59897455       1.10839411      14.35125897  F        5       0.00157723      -0.00056376      -0.37629764
Si       3.83958982       4.43357643      14.35125897  F        5      -0.00005482       0.00026514      -0.37516684
Si       7.67917964       4.43357643      14.35125897  F        5      -0.00027224       0.00191335      -0.37242310
Si      11.51876947       4.43357643      14.35125897  F        5       0.00032695      -0.00053562      -0.37498285
Si      -0.00000000       2.21678822      15.13501196  F        4       0.00000182      -0.00099384      -0.13065327
Si       3.83958982       2.21678822      15.13501196  F        4       0.00070308      -0.00193476      -0.12916629
Si       7.67917964       2.21678822      15.13501196  F        4      -0.00070566      -0.00019990      -0.13491368
Si       1.91979491       5.54197054      15.13501196  F        4      -0.00369208       0.00312441      -0.13537771
Si       5.75938473       5.54197054      15.13501196  F        4       0.00173404       0.00052769      -0.12880991
Si       9.59897455       5.54197054      15.13501196  F        4       0.00195552      -0.00052171      -0.13407105
Si      -0.00000000       2.21678822      17.48627093  F        3      -0.00049218       0.00417455       0.12884338
Si       3.83958982       2.21678822      17.48627093  F        3       0.08131850       0.06183145       0.20955576
Si       7.67917964       2.21678822      17.48627093  F        3      -0.08096839       0.04829758       0.21429832
Si       1.91979491       5.54197054      17.48627093  F        3       0.01249248      -0.01115195       0.12505850
Si       5.75938473       5.54197054      17.48627093  F        3      -0.01115230      -0.10227790       0.20920622
Si       9.59897455       5.54197054      17.48627093  F        3      -0.00128830      -0.00084142       0.11836673
Si       0.00000000       0.00000000      18.27002392  F        2       0.01237714      -0.01919961       0.45098558
Si       3.83958982       0.00000000      18.27002392  F        2       0.00400389      -0.00270302       0.48081904
Si       7.67917964       0.00000000      18.27002392  F        2      -0.01663900       0.01874078       0.45041183
Si       1.91979491       3.32518233      18.27002392  F        2       0.01273484       0.00469336       0.50050282
Si       5.75938473       3.32518233      18.27002392  F        2      -0.00363766       0.00221538       0.18299300
Si       9.59897455       3.32518233      18.27002392  F        2      -0.00886239      -0.00373421       0.49985471
Si       0.00000000       0.00000000      20.62128289  F        1      -0.05514850       0.07421636      -0.22484772
Si       3.83958982       0.00000000      20.62128289  F        1       0.00175705       0.00203664      -0.23163485
Si       7.67917964       0.00000000      20.62128289  F        1       0.05689930      -0.07656463      -0.22568513
Si       1.91979491       3.32518233      20.62128289  F        1      -0.09898829       0.01318069      -0.25667842
Si       5.75938473       3.32518233      20.62128289  F        1       0.00152137      -0.00013737      -0.39637059
Si       9.59897455       3.32518233      20.62128289  F        1       0.09404878      -0.01277142      -0.25290121
F        5.75938473       3.32518233      23.37128289  F        0       0.00002549      -0.00001079      -0.14433491
C        5.75938473       3.32518233      24.79093502  F        0       0.00000090       0.00000158       0.15859036
H        6.80615116       3.32518233      25.11065702  F        0       0.00707133       0.00009387       0.00685919
H        5.23600152       4.23170864      25.11065702  F        0      -0.00361535       0.00607788       0.00685912
H        5.23600152       2.41865601      25.11065702  F        0      -0.00345490      -0.00617000       0.00685269
41
Lattice="11.518769465528859 0.0 0.0 3.839589821842953 6.650364651656328 0.0 0.0 0.0 32.62128289467409" Properties=species:S:1:pos:R:3:move_mask:L:1:tags:I:1:forces:R:3 surface=Si111 species=CH3F height_A=2.25 substrate_atoms=36 calculation_kind="Rigid approach energy evaluation; not NEB or TS" energy=-191.49556751930356 pbc="T T F"
Si       1.91979491       1.10839411      12.00000000  F        6      -0.00007977       0.00012746       0.17251368
Si       5.75938473       1.10839411      12.00000000  F        6       0.00011257      -0.00012660       0.16826943
Si       9.59897455       1.10839411      12.00000000  F        6      -0.00003279      -0.00005235       0.17158633
Si       3.83958982       4.43357643      12.00000000  F        6      -0.00009834      -0.00002463       0.16789060
Si       7.67917964       4.43357643      12.00000000  F        6       0.00016554      -0.00003397       0.16826847
Si      11.51876947       4.43357643      12.00000000  F        6      -0.00006720       0.00011009       0.17044383
Si       1.91979491       1.10839411      14.35125897  F        5       0.00254814      -0.00171823      -0.37782694
Si       5.75938473       1.10839411      14.35125897  F        5      -0.00127094      -0.00780904      -0.38512364
Si       9.59897455       1.10839411      14.35125897  F        5      -0.00127921       0.00048933      -0.37565441
Si       3.83958982       4.43357643      14.35125897  F        5      -0.00594365       0.00367854      -0.38757448
Si       7.67917964       4.43357643      14.35125897  F        5       0.00587980       0.00514816      -0.38547778
Si      11.51876947       4.43357643      14.35125897  F        5       0.00006516       0.00021159      -0.37139680
Si      -0.00000000       2.21678822      15.13501196  F        4      -0.00005388      -0.00101839      -0.11571445
Si       3.83958982       2.21678822      15.13501196  F        4      -0.00350955      -0.00478887      -0.13553783
Si       7.67917964       2.21678822      15.13501196  F        4       0.00355896      -0.00281585      -0.14709274
Si       1.91979491       5.54197054      15.13501196  F        4      -0.00849175       0.00595228      -0.12762160
Si       5.75938473       5.54197054      15.13501196  F        4       0.00211493       0.00559317      -0.13489828
Si       9.59897455       5.54197054      15.13501196  F        4       0.00638154      -0.00292325      -0.12703696
Si      -0.00000000       2.21678822      17.48627093  F        3      -0.00409962       0.01122948       0.11993270
Si       3.83958982       2.21678822      17.48627093  F        3       0.11632088       0.08096397       0.17720529
Si       7.67917964       2.21678822      17.48627093  F        3      -0.11278726       0.06652918       0.18302918
Si       1.91979491       5.54197054      17.48627093  F        3       0.00378535      -0.01086532       0.09883096
Si       5.75938473       5.54197054      17.48627093  F        3      -0.00819128      -0.14306586       0.17683742
Si       9.59897455       5.54197054      17.48627093  F        3       0.00534279      -0.00473624       0.07546555
Si       0.00000000       0.00000000      18.27002392  F        2      -0.01776691       0.02118447       0.56472535
Si       3.83958982       0.00000000      18.27002392  F        2       0.01386462      -0.00956487       0.66431318
Si       7.67917964       0.00000000      18.27002392  F        2       0.00331504      -0.02669181       0.55878011
Si       1.91979491       3.32518233      18.27002392  F        2      -0.05033961       0.01783543       0.62430264
Si       5.75938473       3.32518233      18.27002392  F        2      -0.00772063       0.00572186      -0.02381810
Si       9.59897455       3.32518233      18.27002392  F        2       0.05883990      -0.00863388       0.62269485
Si       0.00000000       0.00000000      20.62128289  F        1      -0.00238492      -0.02494532      -0.25641704
Si       3.83958982       0.00000000      20.62128289  F        1      -0.00504713       0.01139027      -0.25144666
Si       7.67917964       0.00000000      20.62128289  F        1       0.01515430       0.02137041      -0.25967235
Si       1.91979491       3.32518233      20.62128289  F        1      -0.01721289       0.03141698      -0.29170841
Si       5.75938473       3.32518233      20.62128289  F        1       0.00143678       0.00054403      -0.78102076
Si       9.59897455       3.32518233      20.62128289  F        1       0.00731777      -0.03932792      -0.28316623
F        5.75938473       3.32518233      22.87128289  F        0       0.00001569       0.00010884       0.28600946
C        5.75938473       3.32518233      24.29093502  F        0       0.00003756       0.00006700       0.74994222
H        6.80615116       3.32518233      24.61065702  F        0       0.01975415       0.00017956      -0.23435284
H        5.23600152       4.23170864      24.61065702  F        0      -0.00982517       0.01664568      -0.23378842
H        5.23600152       2.41865601      24.61065702  F        0      -0.00980894      -0.01735539      -0.23469456
41
Lattice="11.518769465528859 0.0 0.0 3.839589821842953 6.650364651656328 0.0 0.0 0.0 32.62128289467409" Properties=species:S:1:pos:R:3:move_mask:L:1:tags:I:1:forces:R:3 surface=Si111 species=CH3F height_A=1.9 substrate_atoms=36 calculation_kind="Rigid approach energy evaluation; not NEB or TS" energy=-191.24528658561317 pbc="T T F"
Si       1.91979491       1.10839411      12.00000000  F        6       0.00006127       0.00007870       0.17209296
Si       5.75938473       1.10839411      12.00000000  F        6       0.00012251      -0.00013770       0.16709148
Si       9.59897455       1.10839411      12.00000000  F        6      -0.00018379      -0.00001984       0.17119000
Si       3.83958982       4.43357643      12.00000000  F        6      -0.00000088      -0.00011356       0.16648970
Si       7.67917964       4.43357643      12.00000000  F        6       0.00016969      -0.00003100       0.16709277
Si      11.51876947       4.43357643      12.00000000  F        6      -0.00016881       0.00022341       0.16999925
Si       1.91979491       1.10839411      14.35125897  F        5       0.00331728      -0.00257004      -0.36539123
Si       5.75938473       1.10839411      14.35125897  F        5      -0.00281063       0.00116029      -0.35880134
Si       9.59897455       1.10839411      14.35125897  F        5      -0.00051551       0.00050901      -0.36528266
Si       3.83958982       4.43357643      14.35125897  F        5       0.00230491      -0.00067885      -0.36301912
Si       7.67917964       4.43357643      14.35125897  F        5      -0.00271246       0.00202814      -0.35928321
Si      11.51876947       4.43357643      14.35125897  F        5       0.00040981      -0.00044773      -0.36176383
Si      -0.00000000       2.21678822      15.13501196  F        4       0.00052530      -0.00177658      -0.11426210
Si       3.83958982       2.21678822      15.13501196  F        4       0.00460340      -0.00227316      -0.12119424
Si       7.67917964       2.21678822      15.13501196  F        4      -0.00512461       0.00188905      -0.13177982
Si       1.91979491       5.54197054      15.13501196  F        4      -0.00965319       0.00704728      -0.12927059
Si       5.75938473       5.54197054      15.13501196  F        4       0.00398115      -0.00269201      -0.12030054
Si       9.59897455       5.54197054      15.13501196  F        4       0.00567449      -0.00220726      -0.13167553
Si      -0.00000000       2.21678822      17.48627093  F        3      -0.00869884       0.01232624       0.12227205
Si       3.83958982       2.21678822      17.48627093  F        3       0.09921739       0.07415840       0.08193594
Si       7.67917964       2.21678822      17.48627093  F        3      -0.09916518       0.05466369       0.08975529
Si       1.91979491       5.54197054      17.48627093  F        3       0.00342977      -0.00846420       0.08397619
Si       5.75938473       5.54197054      17.48627093  F        3      -0.00148534      -0.12678736       0.08498486
Si       9.59897455       5.54197054      17.48627093  F        3       0.00664866      -0.00545873       0.04858969
Si       0.00000000       0.00000000      18.27002392  F        2      -0.01301415       0.02572247       0.58946255
Si       3.83958982       0.00000000      18.27002392  F        2       0.00836128      -0.01493730       0.68959785
Si       7.67917964       0.00000000      18.27002392  F        2       0.00039157      -0.02169677       0.55936108
Si       1.91979491       3.32518233      18.27002392  F        2      -0.06704976       0.01640981       0.63331021
Si       5.75938473       3.32518233      18.27002392  F        2      -0.00070555       0.01516310      -0.51345671
Si       9.59897455       3.32518233      18.27002392  F        2       0.07219670      -0.02250323       0.65601921
Si       0.00000000       0.00000000      20.62128289  F        1      -0.00051787      -0.04542564      -0.24139519
Si       3.83958982       0.00000000      20.62128289  F        1      -0.01165763       0.00624469      -0.15857111
Si       7.67917964       0.00000000      20.62128289  F        1      -0.00301483       0.05536426      -0.19621159
Si       1.91979491       3.32518233      20.62128289  F        1       0.00591282       0.05559734      -0.23061690
Si       5.75938473       3.32518233      20.62128289  F        1      -0.00221792      -0.00705233      -0.95062109
Si       9.59897455       3.32518233      20.62128289  F        1       0.01182568      -0.05932190      -0.27170758
F        5.75938473       3.32518233      22.52128289  F        0       0.00020338       0.00146189      -0.52673114
C        5.75938473       3.32518233      23.94093502  F        0       0.00043802       0.00075455       3.03184349
H        6.80615116       3.32518233      24.26065702  F        0      -0.05140507       0.00096301      -0.55652102
H        5.23600152       4.23170864      24.26065702  F        0       0.02593816      -0.04722616      -0.55428385
H        5.23600152       2.41865601      24.26065702  F        0       0.02436876       0.04005602      -0.56292421
41
Lattice="11.518769465528859 0.0 0.0 3.839589821842953 6.650364651656328 0.0 0.0 0.0 32.62128289467409" Properties=species:S:1:pos:R:3:move_mask:L:1:tags:I:1:forces:R:3 surface=Si111 species=CH3F height_A=1.6 substrate_atoms=36 calculation_kind="Rigid approach energy evaluation; not NEB or TS" energy=-190.9580099492649 pbc="T T F"
Si       1.91979491       1.10839411      12.00000000  F        6       0.00003438       0.00004260       0.17185494
Si       5.75938473       1.10839411      12.00000000  F        6       0.00009292      -0.00012841       0.16746981
Si       9.59897455       1.10839411      12.00000000  F        6      -0.00012730      -0.00000706       0.17109984
Si       3.83958982       4.43357643      12.00000000  F        6       0.00000659      -0.00006625       0.16689412
Si       7.67917964       4.43357643      12.00000000  F        6       0.00013480      -0.00000307       0.16749938
Si      11.51876947       4.43357643      12.00000000  F        6      -0.00014140       0.00016220       0.16995948
Si       1.91979491       1.10839411      14.35125897  F        5       0.00523100      -0.00386496      -0.35481067
Si       5.75938473       1.10839411      14.35125897  F        5      -0.00428825       0.00737849      -0.34259837
Si       9.59897455       1.10839411      14.35125897  F        5      -0.00095133       0.00094787      -0.35814807
Si       3.83958982       4.43357643      14.35125897  F        5       0.00850827      -0.00407235      -0.34893693
Si       7.67917964       4.43357643      14.35125897  F        5      -0.00864713       0.00008967      -0.34289031
Si      11.51876947       4.43357643      14.35125897  F        5       0.00014443      -0.00048173      -0.35643581
Si      -0.00000000       2.21678822      15.13501196  F        4       0.00005030      -0.00116868      -0.11473858
Si       3.83958982       2.21678822      15.13501196  F        4       0.00730580      -0.00140337      -0.14217438
Si       7.67917964       2.21678822      15.13501196  F        4      -0.00734423       0.00313794      -0.15297492
Si       1.91979491       5.54197054      15.13501196  F        4      -0.00830151       0.00593240      -0.12832563
Si       5.75938473       5.54197054      15.13501196  F        4       0.00463584      -0.00550205      -0.14121910
Si       9.59897455       5.54197054      15.13501196  F        4       0.00365896      -0.00101556      -0.12865913
Si      -0.00000000       2.21678822      17.48627093  F        3      -0.00984194       0.01678604       0.11756027
Si       3.83958982       2.21678822      17.48627093  F        3       0.10772643       0.08324795       0.07133454
Si       7.67917964       2.21678822      17.48627093  F        3      -0.10816966       0.05798020       0.08183054
Si       1.91979491       5.54197054      17.48627093  F        3      -0.00540105      -0.00779242       0.06949809
Si       5.75938473       5.54197054      17.48627093  F        3      -0.00312616      -0.14044507       0.07135542
Si       9.59897455       5.54197054      17.48627093  F        3       0.01705811      -0.00909480       0.02025896
Si       0.00000000       0.00000000      18.27002392  F        2      -0.02956389       0.03482562       0.60959931
Si       3.83958982       0.00000000      18.27002392  F        2       0.02152220      -0.03019442       0.73995650
Si       7.67917964       0.00000000      18.27002392  F        2      -0.00082635      -0.03726086       0.56311250
Si       1.91979491       3.32518233      18.27002392  F        2      -0.09971927       0.03534235       0.65277526
Si       5.75938473       3.32518233      18.27002392  F        2       0.00104654       0.01901181      -1.41670480
Si       9.59897455       3.32518233      18.27002392  F        2       0.10728470      -0.02511126       0.68954751
Si       0.00000000       0.00000000      20.62128289  F        1      -0.00937727      -0.04975507      -0.23496581
Si       3.83958982       0.00000000      20.62128289  F        1      -0.00169316       0.03581180      -0.17296279
Si       7.67917964       0.00000000      20.62128289  F        1       0.02928963       0.02501233      -0.21048508
Si       1.91979491       3.32518233      20.62128289  F        1      -0.03596408       0.07012109      -0.24921817
Si       5.75938473       3.32518233      20.62128289  F        1      -0.00298027      -0.01152475      -0.81884002
Si       9.59897455       3.32518233      20.62128289  F        1       0.01607519      -0.07805059      -0.27292640
F        5.75938473       3.32518233      22.22128289  F        0      -0.00129964      -0.00059068      -0.69331973
C        5.75938473       3.32518233      23.64093502  F        0       0.00145433       0.00279502       4.59087242
H        6.80615116       3.32518233      23.96065702  F        0      -0.08326872       0.01185183      -0.77294665
H        5.23600152       4.23170864      23.96065702  F        0       0.04302617      -0.07341920      -0.77257785
H        5.23600152       2.41865601      23.96065702  F        0       0.04674604       0.07047542      -0.76561967
41
Lattice="11.518769465528859 0.0 0.0 3.839589821842953 6.650364651656328 0.0 0.0 0.0 32.62128289467409" Properties=species:S:1:pos:R:3:move_mask:L:1:tags:I:1:forces:R:3 surface=Si111 species=CH3F height_A=1.3 substrate_atoms=36 calculation_kind="Rigid approach energy evaluation; not NEB or TS" energy=-187.64394273113408 pbc="T T F"
Si       1.91979491       1.10839411      12.00000000  F        6      -0.00003078       0.00005960       0.17293508
Si       5.75938473       1.10839411      12.00000000  F        6       0.00004586      -0.00010607       0.16896129
Si       9.59897455       1.10839411      12.00000000  F        6      -0.00001508      -0.00003353       0.17176641
Si       3.83958982       4.43357643      12.00000000  F        6      -0.00001117      -0.00003539       0.16827516
Si       7.67917964       4.43357643      12.00000000  F        6       0.00011229       0.00001476       0.16890672
Si      11.51876947       4.43357643      12.00000000  F        6      -0.00010112       0.00010062       0.17043015
Si       1.91979491       1.10839411      14.35125897  F        5       0.00643035      -0.00469441      -0.35018062
Si       5.75938473       1.10839411      14.35125897  F        5      -0.00561928      -0.01132385      -0.35713869
Si       9.59897455       1.10839411      14.35125897  F        5      -0.00081525       0.00056946      -0.35368606
Si       3.83958982       4.43357643      14.35125897  F        5      -0.00626018       0.00459585      -0.36575437
Si       7.67917964       4.43357643      14.35125897  F        5       0.00665608       0.01072561      -0.35775804
Si      11.51876947       4.43357643      14.35125897  F        5      -0.00038616       0.00012522      -0.35019929
Si      -0.00000000       2.21678822      15.13501196  F        4      -0.00021175      -0.00087696      -0.11429013
Si       3.83958982       2.21678822      15.13501196  F        4      -0.00051680      -0.00755008      -0.16719052
Si       7.67917964       2.21678822      15.13501196  F        4       0.00075393      -0.00185389      -0.17776542
Si       1.91979491       5.54197054      15.13501196  F        4      -0.00684449       0.00495219      -0.12947517
Si       5.75938473       5.54197054      15.13501196  F        4       0.00564944       0.00457190      -0.16578056
Si       9.59897455       5.54197054      15.13501196  F        4       0.00117315       0.00074245      -0.12919758
Si      -0.00000000       2.21678822      17.48627093  F        3      -0.00054363       0.02124238       0.09513608
Si       3.83958982       2.21678822      17.48627093  F        3      -0.00537844       0.01943043      -0.03138646
Si       7.67917964       2.21678822      17.48627093  F        3       0.01420208      -0.00549922      -0.01965476
Si       1.91979491       5.54197054      17.48627093  F        3      -0.03601882      -0.00505765       0.05623390
Si       5.75938473       5.54197054      17.48627093  F        3      -0.02922443      -0.00469651      -0.04713351
Si       9.59897455       5.54197054      17.48627093  F        3       0.05235547      -0.02375745      -0.01635431
Si       0.00000000       0.00000000      18.27002392  F        2      -0.00883165      -0.00522620       0.65226918
Si       3.83958982       0.00000000      18.27002392  F        2       0.02674491      -0.01716155       0.86222942
Si       7.67917964       0.00000000      18.27002392  F        2      -0.02242466      -0.00370051       0.63783255
Si       1.91979491       3.32518233      18.27002392  F        2      -0.05408668       0.04892636       0.75100232
Si       5.75938473       3.32518233      18.27002392  F        2      -0.01672599      -0.01151215      -1.31840242
Si       9.59897455       3.32518233      18.27002392  F        2       0.07474571      -0.01261757       0.75523004
Si       0.00000000       0.00000000      20.62128289  F        1       0.01224998      -0.07576850      -0.21706783
Si       3.83958982       0.00000000      20.62128289  F        1       0.02342930       0.11388421      -0.22246511
Si       7.67917964       0.00000000      20.62128289  F        1       0.10206345      -0.03952670      -0.32373478
Si       1.91979491       3.32518233      20.62128289  F        1      -0.13115391       0.05349819      -0.37772563
Si       5.75938473       3.32518233      20.62128289  F        1       0.00296021      -0.00543396     -25.03700542
Si       9.59897455       3.32518233      20.62128289  F        1      -0.03126171      -0.09048077      -0.26550566
F        5.75938473       3.32518233      21.92128289  F        0      -0.00512290      -0.00613211      21.74245625
C        5.75938473       3.32518233      23.34093502  F        0       0.00543549       0.00814793       6.89871972
H        6.80615116       3.32518233      23.66065702  F        0       0.13697183       0.02604376      -0.87170566
H        5.23600152       4.23170864      23.66065702  F        0      -0.05880764       0.12112493      -0.87018540
H        5.23600152       2.41865601      23.66065702  F        0      -0.05158701      -0.10571082      -0.83564089
