41
Lattice="11.518769465528859 0.0 0.0 0.0 7.679179643685906 0.0 0.0 0.0 30.7875" Properties=species:S:1:pos:R:3:move_mask:L:1:tags:I:1:forces:R:3 surface=Si100 species=SiF4 site=hollow orientation=flipped height_A=6.5 substrate_atoms=36 calculation_kind="Rigid evaluated approach scan; not NEB" energy=-208.21619064940802 pbc="T T F"
Si       0.00000000       0.00000000      12.00000000  F        6      -0.00000004       0.00000000       0.24903484
Si       3.83958982       0.00000000      12.00000000  F        6      -0.00000000       0.00000000       0.24903482
Si       7.67917964       0.00000000      12.00000000  F        6       0.00000000       0.00000000       0.24903482
Si       0.00000000       3.83958982      12.00000000  F        6      -0.00000004      -0.00000000       0.24903484
Si       3.83958982       3.83958982      12.00000000  F        6      -0.00000000      -0.00000000       0.24903482
Si       7.67917964       3.83958982      12.00000000  F        6       0.00000000      -0.00000000       0.24903482
Si       1.91979491       0.00000000      13.35750000  F        5       0.00000000      -0.00000002      -0.52822352
Si       5.75938473       0.00000000      13.35750000  F        5       0.00000000      -0.00000002      -0.52822353
Si       9.59897455       0.00000000      13.35750000  F        5       0.00000003      -0.00000002      -0.52822354
Si       1.91979491       3.83958982      13.35750000  F        5       0.00000000       0.00000000      -0.52822354
Si       5.75938473       3.83958982      13.35750000  F        5       0.00000000       0.00000000      -0.52822354
Si       9.59897455       3.83958982      13.35750000  F        5       0.00000003       0.00000000      -0.52822356
Si       1.91979491       1.91979491      14.71500000  F        4      -0.00000000       0.00000000       0.14537709
Si       5.75938473       1.91979491      14.71500000  F        4       0.00000000       0.00000000       0.14537709
Si       9.59897455       1.91979491      14.71500000  F        4       0.00000004       0.00000000       0.14537711
Si       1.91979491       5.75938473      14.71500000  F        4      -0.00000000       0.00000002       0.14537707
Si       5.75938473       5.75938473      14.71500000  F        4       0.00000000       0.00000002       0.14537707
Si       9.59897455       5.75938473      14.71500000  F        4       0.00000004       0.00000002       0.14537709
Si       0.00000000       1.91979491      16.07250000  F        3      -0.00000004       0.00000000      -0.14537711
Si       3.83958982       1.91979491      16.07250000  F        3      -0.00000000       0.00000000      -0.14537709
Si       7.67917964       1.91979491      16.07250000  F        3       0.00000000       0.00000000      -0.14537709
Si       0.00000000       5.75938473      16.07250000  F        3      -0.00000004       0.00000002      -0.14537709
Si       3.83958982       5.75938473      16.07250000  F        3      -0.00000000       0.00000002      -0.14537707
Si       7.67917964       5.75938473      16.07250000  F        3       0.00000000       0.00000002      -0.14537707
Si       0.00000000       0.00000000      17.43000000  F        2      -0.00000003      -0.00000002       0.52822354
Si       3.83958982       0.00000000      17.43000000  F        2      -0.00000000      -0.00000002       0.52822353
Si       7.67917964       0.00000000      17.43000000  F        2      -0.00000000      -0.00000002       0.52822352
Si       0.00000000       3.83958982      17.43000000  F        2      -0.00000003       0.00000000       0.52822356
Si       3.83958982       3.83958982      17.43000000  F        2      -0.00000000       0.00000000       0.52822354
Si       7.67917964       3.83958982      17.43000000  F        2      -0.00000000       0.00000000       0.52822354
Si       1.91979491       0.00000000      18.78750000  F        1      -0.00000000       0.00000000      -0.24903482
Si       5.75938473       0.00000000      18.78750000  F        1       0.00000000       0.00000000      -0.24903482
Si       9.59897455       0.00000000      18.78750000  F        1       0.00000004       0.00000000      -0.24903484
Si       1.91979491       3.83958982      18.78750000  F        1      -0.00000000      -0.00000000      -0.24903482
Si       5.75938473       3.83958982      18.78750000  F        1       0.00000000      -0.00000000      -0.24903482
Si       9.59897455       3.83958982      18.78750000  F        1       0.00000004      -0.00000000      -0.24903484
Si       7.67917964       1.91979491      25.81483395  T        0      -0.00000017       0.00000000       0.00000004
F        7.67917964       1.91979491      27.39683580  T        0       0.00000000      -0.00000000       0.00049033
F        6.18765399       1.91979491      25.28750000  T        0      -0.00046224       0.00000000      -0.00016342
F        8.42494246       3.21149401      25.28750000  T        0       0.00023120       0.00040043      -0.00016348
F        8.42494246       0.62809581      25.28750000  T        0       0.00023120      -0.00040043      -0.00016348
41
Lattice="11.518769465528859 0.0 0.0 0.0 7.679179643685906 0.0 0.0 0.0 30.7875" Properties=species:S:1:pos:R:3:move_mask:L:1:tags:I:1:forces:R:3 surface=Si100 species=SiF4 site=hollow orientation=flipped height_A=5.0 substrate_atoms=36 calculation_kind="Rigid evaluated approach scan; not NEB" energy=-208.21619064940802 pbc="T T F"
Si       0.00000000       0.00000000      12.00000000  F        6      -0.00000004       0.00000000       0.24903484
Si       3.83958982       0.00000000      12.00000000  F        6      -0.00000000       0.00000000       0.24903482
Si       7.67917964       0.00000000      12.00000000  F        6       0.00000000       0.00000000       0.24903482
Si       0.00000000       3.83958982      12.00000000  F        6      -0.00000004      -0.00000000       0.24903484
Si       3.83958982       3.83958982      12.00000000  F        6      -0.00000000      -0.00000000       0.24903482
Si       7.67917964       3.83958982      12.00000000  F        6       0.00000000      -0.00000000       0.24903482
Si       1.91979491       0.00000000      13.35750000  F        5       0.00000000      -0.00000002      -0.52822352
Si       5.75938473       0.00000000      13.35750000  F        5       0.00000000      -0.00000002      -0.52822353
Si       9.59897455       0.00000000      13.35750000  F        5       0.00000003      -0.00000002      -0.52822354
Si       1.91979491       3.83958982      13.35750000  F        5       0.00000000       0.00000000      -0.52822354
Si       5.75938473       3.83958982      13.35750000  F        5       0.00000000       0.00000000      -0.52822354
Si       9.59897455       3.83958982      13.35750000  F        5       0.00000003       0.00000000      -0.52822356
Si       1.91979491       1.91979491      14.71500000  F        4      -0.00000000       0.00000000       0.14537709
Si       5.75938473       1.91979491      14.71500000  F        4       0.00000000       0.00000000       0.14537709
Si       9.59897455       1.91979491      14.71500000  F        4       0.00000004       0.00000000       0.14537711
Si       1.91979491       5.75938473      14.71500000  F        4      -0.00000000       0.00000002       0.14537707
Si       5.75938473       5.75938473      14.71500000  F        4       0.00000000       0.00000002       0.14537707
Si       9.59897455       5.75938473      14.71500000  F        4       0.00000004       0.00000002       0.14537709
Si       0.00000000       1.91979491      16.07250000  F        3      -0.00000004       0.00000000      -0.14537711
Si       3.83958982       1.91979491      16.07250000  F        3      -0.00000000       0.00000000      -0.14537709
Si       7.67917964       1.91979491      16.07250000  F        3       0.00000000       0.00000000      -0.14537709
Si       0.00000000       5.75938473      16.07250000  F        3      -0.00000004       0.00000002      -0.14537709
Si       3.83958982       5.75938473      16.07250000  F        3      -0.00000000       0.00000002      -0.14537707
Si       7.67917964       5.75938473      16.07250000  F        3       0.00000000       0.00000002      -0.14537707
Si       0.00000000       0.00000000      17.43000000  F        2      -0.00000003      -0.00000002       0.52822354
Si       3.83958982       0.00000000      17.43000000  F        2      -0.00000000      -0.00000002       0.52822353
Si       7.67917964       0.00000000      17.43000000  F        2      -0.00000000      -0.00000002       0.52822352
Si       0.00000000       3.83958982      17.43000000  F        2      -0.00000003       0.00000000       0.52822356
Si       3.83958982       3.83958982      17.43000000  F        2      -0.00000000       0.00000000       0.52822354
Si       7.67917964       3.83958982      17.43000000  F        2      -0.00000000       0.00000000       0.52822354
Si       1.91979491       0.00000000      18.78750000  F        1      -0.00000000       0.00000000      -0.24903482
Si       5.75938473       0.00000000      18.78750000  F        1       0.00000000       0.00000000      -0.24903482
Si       9.59897455       0.00000000      18.78750000  F        1       0.00000004       0.00000000      -0.24903484
Si       1.91979491       3.83958982      18.78750000  F        1      -0.00000000      -0.00000000      -0.24903482
Si       5.75938473       3.83958982      18.78750000  F        1       0.00000000      -0.00000000      -0.24903482
Si       9.59897455       3.83958982      18.78750000  F        1       0.00000004      -0.00000000      -0.24903484
Si       7.67917964       1.91979491      24.31483395  T        0      -0.00000017       0.00000000       0.00000004
F        7.67917964       1.91979491      25.89683580  T        0       0.00000000       0.00000000       0.00049033
F        6.18765399       1.91979491      23.78750000  T        0      -0.00046224       0.00000000      -0.00016342
F        8.42494246       3.21149401      23.78750000  T        0       0.00023120       0.00040043      -0.00016348
F        8.42494246       0.62809581      23.78750000  T        0       0.00023120      -0.00040043      -0.00016348
41
Lattice="11.518769465528859 0.0 0.0 0.0 7.679179643685906 0.0 0.0 0.0 30.7875" Properties=species:S:1:pos:R:3:move_mask:L:1:tags:I:1:forces:R:3 surface=Si100 species=SiF4 site=hollow orientation=flipped height_A=4.0 substrate_atoms=36 calculation_kind="Rigid evaluated approach scan; not NEB" energy=-208.35956007186888 pbc="T T F"
Si       0.00000000       0.00000000      12.00000000  F        6       0.00028890      -0.00000160       0.24933236
Si       3.83958982       0.00000000      12.00000000  F        6      -0.00002439      -0.00000011       0.24917497
Si       7.67917964       0.00000000      12.00000000  F        6      -0.00026452       0.00000809       0.24954780
Si       0.00000000       3.83958982      12.00000000  F        6       0.00028890       0.00000160       0.24933236
Si       3.83958982       3.83958982      12.00000000  F        6      -0.00002439       0.00000011       0.24917497
Si       7.67917964       3.83958982      12.00000000  F        6      -0.00026452      -0.00000809       0.24954780
Si       1.91979491       0.00000000      13.35750000  F        5      -0.00042886      -0.00006732      -0.52528611
Si       5.75938473       0.00000000      13.35750000  F        5       0.00061931       0.00016174      -0.52593954
Si       9.59897455       0.00000000      13.35750000  F        5      -0.00019059       0.00004173      -0.52603316
Si       1.91979491       3.83958982      13.35750000  F        5      -0.00042886       0.00006729      -0.52528612
Si       5.75938473       3.83958982      13.35750000  F        5       0.00061931      -0.00016176      -0.52593955
Si       9.59897455       3.83958982      13.35750000  F        5      -0.00019059      -0.00004176      -0.52603317
Si       1.91979491       1.91979491      14.71500000  F        4      -0.00060672       0.00000000       0.14969052
Si       5.75938473       1.91979491      14.71500000  F        4       0.00329203       0.00000000       0.14595450
Si       9.59897455       1.91979491      14.71500000  F        4      -0.00346355       0.00000000       0.14361288
Si       1.91979491       5.75938473      14.71500000  F        4      -0.00094269       0.00000002       0.14877787
Si       5.75938473       5.75938473      14.71500000  F        4       0.00314333       0.00000002       0.14557296
Si       9.59897455       5.75938473      14.71500000  F        4      -0.00290429       0.00000002       0.14399628
Si       0.00000000       1.91979491      16.07250000  F        3       0.00076224       0.00000000      -0.13810900
Si       3.83958982       1.91979491      16.07250000  F        3      -0.00343046       0.00000000      -0.14440543
Si       7.67917964       1.91979491      16.07250000  F        3      -0.00217737       0.00000000      -0.14748299
Si       0.00000000       5.75938473      16.07250000  F        3      -0.00316514       0.00000002      -0.13224306
Si       3.83958982       5.75938473      16.07250000  F        3       0.00089936       0.00000002      -0.13595241
Si       7.67917964       5.75938473      16.07250000  F        3      -0.00289115       0.00000002      -0.13359979
Si       0.00000000       0.00000000      17.43000000  F        2       0.00038349       0.00137722       0.53147938
Si       3.83958982       0.00000000      17.43000000  F        2       0.00632411       0.00257460       0.53603966
Si       7.67917964       0.00000000      17.43000000  F        2       0.00652403      -0.00177743       0.54083246
Si       0.00000000       3.83958982      17.43000000  F        2       0.00038349      -0.00137724       0.53147940
Si       3.83958982       3.83958982      17.43000000  F        2       0.00632411      -0.00257463       0.53603968
Si       7.67917964       3.83958982      17.43000000  F        2       0.00652403       0.00177741       0.54083247
Si       1.91979491       0.00000000      18.78750000  F        1      -0.00348324      -0.00104943      -0.25209169
Si       5.75938473       0.00000000      18.78750000  F        1       0.02472330       0.03114348      -0.18319618
Si       9.59897455       0.00000000      18.78750000  F        1      -0.03603089       0.00771569      -0.19485550
Si       1.91979491       3.83958982      18.78750000  F        1      -0.00348324       0.00104943      -0.25209169
Si       5.75938473       3.83958982      18.78750000  F        1       0.02472330      -0.03114348      -0.18319618
Si       9.59897455       3.83958982      18.78750000  F        1      -0.03603089      -0.00771569      -0.19485550
Si       7.67917964       1.91979491      23.31483395  T        0      -0.01794162      -0.00000000      -0.06111675
F        7.67917964       1.91979491      24.89683580  T        0       0.00487740      -0.00000000       0.01308612
F        6.18765399       1.91979491      22.78750000  T        0      -0.01591367       0.00000000      -0.13142943
F        8.42494246       3.21149401      22.78750000  T        0       0.02179049       0.01611790      -0.08218059
F        8.42494246       0.62809581      22.78750000  T        0       0.02179049      -0.01611790      -0.08218059
41
Lattice="11.518769465528859 0.0 0.0 0.0 7.679179643685906 0.0 0.0 0.0 30.7875" Properties=species:S:1:pos:R:3:move_mask:L:1:tags:I:1:forces:R:3 surface=Si100 species=SiF4 site=hollow orientation=flipped height_A=3.25 substrate_atoms=36 calculation_kind="Rigid evaluated approach scan; not NEB" energy=-208.56750195127785 pbc="T T F"
Si       0.00000000       0.00000000      12.00000000  F        6       0.00142636      -0.00004817       0.24929725
Si       3.83958982       0.00000000      12.00000000  F        6      -0.00118097      -0.00001879       0.24988258
Si       7.67917964       0.00000000      12.00000000  F        6      -0.00024496       0.00001233       0.24955547
Si       0.00000000       3.83958982      12.00000000  F        6       0.00142636       0.00004817       0.24929725
Si       3.83958982       3.83958982      12.00000000  F        6      -0.00118097       0.00001879       0.24988258
Si       7.67917964       3.83958982      12.00000000  F        6      -0.00024496      -0.00001233       0.24955547
Si       1.91979491       0.00000000      13.35750000  F        5       0.00038049      -0.00015485      -0.52147198
Si       5.75938473       0.00000000      13.35750000  F        5       0.00009220       0.00023098      -0.52318713
Si       9.59897455       0.00000000      13.35750000  F        5      -0.00074668       0.00011318      -0.52645668
Si       1.91979491       3.83958982      13.35750000  F        5       0.00038049       0.00015483      -0.52147199
Si       5.75938473       3.83958982      13.35750000  F        5       0.00009220      -0.00023100      -0.52318715
Si       9.59897455       3.83958982      13.35750000  F        5      -0.00074668      -0.00011320      -0.52645669
Si       1.91979491       1.91979491      14.71500000  F        4       0.00473791      -0.00000000       0.15413143
Si       5.75938473       1.91979491      14.71500000  F        4       0.00892199      -0.00000000       0.15532471
Si       9.59897455       1.91979491      14.71500000  F        4      -0.01200953      -0.00000000       0.16442740
Si       1.91979491       5.75938473      14.71500000  F        4       0.00390208       0.00000002       0.15194980
Si       5.75938473       5.75938473      14.71500000  F        4       0.00794083       0.00000002       0.16466749
Si       9.59897455       5.75938473      14.71500000  F        4      -0.01006699       0.00000002       0.16776191
Si       0.00000000       1.91979491      16.07250000  F        3      -0.00073909      -0.00000000      -0.12316946
Si       3.83958982       1.91979491      16.07250000  F        3      -0.00052962      -0.00000000      -0.13611960
Si       7.67917964       1.91979491      16.07250000  F        3       0.00868230      -0.00000000      -0.15505276
Si       0.00000000       5.75938473      16.07250000  F        3      -0.00223904       0.00000002      -0.11936949
Si       3.83958982       5.75938473      16.07250000  F        3       0.01702764       0.00000002      -0.11114522
Si       7.67917964       5.75938473      16.07250000  F        3      -0.00287826       0.00000002      -0.12365167
Si       0.00000000       0.00000000      17.43000000  F        2      -0.01768094      -0.00437299       0.50144555
Si       3.83958982       0.00000000      17.43000000  F        2      -0.02286003      -0.00338025       0.48400135
Si       7.67917964       0.00000000      17.43000000  F        2       0.02310103      -0.01187815       0.51603808
Si       0.00000000       3.83958982      17.43000000  F        2      -0.01768094       0.00437297       0.50144557
Si       3.83958982       3.83958982      17.43000000  F        2      -0.02286003       0.00338023       0.48400136
Si       7.67917964       3.83958982      17.43000000  F        2       0.02310102       0.01187813       0.51603810
Si       1.91979491       0.00000000      18.78750000  F        1      -0.00334168      -0.00396082      -0.24056433
Si       5.75938473       0.00000000      18.78750000  F        1       0.03516102      -0.02918362      -0.25060164
Si       9.59897455       0.00000000      18.78750000  F        1       0.01311787      -0.00668037      -0.26606189
Si       1.91979491       3.83958982      18.78750000  F        1      -0.00334168       0.00396082      -0.24056433
Si       5.75938473       3.83958982      18.78750000  F        1       0.03516102       0.02918362      -0.25060164
Si       9.59897455       3.83958982      18.78750000  F        1       0.01311787       0.00668037      -0.26606189
Si       7.67917964       1.91979491      22.56483395  T        0      -0.06770389      -0.00000000       0.14825629
F        7.67917964       1.91979491      24.14683580  T        0       0.00938543       0.00000000       0.04959510
F        6.18765399       1.91979491      22.03750000  T        0      -0.01076493       0.00000000       0.02819928
F        8.42494246       3.21149401      22.03750000  T        0      -0.00405711      -0.01128908      -0.12977923
F        8.42494246       0.62809581      22.03750000  T        0      -0.00405711       0.01128908      -0.12977923
41
Lattice="11.518769465528859 0.0 0.0 0.0 7.679179643685906 0.0 0.0 0.0 30.7875" Properties=species:S:1:pos:R:3:move_mask:L:1:tags:I:1:forces:R:3 surface=Si100 species=SiF4 site=hollow orientation=flipped height_A=2.75 substrate_atoms=36 calculation_kind="Rigid evaluated approach scan; not NEB" energy=-208.5738043348911 pbc="T T F"
Si       0.00000000       0.00000000      12.00000000  F        6       0.00229558      -0.00028143       0.25011159
Si       3.83958982       0.00000000      12.00000000  F        6      -0.00198631      -0.00014980       0.25056384
Si       7.67917964       0.00000000      12.00000000  F        6      -0.00030654      -0.00018553       0.24933000
Si       0.00000000       3.83958982      12.00000000  F        6       0.00229558       0.00028143       0.25011159
Si       3.83958982       3.83958982      12.00000000  F        6      -0.00198631       0.00014980       0.25056384
Si       7.67917964       3.83958982      12.00000000  F        6      -0.00030654       0.00018553       0.24933000
Si       1.91979491       0.00000000      13.35750000  F        5       0.00087430       0.00003596      -0.52160002
Si       5.75938473       0.00000000      13.35750000  F        5      -0.00184170       0.00087776      -0.52840739
Si       9.59897455       0.00000000      13.35750000  F        5      -0.00008300       0.00090391      -0.52677614
Si       1.91979491       3.83958982      13.35750000  F        5       0.00087430      -0.00003598      -0.52160004
Si       5.75938473       3.83958982      13.35750000  F        5      -0.00184170      -0.00087778      -0.52840741
Si       9.59897455       3.83958982      13.35750000  F        5      -0.00008300      -0.00090393      -0.52677615
Si       1.91979491       1.91979491      14.71500000  F        4       0.00402645      -0.00000000       0.15439064
Si       5.75938473       1.91979491      14.71500000  F        4       0.01898637      -0.00000000       0.17251160
Si       9.59897455       1.91979491      14.71500000  F        4      -0.02140284      -0.00000000       0.17702122
Si       1.91979491       5.75938473      14.71500000  F        4       0.00448712       0.00000002       0.15058446
Si       5.75938473       5.75938473      14.71500000  F        4       0.01496730       0.00000002       0.18415033
Si       9.59897455       5.75938473      14.71500000  F        4      -0.01855105       0.00000002       0.17557630
Si       0.00000000       1.91979491      16.07250000  F        3      -0.00927926      -0.00000000      -0.10546792
Si       3.83958982       1.91979491      16.07250000  F        3       0.00838425      -0.00000000      -0.12555437
Si       7.67917964       1.91979491      16.07250000  F        3       0.01875441      -0.00000000      -0.13111705
Si       0.00000000       5.75938473      16.07250000  F        3      -0.00311177       0.00000002      -0.10624954
Si       3.83958982       5.75938473      16.07250000  F        3       0.01114341       0.00000002      -0.11143203
Si       7.67917964       5.75938473      16.07250000  F        3       0.01553592       0.00000002      -0.10510370
Si       0.00000000       0.00000000      17.43000000  F        2       0.00358456      -0.01376331       0.42230761
Si       3.83958982       0.00000000      17.43000000  F        2       0.01071012      -0.02975287       0.46665576
Si       7.67917964       0.00000000      17.43000000  F        2       0.01621271      -0.00594570       0.50390359
Si       0.00000000       3.83958982      17.43000000  F        2       0.00358456       0.01376329       0.42230763
Si       3.83958982       3.83958982      17.43000000  F        2       0.01071012       0.02975285       0.46665577
Si       7.67917964       3.83958982      17.43000000  F        2       0.01621271       0.00594568       0.50390360
Si       1.91979491       0.00000000      18.78750000  F        1      -0.00946402      -0.00876541      -0.23669436
Si       5.75938473       0.00000000      18.78750000  F        1      -0.01368747      -0.04724942      -0.30205169
Si       9.59897455       0.00000000      18.78750000  F        1      -0.01073054      -0.00144829      -0.20600936
Si       1.91979491       3.83958982      18.78750000  F        1      -0.00946402       0.00876541      -0.23669436
Si       5.75938473       3.83958982      18.78750000  F        1      -0.01368747       0.04724942      -0.30205169
Si       9.59897455       3.83958982      18.78750000  F        1      -0.01073054       0.00144829      -0.20600936
Si       7.67917964       1.91979491      22.06483395  T        0      -0.10607473      -0.00000000      -0.12454663
F        7.67917964       1.91979491      23.64683580  T        0       0.01380072       0.00000000       0.13031060
F        6.18765399       1.91979491      21.53750000  T        0       0.00837134       0.00000000       0.12718294
F        8.42494246       3.21149401      21.53750000  T        0       0.02440348       0.02463709      -0.05246184
F        8.42494246       0.62809581      21.53750000  T        0       0.02440348      -0.02463709      -0.05246184
41
Lattice="11.518769465528859 0.0 0.0 0.0 7.679179643685906 0.0 0.0 0.0 30.7875" Properties=species:S:1:pos:R:3:move_mask:L:1:tags:I:1:forces:R:3 surface=Si100 species=SiF4 site=hollow orientation=flipped height_A=2.25 substrate_atoms=36 calculation_kind="Rigid evaluated approach scan; not NEB" energy=-208.16331705620854 pbc="T T F"
Si       0.00000000       0.00000000      12.00000000  F        6       0.00306589      -0.00052816       0.24997492
Si       3.83958982       0.00000000      12.00000000  F        6      -0.00245240      -0.00035571       0.25049123
Si       7.67917964       0.00000000      12.00000000  F        6      -0.00060557      -0.00056829       0.24766145
Si       0.00000000       3.83958982      12.00000000  F        6       0.00306589       0.00052816       0.24997492
Si       3.83958982       3.83958982      12.00000000  F        6      -0.00245240       0.00035571       0.25049123
Si       7.67917964       3.83958982      12.00000000  F        6      -0.00060557       0.00056829       0.24766145
Si       1.91979491       0.00000000      13.35750000  F        5       0.00101448       0.00119163      -0.52280994
Si       5.75938473       0.00000000      13.35750000  F        5       0.00239526       0.00269329      -0.51416040
Si       9.59897455       0.00000000      13.35750000  F        5      -0.00157491       0.00437696      -0.52347191
Si       1.91979491       3.83958982      13.35750000  F        5       0.00101448      -0.00119165      -0.52280996
Si       5.75938473       3.83958982      13.35750000  F        5       0.00239526      -0.00269331      -0.51416041
Si       9.59897455       3.83958982      13.35750000  F        5      -0.00157491      -0.00437699      -0.52347192
Si       1.91979491       1.91979491      14.71500000  F        4       0.00783407      -0.00000000       0.16289126
Si       5.75938473       1.91979491      14.71500000  F        4       0.02853992      -0.00000000       0.19610101
Si       9.59897455       1.91979491      14.71500000  F        4      -0.03702290      -0.00000000       0.18358843
Si       1.91979491       5.75938473      14.71500000  F        4       0.01258440       0.00000002       0.15192426
Si       5.75938473       5.75938473      14.71500000  F        4       0.02819570       0.00000002       0.18377581
Si       9.59897455       5.75938473      14.71500000  F        4      -0.04619862       0.00000002       0.17295442
Si       0.00000000       1.91979491      16.07250000  F        3      -0.03355462      -0.00000000      -0.09968274
Si       3.83958982       1.91979491      16.07250000  F        3       0.01383435      -0.00000000      -0.13981391
Si       7.67917964       1.91979491      16.07250000  F        3       0.01722082      -0.00000000      -0.16753317
Si       0.00000000       5.75938473      16.07250000  F        3      -0.04232461       0.00000002      -0.06232484
Si       3.83958982       5.75938473      16.07250000  F        3       0.00398135       0.00000002      -0.12389370
Si       7.67917964       5.75938473      16.07250000  F        3       0.02389484       0.00000002      -0.13653563
Si       0.00000000       0.00000000      17.43000000  F        2       0.14293385      -0.00730736       0.28434673
Si       3.83958982       0.00000000      17.43000000  F        2       0.00806465      -0.06712391       0.42095426
Si       7.67917964       0.00000000      17.43000000  F        2       0.02134747       0.00388319       0.44007129
Si       0.00000000       3.83958982      17.43000000  F        2       0.14293385       0.00730734       0.28434675
Si       3.83958982       3.83958982      17.43000000  F        2       0.00806465       0.06712389       0.42095428
Si       7.67917964       3.83958982      17.43000000  F        2       0.02134747      -0.00388321       0.44007131
Si       1.91979491       0.00000000      18.78750000  F        1      -0.01597121      -0.01555111      -0.22771031
Si       5.75938473       0.00000000      18.78750000  F        1      -0.08659845      -0.10982431      -0.38706808
Si       9.59897455       0.00000000      18.78750000  F        1       0.30356543      -0.25927643      -0.90663106
Si       1.91979491       3.83958982      18.78750000  F        1      -0.01597121       0.01555110      -0.22771031
Si       5.75938473       3.83958982      18.78750000  F        1      -0.08659845       0.10982431      -0.38706808
Si       9.59897455       3.83958982      18.78750000  F        1       0.30356543       0.25927643      -0.90663106
Si       7.67917964       1.91979491      21.56483395  T        0      -0.38506177      -0.00000000       0.02691536
F        7.67917964       1.91979491      23.14683580  T        0       0.02268305      -0.00000000       0.18654121
F        6.18765399       1.91979491      21.03750000  T        0       0.21225792       0.00000000       0.35622920
F        8.42494246       3.21149401      21.03750000  T        0      -0.28861641       0.02779562       0.74278332
F        8.42494246       0.62809581      21.03750000  T        0      -0.28861641      -0.02779562       0.74278332
41
Lattice="11.518769465528859 0.0 0.0 0.0 7.679179643685906 0.0 0.0 0.0 30.7875" Properties=species:S:1:pos:R:3:move_mask:L:1:tags:I:1:forces:R:3 surface=Si100 species=SiF4 site=hollow orientation=flipped height_A=1.9 substrate_atoms=36 calculation_kind="Rigid evaluated approach scan; not NEB" energy=-207.13438681166218 pbc="T T F"
Si       0.00000000       0.00000000      12.00000000  F        6       0.00364137      -0.00048353       0.25011958
Si       3.83958982       0.00000000      12.00000000  F        6      -0.00252911      -0.00049601       0.24992731
Si       7.67917964       0.00000000      12.00000000  F        6      -0.00109319      -0.00119166       0.24816933
Si       0.00000000       3.83958982      12.00000000  F        6       0.00364137       0.00048353       0.25011958
Si       3.83958982       3.83958982      12.00000000  F        6      -0.00252911       0.00049601       0.24992731
Si       7.67917964       3.83958982      12.00000000  F        6      -0.00109319       0.00119166       0.24816933
Si       1.91979491       0.00000000      13.35750000  F        5       0.00425603       0.00334841      -0.52751076
Si       5.75938473       0.00000000      13.35750000  F        5       0.00654605       0.00582143      -0.49621350
Si       9.59897455       0.00000000      13.35750000  F        5      -0.00682182       0.00836813      -0.51926308
Si       1.91979491       3.83958982      13.35750000  F        5       0.00425603      -0.00334843      -0.52751077
Si       5.75938473       3.83958982      13.35750000  F        5       0.00654605      -0.00582145      -0.49621352
Si       9.59897455       3.83958982      13.35750000  F        5      -0.00682182      -0.00836815      -0.51926309
Si       1.91979491       1.91979491      14.71500000  F        4       0.01470506       0.00000000       0.17029583
Si       5.75938473       1.91979491      14.71500000  F        4       0.02046996      -0.00000000       0.20488657
Si       9.59897455       1.91979491      14.71500000  F        4      -0.04133613       0.00000000       0.15579967
Si       1.91979491       5.75938473      14.71500000  F        4       0.02029397       0.00000002       0.15253415
Si       5.75938473       5.75938473      14.71500000  F        4       0.03219103       0.00000002       0.16856830
Si       9.59897455       5.75938473      14.71500000  F        4      -0.06320374       0.00000002       0.15238290
Si       0.00000000       1.91979491      16.07250000  F        3      -0.05084138      -0.00000000      -0.09312922
Si       3.83958982       1.91979491      16.07250000  F        3       0.02288795      -0.00000000      -0.16935059
Si       7.67917964       1.91979491      16.07250000  F        3       0.00424893      -0.00000000      -0.23062797
Si       0.00000000       5.75938473      16.07250000  F        3      -0.09120438       0.00000002       0.00989433
Si       3.83958982       5.75938473      16.07250000  F        3       0.02549524       0.00000002      -0.11992052
Si       7.67917964       5.75938473      16.07250000  F        3       0.00055786       0.00000002      -0.19210170
Si       0.00000000       0.00000000      17.43000000  F        2       0.23375366       0.05408353       0.23375272
Si       3.83958982       0.00000000      17.43000000  F        2       0.00127821      -0.03045095       0.42317825
Si       7.67917964       0.00000000      17.43000000  F        2       0.05135116       0.00559481       0.39480432
Si       0.00000000       3.83958982      17.43000000  F        2       0.23375366      -0.05408355       0.23375273
Si       3.83958982       3.83958982      17.43000000  F        2       0.00127821       0.03045093       0.42317826
Si       7.67917964       3.83958982      17.43000000  F        2       0.05135116      -0.00559483       0.39480433
Si       1.91979491       0.00000000      18.78750000  F        1      -0.01759506      -0.02209878      -0.20179184
Si       5.75938473       0.00000000      18.78750000  F        1      -0.14559278      -0.44699444      -0.61242759
Si       9.59897455       0.00000000      18.78750000  F        1       0.62265302      -0.57805278      -1.36648024
Si       1.91979491       3.83958982      18.78750000  F        1      -0.01759506       0.02209878      -0.20179184
Si       5.75938473       3.83958982      18.78750000  F        1      -0.14559278       0.44699444      -0.61242759
Si       9.59897455       3.83958982      18.78750000  F        1       0.62265302       0.57805278      -1.36648024
Si       7.67917964       1.91979491      21.21483395  T        0      -0.66085219      -0.00000000       0.29618470
F        7.67917964       1.91979491      22.79683580  T        0       0.06990844      -0.00000000       0.19612676
F        6.18765399       1.91979491      20.68750000  T        0       0.12604748       0.00000000       0.88247734
F        8.42494246       3.21149401      20.68750000  T        0      -0.46453160       0.20444479       1.13172523
F        8.42494246       0.62809581      20.68750000  T        0      -0.46453160      -0.20444479       1.13172523
41
Lattice="11.518769465528859 0.0 0.0 0.0 7.679179643685906 0.0 0.0 0.0 30.7875" Properties=species:S:1:pos:R:3:move_mask:L:1:tags:I:1:forces:R:3 surface=Si100 species=SiF4 site=hollow orientation=flipped height_A=1.6 substrate_atoms=36 calculation_kind="Rigid evaluated approach scan; not NEB" energy=-205.8970056975625 pbc="T T F"
Si       0.00000000       0.00000000      12.00000000  F        6       0.00624454      -0.00005596       0.25009736
Si       3.83958982       0.00000000      12.00000000  F        6      -0.00278363      -0.00075083       0.24951277
Si       7.67917964       0.00000000      12.00000000  F        6      -0.00344431      -0.00566733       0.24444196
Si       0.00000000       3.83958982      12.00000000  F        6       0.00624454       0.00005596       0.25009736
Si       3.83958982       3.83958982      12.00000000  F        6      -0.00278363       0.00075083       0.24951277
Si       7.67917964       3.83958982      12.00000000  F        6      -0.00344431       0.00566733       0.24444196
Si       1.91979491       0.00000000      13.35750000  F        5       0.00631496       0.00500316      -0.52843020
Si       5.75938473       0.00000000      13.35750000  F        5       0.00957717       0.01005392      -0.48069849
Si       9.59897455       0.00000000      13.35750000  F        5      -0.01074627       0.01185724      -0.52048637
Si       1.91979491       3.83958982      13.35750000  F        5       0.00631496      -0.00500318      -0.52843022
Si       5.75938473       3.83958982      13.35750000  F        5       0.00957717      -0.01005394      -0.48069850
Si       9.59897455       3.83958982      13.35750000  F        5      -0.01074627      -0.01185726      -0.52048638
Si       1.91979491       1.91979491      14.71500000  F        4       0.02053831       0.00000000       0.17088511
Si       5.75938473       1.91979491      14.71500000  F        4       0.00020863       0.00000000       0.21386368
Si       9.59897455       1.91979491      14.71500000  F        4      -0.02970284       0.00000000       0.15296813
Si       1.91979491       5.75938473      14.71500000  F        4       0.02705415       0.00000002       0.15473717
Si       5.75938473       5.75938473      14.71500000  F        4       0.02570130       0.00000002       0.16195495
Si       9.59897455       5.75938473      14.71500000  F        4      -0.06710676       0.00000002       0.12562082
Si       0.00000000       1.91979491      16.07250000  F        3      -0.03317322      -0.00000000      -0.11911354
Si       3.83958982       1.91979491      16.07250000  F        3       0.03667912      -0.00000000      -0.20034582
Si       7.67917964       1.91979491      16.07250000  F        3      -0.03183194      -0.00000000      -0.32480470
Si       0.00000000       5.75938473      16.07250000  F        3      -0.09362001       0.00000002       0.05789245
Si       3.83958982       5.75938473      16.07250000  F        3       0.05929872       0.00000002      -0.09715758
Si       7.67917964       5.75938473      16.07250000  F        3      -0.06586072       0.00000002      -0.25723819
Si       0.00000000       0.00000000      17.43000000  F        2       0.34341346       0.11455240       0.16414193
Si       3.83958982       0.00000000      17.43000000  F        2      -0.00469804       0.01355161       0.42975446
Si       7.67917964       0.00000000      17.43000000  F        2      -0.02438055      -0.01484652       0.34064382
Si       0.00000000       3.83958982      17.43000000  F        2       0.34341346      -0.11455242       0.16414195
Si       3.83958982       3.83958982      17.43000000  F        2      -0.00469804      -0.01355163       0.42975447
Si       7.67917964       3.83958982      17.43000000  F        2      -0.02438055       0.01484650       0.34064384
Si       1.91979491       0.00000000      18.78750000  F        1      -0.00720981      -0.02454626      -0.16043518
Si       5.75938473       0.00000000      18.78750000  F        1      -0.25057496      -0.85234020      -0.78095829
Si       9.59897455       0.00000000      18.78750000  F        1       0.98775589      -0.91766844      -1.50115222
Si       1.91979491       3.83958982      18.78750000  F        1      -0.00720981       0.02454626      -0.16043518
Si       5.75938473       3.83958982      18.78750000  F        1      -0.25057496       0.85234020      -0.78095829
Si       9.59897455       3.83958982      18.78750000  F        1       0.98775589       0.91766844      -1.50115222
Si       7.67917964       1.91979491      20.91483395  T        0      -0.78845047      -0.00000000       0.88921813
F        7.67917964       1.91979491      22.49683580  T        0       0.10596086       0.00000000       0.16974748
F        6.18765399       1.91979491      20.38750000  T        0      -0.26794244       0.00000000       0.99042051
F        8.42494246       3.21149401      20.38750000  T        0      -0.49834480       0.66464969       1.24924415
F        8.42494246       0.62809581      20.38750000  T        0      -0.49834480      -0.66464969       1.24924415
41
Lattice="11.518769465528859 0.0 0.0 0.0 7.679179643685906 0.0 0.0 0.0 30.7875" Properties=species:S:1:pos:R:3:move_mask:L:1:tags:I:1:forces:R:3 surface=Si100 species=SiF4 site=hollow orientation=flipped height_A=1.3 substrate_atoms=36 calculation_kind="Rigid evaluated approach scan; not NEB" energy=-204.46652863657764 pbc="T T F"
Si       0.00000000       0.00000000      12.00000000  F        6       0.00867858       0.00079848       0.25118916
Si       3.83958982       0.00000000      12.00000000  F        6      -0.00307294      -0.00126707       0.25011910
Si       7.67917964       0.00000000      12.00000000  F        6      -0.00531537      -0.01185289       0.23801461
Si       0.00000000       3.83958982      12.00000000  F        6       0.00867858      -0.00079848       0.25118916
Si       3.83958982       3.83958982      12.00000000  F        6      -0.00307294       0.00126707       0.25011910
Si       7.67917964       3.83958982      12.00000000  F        6      -0.00531537       0.01185289       0.23801461
Si       1.91979491       0.00000000      13.35750000  F        5       0.00504956       0.00492752      -0.51807788
Si       5.75938473       0.00000000      13.35750000  F        5       0.00888212       0.01328943      -0.47701930
Si       9.59897455       0.00000000      13.35750000  F        5      -0.01031606       0.01264106      -0.52260977
Si       1.91979491       3.83958982      13.35750000  F        5       0.00504956      -0.00492755      -0.51807790
Si       5.75938473       3.83958982      13.35750000  F        5       0.00888212      -0.01328946      -0.47701931
Si       9.59897455       3.83958982      13.35750000  F        5      -0.01031606      -0.01264108      -0.52260979
Si       1.91979491       1.91979491      14.71500000  F        4       0.02338116       0.00000000       0.15587174
Si       5.75938473       1.91979491      14.71500000  F        4      -0.04484157       0.00000000       0.20544815
Si       9.59897455       1.91979491      14.71500000  F        4       0.00045519       0.00000000       0.18830961
Si       1.91979491       5.75938473      14.71500000  F        4       0.04396260       0.00000002       0.15291784
Si       5.75938473       5.75938473      14.71500000  F        4       0.00874751       0.00000002       0.16968593
Si       9.59897455       5.75938473      14.71500000  F        4      -0.07377908       0.00000002       0.11519041
Si       0.00000000       1.91979491      16.07250000  F        3      -0.01743809      -0.00000000      -0.17825204
Si       3.83958982       1.91979491      16.07250000  F        3       0.06333787      -0.00000000      -0.20610536
Si       7.67917964       1.91979491      16.07250000  F        3      -0.05712410      -0.00000000      -0.44606966
Si       0.00000000       5.75938473      16.07250000  F        3      -0.08224739       0.00000002       0.05889805
Si       3.83958982       5.75938473      16.07250000  F        3       0.07694152       0.00000002      -0.06588378
Si       7.67917964       5.75938473      16.07250000  F        3      -0.12492293       0.00000002      -0.29753505
Si       0.00000000       0.00000000      17.43000000  F        2       0.47836522       0.19517162       0.12262530
Si       3.83958982       0.00000000      17.43000000  F        2      -0.00438452       0.04688075       0.44598206
Si       7.67917964       0.00000000      17.43000000  F        2      -0.18387095      -0.16490147      -0.00824031
Si       0.00000000       3.83958982      17.43000000  F        2       0.47836522      -0.19517165       0.12262532
Si       3.83958982       3.83958982      17.43000000  F        2      -0.00438452      -0.04688077       0.44598207
Si       7.67917964       3.83958982      17.43000000  F        2      -0.18387095       0.16490145      -0.00824029
Si       1.91979491       0.00000000      18.78750000  F        1       0.01404959      -0.01623418      -0.11126545
Si       5.75938473       0.00000000      18.78750000  F        1      -0.39296058      -1.12813658      -0.74080085
Si       9.59897455       0.00000000      18.78750000  F        1       1.28625563      -1.30911649      -1.40827263
Si       1.91979491       3.83958982      18.78750000  F        1       0.01404959       0.01623418      -0.11126545
Si       5.75938473       3.83958982      18.78750000  F        1      -0.39296058       1.12813658      -0.74080085
Si       9.59897455       3.83958982      18.78750000  F        1       1.28625563       1.30911649      -1.40827262
Si       7.67917964       1.91979491      20.61483395  T        0      -1.07429076      -0.00000000       2.19483015
F        7.67917964       1.91979491      22.19683580  T        0       0.10469612       0.00000000       0.18583295
F        6.18765399       1.91979491      20.08750000  T        0      -0.96414005      -0.00000000       0.34897464
F        8.42494246       3.21149401      20.08750000  T        0      -0.14272927       1.31894958       1.18729916
F        8.42494246       0.62809581      20.08750000  T        0      -0.14272927      -1.31894958       1.18729917
