30
Lattice="7.6044 0.0 0.0 -3.802199999999998 6.585603580538386 0.0 0.0 -0.0 28.35945" Properties=species:S:1:pos:R:3:move_mask:L:1:spacegroup_kinds:I:1:tags:I:1:forces:R:3 spacegroup="P 63/m" unit_cell=conventional occupancy="_JSON {\"0\": {\"Si\": 1.0}, \"1\": {\"N\": 1.0}, \"2\": {\"N\": 1.0}}" surface=beta_Si3N4_001 species=HF height_A=6.5 substrate_atoms=28 calculation_kind="Rigid approach energy evaluation; not NEB or TS" energy=-217.96815282284823 pbc="T T F"
Si       5.18010587       1.14956320      12.00000000  F        0        2       1.71433257       1.23128057       1.44813123
Si      -1.37790587       5.43604038      13.45315000  F        0        2      -0.07773089       0.46666682      -1.50583478
Si       4.01879613       3.91132168      12.00000000  F        0        2      -1.92360808       0.86894036       1.44804711
Si      -0.21659613       2.67428190      13.45315000  F        0        2      -0.36507877      -0.30057371      -1.50589254
Si       2.20769800       1.52471870      12.00000000  F        0        2       0.20862335      -2.10064850       1.44820179
Si       1.59450200       5.06088488      13.45315000  F        0        2       0.44364014      -0.16560437      -1.50586542
N       -1.02370433       2.17482973      12.00000000  F        1        2      -0.59853549      -0.65572339       0.11065544
N        4.82590433       4.41077385      13.45315000  F        1        2       0.47556813      -0.04438601      -0.36872699
N        2.43059437       4.61163476      12.00000000  F        1        2       0.86723752      -0.19036310       0.11060084
N        1.37160563       1.97396882      13.45315000  F        1        2      -0.19953945       0.43394852      -0.36878823
N       -1.40689004       6.38474267      12.00000000  F        1        2      -0.26879770       0.84608230       0.11061521
N        5.20909004       0.20086091      13.45315000  F        1        2      -0.27604702      -0.38955900      -0.36876148
N        3.80216198       2.19517924      12.00000000  F        2        2       0.00086470       0.00049411      -1.73788822
N        0.00003802       4.39042434      13.45315000  F        2        2      -0.00108137      -0.00062939       0.57463032
Si       5.18010587       1.14956320      14.90630000  F        0        1       0.07773089      -0.46666682       1.50583478
Si      -1.37790587       5.43604038      16.35945000  F        0        1      -1.71433257      -1.23128057      -1.44813123
Si       4.01879613       3.91132168      14.90630000  F        0        1       0.36507877       0.30057371       1.50589254
Si      -0.21659613       2.67428190      16.35945000  F        0        1       1.92360808      -0.86894036      -1.44804711
Si       2.20769800       1.52471870      14.90630000  F        0        1      -0.44364014       0.16560437       1.50586542
Si       1.59450200       5.06088488      16.35945000  F        0        1      -0.20862335       2.10064850      -1.44820179
N       -1.02370433       2.17482973      14.90630000  F        1        1      -0.47556813       0.04438601       0.36872699
N        4.82590433       4.41077385      16.35945000  F        1        1       0.59853549       0.65572339      -0.11065544
N        2.43059437       4.61163476      14.90630000  F        1        1       0.19953945      -0.43394852       0.36878823
N        1.37160563       1.97396882      16.35945000  F        1        1      -0.86723752       0.19036310      -0.11060084
N       -1.40689004       6.38474267      14.90630000  F        1        1       0.27604702       0.38955900       0.36876148
N        5.20909004       0.20086091      16.35945000  F        1        1       0.26879770      -0.84608230      -0.11061521
N        3.80216198       2.19517924      14.90630000  F        2        1       0.00108137       0.00062939      -0.57463032
N        0.00003802       4.39042434      16.35945000  F        2        1      -0.00086470      -0.00049411       1.73788822
F        2.20769800       1.52471870      22.85945000  F        0        0       0.00000000       0.00000000       0.00058280
H        2.20769800       1.52471870      23.82068254  F        0        0       0.00000000       0.00000000      -0.00058280
30
Lattice="7.6044 0.0 0.0 -3.802199999999998 6.585603580538386 0.0 0.0 -0.0 28.35945" Properties=species:S:1:pos:R:3:move_mask:L:1:spacegroup_kinds:I:1:tags:I:1:forces:R:3 spacegroup="P 63/m" unit_cell=conventional occupancy="_JSON {\"0\": {\"Si\": 1.0}, \"1\": {\"N\": 1.0}, \"2\": {\"N\": 1.0}}" surface=beta_Si3N4_001 species=HF height_A=5.0 substrate_atoms=28 calculation_kind="Rigid approach energy evaluation; not NEB or TS" energy=-217.96815282284823 pbc="T T F"
Si       5.18010587       1.14956320      12.00000000  F        0        2       1.71433257       1.23128057       1.44813123
Si      -1.37790587       5.43604038      13.45315000  F        0        2      -0.07773089       0.46666682      -1.50583478
Si       4.01879613       3.91132168      12.00000000  F        0        2      -1.92360808       0.86894036       1.44804711
Si      -0.21659613       2.67428190      13.45315000  F        0        2      -0.36507877      -0.30057371      -1.50589254
Si       2.20769800       1.52471870      12.00000000  F        0        2       0.20862335      -2.10064850       1.44820179
Si       1.59450200       5.06088488      13.45315000  F        0        2       0.44364014      -0.16560437      -1.50586542
N       -1.02370433       2.17482973      12.00000000  F        1        2      -0.59853549      -0.65572339       0.11065544
N        4.82590433       4.41077385      13.45315000  F        1        2       0.47556813      -0.04438601      -0.36872699
N        2.43059437       4.61163476      12.00000000  F        1        2       0.86723752      -0.19036310       0.11060084
N        1.37160563       1.97396882      13.45315000  F        1        2      -0.19953945       0.43394852      -0.36878823
N       -1.40689004       6.38474267      12.00000000  F        1        2      -0.26879770       0.84608230       0.11061521
N        5.20909004       0.20086091      13.45315000  F        1        2      -0.27604702      -0.38955900      -0.36876148
N        3.80216198       2.19517924      12.00000000  F        2        2       0.00086470       0.00049411      -1.73788822
N        0.00003802       4.39042434      13.45315000  F        2        2      -0.00108137      -0.00062939       0.57463032
Si       5.18010587       1.14956320      14.90630000  F        0        1       0.07773089      -0.46666682       1.50583478
Si      -1.37790587       5.43604038      16.35945000  F        0        1      -1.71433257      -1.23128057      -1.44813123
Si       4.01879613       3.91132168      14.90630000  F        0        1       0.36507877       0.30057371       1.50589254
Si      -0.21659613       2.67428190      16.35945000  F        0        1       1.92360808      -0.86894036      -1.44804711
Si       2.20769800       1.52471870      14.90630000  F        0        1      -0.44364014       0.16560437       1.50586542
Si       1.59450200       5.06088488      16.35945000  F        0        1      -0.20862335       2.10064850      -1.44820179
N       -1.02370433       2.17482973      14.90630000  F        1        1      -0.47556813       0.04438601       0.36872699
N        4.82590433       4.41077385      16.35945000  F        1        1       0.59853549       0.65572339      -0.11065544
N        2.43059437       4.61163476      14.90630000  F        1        1       0.19953945      -0.43394852       0.36878823
N        1.37160563       1.97396882      16.35945000  F        1        1      -0.86723752       0.19036310      -0.11060084
N       -1.40689004       6.38474267      14.90630000  F        1        1       0.27604702       0.38955900       0.36876148
N        5.20909004       0.20086091      16.35945000  F        1        1       0.26879770      -0.84608230      -0.11061521
N        3.80216198       2.19517924      14.90630000  F        2        1       0.00108137       0.00062939      -0.57463032
N        0.00003802       4.39042434      16.35945000  F        2        1      -0.00086470      -0.00049411       1.73788822
F        2.20769800       1.52471870      21.35945000  F        0        0       0.00000000       0.00000000       0.00058280
H        2.20769800       1.52471870      22.32068254  F        0        0       0.00000000       0.00000000      -0.00058280
30
Lattice="7.6044 0.0 0.0 -3.802199999999998 6.585603580538386 0.0 0.0 -0.0 28.35945" Properties=species:S:1:pos:R:3:move_mask:L:1:spacegroup_kinds:I:1:tags:I:1:forces:R:3 spacegroup="P 63/m" unit_cell=conventional occupancy="_JSON {\"0\": {\"Si\": 1.0}, \"1\": {\"N\": 1.0}, \"2\": {\"N\": 1.0}}" surface=beta_Si3N4_001 species=HF height_A=4.0 substrate_atoms=28 calculation_kind="Rigid approach energy evaluation; not NEB or TS" energy=-217.97002918286526 pbc="T T F"
Si       5.18010587       1.14956320      12.00000000  F        0        2       1.71519441       1.23196982       1.44744420
Si      -1.37790587       5.43604038      13.45315000  F        0        2      -0.07734492       0.46701998      -1.50760335
Si       4.01879613       3.91132168      12.00000000  F        0        2      -1.92390422       0.86894583       1.44740545
Si      -0.21659613       2.67428190      13.45315000  F        0        2      -0.36466172      -0.29879080      -1.50811717
Si       2.20769800       1.52471870      12.00000000  F        0        2       0.20842514      -2.09947215       1.44918069
Si       1.59450200       5.06088488      13.45315000  F        0        2       0.44234243      -0.16745171      -1.50737378
N       -1.02370433       2.17482973      12.00000000  F        1        2      -0.59789934      -0.65505805       0.11155721
N        4.82590433       4.41077385      13.45315000  F        1        2       0.47456594      -0.04374952      -0.36796273
N        2.43059437       4.61163476      12.00000000  F        1        2       0.86691025      -0.18980916       0.11048846
N        1.37160563       1.97396882      13.45315000  F        1        2      -0.19982963       0.43439310      -0.36188900
N       -1.40689004       6.38474267      12.00000000  F        1        2      -0.26844881       0.84556536       0.11037435
N        5.20909004       0.20086091      13.45315000  F        1        2      -0.27563001      -0.38946834      -0.36727502
N        3.80216198       2.19517924      12.00000000  F        2        2      -0.00037771      -0.00032230      -1.73898583
N        0.00003802       4.39042434      13.45315000  F        2        2      -0.00106202      -0.00211831       0.57339563
Si       5.18010587       1.14956320      14.90630000  F        0        1       0.07422730      -0.46618413       1.50636941
Si      -1.37790587       5.43604038      16.35945000  F        0        1      -1.71508248      -1.20055992      -1.40565420
Si       4.01879613       3.91132168      14.90630000  F        0        1       0.36182539       0.29664493       1.50462136
Si      -0.21659613       2.67428190      16.35945000  F        0        1       1.95388621      -0.87830436      -1.43214700
Si       2.20769800       1.52471870      14.90630000  F        0        1      -0.44755750       0.16698585       1.51292499
Si       1.59450200       5.06088488      16.35945000  F        0        1      -0.20447265       2.10481970      -1.44643535
N       -1.02370433       2.17482973      14.90630000  F        1        1      -0.47152062       0.04159485       0.37957938
N        4.82590433       4.41077385      16.35945000  F        1        1       0.60122207       0.65518638      -0.11176197
N        2.43059437       4.61163476      14.90630000  F        1        1       0.19529982      -0.43710407       0.37481547
N        1.37160563       1.97396882      16.35945000  F        1        1      -0.86159609       0.18667393      -0.13013836
N       -1.40689004       6.38474267      14.90630000  F        1        1       0.27431366       0.38693054       0.37263340
N        5.20909004       0.20086091      16.35945000  F        1        1       0.26825293      -0.84883007      -0.11156966
N        3.80216198       2.19517924      14.90630000  F        2        1       0.00250206       0.00130935      -0.57428545
N        0.00003802       4.39042434      16.35945000  F        2        1      -0.00701475       0.00730004       1.74139366
F        2.20769800       1.52471870      20.35945000  F        0        0      -0.03686303      -0.01288504      -0.10579327
H        2.20769800       1.52471870      21.32068254  F        0        0       0.01429788      -0.00523176       0.03480847
30
Lattice="7.6044 0.0 0.0 -3.802199999999998 6.585603580538386 0.0 0.0 -0.0 28.35945" Properties=species:S:1:pos:R:3:move_mask:L:1:spacegroup_kinds:I:1:tags:I:1:forces:R:3 spacegroup="P 63/m" unit_cell=conventional occupancy="_JSON {\"0\": {\"Si\": 1.0}, \"1\": {\"N\": 1.0}, \"2\": {\"N\": 1.0}}" surface=beta_Si3N4_001 species=HF height_A=3.25 substrate_atoms=28 calculation_kind="Rigid approach energy evaluation; not NEB or TS" energy=-218.05095406673263 pbc="T T F"
Si       5.18010587       1.14956320      12.00000000  F        0        2       1.71519492       1.23333078       1.44578132
Si      -1.37790587       5.43604038      13.45315000  F        0        2      -0.07662380       0.46610056      -1.50017232
Si       4.01879613       3.91132168      12.00000000  F        0        2      -1.92524535       0.86709710       1.44473983
Si      -0.21659613       2.67428190      13.45315000  F        0        2      -0.36861106      -0.30758760      -1.50255170
Si       2.20769800       1.52471870      12.00000000  F        0        2       0.20579039      -2.09106857       1.45128546
Si       1.59450200       5.06088488      13.45315000  F        0        2       0.44540164      -0.16580165      -1.51388589
N       -1.02370433       2.17482973      12.00000000  F        1        2      -0.59652052      -0.65410812       0.11359109
N        4.82590433       4.41077385      13.45315000  F        1        2       0.47086618      -0.04512827      -0.37097134
N        2.43059437       4.61163476      12.00000000  F        1        2       0.86528320      -0.18934358       0.11245839
N        1.37160563       1.97396882      13.45315000  F        1        2      -0.18884627       0.43153630      -0.38246588
N       -1.40689004       6.38474267      12.00000000  F        1        2      -0.26757710       0.83920024       0.11416098
N        5.20909004       0.20086091      13.45315000  F        1        2      -0.27695616      -0.39101381      -0.36128333
N        3.80216198       2.19517924      12.00000000  F        2        2      -0.00154064      -0.00193685      -1.73691307
N        0.00003802       4.39042434      13.45315000  F        2        2      -0.00400171       0.00200346       0.55987045
Si       5.18010587       1.14956320      14.90630000  F        0        1       0.07718961      -0.45379323       1.49627579
Si      -1.37790587       5.43604038      16.35945000  F        0        1      -1.68024549      -1.14170119      -1.38496620
Si       4.01879613       3.91132168      14.90630000  F        0        1       0.36178484       0.28865004       1.49620034
Si      -0.21659613       2.67428190      16.35945000  F        0        1       1.99206190      -0.88546209      -1.38332108
Si       2.20769800       1.52471870      14.90630000  F        0        1      -0.43897661       0.15860697       1.56616551
Si       1.59450200       5.06088488      16.35945000  F        0        1      -0.20005690       2.09184973      -1.42961081
N       -1.02370433       2.17482973      14.90630000  F        1        1      -0.49074973       0.02853191       0.38094658
N        4.82590433       4.41077385      16.35945000  F        1        1       0.57645982       0.64238845      -0.09917966
N        2.43059437       4.61163476      14.90630000  F        1        1       0.18878124      -0.43074258       0.38786648
N        1.37160563       1.97396882      16.35945000  F        1        1      -0.86582817       0.17754051      -0.20485740
N       -1.40689004       6.38474267      14.90630000  F        1        1       0.27534933       0.39503643       0.38280400
N        5.20909004       0.20086091      16.35945000  F        1        1       0.29423415      -0.86405114      -0.13514464
N        3.80216198       2.19517924      14.90630000  F        2        1       0.00236374       0.00038339      -0.57487781
N        0.00003802       4.39042434      16.35945000  F        2        1      -0.01931188       0.03184237       1.75756601
F        2.20769800       1.52471870      19.60945000  F        0        0      -0.06621409      -0.06231687       0.34189546
H        2.20769800       1.52471870      20.57068254  F        0        0      -0.00345549       0.02995730      -0.47140656
30
Lattice="7.6044 0.0 0.0 -3.802199999999998 6.585603580538386 0.0 0.0 -0.0 28.35945" Properties=species:S:1:pos:R:3:move_mask:L:1:spacegroup_kinds:I:1:tags:I:1:forces:R:3 spacegroup="P 63/m" unit_cell=conventional occupancy="_JSON {\"0\": {\"Si\": 1.0}, \"1\": {\"N\": 1.0}, \"2\": {\"N\": 1.0}}" surface=beta_Si3N4_001 species=HF height_A=2.75 substrate_atoms=28 calculation_kind="Rigid approach energy evaluation; not NEB or TS" energy=-218.09222960558637 pbc="T T F"
Si       5.18010587       1.14956320      12.00000000  F        0        2       1.71279140       1.23324699       1.44491811
Si      -1.37790587       5.43604038      13.45315000  F        0        2      -0.07718419       0.47200160      -1.49065475
Si       4.01879613       3.91132168      12.00000000  F        0        2      -1.92479288       0.86558050       1.44548801
Si      -0.21659613       2.67428190      13.45315000  F        0        2      -0.36118863      -0.30998918      -1.51790621
Si       2.20769800       1.52471870      12.00000000  F        0        2       0.20349702      -2.08320693       1.43983225
Si       1.59450200       5.06088488      13.45315000  F        0        2       0.45072877      -0.16812842      -1.51603549
N       -1.02370433       2.17482973      12.00000000  F        1        2      -0.60107233      -0.65374502       0.11656374
N        4.82590433       4.41077385      13.45315000  F        1        2       0.47666906      -0.05403018      -0.36194407
N        2.43059437       4.61163476      12.00000000  F        1        2       0.86422310      -0.18880053       0.11347564
N        1.37160563       1.97396882      13.45315000  F        1        2      -0.18974319       0.42984997      -0.41727673
N       -1.40689004       6.38474267      12.00000000  F        1        2      -0.26681045       0.84096740       0.11328646
N        5.20909004       0.20086091      13.45315000  F        1        2      -0.27038417      -0.38712576      -0.36411698
N        3.80216198       2.19517924      12.00000000  F        2        2      -0.00346866      -0.00352694      -1.73238506
N        0.00003802       4.39042434      13.45315000  F        2        2      -0.01458168      -0.00071423       0.55161879
Si       5.18010587       1.14956320      14.90630000  F        0        1       0.06148012      -0.44880166       1.50528491
Si      -1.37790587       5.43604038      16.35945000  F        0        1      -1.67678868      -1.16026733      -1.38047980
Si       4.01879613       3.91132168      14.90630000  F        0        1       0.35789632       0.27839499       1.49631960
Si      -0.21659613       2.67428190      16.35945000  F        0        1       1.98446834      -0.86345726      -1.34669134
Si       2.20769800       1.52471870      14.90630000  F        0        1      -0.40198911       0.14490701       1.55621352
Si       1.59450200       5.06088488      16.35945000  F        0        1      -0.19624917       2.06847302      -1.39101635
N       -1.02370433       2.17482973      14.90630000  F        1        1      -0.50573730       0.03484669       0.37517680
N        4.82590433       4.41077385      16.35945000  F        1        1       0.60284292       0.66166575      -0.13055395
N        2.43059437       4.61163476      14.90630000  F        1        1       0.18535137      -0.43023607       0.39079578
N        1.37160563       1.97396882      16.35945000  F        1        1      -0.96991801       0.22685518      -0.33558438
N       -1.40689004       6.38474267      14.90630000  F        1        1       0.27706435       0.38623322       0.36457205
N        5.20909004       0.20086091      16.35945000  F        1        1       0.29846499      -0.85710071      -0.12398104
N        3.80216198       2.19517924      14.90630000  F        2        1       0.03736850       0.01225776      -0.63393646
N        0.00003802       4.39042434      16.35945000  F        2        1      -0.02082537       0.02956863       1.75380277
F        2.20769800       1.52471870      19.10945000  F        0        0       0.00336264      -0.06505574       0.74916408
H        2.20769800       1.52471870      20.07068254  F        0        0      -0.03547507      -0.01066274      -0.67394989
30
Lattice="7.6044 0.0 0.0 -3.802199999999998 6.585603580538386 0.0 0.0 -0.0 28.35945" Properties=species:S:1:pos:R:3:move_mask:L:1:spacegroup_kinds:I:1:tags:I:1:forces:R:3 spacegroup="P 63/m" unit_cell=conventional occupancy="_JSON {\"0\": {\"Si\": 1.0}, \"1\": {\"N\": 1.0}, \"2\": {\"N\": 1.0}}" surface=beta_Si3N4_001 species=HF height_A=2.25 substrate_atoms=28 calculation_kind="Rigid approach energy evaluation; not NEB or TS" energy=-217.8986533601168 pbc="T T F"
Si       5.18010587       1.14956320      12.00000000  F        0        2       1.70870396       1.23409185       1.44283116
Si      -1.37790587       5.43604038      13.45315000  F        0        2      -0.07347754       0.44966597      -1.52729363
Si       4.01879613       3.91132168      12.00000000  F        0        2      -1.92567066       0.86248683       1.44447500
Si      -0.21659613       2.67428190      13.45315000  F        0        2      -0.36463078      -0.28556876      -1.55890839
Si       2.20769800       1.52471870      12.00000000  F        0        2       0.21349714      -2.08172330       1.41985519
Si       1.59450200       5.06088488      13.45315000  F        0        2       0.45033003      -0.16635093      -1.52696679
N       -1.02370433       2.17482973      12.00000000  F        1        2      -0.60359095      -0.65465062       0.11052301
N        4.82590433       4.41077385      13.45315000  F        1        2       0.48156483      -0.05975376      -0.35114085
N        2.43059437       4.61163476      12.00000000  F        1        2       0.86337523      -0.18479157       0.11266250
N        1.37160563       1.97396882      13.45315000  F        1        2      -0.15712306       0.40505513      -0.44815374
N       -1.40689004       6.38474267      12.00000000  F        1        2      -0.26959754       0.84172632       0.11369259
N        5.20909004       0.20086091      13.45315000  F        1        2      -0.26124456      -0.37959687      -0.36761863
N        3.80216198       2.19517924      12.00000000  F        2        2      -0.00669900      -0.00373793      -1.73883157
N        0.00003802       4.39042434      13.45315000  F        2        2      -0.03153067       0.00698784       0.54375194
Si       5.18010587       1.14956320      14.90630000  F        0        1       0.06518428      -0.45915035       1.51301263
Si      -1.37790587       5.43604038      16.35945000  F        0        1      -1.70443635      -1.28418530      -1.47239182
Si       4.01879613       3.91132168      14.90630000  F        0        1       0.36333257       0.29697814       1.49512021
Si      -0.21659613       2.67428190      16.35945000  F        0        1       1.86958860      -0.82575508      -1.24082914
Si       2.20769800       1.52471870      14.90630000  F        0        1      -0.27264001       0.09901652       1.40896035
Si       1.59450200       5.06088488      16.35945000  F        0        1      -0.17897167       2.07374024      -1.35075381
N       -1.02370433       2.17482973      14.90630000  F        1        1      -0.52165444       0.05546919       0.39845518
N        4.82590433       4.41077385      16.35945000  F        1        1       0.66185794       0.71685956      -0.13131206
N        2.43059437       4.61163476      14.90630000  F        1        1       0.18007731      -0.42164002       0.40076384
N        1.37160563       1.97396882      16.35945000  F        1        1      -1.36442016       0.42133939      -1.13613455
N       -1.40689004       6.38474267      14.90630000  F        1        1       0.27192951       0.41069728       0.45298666
N        5.20909004       0.20086091      16.35945000  F        1        1       0.29635351      -0.85281268      -0.09966693
N        3.80216198       2.19517924      14.90630000  F        2        1       0.00374926      -0.00040321      -0.58045507
N        0.00003802       4.39042434      16.35945000  F        2        1       0.04821115      -0.02924372       1.77036295
F        2.20769800       1.52471870      18.60945000  F        0        0       0.25581100      -0.17061834       1.48113093
H        2.20769800       1.52471870      19.57068254  F        0        0       0.00212108      -0.01413179      -0.57812715
30
Lattice="7.6044 0.0 0.0 -3.802199999999998 6.585603580538386 0.0 0.0 -0.0 28.35945" Properties=species:S:1:pos:R:3:move_mask:L:1:spacegroup_kinds:I:1:tags:I:1:forces:R:3 spacegroup="P 63/m" unit_cell=conventional occupancy="_JSON {\"0\": {\"Si\": 1.0}, \"1\": {\"N\": 1.0}, \"2\": {\"N\": 1.0}}" surface=beta_Si3N4_001 species=HF height_A=1.9 substrate_atoms=28 calculation_kind="Rigid approach energy evaluation; not NEB or TS" energy=-217.27894441666535 pbc="T T F"
Si       5.18010587       1.14956320      12.00000000  F        0        2       1.70643000       1.23107597       1.42908295
Si      -1.37790587       5.43604038      13.45315000  F        0        2      -0.07603688       0.41424425      -1.58152125
Si       4.01879613       3.91132168      12.00000000  F        0        2      -1.92046950       0.86599601       1.43328112
Si      -0.21659613       2.67428190      13.45315000  F        0        2      -0.40680579      -0.23068070      -1.65688341
Si       2.20769800       1.52471870      12.00000000  F        0        2       0.24597147      -2.09927789       1.34965991
Si       1.59450200       5.06088488      13.45315000  F        0        2       0.44313488      -0.15220788      -1.55457565
N       -1.02370433       2.17482973      12.00000000  F        1        2      -0.59423026      -0.65278260       0.11671356
N        4.82590433       4.41077385      13.45315000  F        1        2       0.47642319      -0.05961729      -0.35515131
N        2.43059437       4.61163476      12.00000000  F        1        2       0.85985469      -0.18309780       0.11923392
N        1.37160563       1.97396882      13.45315000  F        1        2      -0.15632296       0.39762001      -0.38646002
N       -1.40689004       6.38474267      12.00000000  F        1        2      -0.27228358       0.85141977       0.12973021
N        5.20909004       0.20086091      13.45315000  F        1        2      -0.25709937      -0.38148693      -0.35693602
N        3.80216198       2.19517924      12.00000000  F        2        2      -0.01817312      -0.00664509      -1.73475359
N        0.00003802       4.39042434      13.45315000  F        2        2      -0.02879324       0.00784478       0.54061136
Si       5.18010587       1.14956320      14.90630000  F        0        1       0.05826910      -0.49887465       1.53822513
Si      -1.37790587       5.43604038      16.35945000  F        0        1      -1.77987398      -1.32943809      -1.47970910
Si       4.01879613       3.91132168      14.90630000  F        0        1       0.39762513       0.34300070       1.52845736
Si      -0.21659613       2.67428190      16.35945000  F        0        1       1.64077514      -0.80833867      -1.01318741
Si       2.20769800       1.52471870      14.90630000  F        0        1      -0.04871459      -0.01569516       1.15546557
Si       1.59450200       5.06088488      16.35945000  F        0        1      -0.16964823       2.18351804      -1.37820115
N       -1.02370433       2.17482973      14.90630000  F        1        1      -0.46508646       0.06050642       0.39692633
N        4.82590433       4.41077385      16.35945000  F        1        1       0.63767047       0.71348179      -0.09943544
N        2.43059437       4.61163476      14.90630000  F        1        1       0.15749562      -0.42836977       0.43239795
N        1.37160563       1.97396882      16.35945000  F        1        1      -2.32612787       0.91664088      -2.93392870
N       -1.40689004       6.38474267      14.90630000  F        1        1       0.25609678       0.41924986       0.44711993
N        5.20909004       0.20086091      16.35945000  F        1        1       0.30446861      -0.87434665      -0.09236622
N        3.80216198       2.19517924      14.90630000  F        2        1      -0.01126430       0.01897576      -0.61145379
N        0.00003802       4.39042434      16.35945000  F        2        1       0.15184612      -0.06381227       1.76554108
F        2.20769800       1.52471870      18.25945000  F        0        0       1.23396532      -0.64994051       2.93159038
H        2.20769800       1.52471870      19.22068254  F        0        0      -0.03909638       0.01103771      -0.07947371
30
Lattice="7.6044 0.0 0.0 -3.802199999999998 6.585603580538386 0.0 0.0 -0.0 28.35945" Properties=species:S:1:pos:R:3:move_mask:L:1:spacegroup_kinds:I:1:tags:I:1:forces:R:3 spacegroup="P 63/m" unit_cell=conventional occupancy="_JSON {\"0\": {\"Si\": 1.0}, \"1\": {\"N\": 1.0}, \"2\": {\"N\": 1.0}}" surface=beta_Si3N4_001 species=HF height_A=1.6 substrate_atoms=28 calculation_kind="Rigid approach energy evaluation; not NEB or TS" energy=-216.1875528393559 pbc="T T F"
Si       5.18010587       1.14956320      12.00000000  F        0        2       1.71395965       1.22479939       1.40891932
Si      -1.37790587       5.43604038      13.45315000  F        0        2      -0.07760930       0.38300842      -1.63987115
Si       4.01879613       3.91132168      12.00000000  F        0        2      -1.91966980       0.87783292       1.41885715
Si      -0.21659613       2.67428190      13.45315000  F        0        2      -0.45127496      -0.18248523      -1.74720182
Si       2.20769800       1.52471870      12.00000000  F        0        2       0.28484805      -2.12485269       1.25601900
Si       1.59450200       5.06088488      13.45315000  F        0        2       0.44392997      -0.13534782      -1.58750357
N       -1.02370433       2.17482973      12.00000000  F        1        2      -0.58461760      -0.65207795       0.13524509
N        4.82590433       4.41077385      13.45315000  F        1        2       0.46905248      -0.05621130      -0.34825427
N        2.43059437       4.61163476      12.00000000  F        1        2       0.85595709      -0.18408247       0.13146384
N        1.37160563       1.97396882      13.45315000  F        1        2      -0.20183686       0.41804847      -0.21012701
N       -1.40689004       6.38474267      12.00000000  F        1        2      -0.27448662       0.86093283       0.15214899
N        5.20909004       0.20086091      13.45315000  F        1        2      -0.24791110      -0.37927258      -0.32923966
N        3.80216198       2.19517924      12.00000000  F        2        2      -0.03374171      -0.01007841      -1.72258090
N        0.00003802       4.39042434      13.45315000  F        2        2      -0.02239010       0.00560835       0.52718162
Si       5.18010587       1.14956320      14.90630000  F        0        1       0.08065556      -0.55621277       1.50877740
Si      -1.37790587       5.43604038      16.35945000  F        0        1      -1.81186490      -1.46197106      -1.46345968
Si       4.01879613       3.91132168      14.90630000  F        0        1       0.44165959       0.41694205       1.51550864
Si      -0.21659613       2.67428190      16.35945000  F        0        1       1.53271540      -0.88393089      -0.82064269
Si       2.20769800       1.52471870      14.90630000  F        0        1      -0.00640225      -0.07738520       0.99165856
Si       1.59450200       5.06088488      16.35945000  F        0        1      -0.13204755       2.14437898      -1.37788717
N       -1.02370433       2.17482973      14.90630000  F        1        1      -0.28066310       0.03296212       0.41837462
N        4.82590433       4.41077385      16.35945000  F        1        1       0.62782784       0.67537859      -0.13860003
N        2.43059437       4.61163476      14.90630000  F        1        1       0.13577171      -0.46262187       0.46033637
N        1.37160563       1.97396882      16.35945000  F        1        1      -3.06597181       1.38820293      -3.92185552
N       -1.40689004       6.38474267      14.90630000  F        1        1       0.24288072       0.39651541       0.46851404
N        5.20909004       0.20086091      16.35945000  F        1        1       0.25771868      -0.85980234      -0.05775471
N        3.80216198       2.19517924      14.90630000  F        2        1      -0.00381887       0.04754609      -0.59208727
N        0.00003802       4.39042434      16.35945000  F        2        1       0.19255436      -0.04363375       1.69500200
F        2.20769800       1.52471870      17.95945000  F        0        0       1.82938315      -0.71739075       3.80037793
H        2.20769800       1.52471870      18.92068254  F        0        0       0.00539227      -0.08479948       0.06868090
30
Lattice="7.6044 0.0 0.0 -3.802199999999998 6.585603580538386 0.0 0.0 -0.0 28.35945" Properties=species:S:1:pos:R:3:move_mask:L:1:spacegroup_kinds:I:1:tags:I:1:forces:R:3 spacegroup="P 63/m" unit_cell=conventional occupancy="_JSON {\"0\": {\"Si\": 1.0}, \"1\": {\"N\": 1.0}, \"2\": {\"N\": 1.0}}" surface=beta_Si3N4_001 species=HF height_A=1.3 substrate_atoms=28 calculation_kind="Rigid approach energy evaluation; not NEB or TS" energy=-215.19471771772413 pbc="T T F"
Si       5.18010587       1.14956320      12.00000000  F        0        2       1.72432438       1.22142819       1.39346977
Si      -1.37790587       5.43604038      13.45315000  F        0        2      -0.06267938       0.32837880      -1.74067818
Si       4.01879613       3.91132168      12.00000000  F        0        2      -1.92688588       0.88804266       1.40202192
Si      -0.21659613       2.67428190      13.45315000  F        0        2      -0.51929409      -0.11571206      -1.82666034
Si       2.20769800       1.52471870      12.00000000  F        0        2       0.31212540      -2.13707531       1.17851087
Si       1.59450200       5.06088488      13.45315000  F        0        2       0.45012175      -0.14985134      -1.59173549
N       -1.02370433       2.17482973      12.00000000  F        1        2      -0.56312652      -0.65332332       0.16904070
N        4.82590433       4.41077385      13.45315000  F        1        2       0.46943182      -0.04912078      -0.31052959
N        2.43059437       4.61163476      12.00000000  F        1        2       0.85021709      -0.19373843       0.14689881
N        1.37160563       1.97396882      13.45315000  F        1        2      -0.22122090       0.40217910       0.16282537
N       -1.40689004       6.38474267      12.00000000  F        1        2      -0.28095309       0.87107762       0.18801557
N        5.20909004       0.20086091      13.45315000  F        1        2      -0.24491104      -0.35125137      -0.27339286
N        3.80216198       2.19517924      12.00000000  F        2        2      -0.05050698      -0.01159851      -1.69310051
N        0.00003802       4.39042434      13.45315000  F        2        2      -0.02928604       0.01634436       0.50642010
Si       5.18010587       1.14956320      14.90630000  F        0        1       0.15471512      -0.65103112       1.43993657
Si      -1.37790587       5.43604038      16.35945000  F        0        1      -1.69626144      -1.83966531      -1.41667212
Si       4.01879613       3.91132168      14.90630000  F        0        1       0.49231030       0.56564362       1.45398715
Si      -0.21659613       2.67428190      16.35945000  F        0        1       0.68033944      -0.50783986      -0.83588195
Si       2.20769800       1.52471870      14.90630000  F        0        1       0.31193398      -0.22869721       0.31050977
Si       1.59450200       5.06088488      16.35945000  F        0        1      -0.09774917       2.18921924      -1.38979895
N       -1.02370433       2.17482973      14.90630000  F        1        1       0.03703089      -0.02919120       0.52449046
N        4.82590433       4.41077385      16.35945000  F        1        1       0.62314658       0.62874031      -0.16962175
N        2.43059437       4.61163476      14.90630000  F        1        1       0.09388569      -0.50619370       0.45026577
N        1.37160563       1.97396882      16.35945000  F        1        1      -2.52194294       1.15254623      -2.48884836
N       -1.40689004       6.38474267      14.90630000  F        1        1       0.15826043       0.54844751       0.63850461
N        5.20909004       0.20086091      16.35945000  F        1        1       0.17073103      -0.83020266      -0.04310525
N        3.80216198       2.19517924      14.90630000  F        2        1      -0.12398917       0.01984901      -0.43651264
N        0.00003802       4.39042434      16.35945000  F        2        1       0.26831653      -0.14774733       1.60290956
F        2.20769800       1.52471870      17.65945000  F        0        0       1.52133361      -0.37297405       2.79102602
H        2.20769800       1.52471870      18.62068254  F        0        0       0.02058261      -0.05668308      -0.14229504
