5
Lattice="11.518769465528859 0.0 0.0 0.0 7.679179643685906 0.0 0.0 0.0 30.7875" Properties=species:S:1:pos:R:3:forces:R:3 energy=-24.04724331708597 pbc="T T F"
F       -0.00000000       0.00000000       0.00000000      -0.00000000      -0.00000000      -0.00285964
C       -0.00000000      -0.00000000       1.41965213       0.00000000       0.00000000       0.00319186
H        1.04676642      -0.00000000       1.73937412      -0.00125404      -0.00000000      -0.00011074
H       -0.52338321       0.90652632       1.73937412       0.00062702      -0.00108603      -0.00011074
H       -0.52338321      -0.90652632       1.73937412       0.00062702       0.00108603      -0.00011074
