36
Lattice="11.518769465528859 0.0 0.0 0.0 7.679179643685906 0.0 0.0 0.0 30.7875" Properties=species:S:1:pos:R:3:move_mask:L:1:tags:I:1:forces:R:3 energy=-180.20366087462622 pbc="T T F"
Si       0.00000000       0.00000000      12.00000000  F        6       0.00000000       0.00000000       0.24903483
Si       3.83958982       0.00000000      12.00000000  F        6       0.00000000      -0.00000000       0.24903483
Si       7.67917964       0.00000000      12.00000000  F        6      -0.00000000      -0.00000000       0.24903483
Si       0.00000000       3.83958982      12.00000000  F        6       0.00000000       0.00000000       0.24903483
Si       3.83958982       3.83958982      12.00000000  F        6       0.00000000       0.00000000       0.24903483
Si       7.67917964       3.83958982      12.00000000  F        6      -0.00000000      -0.00000000       0.24903483
Si       1.91979491       0.00000000      13.35750000  F        5       0.00000000      -0.00000000      -0.52822354
Si       5.75938473       0.00000000      13.35750000  F        5      -0.00000000       0.00000000      -0.52822354
Si       9.59897455       0.00000000      13.35750000  F        5       0.00000000       0.00000000      -0.52822354
Si       1.91979491       3.83958982      13.35750000  F        5       0.00000000      -0.00000000      -0.52822354
Si       5.75938473       3.83958982      13.35750000  F        5       0.00000000       0.00000000      -0.52822354
Si       9.59897455       3.83958982      13.35750000  F        5       0.00000000      -0.00000000      -0.52822354
Si       1.91979491       1.91979491      14.71500000  F        4       0.00000000       0.00000000       0.14537709
Si       5.75938473       1.91979491      14.71500000  F        4      -0.00000000       0.00000000       0.14537709
Si       9.59897455       1.91979491      14.71500000  F        4       0.00000000      -0.00000000       0.14537709
Si       1.91979491       5.75938473      14.71500000  F        4      -0.00000000      -0.00000000       0.14537709
Si       5.75938473       5.75938473      14.71500000  F        4      -0.00000000      -0.00000000       0.14537709
Si       9.59897455       5.75938473      14.71500000  F        4      -0.00000000       0.00000000       0.14537709
Si       0.00000000       1.91979491      16.07250000  F        3      -0.00000000       0.00000000      -0.14537709
Si       3.83958982       1.91979491      16.07250000  F        3       0.00000000      -0.00000000      -0.14537709
Si       7.67917964       1.91979491      16.07250000  F        3       0.00000000       0.00000000      -0.14537709
Si       0.00000000       5.75938473      16.07250000  F        3       0.00000000       0.00000000      -0.14537709
Si       3.83958982       5.75938473      16.07250000  F        3      -0.00000000       0.00000000      -0.14537709
Si       7.67917964       5.75938473      16.07250000  F        3      -0.00000000       0.00000000      -0.14537709
Si       0.00000000       0.00000000      17.43000000  F        2       0.00000000       0.00000000       0.52822354
Si       3.83958982       0.00000000      17.43000000  F        2       0.00000000      -0.00000000       0.52822354
Si       7.67917964       0.00000000      17.43000000  F        2      -0.00000000       0.00000000       0.52822354
Si       0.00000000       3.83958982      17.43000000  F        2       0.00000000      -0.00000000       0.52822354
Si       3.83958982       3.83958982      17.43000000  F        2       0.00000000       0.00000000       0.52822354
Si       7.67917964       3.83958982      17.43000000  F        2      -0.00000000      -0.00000000       0.52822354
Si       1.91979491       0.00000000      18.78750000  F        1       0.00000000      -0.00000000      -0.24903483
Si       5.75938473       0.00000000      18.78750000  F        1      -0.00000000      -0.00000000      -0.24903483
Si       9.59897455       0.00000000      18.78750000  F        1      -0.00000000      -0.00000000      -0.24903483
Si       1.91979491       3.83958982      18.78750000  F        1      -0.00000000       0.00000000      -0.24903483
Si       5.75938473       3.83958982      18.78750000  F        1       0.00000000       0.00000000      -0.24903483
Si       9.59897455       3.83958982      18.78750000  F        1      -0.00000000      -0.00000000      -0.24903483
