38
Lattice="11.518769465528859 0.0 0.0 0.0 7.679179643685906 0.0 0.0 0.0 30.7875" Properties=species:S:1:pos:R:3:move_mask:L:1:tags:I:1:forces:R:3 surface=Si100 species=F2 site=hollow orientation=upright height_A=6.5 substrate_atoms=36 calculation_kind="Rigid evaluated approach scan; not NEB" energy=-183.06452351256468 pbc="T T F"
Si       0.00000000       0.00000000      12.00000000  F        6      -0.00000004       0.00000000       0.24903484
Si       3.83958982       0.00000000      12.00000000  F        6      -0.00000000       0.00000000       0.24903482
Si       7.67917964       0.00000000      12.00000000  F        6       0.00000000       0.00000000       0.24903482
Si       0.00000000       3.83958982      12.00000000  F        6      -0.00000004      -0.00000000       0.24903484
Si       3.83958982       3.83958982      12.00000000  F        6      -0.00000000      -0.00000000       0.24903482
Si       7.67917964       3.83958982      12.00000000  F        6       0.00000000      -0.00000000       0.24903482
Si       1.91979491       0.00000000      13.35750000  F        5       0.00000000      -0.00000002      -0.52822352
Si       5.75938473       0.00000000      13.35750000  F        5       0.00000000      -0.00000002      -0.52822353
Si       9.59897455       0.00000000      13.35750000  F        5       0.00000003      -0.00000002      -0.52822354
Si       1.91979491       3.83958982      13.35750000  F        5       0.00000000       0.00000000      -0.52822354
Si       5.75938473       3.83958982      13.35750000  F        5       0.00000000       0.00000000      -0.52822354
Si       9.59897455       3.83958982      13.35750000  F        5       0.00000003       0.00000000      -0.52822356
Si       1.91979491       1.91979491      14.71500000  F        4      -0.00000000       0.00000000       0.14537709
Si       5.75938473       1.91979491      14.71500000  F        4       0.00000000       0.00000000       0.14537709
Si       9.59897455       1.91979491      14.71500000  F        4       0.00000004       0.00000000       0.14537711
Si       1.91979491       5.75938473      14.71500000  F        4      -0.00000000       0.00000002       0.14537707
Si       5.75938473       5.75938473      14.71500000  F        4       0.00000000       0.00000002       0.14537707
Si       9.59897455       5.75938473      14.71500000  F        4       0.00000004       0.00000002       0.14537709
Si       0.00000000       1.91979491      16.07250000  F        3      -0.00000004       0.00000000      -0.14537711
Si       3.83958982       1.91979491      16.07250000  F        3      -0.00000000       0.00000000      -0.14537709
Si       7.67917964       1.91979491      16.07250000  F        3       0.00000000       0.00000000      -0.14537709
Si       0.00000000       5.75938473      16.07250000  F        3      -0.00000004       0.00000002      -0.14537709
Si       3.83958982       5.75938473      16.07250000  F        3      -0.00000000       0.00000002      -0.14537707
Si       7.67917964       5.75938473      16.07250000  F        3       0.00000000       0.00000002      -0.14537707
Si       0.00000000       0.00000000      17.43000000  F        2      -0.00000003      -0.00000002       0.52822354
Si       3.83958982       0.00000000      17.43000000  F        2      -0.00000000      -0.00000002       0.52822353
Si       7.67917964       0.00000000      17.43000000  F        2      -0.00000000      -0.00000002       0.52822352
Si       0.00000000       3.83958982      17.43000000  F        2      -0.00000003       0.00000000       0.52822356
Si       3.83958982       3.83958982      17.43000000  F        2      -0.00000000       0.00000000       0.52822354
Si       7.67917964       3.83958982      17.43000000  F        2      -0.00000000       0.00000000       0.52822354
Si       1.91979491       0.00000000      18.78750000  F        1      -0.00000000       0.00000000      -0.24903482
Si       5.75938473       0.00000000      18.78750000  F        1       0.00000000       0.00000000      -0.24903482
Si       9.59897455       0.00000000      18.78750000  F        1       0.00000004       0.00000000      -0.24903484
Si       1.91979491       3.83958982      18.78750000  F        1      -0.00000000      -0.00000000      -0.24903482
Si       5.75938473       3.83958982      18.78750000  F        1       0.00000000      -0.00000000      -0.24903482
Si       9.59897455       3.83958982      18.78750000  F        1       0.00000004      -0.00000000      -0.24903484
F        7.67917964       1.91979491      25.28750000  T        0       0.00000000       0.00000000       0.00152110
F        7.67917964       1.91979491      26.76807573  T        0       0.00000000       0.00000000      -0.00152110
38
Lattice="11.518769465528859 0.0 0.0 0.0 7.679179643685906 0.0 0.0 0.0 30.7875" Properties=species:S:1:pos:R:3:move_mask:L:1:tags:I:1:forces:R:3 surface=Si100 species=F2 site=hollow orientation=upright height_A=5.0 substrate_atoms=36 calculation_kind="Rigid evaluated approach scan; not NEB" energy=-183.06452351256468 pbc="T T F"
Si       0.00000000       0.00000000      12.00000000  F        6      -0.00000004       0.00000000       0.24903484
Si       3.83958982       0.00000000      12.00000000  F        6      -0.00000000       0.00000000       0.24903482
Si       7.67917964       0.00000000      12.00000000  F        6       0.00000000       0.00000000       0.24903482
Si       0.00000000       3.83958982      12.00000000  F        6      -0.00000004      -0.00000000       0.24903484
Si       3.83958982       3.83958982      12.00000000  F        6      -0.00000000      -0.00000000       0.24903482
Si       7.67917964       3.83958982      12.00000000  F        6       0.00000000      -0.00000000       0.24903482
Si       1.91979491       0.00000000      13.35750000  F        5       0.00000000      -0.00000002      -0.52822352
Si       5.75938473       0.00000000      13.35750000  F        5       0.00000000      -0.00000002      -0.52822353
Si       9.59897455       0.00000000      13.35750000  F        5       0.00000003      -0.00000002      -0.52822354
Si       1.91979491       3.83958982      13.35750000  F        5       0.00000000       0.00000000      -0.52822354
Si       5.75938473       3.83958982      13.35750000  F        5       0.00000000       0.00000000      -0.52822354
Si       9.59897455       3.83958982      13.35750000  F        5       0.00000003       0.00000000      -0.52822356
Si       1.91979491       1.91979491      14.71500000  F        4      -0.00000000       0.00000000       0.14537709
Si       5.75938473       1.91979491      14.71500000  F        4       0.00000000       0.00000000       0.14537709
Si       9.59897455       1.91979491      14.71500000  F        4       0.00000004       0.00000000       0.14537711
Si       1.91979491       5.75938473      14.71500000  F        4      -0.00000000       0.00000002       0.14537707
Si       5.75938473       5.75938473      14.71500000  F        4       0.00000000       0.00000002       0.14537707
Si       9.59897455       5.75938473      14.71500000  F        4       0.00000004       0.00000002       0.14537709
Si       0.00000000       1.91979491      16.07250000  F        3      -0.00000004       0.00000000      -0.14537711
Si       3.83958982       1.91979491      16.07250000  F        3      -0.00000000       0.00000000      -0.14537709
Si       7.67917964       1.91979491      16.07250000  F        3       0.00000000       0.00000000      -0.14537709
Si       0.00000000       5.75938473      16.07250000  F        3      -0.00000004       0.00000002      -0.14537709
Si       3.83958982       5.75938473      16.07250000  F        3      -0.00000000       0.00000002      -0.14537707
Si       7.67917964       5.75938473      16.07250000  F        3       0.00000000       0.00000002      -0.14537707
Si       0.00000000       0.00000000      17.43000000  F        2      -0.00000003      -0.00000002       0.52822354
Si       3.83958982       0.00000000      17.43000000  F        2      -0.00000000      -0.00000002       0.52822353
Si       7.67917964       0.00000000      17.43000000  F        2      -0.00000000      -0.00000002       0.52822352
Si       0.00000000       3.83958982      17.43000000  F        2      -0.00000003       0.00000000       0.52822356
Si       3.83958982       3.83958982      17.43000000  F        2      -0.00000000       0.00000000       0.52822354
Si       7.67917964       3.83958982      17.43000000  F        2      -0.00000000       0.00000000       0.52822354
Si       1.91979491       0.00000000      18.78750000  F        1      -0.00000000       0.00000000      -0.24903482
Si       5.75938473       0.00000000      18.78750000  F        1       0.00000000       0.00000000      -0.24903482
Si       9.59897455       0.00000000      18.78750000  F        1       0.00000004       0.00000000      -0.24903484
Si       1.91979491       3.83958982      18.78750000  F        1      -0.00000000      -0.00000000      -0.24903482
Si       5.75938473       3.83958982      18.78750000  F        1       0.00000000      -0.00000000      -0.24903482
Si       9.59897455       3.83958982      18.78750000  F        1       0.00000004      -0.00000000      -0.24903484
F        7.67917964       1.91979491      23.78750000  T        0       0.00000000       0.00000000       0.00152110
F        7.67917964       1.91979491      25.26807573  T        0       0.00000000       0.00000000      -0.00152110
38
Lattice="11.518769465528859 0.0 0.0 0.0 7.679179643685906 0.0 0.0 0.0 30.7875" Properties=species:S:1:pos:R:3:move_mask:L:1:tags:I:1:forces:R:3 surface=Si100 species=F2 site=hollow orientation=upright height_A=4.0 substrate_atoms=36 calculation_kind="Rigid evaluated approach scan; not NEB" energy=-183.0690181373027 pbc="T T F"
Si       0.00000000       0.00000000      12.00000000  F        6       0.00001325       0.00000076       0.24905357
Si       3.83958982       0.00000000      12.00000000  F        6      -0.00001329       0.00000076       0.24905355
Si       7.67917964       0.00000000      12.00000000  F        6       0.00000000       0.00000035       0.24905774
Si       0.00000000       3.83958982      12.00000000  F        6       0.00001325      -0.00000076       0.24905357
Si       3.83958982       3.83958982      12.00000000  F        6      -0.00001329      -0.00000076       0.24905355
Si       7.67917964       3.83958982      12.00000000  F        6       0.00000000      -0.00000035       0.24905774
Si       1.91979491       0.00000000      13.35750000  F        5       0.00000000      -0.00000236      -0.52815549
Si       5.75938473       0.00000000      13.35750000  F        5       0.00003292      -0.00000517      -0.52810307
Si       9.59897455       0.00000000      13.35750000  F        5      -0.00003288      -0.00000517      -0.52810309
Si       1.91979491       3.83958982      13.35750000  F        5       0.00000000       0.00000234      -0.52815550
Si       5.75938473       3.83958982      13.35750000  F        5       0.00003292       0.00000514      -0.52810308
Si       9.59897455       3.83958982      13.35750000  F        5      -0.00003288       0.00000514      -0.52810310
Si       1.91979491       1.91979491      14.71500000  F        4      -0.00000000       0.00000000       0.14561074
Si       5.75938473       1.91979491      14.71500000  F        4       0.00023305       0.00000000       0.14496694
Si       9.59897455       1.91979491      14.71500000  F        4      -0.00023301       0.00000000       0.14496696
Si       1.91979491       5.75938473      14.71500000  F        4      -0.00000000       0.00000002       0.14559913
Si       5.75938473       5.75938473      14.71500000  F        4       0.00028414       0.00000002       0.14499446
Si       9.59897455       5.75938473      14.71500000  F        4      -0.00028410       0.00000002       0.14499448
Si       0.00000000       1.91979491      16.07250000  F        3       0.00014711       0.00000000      -0.14576812
Si       3.83958982       1.91979491      16.07250000  F        3      -0.00014715       0.00000000      -0.14576810
Si       7.67917964       1.91979491      16.07250000  F        3       0.00000000       0.00000000      -0.14699609
Si       0.00000000       5.75938473      16.07250000  F        3      -0.00006488       0.00000002      -0.14548021
Si       3.83958982       5.75938473      16.07250000  F        3       0.00006484       0.00000002      -0.14548019
Si       7.67917964       5.75938473      16.07250000  F        3       0.00000000       0.00000002      -0.14640126
Si       0.00000000       0.00000000      17.43000000  F        2      -0.00132057       0.00042234       0.52998642
Si       3.83958982       0.00000000      17.43000000  F        2       0.00132053       0.00042234       0.52998640
Si       7.67917964       0.00000000      17.43000000  F        2      -0.00000000      -0.00048832       0.53153965
Si       0.00000000       3.83958982      17.43000000  F        2      -0.00132057      -0.00042236       0.52998643
Si       3.83958982       3.83958982      17.43000000  F        2       0.00132053      -0.00042236       0.52998641
Si       7.67917964       3.83958982      17.43000000  F        2      -0.00000000       0.00048830       0.53153966
Si       1.91979491       0.00000000      18.78750000  F        1      -0.00000000       0.00000635      -0.24847096
Si       5.75938473       0.00000000      18.78750000  F        1       0.00937527       0.00777349      -0.23638640
Si       9.59897455       0.00000000      18.78750000  F        1      -0.00937523       0.00777349      -0.23638642
Si       1.91979491       3.83958982      18.78750000  F        1      -0.00000000      -0.00000635      -0.24847096
Si       5.75938473       3.83958982      18.78750000  F        1       0.00937527      -0.00777349      -0.23638640
Si       9.59897455       3.83958982      18.78750000  F        1      -0.00937523      -0.00777349      -0.23638642
F        7.67917964       1.91979491      22.78750000  T        0      -0.00000000      -0.00000000      -0.07163110
F        7.67917964       1.91979491      24.26807573  T        0      -0.00000000      -0.00000000       0.01024858
38
Lattice="11.518769465528859 0.0 0.0 0.0 7.679179643685906 0.0 0.0 0.0 30.7875" Properties=species:S:1:pos:R:3:move_mask:L:1:tags:I:1:forces:R:3 surface=Si100 species=F2 site=hollow orientation=upright height_A=3.25 substrate_atoms=36 calculation_kind="Rigid evaluated approach scan; not NEB" energy=-183.1940281154357 pbc="T T F"
Si       0.00000000       0.00000000      12.00000000  F        6       0.00035364       0.00000694       0.24951121
Si       3.83958982       0.00000000      12.00000000  F        6      -0.00035368       0.00000694       0.24951120
Si       7.67917964       0.00000000      12.00000000  F        6       0.00000000      -0.00000246       0.24959724
Si       0.00000000       3.83958982      12.00000000  F        6       0.00035364      -0.00000694       0.24951121
Si       3.83958982       3.83958982      12.00000000  F        6      -0.00035368      -0.00000694       0.24951120
Si       7.67917964       3.83958982      12.00000000  F        6       0.00000000       0.00000246       0.24959724
Si       1.91979491       0.00000000      13.35750000  F        5       0.00000000      -0.00004386      -0.52647893
Si       5.75938473       0.00000000      13.35750000  F        5       0.00098841      -0.00021535      -0.52471092
Si       9.59897455       0.00000000      13.35750000  F        5      -0.00098837      -0.00021535      -0.52471094
Si       1.91979491       3.83958982      13.35750000  F        5       0.00000000       0.00004384      -0.52647895
Si       5.75938473       3.83958982      13.35750000  F        5       0.00098841       0.00021533      -0.52471093
Si       9.59897455       3.83958982      13.35750000  F        5      -0.00098837       0.00021533      -0.52471095
Si       1.91979491       1.91979491      14.71500000  F        4      -0.00000000      -0.00000000       0.15186684
Si       5.75938473       1.91979491      14.71500000  F        4       0.00667155      -0.00000000       0.14883239
Si       9.59897455       1.91979491      14.71500000  F        4      -0.00667151      -0.00000000       0.14883241
Si       1.91979491       5.75938473      14.71500000  F        4      -0.00000000       0.00000002       0.15219464
Si       5.75938473       5.75938473      14.71500000  F        4       0.00780253       0.00000002       0.15052832
Si       9.59897455       5.75938473      14.71500000  F        4      -0.00780250       0.00000002       0.15052834
Si       0.00000000       1.91979491      16.07250000  F        3       0.00167195      -0.00000000      -0.15485343
Si       3.83958982       1.91979491      16.07250000  F        3      -0.00167199      -0.00000000      -0.15485341
Si       7.67917964       1.91979491      16.07250000  F        3       0.00000000       0.00000000      -0.18814469
Si       0.00000000       5.75938473      16.07250000  F        3      -0.01003852       0.00000002      -0.13933283
Si       3.83958982       5.75938473      16.07250000  F        3       0.01003848       0.00000002      -0.13933281
Si       7.67917964       5.75938473      16.07250000  F        3       0.00000000       0.00000002      -0.17380832
Si       0.00000000       0.00000000      17.43000000  F        2      -0.00824072       0.00927203       0.54526230
Si       3.83958982       0.00000000      17.43000000  F        2       0.00824069       0.00927203       0.54526228
Si       7.67917964       0.00000000      17.43000000  F        2      -0.00000000      -0.01536217       0.55473838
Si       0.00000000       3.83958982      17.43000000  F        2      -0.00824072      -0.00927205       0.54526232
Si       3.83958982       3.83958982      17.43000000  F        2       0.00824069      -0.00927205       0.54526230
Si       7.67917964       3.83958982      17.43000000  F        2      -0.00000000       0.01536215       0.55473840
Si       1.91979491       0.00000000      18.78750000  F        1      -0.00000000      -0.00049757      -0.23292030
Si       5.75938473       0.00000000      18.78750000  F        1       0.10692761       0.07516393      -0.19688855
Si       9.59897455       0.00000000      18.78750000  F        1      -0.10692757       0.07516393      -0.19688857
Si       1.91979491       3.83958982      18.78750000  F        1      -0.00000000       0.00049757      -0.23292030
Si       5.75938473       3.83958982      18.78750000  F        1       0.10692761      -0.07516393      -0.19688855
Si       9.59897455       3.83958982      18.78750000  F        1      -0.10692757      -0.07516393      -0.19688857
F        7.67917964       1.91979491      22.03750000  T        0       0.00000000       0.00000000      -0.36081457
F        7.67917964       1.91979491      23.51807573  T        0      -0.00000000      -0.00000000       0.02578830
38
Lattice="11.518769465528859 0.0 0.0 0.0 7.679179643685906 0.0 0.0 0.0 30.7875" Properties=species:S:1:pos:R:3:move_mask:L:1:tags:I:1:forces:R:3 surface=Si100 species=F2 site=hollow orientation=upright height_A=2.75 substrate_atoms=36 calculation_kind="Rigid evaluated approach scan; not NEB" energy=-183.46047529509426 pbc="T T F"
Si       0.00000000       0.00000000      12.00000000  F        6       0.00054803       0.00002571       0.24937100
Si       3.83958982       0.00000000      12.00000000  F        6      -0.00054807       0.00002571       0.24937098
Si       7.67917964       0.00000000      12.00000000  F        6       0.00000000       0.00007465       0.24927824
Si       0.00000000       3.83958982      12.00000000  F        6       0.00054803      -0.00002571       0.24937100
Si       3.83958982       3.83958982      12.00000000  F        6      -0.00054807      -0.00002571       0.24937098
Si       7.67917964       3.83958982      12.00000000  F        6       0.00000000      -0.00007465       0.24927824
Si       1.91979491       0.00000000      13.35750000  F        5       0.00000000       0.00012026      -0.52535454
Si       5.75938473       0.00000000      13.35750000  F        5       0.00059443       0.00017047      -0.52340996
Si       9.59897455       0.00000000      13.35750000  F        5      -0.00059440       0.00017047      -0.52340997
Si       1.91979491       3.83958982      13.35750000  F        5       0.00000000      -0.00012028      -0.52535456
Si       5.75938473       3.83958982      13.35750000  F        5       0.00059443      -0.00017049      -0.52340997
Si       9.59897455       3.83958982      13.35750000  F        5      -0.00059440      -0.00017049      -0.52340999
Si       1.91979491       1.91979491      14.71500000  F        4      -0.00000000      -0.00000000       0.15365549
Si       5.75938473       1.91979491      14.71500000  F        4       0.00741153      -0.00000000       0.16820670
Si       9.59897455       1.91979491      14.71500000  F        4      -0.00741150      -0.00000000       0.16820672
Si       1.91979491       5.75938473      14.71500000  F        4      -0.00000000       0.00000002       0.15511126
Si       5.75938473       5.75938473      14.71500000  F        4       0.00648907       0.00000002       0.17696200
Si       9.59897455       5.75938473      14.71500000  F        4      -0.00648903       0.00000002       0.17696202
Si       0.00000000       1.91979491      16.07250000  F        3      -0.00439596      -0.00000000      -0.15936298
Si       3.83958982       1.91979491      16.07250000  F        3       0.00439593      -0.00000000      -0.15936296
Si       7.67917964       1.91979491      16.07250000  F        3       0.00000000      -0.00000000      -0.19806741
Si       0.00000000       5.75938473      16.07250000  F        3      -0.02279864       0.00000002      -0.13249442
Si       3.83958982       5.75938473      16.07250000  F        3       0.02279860       0.00000002      -0.13249440
Si       7.67917964       5.75938473      16.07250000  F        3       0.00000000       0.00000002      -0.19716039
Si       0.00000000       0.00000000      17.43000000  F        2       0.00818994       0.00275947       0.52226811
Si       3.83958982       0.00000000      17.43000000  F        2      -0.00818998       0.00275947       0.52226809
Si       7.67917964       0.00000000      17.43000000  F        2      -0.00000000       0.07797592       0.62539346
Si       0.00000000       3.83958982      17.43000000  F        2       0.00818994      -0.00275949       0.52226812
Si       3.83958982       3.83958982      17.43000000  F        2      -0.00818998      -0.00275949       0.52226810
Si       7.67917964       3.83958982      17.43000000  F        2      -0.00000000      -0.07797594       0.62539348
Si       1.91979491       0.00000000      18.78750000  F        1      -0.00000000      -0.00316772      -0.22366954
Si       5.75938473       0.00000000      18.78750000  F        1       0.09295809       0.09847433      -0.14555936
Si       9.59897455       0.00000000      18.78750000  F        1      -0.09295805       0.09847433      -0.14555938
Si       1.91979491       3.83958982      18.78750000  F        1      -0.00000000       0.00316772      -0.22366954
Si       5.75938473       3.83958982      18.78750000  F        1       0.09295809      -0.09847433      -0.14555936
Si       9.59897455       3.83958982      18.78750000  F        1      -0.09295805      -0.09847433      -0.14555938
F        7.67917964       1.91979491      21.53750000  T        0       0.00000000       0.00000000      -1.88789818
F        7.67917964       1.91979491      23.01807573  T        0      -0.00000000      -0.00000000       1.20576230
38
Lattice="11.518769465528859 0.0 0.0 0.0 7.679179643685906 0.0 0.0 0.0 30.7875" Properties=species:S:1:pos:R:3:move_mask:L:1:tags:I:1:forces:R:3 surface=Si100 species=F2 site=hollow orientation=upright height_A=2.25 substrate_atoms=36 calculation_kind="Rigid evaluated approach scan; not NEB" energy=-183.8008778194692 pbc="T T F"
Si       0.00000000       0.00000000      12.00000000  F        6       0.00056852      -0.00001241       0.24956759
Si       3.83958982       0.00000000      12.00000000  F        6      -0.00056856      -0.00001241       0.24956758
Si       7.67917964       0.00000000      12.00000000  F        6       0.00000000       0.00012100       0.24910615
Si       0.00000000       3.83958982      12.00000000  F        6       0.00056852       0.00001241       0.24956759
Si       3.83958982       3.83958982      12.00000000  F        6      -0.00056856       0.00001241       0.24956758
Si       7.67917964       3.83958982      12.00000000  F        6       0.00000000      -0.00012100       0.24910615
Si       1.91979491       0.00000000      13.35750000  F        5       0.00000000       0.00044327      -0.52678318
Si       5.75938473       0.00000000      13.35750000  F        5       0.00188614      -0.00005076      -0.51897346
Si       9.59897455       0.00000000      13.35750000  F        5      -0.00188611      -0.00005076      -0.51897348
Si       1.91979491       3.83958982      13.35750000  F        5       0.00000000      -0.00044330      -0.52678319
Si       5.75938473       3.83958982      13.35750000  F        5       0.00188614       0.00005074      -0.51897348
Si       9.59897455       3.83958982      13.35750000  F        5      -0.00188611       0.00005074      -0.51897349
Si       1.91979491       1.91979491      14.71500000  F        4      -0.00000000      -0.00000000       0.15662762
Si       5.75938473       1.91979491      14.71500000  F        4       0.00753938       0.00000000       0.18923965
Si       9.59897455       1.91979491      14.71500000  F        4      -0.00753934       0.00000000       0.18923967
Si       1.91979491       5.75938473      14.71500000  F        4      -0.00000000       0.00000002       0.15670154
Si       5.75938473       5.75938473      14.71500000  F        4       0.01316316       0.00000002       0.20446973
Si       9.59897455       5.75938473      14.71500000  F        4      -0.01316313       0.00000002       0.20446975
Si       0.00000000       1.91979491      16.07250000  F        3      -0.01637155      -0.00000000      -0.15309508
Si       3.83958982       1.91979491      16.07250000  F        3       0.01637151      -0.00000000      -0.15309506
Si       7.67917964       1.91979491      16.07250000  F        3       0.00000000       0.00000000      -0.21608961
Si       0.00000000       5.75938473      16.07250000  F        3      -0.03066158       0.00000002      -0.12669112
Si       3.83958982       5.75938473      16.07250000  F        3       0.03066154       0.00000002      -0.12669110
Si       7.67917964       5.75938473      16.07250000  F        3       0.00000000       0.00000002      -0.19832449
Si       0.00000000       0.00000000      17.43000000  F        2       0.01302302      -0.00898303       0.50441773
Si       3.83958982       0.00000000      17.43000000  F        2      -0.01302305      -0.00898303       0.50441771
Si       7.67917964       0.00000000      17.43000000  F        2      -0.00000000       0.05659152       0.51420849
Si       0.00000000       3.83958982      17.43000000  F        2       0.01302302       0.00898301       0.50441774
Si       3.83958982       3.83958982      17.43000000  F        2      -0.01302305       0.00898301       0.50441772
Si       7.67917964       3.83958982      17.43000000  F        2      -0.00000000      -0.05659154       0.51420850
Si       1.91979491       0.00000000      18.78750000  F        1      -0.00000000      -0.00662949      -0.22842078
Si       5.75938473       0.00000000      18.78750000  F        1       0.04945157       0.09081966      -0.09113359
Si       9.59897455       0.00000000      18.78750000  F        1      -0.04945152       0.09081967      -0.09113361
Si       1.91979491       3.83958982      18.78750000  F        1      -0.00000000       0.00662949      -0.22842078
Si       5.75938473       3.83958982      18.78750000  F        1       0.04945157      -0.09081967      -0.09113359
Si       9.59897455       3.83958982      18.78750000  F        1      -0.04945152      -0.09081967      -0.09113361
F        7.67917964       1.91979491      21.03750000  T        0       0.00000000       0.00000000      -3.04628942
F        7.67917964       1.91979491      22.51807573  T        0      -0.00000000       0.00000000       2.32779364
38
Lattice="11.518769465528859 0.0 0.0 0.0 7.679179643685906 0.0 0.0 0.0 30.7875" Properties=species:S:1:pos:R:3:move_mask:L:1:tags:I:1:forces:R:3 surface=Si100 species=F2 site=hollow orientation=upright height_A=1.9 substrate_atoms=36 calculation_kind="Rigid evaluated approach scan; not NEB" energy=-184.0750655627569 pbc="T T F"
Si       0.00000000       0.00000000      12.00000000  F        6       0.00056201      -0.00013478       0.25008764
Si       3.83958982       0.00000000      12.00000000  F        6      -0.00056205      -0.00013478       0.25008762
Si       7.67917964       0.00000000      12.00000000  F        6       0.00000000      -0.00121345       0.24731180
Si       0.00000000       3.83958982      12.00000000  F        6       0.00056201       0.00013478       0.25008764
Si       3.83958982       3.83958982      12.00000000  F        6      -0.00056205       0.00013478       0.25008762
Si       7.67917964       3.83958982      12.00000000  F        6       0.00000000       0.00121345       0.24731180
Si       1.91979491       0.00000000      13.35750000  F        5       0.00000000       0.00075822      -0.52923552
Si       5.75938473       0.00000000      13.35750000  F        5       0.00397525      -0.00068748      -0.51449772
Si       9.59897455       0.00000000      13.35750000  F        5      -0.00397521      -0.00068748      -0.51449774
Si       1.91979491       3.83958982      13.35750000  F        5       0.00000000      -0.00075824      -0.52923554
Si       5.75938473       3.83958982      13.35750000  F        5       0.00397525       0.00068746      -0.51449773
Si       9.59897455       3.83958982      13.35750000  F        5      -0.00397521       0.00068746      -0.51449775
Si       1.91979491       1.91979491      14.71500000  F        4      -0.00000000      -0.00000000       0.16041390
Si       5.75938473       1.91979491      14.71500000  F        4       0.00951854      -0.00000000       0.20217798
Si       9.59897455       1.91979491      14.71500000  F        4      -0.00951850      -0.00000000       0.20217800
Si       1.91979491       5.75938473      14.71500000  F        4      -0.00000000       0.00000002       0.15626559
Si       5.75938473       5.75938473      14.71500000  F        4       0.02454455       0.00000002       0.20884359
Si       9.59897455       5.75938473      14.71500000  F        4      -0.02454451       0.00000002       0.20884361
Si       0.00000000       1.91979491      16.07250000  F        3      -0.01619750      -0.00000000      -0.15061705
Si       3.83958982       1.91979491      16.07250000  F        3       0.01619746      -0.00000000      -0.15061703
Si       7.67917964       1.91979491      16.07250000  F        3       0.00000000       0.00000000      -0.24577710
Si       0.00000000       5.75938473      16.07250000  F        3      -0.03453386       0.00000002      -0.11780629
Si       3.83958982       5.75938473      16.07250000  F        3       0.03453382       0.00000002      -0.11780627
Si       7.67917964       5.75938473      16.07250000  F        3       0.00000000       0.00000002      -0.16794106
Si       0.00000000       0.00000000      17.43000000  F        2       0.01106332      -0.00829260       0.50341892
Si       3.83958982       0.00000000      17.43000000  F        2      -0.01106335      -0.00829260       0.50341890
Si       7.67917964       0.00000000      17.43000000  F        2      -0.00000000       0.04638305       0.58503303
Si       0.00000000       3.83958982      17.43000000  F        2       0.01106332       0.00829258       0.50341894
Si       3.83958982       3.83958982      17.43000000  F        2      -0.01106335       0.00829258       0.50341892
Si       7.67917964       3.83958982      17.43000000  F        2      -0.00000000      -0.04638307       0.58503304
Si       1.91979491       0.00000000      18.78750000  F        1      -0.00000000      -0.00900699      -0.23430099
Si       5.75938473       0.00000000      18.78750000  F        1      -0.00525527       0.03284385      -0.11026322
Si       9.59897455       0.00000000      18.78750000  F        1       0.00525531       0.03284385      -0.11026324
Si       1.91979491       3.83958982      18.78750000  F        1      -0.00000000       0.00900699      -0.23430099
Si       5.75938473       3.83958982      18.78750000  F        1      -0.00525527      -0.03284385      -0.11026322
Si       9.59897455       3.83958982      18.78750000  F        1       0.00525531      -0.03284385      -0.11026324
F        7.67917964       1.91979491      20.68750000  T        0       0.00000000       0.00000000      -2.88006468
F        7.67917964       1.91979491      22.16807573  T        0      -0.00000000       0.00000000       2.03930784
38
Lattice="11.518769465528859 0.0 0.0 0.0 7.679179643685906 0.0 0.0 0.0 30.7875" Properties=species:S:1:pos:R:3:move_mask:L:1:tags:I:1:forces:R:3 surface=Si100 species=F2 site=hollow orientation=upright height_A=1.6 substrate_atoms=36 calculation_kind="Rigid evaluated approach scan; not NEB" energy=-184.30414277430256 pbc="T T F"
Si       0.00000000       0.00000000      12.00000000  F        6       0.00060530      -0.00022742       0.25007964
Si       3.83958982       0.00000000      12.00000000  F        6      -0.00060534      -0.00022742       0.25007963
Si       7.67917964       0.00000000      12.00000000  F        6       0.00000000      -0.00304494       0.24429932
Si       0.00000000       3.83958982      12.00000000  F        6       0.00060530       0.00022742       0.25007964
Si       3.83958982       3.83958982      12.00000000  F        6      -0.00060534       0.00022742       0.25007963
Si       7.67917964       3.83958982      12.00000000  F        6       0.00000000       0.00304494       0.24429932
Si       1.91979491       0.00000000      13.35750000  F        5       0.00000000       0.00114190      -0.53079767
Si       5.75938473       0.00000000      13.35750000  F        5       0.00588188      -0.00019909      -0.51083605
Si       9.59897455       0.00000000      13.35750000  F        5      -0.00588185      -0.00019909      -0.51083607
Si       1.91979491       3.83958982      13.35750000  F        5       0.00000000      -0.00114192      -0.53079769
Si       5.75938473       3.83958982      13.35750000  F        5       0.00588188       0.00019907      -0.51083606
Si       9.59897455       3.83958982      13.35750000  F        5      -0.00588185       0.00019907      -0.51083608
Si       1.91979491       1.91979491      14.71500000  F        4      -0.00000000      -0.00000000       0.16251162
Si       5.75938473       1.91979491      14.71500000  F        4       0.01460175      -0.00000000       0.21726393
Si       9.59897455       1.91979491      14.71500000  F        4      -0.01460171      -0.00000000       0.21726395
Si       1.91979491       5.75938473      14.71500000  F        4      -0.00000000       0.00000002       0.15410342
Si       5.75938473       5.75938473      14.71500000  F        4       0.03150599       0.00000002       0.20280938
Si       9.59897455       5.75938473      14.71500000  F        4      -0.03150595       0.00000002       0.20280940
Si       0.00000000       1.91979491      16.07250000  F        3      -0.00799826      -0.00000000      -0.15653067
Si       3.83958982       1.91979491      16.07250000  F        3       0.00799822      -0.00000000      -0.15653065
Si       7.67917964       1.91979491      16.07250000  F        3       0.00000000      -0.00000000      -0.37840181
Si       0.00000000       5.75938473      16.07250000  F        3      -0.03534351       0.00000002      -0.11198098
Si       3.83958982       5.75938473      16.07250000  F        3       0.03534347       0.00000002      -0.11198096
Si       7.67917964       5.75938473      16.07250000  F        3       0.00000000       0.00000002      -0.15539215
Si       0.00000000       0.00000000      17.43000000  F        2       0.01219390      -0.00744358       0.49554716
Si       3.83958982       0.00000000      17.43000000  F        2      -0.01219394      -0.00744358       0.49554714
Si       7.67917964       0.00000000      17.43000000  F        2      -0.00000000       0.02706286       0.52342467
Si       0.00000000       3.83958982      17.43000000  F        2       0.01219390       0.00744356       0.49554718
Si       3.83958982       3.83958982      17.43000000  F        2      -0.01219394       0.00744356       0.49554716
Si       7.67917964       3.83958982      17.43000000  F        2      -0.00000000      -0.02706288       0.52342469
Si       1.91979491       0.00000000      18.78750000  F        1      -0.00000000      -0.01131072      -0.23292523
Si       5.75938473       0.00000000      18.78750000  F        1      -0.02857327       0.02308510      -0.10845705
Si       9.59897455       0.00000000      18.78750000  F        1       0.02857331       0.02308510      -0.10845707
Si       1.91979491       3.83958982      18.78750000  F        1      -0.00000000       0.01131072      -0.23292523
Si       5.75938473       3.83958982      18.78750000  F        1      -0.02857327      -0.02308510      -0.10845705
Si       9.59897455       3.83958982      18.78750000  F        1       0.02857331      -0.02308510      -0.10845707
F        7.67917964       1.91979491      20.38750000  T        0       0.00000000       0.00000000      -2.72377131
F        7.67917964       1.91979491      21.86807573  T        0      -0.00000000       0.00000000       2.12448997
38
Lattice="11.518769465528859 0.0 0.0 0.0 7.679179643685906 0.0 0.0 0.0 30.7875" Properties=species:S:1:pos:R:3:move_mask:L:1:tags:I:1:forces:R:3 surface=Si100 species=F2 site=hollow orientation=upright height_A=1.3 substrate_atoms=36 calculation_kind="Rigid evaluated approach scan; not NEB" energy=-184.42817565049612 pbc="T T F"
Si       0.00000000       0.00000000      12.00000000  F        6       0.00112989      -0.00017567       0.24927351
Si       3.83958982       0.00000000      12.00000000  F        6      -0.00112992      -0.00017567       0.24927349
Si       7.67917964       0.00000000      12.00000000  F        6       0.00000000      -0.00257603       0.24420470
Si       0.00000000       3.83958982      12.00000000  F        6       0.00112989       0.00017567       0.24927351
Si       3.83958982       3.83958982      12.00000000  F        6      -0.00112992       0.00017567       0.24927349
Si       7.67917964       3.83958982      12.00000000  F        6       0.00000000       0.00257603       0.24420470
Si       1.91979491       0.00000000      13.35750000  F        5       0.00000000       0.00158209      -0.53138805
Si       5.75938473       0.00000000      13.35750000  F        5       0.00911071       0.00181120      -0.50558872
Si       9.59897455       0.00000000      13.35750000  F        5      -0.00911068       0.00181120      -0.50558874
Si       1.91979491       3.83958982      13.35750000  F        5       0.00000000      -0.00158211      -0.53138807
Si       5.75938473       3.83958982      13.35750000  F        5       0.00911071      -0.00181122      -0.50558873
Si       9.59897455       3.83958982      13.35750000  F        5      -0.00911068      -0.00181122      -0.50558875
Si       1.91979491       1.91979491      14.71500000  F        4      -0.00000000      -0.00000000       0.16410602
Si       5.75938473       1.91979491      14.71500000  F        4       0.02258985      -0.00000000       0.22997664
Si       9.59897455       1.91979491      14.71500000  F        4      -0.02258981      -0.00000000       0.22997666
Si       1.91979491       5.75938473      14.71500000  F        4      -0.00000000       0.00000002       0.15166877
Si       5.75938473       5.75938473      14.71500000  F        4       0.03644167       0.00000002       0.20072929
Si       9.59897455       5.75938473      14.71500000  F        4      -0.03644163       0.00000002       0.20072931
Si       0.00000000       1.91979491      16.07250000  F        3       0.00053753      -0.00000000      -0.16817281
Si       3.83958982       1.91979491      16.07250000  F        3      -0.00053757      -0.00000000      -0.16817279
Si       7.67917964       1.91979491      16.07250000  F        3       0.00000000      -0.00000000      -0.27377797
Si       0.00000000       5.75938473      16.07250000  F        3      -0.04240075       0.00000002      -0.10445674
Si       3.83958982       5.75938473      16.07250000  F        3       0.04240071       0.00000002      -0.10445672
Si       7.67917964       5.75938473      16.07250000  F        3       0.00000000       0.00000002      -0.19450061
Si       0.00000000       0.00000000      17.43000000  F        2       0.03009792      -0.00424528       0.47364937
Si       3.83958982       0.00000000      17.43000000  F        2      -0.03009796      -0.00424528       0.47364935
Si       7.67917964       0.00000000      17.43000000  F        2      -0.00000000      -0.00412606       0.29162480
Si       0.00000000       3.83958982      17.43000000  F        2       0.03009792       0.00424525       0.47364938
Si       3.83958982       3.83958982      17.43000000  F        2      -0.03009796       0.00424525       0.47364936
Si       7.67917964       3.83958982      17.43000000  F        2      -0.00000000       0.00412604       0.29162481
Si       1.91979491       0.00000000      18.78750000  F        1      -0.00000000      -0.01313934      -0.22791620
Si       5.75938473       0.00000000      18.78750000  F        1      -0.06928193       0.00666170      -0.06832864
Si       9.59897455       0.00000000      18.78750000  F        1       0.06928197       0.00666170      -0.06832866
Si       1.91979491       3.83958982      18.78750000  F        1      -0.00000000       0.01313934      -0.22791620
Si       5.75938473       3.83958982      18.78750000  F        1      -0.06928193      -0.00666170      -0.06832864
Si       9.59897455       3.83958982      18.78750000  F        1       0.06928197      -0.00666170      -0.06832866
F        7.67917964       1.91979491      20.08750000  T        0       0.00000000       0.00000000      -3.01944136
F        7.67917964       1.91979491      21.56807573  T        0      -0.00000000      -0.00000000       2.70671991
