38
Lattice="11.518769465528859 0.0 0.0 0.0 7.679179643685906 0.0 0.0 0.0 30.7875" Properties=species:S:1:pos:R:3:move_mask:L:1:tags:I:1:forces:R:3 surface=Si100 species=Cl2 site=atop_Si orientation=upright height_A=6.5 substrate_atoms=36 calculation_kind="Rigid evaluated approach scan; not NEB" energy=-183.74098081409068 pbc="T T F"
Si       0.00000000       0.00000000      12.00000000  F        6      -0.00000004       0.00000000       0.24903484
Si       3.83958982       0.00000000      12.00000000  F        6      -0.00000000       0.00000000       0.24903482
Si       7.67917964       0.00000000      12.00000000  F        6       0.00000000       0.00000000       0.24903482
Si       0.00000000       3.83958982      12.00000000  F        6      -0.00000004      -0.00000000       0.24903484
Si       3.83958982       3.83958982      12.00000000  F        6      -0.00000000      -0.00000000       0.24903482
Si       7.67917964       3.83958982      12.00000000  F        6       0.00000000      -0.00000000       0.24903482
Si       1.91979491       0.00000000      13.35750000  F        5       0.00000000      -0.00000002      -0.52822352
Si       5.75938473       0.00000000      13.35750000  F        5       0.00000000      -0.00000002      -0.52822353
Si       9.59897455       0.00000000      13.35750000  F        5       0.00000003      -0.00000002      -0.52822354
Si       1.91979491       3.83958982      13.35750000  F        5       0.00000000       0.00000000      -0.52822354
Si       5.75938473       3.83958982      13.35750000  F        5       0.00000000       0.00000000      -0.52822354
Si       9.59897455       3.83958982      13.35750000  F        5       0.00000003       0.00000000      -0.52822356
Si       1.91979491       1.91979491      14.71500000  F        4      -0.00000000       0.00000000       0.14537709
Si       5.75938473       1.91979491      14.71500000  F        4       0.00000000       0.00000000       0.14537709
Si       9.59897455       1.91979491      14.71500000  F        4       0.00000004       0.00000000       0.14537711
Si       1.91979491       5.75938473      14.71500000  F        4      -0.00000000       0.00000002       0.14537707
Si       5.75938473       5.75938473      14.71500000  F        4       0.00000000       0.00000002       0.14537707
Si       9.59897455       5.75938473      14.71500000  F        4       0.00000004       0.00000002       0.14537709
Si       0.00000000       1.91979491      16.07250000  F        3      -0.00000004       0.00000000      -0.14537711
Si       3.83958982       1.91979491      16.07250000  F        3      -0.00000000       0.00000000      -0.14537709
Si       7.67917964       1.91979491      16.07250000  F        3       0.00000000       0.00000000      -0.14537709
Si       0.00000000       5.75938473      16.07250000  F        3      -0.00000004       0.00000002      -0.14537709
Si       3.83958982       5.75938473      16.07250000  F        3      -0.00000000       0.00000002      -0.14537707
Si       7.67917964       5.75938473      16.07250000  F        3       0.00000000       0.00000002      -0.14537707
Si       0.00000000       0.00000000      17.43000000  F        2      -0.00000003      -0.00000002       0.52822354
Si       3.83958982       0.00000000      17.43000000  F        2      -0.00000000      -0.00000002       0.52822353
Si       7.67917964       0.00000000      17.43000000  F        2      -0.00000000      -0.00000002       0.52822352
Si       0.00000000       3.83958982      17.43000000  F        2      -0.00000003       0.00000000       0.52822356
Si       3.83958982       3.83958982      17.43000000  F        2      -0.00000000       0.00000000       0.52822354
Si       7.67917964       3.83958982      17.43000000  F        2      -0.00000000       0.00000000       0.52822354
Si       1.91979491       0.00000000      18.78750000  F        1      -0.00000000       0.00000000      -0.24903482
Si       5.75938473       0.00000000      18.78750000  F        1       0.00000000       0.00000000      -0.24903482
Si       9.59897455       0.00000000      18.78750000  F        1       0.00000004       0.00000000      -0.24903484
Si       1.91979491       3.83958982      18.78750000  F        1      -0.00000000      -0.00000000      -0.24903482
Si       5.75938473       3.83958982      18.78750000  F        1       0.00000000      -0.00000000      -0.24903482
Si       9.59897455       3.83958982      18.78750000  F        1       0.00000004      -0.00000000      -0.24903484
Cl       5.75938473       3.83958982      25.28750000  T        0       0.00000000       0.00000000      -0.00087253
Cl       5.75938473       3.83958982      27.28609232  T        0       0.00000000       0.00000000       0.00087253
38
Lattice="11.518769465528859 0.0 0.0 0.0 7.679179643685906 0.0 0.0 0.0 30.7875" Properties=species:S:1:pos:R:3:move_mask:L:1:tags:I:1:forces:R:3 surface=Si100 species=Cl2 site=atop_Si orientation=upright height_A=5.0 substrate_atoms=36 calculation_kind="Rigid evaluated approach scan; not NEB" energy=-183.74098081409068 pbc="T T F"
Si       0.00000000       0.00000000      12.00000000  F        6      -0.00000004       0.00000000       0.24903484
Si       3.83958982       0.00000000      12.00000000  F        6      -0.00000000       0.00000000       0.24903482
Si       7.67917964       0.00000000      12.00000000  F        6       0.00000000       0.00000000       0.24903482
Si       0.00000000       3.83958982      12.00000000  F        6      -0.00000004      -0.00000000       0.24903484
Si       3.83958982       3.83958982      12.00000000  F        6      -0.00000000      -0.00000000       0.24903482
Si       7.67917964       3.83958982      12.00000000  F        6       0.00000000      -0.00000000       0.24903482
Si       1.91979491       0.00000000      13.35750000  F        5       0.00000000      -0.00000002      -0.52822352
Si       5.75938473       0.00000000      13.35750000  F        5       0.00000000      -0.00000002      -0.52822353
Si       9.59897455       0.00000000      13.35750000  F        5       0.00000003      -0.00000002      -0.52822354
Si       1.91979491       3.83958982      13.35750000  F        5       0.00000000       0.00000000      -0.52822354
Si       5.75938473       3.83958982      13.35750000  F        5       0.00000000       0.00000000      -0.52822354
Si       9.59897455       3.83958982      13.35750000  F        5       0.00000003       0.00000000      -0.52822356
Si       1.91979491       1.91979491      14.71500000  F        4      -0.00000000       0.00000000       0.14537709
Si       5.75938473       1.91979491      14.71500000  F        4       0.00000000       0.00000000       0.14537709
Si       9.59897455       1.91979491      14.71500000  F        4       0.00000004       0.00000000       0.14537711
Si       1.91979491       5.75938473      14.71500000  F        4      -0.00000000       0.00000002       0.14537707
Si       5.75938473       5.75938473      14.71500000  F        4       0.00000000       0.00000002       0.14537707
Si       9.59897455       5.75938473      14.71500000  F        4       0.00000004       0.00000002       0.14537709
Si       0.00000000       1.91979491      16.07250000  F        3      -0.00000004       0.00000000      -0.14537711
Si       3.83958982       1.91979491      16.07250000  F        3      -0.00000000       0.00000000      -0.14537709
Si       7.67917964       1.91979491      16.07250000  F        3       0.00000000       0.00000000      -0.14537709
Si       0.00000000       5.75938473      16.07250000  F        3      -0.00000004       0.00000002      -0.14537709
Si       3.83958982       5.75938473      16.07250000  F        3      -0.00000000       0.00000002      -0.14537707
Si       7.67917964       5.75938473      16.07250000  F        3       0.00000000       0.00000002      -0.14537707
Si       0.00000000       0.00000000      17.43000000  F        2      -0.00000003      -0.00000002       0.52822354
Si       3.83958982       0.00000000      17.43000000  F        2      -0.00000000      -0.00000002       0.52822353
Si       7.67917964       0.00000000      17.43000000  F        2      -0.00000000      -0.00000002       0.52822352
Si       0.00000000       3.83958982      17.43000000  F        2      -0.00000003       0.00000000       0.52822356
Si       3.83958982       3.83958982      17.43000000  F        2      -0.00000000       0.00000000       0.52822354
Si       7.67917964       3.83958982      17.43000000  F        2      -0.00000000       0.00000000       0.52822354
Si       1.91979491       0.00000000      18.78750000  F        1      -0.00000000       0.00000000      -0.24903482
Si       5.75938473       0.00000000      18.78750000  F        1       0.00000000       0.00000000      -0.24903482
Si       9.59897455       0.00000000      18.78750000  F        1       0.00000004       0.00000000      -0.24903484
Si       1.91979491       3.83958982      18.78750000  F        1      -0.00000000      -0.00000000      -0.24903482
Si       5.75938473       3.83958982      18.78750000  F        1       0.00000000      -0.00000000      -0.24903482
Si       9.59897455       3.83958982      18.78750000  F        1       0.00000004      -0.00000000      -0.24903484
Cl       5.75938473       3.83958982      23.78750000  T        0       0.00000000       0.00000000      -0.00087253
Cl       5.75938473       3.83958982      25.78609232  T        0       0.00000000       0.00000000       0.00087253
38
Lattice="11.518769465528859 0.0 0.0 0.0 7.679179643685906 0.0 0.0 0.0 30.7875" Properties=species:S:1:pos:R:3:move_mask:L:1:tags:I:1:forces:R:3 surface=Si100 species=Cl2 site=atop_Si orientation=upright height_A=4.0 substrate_atoms=36 calculation_kind="Rigid evaluated approach scan; not NEB" energy=-183.81523656580939 pbc="T T F"
Si       0.00000000       0.00000000      12.00000000  F        6      -0.00000004       0.00000000       0.24889000
Si       3.83958982       0.00000000      12.00000000  F        6       0.00025279       0.00000000       0.24844966
Si       7.67917964       0.00000000      12.00000000  F        6      -0.00025279       0.00000000       0.24844966
Si       0.00000000       3.83958982      12.00000000  F        6      -0.00000004      -0.00000000       0.24885801
Si       3.83958982       3.83958982      12.00000000  F        6       0.00038882      -0.00000000       0.24874012
Si       7.67917964       3.83958982      12.00000000  F        6      -0.00038881      -0.00000000       0.24874012
Si       1.91979491       0.00000000      13.35750000  F        5       0.00028933      -0.00000002      -0.52754052
Si       5.75938473       0.00000000      13.35750000  F        5       0.00000000      -0.00000002      -0.52686062
Si       9.59897455       0.00000000      13.35750000  F        5      -0.00028930      -0.00000002      -0.52754054
Si       1.91979491       3.83958982      13.35750000  F        5       0.00078800       0.00000000      -0.52625852
Si       5.75938473       3.83958982      13.35750000  F        5       0.00000000       0.00000000      -0.52448287
Si       9.59897455       3.83958982      13.35750000  F        5      -0.00078796       0.00000000      -0.52625854
Si       1.91979491       1.91979491      14.71500000  F        4       0.00214516      -0.00027657       0.14629074
Si       5.75938473       1.91979491      14.71500000  F        4       0.00000000       0.00728045       0.16168962
Si       9.59897455       1.91979491      14.71500000  F        4      -0.00214512      -0.00027657       0.14629076
Si       1.91979491       5.75938473      14.71500000  F        4       0.00214516       0.00027659       0.14629072
Si       5.75938473       5.75938473      14.71500000  F        4       0.00000000      -0.00728043       0.16168961
Si       9.59897455       5.75938473      14.71500000  F        4      -0.00214512       0.00027659       0.14629075
Si       0.00000000       1.91979491      16.07250000  F        3      -0.00000004       0.00390558      -0.14300459
Si       3.83958982       1.91979491      16.07250000  F        3       0.00533434       0.01260208      -0.14002293
Si       7.67917964       1.91979491      16.07250000  F        3      -0.00533434       0.01260208      -0.14002293
Si       0.00000000       5.75938473      16.07250000  F        3      -0.00000004      -0.00390555      -0.14300458
Si       3.83958982       5.75938473      16.07250000  F        3       0.00533434      -0.01260205      -0.14002292
Si       7.67917964       5.75938473      16.07250000  F        3      -0.00533434      -0.01260205      -0.14002292
Si       0.00000000       0.00000000      17.43000000  F        2      -0.00000003      -0.00000002       0.52858764
Si       3.83958982       0.00000000      17.43000000  F        2      -0.00332836      -0.00000002       0.51863469
Si       7.67917964       0.00000000      17.43000000  F        2       0.00332836      -0.00000002       0.51863469
Si       0.00000000       3.83958982      17.43000000  F        2      -0.00000003       0.00000000       0.52851396
Si       3.83958982       3.83958982      17.43000000  F        2      -0.03289453       0.00000000       0.50255036
Si       7.67917964       3.83958982      17.43000000  F        2       0.03289452       0.00000000       0.50255036
Si       1.91979491       0.00000000      18.78750000  F        1       0.00092812       0.00000000      -0.24995315
Si       5.75938473       0.00000000      18.78750000  F        1       0.00000000       0.00000000      -0.24498916
Si       9.59897455       0.00000000      18.78750000  F        1      -0.00092809       0.00000000      -0.24995317
Si       1.91979491       3.83958982      18.78750000  F        1      -0.01691371      -0.00000000      -0.26131570
Si       5.75938473       3.83958982      18.78750000  F        1       0.00000000      -0.00000000      -0.12728952
Si       9.59897455       3.83958982      18.78750000  F        1       0.01691374      -0.00000000      -0.26131572
Cl       5.75938473       3.83958982      22.78750000  T        0      -0.00000000       0.00000000      -0.21936382
Cl       5.75938473       3.83958982      24.78609232  T        0       0.00000000       0.00000000       0.11908125
38
Lattice="11.518769465528859 0.0 0.0 0.0 7.679179643685906 0.0 0.0 0.0 30.7875" Properties=species:S:1:pos:R:3:move_mask:L:1:tags:I:1:forces:R:3 surface=Si100 species=Cl2 site=atop_Si orientation=upright height_A=3.25 substrate_atoms=36 calculation_kind="Rigid evaluated approach scan; not NEB" energy=-183.95132704859847 pbc="T T F"
Si       0.00000000       0.00000000      12.00000000  F        6      -0.00000004       0.00000000       0.24992702
Si       3.83958982       0.00000000      12.00000000  F        6      -0.00037251       0.00000000       0.24993691
Si       7.67917964       0.00000000      12.00000000  F        6       0.00037251       0.00000000       0.24993690
Si       0.00000000       3.83958982      12.00000000  F        6      -0.00000004      -0.00000000       0.24897467
Si       3.83958982       3.83958982      12.00000000  F        6      -0.00011285      -0.00000000       0.24830780
Si       7.67917964       3.83958982      12.00000000  F        6       0.00011285      -0.00000000       0.24830780
Si       1.91979491       0.00000000      13.35750000  F        5       0.00052857      -0.00000002      -0.52672870
Si       5.75938473       0.00000000      13.35750000  F        5       0.00000000      -0.00000002      -0.52841048
Si       9.59897455       0.00000000      13.35750000  F        5      -0.00052854      -0.00000002      -0.52672872
Si       1.91979491       3.83958982      13.35750000  F        5       0.00135709       0.00000000      -0.52341141
Si       5.75938473       3.83958982      13.35750000  F        5       0.00000000       0.00000000      -0.52443330
Si       9.59897455       3.83958982      13.35750000  F        5      -0.00135706       0.00000000      -0.52341143
Si       1.91979491       1.91979491      14.71500000  F        4       0.00302977      -0.00166439       0.14641986
Si       5.75938473       1.91979491      14.71500000  F        4       0.00000000       0.00150948       0.16516127
Si       9.59897455       1.91979491      14.71500000  F        4      -0.00302974      -0.00166439       0.14641988
Si       1.91979491       5.75938473      14.71500000  F        4       0.00302977       0.00166441       0.14641985
Si       5.75938473       5.75938473      14.71500000  F        4       0.00000000      -0.00150945       0.16516125
Si       9.59897455       5.75938473      14.71500000  F        4      -0.00302974       0.00166441       0.14641987
Si       0.00000000       1.91979491      16.07250000  F        3      -0.00000004       0.00695081      -0.14248299
Si       3.83958982       1.91979491      16.07250000  F        3       0.01127845       0.02668636      -0.14514039
Si       7.67917964       1.91979491      16.07250000  F        3      -0.01127845       0.02668636      -0.14514039
Si       0.00000000       5.75938473      16.07250000  F        3      -0.00000004      -0.00695078      -0.14248297
Si       3.83958982       5.75938473      16.07250000  F        3       0.01127845      -0.02668634      -0.14514038
Si       7.67917964       5.75938473      16.07250000  F        3      -0.01127845      -0.02668634      -0.14514038
Si       0.00000000       0.00000000      17.43000000  F        2      -0.00000003      -0.00000002       0.52254097
Si       3.83958982       0.00000000      17.43000000  F        2      -0.01083519      -0.00000002       0.50103674
Si       7.67917964       0.00000000      17.43000000  F        2       0.01083519      -0.00000002       0.50103674
Si       0.00000000       3.83958982      17.43000000  F        2      -0.00000003       0.00000000       0.52661813
Si       3.83958982       3.83958982      17.43000000  F        2       0.01149256       0.00000000       0.52707433
Si       7.67917964       3.83958982      17.43000000  F        2      -0.01149256       0.00000000       0.52707432
Si       1.91979491       0.00000000      18.78750000  F        1       0.00080510       0.00000000      -0.24576988
Si       5.75938473       0.00000000      18.78750000  F        1       0.00000000       0.00000000      -0.23824426
Si       9.59897455       0.00000000      18.78750000  F        1      -0.00080507       0.00000000      -0.24576990
Si       1.91979491       3.83958982      18.78750000  F        1      -0.03625184      -0.00000000      -0.25947895
Si       5.75938473       3.83958982      18.78750000  F        1       0.00000000      -0.00000000       0.06697188
Si       9.59897455       3.83958982      18.78750000  F        1       0.03625187      -0.00000000      -0.25947897
Cl       5.75938473       3.83958982      22.03750000  T        0      -0.00000000       0.00000000      -0.45928192
Cl       5.75938473       3.83958982      24.03609232  T        0       0.00000000       0.00000000       0.14292923
38
Lattice="11.518769465528859 0.0 0.0 0.0 7.679179643685906 0.0 0.0 0.0 30.7875" Properties=species:S:1:pos:R:3:move_mask:L:1:tags:I:1:forces:R:3 surface=Si100 species=Cl2 site=atop_Si orientation=upright height_A=2.75 substrate_atoms=36 calculation_kind="Rigid evaluated approach scan; not NEB" energy=-184.15224147259525 pbc="T T F"
Si       0.00000000       0.00000000      12.00000000  F        6      -0.00000004       0.00000000       0.25094845
Si       3.83958982       0.00000000      12.00000000  F        6      -0.00106292       0.00000000       0.25132193
Si       7.67917964       0.00000000      12.00000000  F        6       0.00106292       0.00000000       0.25132193
Si       0.00000000       3.83958982      12.00000000  F        6      -0.00000004      -0.00000000       0.24879974
Si       3.83958982       3.83958982      12.00000000  F        6      -0.00008622      -0.00000000       0.24939218
Si       7.67917964       3.83958982      12.00000000  F        6       0.00008622      -0.00000000       0.24939218
Si       1.91979491       0.00000000      13.35750000  F        5       0.00071861      -0.00000002      -0.52839273
Si       5.75938473       0.00000000      13.35750000  F        5       0.00000000      -0.00000002      -0.52781065
Si       9.59897455       0.00000000      13.35750000  F        5      -0.00071857      -0.00000002      -0.52839275
Si       1.91979491       3.83958982      13.35750000  F        5       0.00292938       0.00000000      -0.52567738
Si       5.75938473       3.83958982      13.35750000  F        5       0.00000000       0.00000000      -0.51930953
Si       9.59897455       3.83958982      13.35750000  F        5      -0.00292935       0.00000000      -0.52567740
Si       1.91979491       1.91979491      14.71500000  F        4       0.00618034      -0.00450476       0.14401871
Si       5.75938473       1.91979491      14.71500000  F        4       0.00000000      -0.00259421       0.17048732
Si       9.59897455       1.91979491      14.71500000  F        4      -0.00618030      -0.00450476       0.14401873
Si       1.91979491       5.75938473      14.71500000  F        4       0.00618034       0.00450479       0.14401870
Si       5.75938473       5.75938473      14.71500000  F        4       0.00000000       0.00259423       0.17048730
Si       9.59897455       5.75938473      14.71500000  F        4      -0.00618030       0.00450479       0.14401872
Si       0.00000000       1.91979491      16.07250000  F        3      -0.00000004       0.00515312      -0.14126011
Si       3.83958982       1.91979491      16.07250000  F        3       0.02522175       0.02518680      -0.15059034
Si       7.67917964       1.91979491      16.07250000  F        3      -0.02522175       0.02518680      -0.15059034
Si       0.00000000       5.75938473      16.07250000  F        3      -0.00000004      -0.00515310      -0.14126009
Si       3.83958982       5.75938473      16.07250000  F        3       0.02522175      -0.02518678      -0.15059033
Si       7.67917964       5.75938473      16.07250000  F        3      -0.02522175      -0.02518678      -0.15059033
Si       0.00000000       0.00000000      17.43000000  F        2      -0.00000003      -0.00000002       0.52526619
Si       3.83958982       0.00000000      17.43000000  F        2      -0.00866071      -0.00000002       0.48867287
Si       7.67917964       0.00000000      17.43000000  F        2       0.00866070      -0.00000002       0.48867287
Si       0.00000000       3.83958982      17.43000000  F        2      -0.00000003       0.00000000       0.55353296
Si       3.83958982       3.83958982      17.43000000  F        2      -0.04986773       0.00000000       0.59589593
Si       7.67917964       3.83958982      17.43000000  F        2       0.04986772       0.00000000       0.59589592
Si       1.91979491       0.00000000      18.78750000  F        1       0.00280712       0.00000000      -0.25200935
Si       5.75938473       0.00000000      18.78750000  F        1       0.00000000       0.00000000      -0.13115023
Si       9.59897455       0.00000000      18.78750000  F        1      -0.00280709       0.00000000      -0.25200937
Si       1.91979491       3.83958982      18.78750000  F        1      -0.03782825      -0.00000000      -0.28539804
Si       5.75938473       3.83958982      18.78750000  F        1       0.00000000      -0.00000000       0.09655831
Si       9.59897455       3.83958982      18.78750000  F        1       0.03782828      -0.00000000      -0.28539806
Cl       5.75938473       3.83958982      21.53750000  T        0      -0.00000000      -0.00000000      -1.42784071
Cl       5.75938473       3.83958982      23.53609232  T        0       0.00000000       0.00000000       0.91122681
38
Lattice="11.518769465528859 0.0 0.0 0.0 7.679179643685906 0.0 0.0 0.0 30.7875" Properties=species:S:1:pos:R:3:move_mask:L:1:tags:I:1:forces:R:3 surface=Si100 species=Cl2 site=atop_Si orientation=upright height_A=2.25 substrate_atoms=36 calculation_kind="Rigid evaluated approach scan; not NEB" energy=-184.26517179618642 pbc="T T F"
Si       0.00000000       0.00000000      12.00000000  F        6      -0.00000004       0.00000000       0.25158990
Si       3.83958982       0.00000000      12.00000000  F        6      -0.00150534       0.00000000       0.25336223
Si       7.67917964       0.00000000      12.00000000  F        6       0.00150535       0.00000000       0.25336223
Si       0.00000000       3.83958982      12.00000000  F        6      -0.00000004      -0.00000000       0.24940203
Si       3.83958982       3.83958982      12.00000000  F        6      -0.00102293      -0.00000000       0.25071039
Si       7.67917964       3.83958982      12.00000000  F        6       0.00102293      -0.00000000       0.25071039
Si       1.91979491       0.00000000      13.35750000  F        5       0.00533932      -0.00000002      -0.52668064
Si       5.75938473       0.00000000      13.35750000  F        5       0.00000000      -0.00000002      -0.52020843
Si       9.59897455       0.00000000      13.35750000  F        5      -0.00533928      -0.00000002      -0.52668066
Si       1.91979491       3.83958982      13.35750000  F        5       0.00405759       0.00000000      -0.53212417
Si       5.75938473       3.83958982      13.35750000  F        5       0.00000000       0.00000000      -0.50211126
Si       9.59897455       3.83958982      13.35750000  F        5      -0.00405755       0.00000000      -0.53212419
Si       1.91979491       1.91979491      14.71500000  F        4       0.01286215      -0.00707653       0.14634030
Si       5.75938473       1.91979491      14.71500000  F        4       0.00000000      -0.03553661       0.12040270
Si       9.59897455       1.91979491      14.71500000  F        4      -0.01286211      -0.00707653       0.14634032
Si       1.91979491       5.75938473      14.71500000  F        4       0.01286215       0.00707655       0.14634029
Si       5.75938473       5.75938473      14.71500000  F        4       0.00000000       0.03553664       0.12040268
Si       9.59897455       5.75938473      14.71500000  F        4      -0.01286211       0.00707655       0.14634031
Si       0.00000000       1.91979491      16.07250000  F        3      -0.00000004       0.00925438      -0.13255812
Si       3.83958982       1.91979491      16.07250000  F        3       0.02198407       0.02914071      -0.13191426
Si       7.67917964       1.91979491      16.07250000  F        3      -0.02198407       0.02914071      -0.13191426
Si       0.00000000       5.75938473      16.07250000  F        3      -0.00000004      -0.00925436      -0.13255811
Si       3.83958982       5.75938473      16.07250000  F        3       0.02198407      -0.02914069      -0.13191424
Si       7.67917964       5.75938473      16.07250000  F        3      -0.02198407      -0.02914069      -0.13191424
Si       0.00000000       0.00000000      17.43000000  F        2      -0.00000003      -0.00000002       0.50899982
Si       3.83958982       0.00000000      17.43000000  F        2      -0.07683848      -0.00000002       0.46548259
Si       7.67917964       0.00000000      17.43000000  F        2       0.07683848      -0.00000002       0.46548258
Si       0.00000000       3.83958982      17.43000000  F        2      -0.00000003       0.00000000       0.52590764
Si       3.83958982       3.83958982      17.43000000  F        2      -0.27044356       0.00000000       0.54152118
Si       7.67917964       3.83958982      17.43000000  F        2       0.27044356       0.00000000       0.54152117
Si       1.91979491       0.00000000      18.78750000  F        1      -0.00273992       0.00000000      -0.26961824
Si       5.75938473       0.00000000      18.78750000  F        1       0.00000000       0.00000000       0.05261491
Si       9.59897455       0.00000000      18.78750000  F        1       0.00273996       0.00000000      -0.26961825
Si       1.91979491       3.83958982      18.78750000  F        1      -0.00072822      -0.00000000      -0.23770183
Si       5.75938473       3.83958982      18.78750000  F        1       0.00000000      -0.00000000      -0.48666747
Si       9.59897455       3.83958982      18.78750000  F        1       0.00072825      -0.00000000      -0.23770184
Cl       5.75938473       3.83958982      21.03750000  T        0      -0.00000000       0.00000000      -1.77074979
Cl       5.75938473       3.83958982      23.03609232  T        0       0.00000000      -0.00000000       1.76792636
38
Lattice="11.518769465528859 0.0 0.0 0.0 7.679179643685906 0.0 0.0 0.0 30.7875" Properties=species:S:1:pos:R:3:move_mask:L:1:tags:I:1:forces:R:3 surface=Si100 species=Cl2 site=atop_Si orientation=upright height_A=1.9 substrate_atoms=36 calculation_kind="Rigid evaluated approach scan; not NEB" energy=-183.7199962767787 pbc="T T F"
Si       0.00000000       0.00000000      12.00000000  F        6      -0.00000004       0.00000000       0.25161079
Si       3.83958982       0.00000000      12.00000000  F        6       0.00058039       0.00000000       0.25278304
Si       7.67917964       0.00000000      12.00000000  F        6      -0.00058039       0.00000000       0.25278303
Si       0.00000000       3.83958982      12.00000000  F        6      -0.00000004      -0.00000000       0.25007036
Si       3.83958982       3.83958982      12.00000000  F        6       0.00066887      -0.00000000       0.25072395
Si       7.67917964       3.83958982      12.00000000  F        6      -0.00066887      -0.00000000       0.25072395
Si       1.91979491       0.00000000      13.35750000  F        5       0.00418789      -0.00000002      -0.52264922
Si       5.75938473       0.00000000      13.35750000  F        5       0.00000000      -0.00000002      -0.51838047
Si       9.59897455       0.00000000      13.35750000  F        5      -0.00418786      -0.00000002      -0.52264924
Si       1.91979491       3.83958982      13.35750000  F        5       0.00290963       0.00000000      -0.53025800
Si       5.75938473       3.83958982      13.35750000  F        5       0.00000000       0.00000000      -0.50467167
Si       9.59897455       3.83958982      13.35750000  F        5      -0.00290960       0.00000000      -0.53025803
Si       1.91979491       1.91979491      14.71500000  F        4       0.01472557      -0.00631262       0.14775277
Si       5.75938473       1.91979491      14.71500000  F        4       0.00000000      -0.04867175       0.09521563
Si       9.59897455       1.91979491      14.71500000  F        4      -0.01472554      -0.00631262       0.14775279
Si       1.91979491       5.75938473      14.71500000  F        4       0.01472557       0.00631264       0.14775275
Si       5.75938473       5.75938473      14.71500000  F        4       0.00000000       0.04867178       0.09521562
Si       9.59897455       5.75938473      14.71500000  F        4      -0.01472554       0.00631264       0.14775278
Si       0.00000000       1.91979491      16.07250000  F        3      -0.00000004       0.01874132      -0.12377320
Si       3.83958982       1.91979491      16.07250000  F        3       0.00531320       0.01405946      -0.12032966
Si       7.67917964       1.91979491      16.07250000  F        3      -0.00531320       0.01405946      -0.12032966
Si       0.00000000       5.75938473      16.07250000  F        3      -0.00000004      -0.01874129      -0.12377318
Si       3.83958982       5.75938473      16.07250000  F        3       0.00531320      -0.01405944      -0.12032965
Si       7.67917964       5.75938473      16.07250000  F        3      -0.00531320      -0.01405944      -0.12032965
Si       0.00000000       0.00000000      17.43000000  F        2      -0.00000003      -0.00000002       0.49751176
Si       3.83958982       0.00000000      17.43000000  F        2      -0.11674676      -0.00000002       0.45893207
Si       7.67917964       0.00000000      17.43000000  F        2       0.11674676      -0.00000002       0.45893207
Si       0.00000000       3.83958982      17.43000000  F        2      -0.00000003       0.00000000       0.52912222
Si       3.83958982       3.83958982      17.43000000  F        2      -0.10224415       0.00000000       0.61469038
Si       7.67917964       3.83958982      17.43000000  F        2       0.10224415       0.00000000       0.61469038
Si       1.91979491       0.00000000      18.78750000  F        1      -0.00883216       0.00000000      -0.27104271
Si       5.75938473       0.00000000      18.78750000  F        1       0.00000000       0.00000000       0.06492534
Si       9.59897455       0.00000000      18.78750000  F        1       0.00883219       0.00000000      -0.27104272
Si       1.91979491       3.83958982      18.78750000  F        1       0.00579226      -0.00000000      -0.16727807
Si       5.75938473       3.83958982      18.78750000  F        1       0.00000000      -0.00000000      -5.98178553
Si       9.59897455       3.83958982      18.78750000  F        1      -0.00579223      -0.00000000      -0.16727809
Cl       5.75938473       3.83958982      20.68750000  T        0      -0.00000000       0.00000000       2.41964500
Cl       5.75938473       3.83958982      22.68609232  T        0       0.00000000      -0.00000000       2.76757208
38
Lattice="11.518769465528859 0.0 0.0 0.0 7.679179643685906 0.0 0.0 0.0 30.7875" Properties=species:S:1:pos:R:3:move_mask:L:1:tags:I:1:forces:R:3 surface=Si100 species=Cl2 site=atop_Si orientation=upright height_A=1.6 substrate_atoms=36 calculation_kind="Rigid evaluated approach scan; not NEB" energy=-180.18111675450027 pbc="T T F"
Si       0.00000000       0.00000000      12.00000000  F        6      -0.00000004       0.00000000       0.25160846
Si       3.83958982       0.00000000      12.00000000  F        6       0.00285423       0.00000000       0.25284613
Si       7.67917964       0.00000000      12.00000000  F        6      -0.00285422       0.00000000       0.25284613
Si       0.00000000       3.83958982      12.00000000  F        6      -0.00000004      -0.00000000       0.25056442
Si       3.83958982       3.83958982      12.00000000  F        6       0.00269833      -0.00000000       0.25061224
Si       7.67917964       3.83958982      12.00000000  F        6      -0.00269832      -0.00000000       0.25061224
Si       1.91979491       0.00000000      13.35750000  F        5       0.00106395      -0.00000002      -0.51983672
Si       5.75938473       0.00000000      13.35750000  F        5       0.00000000      -0.00000002      -0.51937572
Si       9.59897455       0.00000000      13.35750000  F        5      -0.00106391      -0.00000002      -0.51983674
Si       1.91979491       3.83958982      13.35750000  F        5       0.00411052       0.00000000      -0.52406746
Si       5.75938473       3.83958982      13.35750000  F        5       0.00000000       0.00000000      -0.52339270
Si       9.59897455       3.83958982      13.35750000  F        5      -0.00411048       0.00000000      -0.52406748
Si       1.91979491       1.91979491      14.71500000  F        4       0.01733705       0.00103393       0.15859872
Si       5.75938473       1.91979491      14.71500000  F        4       0.00000000      -0.08678734       0.05186814
Si       9.59897455       1.91979491      14.71500000  F        4      -0.01733702       0.00103393       0.15859875
Si       1.91979491       5.75938473      14.71500000  F        4       0.01733705      -0.00103391       0.15859871
Si       5.75938473       5.75938473      14.71500000  F        4       0.00000000       0.08678736       0.05186813
Si       9.59897455       5.75938473      14.71500000  F        4      -0.01733702      -0.00103391       0.15859873
Si       0.00000000       1.91979491      16.07250000  F        3      -0.00000004       0.02885167      -0.11561692
Si       3.83958982       1.91979491      16.07250000  F        3      -0.01615387      -0.06520668      -0.17455511
Si       7.67917964       1.91979491      16.07250000  F        3       0.01615387      -0.06520668      -0.17455511
Si       0.00000000       5.75938473      16.07250000  F        3      -0.00000004      -0.02885165      -0.11561690
Si       3.83958982       5.75938473      16.07250000  F        3      -0.01615387       0.06520670      -0.17455509
Si       7.67917964       5.75938473      16.07250000  F        3       0.01615387       0.06520670      -0.17455509
Si       0.00000000       0.00000000      17.43000000  F        2      -0.00000003      -0.00000002       0.49722159
Si       3.83958982       0.00000000      17.43000000  F        2      -0.13010772      -0.00000002       0.44808698
Si       7.67917964       0.00000000      17.43000000  F        2       0.13010772      -0.00000002       0.44808698
Si       0.00000000       3.83958982      17.43000000  F        2      -0.00000003       0.00000000       0.50646987
Si       3.83958982       3.83958982      17.43000000  F        2       0.55681364       0.00000000       0.69325194
Si       7.67917964       3.83958982      17.43000000  F        2      -0.55681365       0.00000000       0.69325194
Si       1.91979491       0.00000000      18.78750000  F        1      -0.02192238       0.00000000      -0.25404460
Si       5.75938473       0.00000000      18.78750000  F        1       0.00000000      -0.00000000       0.07304734
Si       9.59897455       0.00000000      18.78750000  F        1       0.02192241       0.00000000      -0.25404461
Si       1.91979491       3.83958982      18.78750000  F        1      -0.23582630      -0.00000000      -0.08069174
Si       5.75938473       3.83958982      18.78750000  F        1       0.00000000      -0.00000000     -22.25418028
Si       9.59897455       3.83958982      18.78750000  F        1       0.23582633      -0.00000000      -0.08069176
Cl       5.75938473       3.83958982      20.38750000  T        0      -0.00000000       0.00000000      17.60007446
Cl       5.75938473       3.83958982      22.38609232  T        0       0.00000000      -0.00000000       3.77697214
38
Lattice="11.518769465528859 0.0 0.0 0.0 7.679179643685906 0.0 0.0 0.0 30.7875" Properties=species:S:1:pos:R:3:move_mask:L:1:tags:I:1:forces:R:3 surface=Si100 species=Cl2 site=atop_Si orientation=upright height_A=1.3 substrate_atoms=36 calculation_kind="Rigid evaluated approach scan; not NEB" energy=-163.46016054706004 pbc="T T F"
Si       0.00000000       0.00000000      12.00000000  F        6      -0.00000004       0.00000000       0.25346865
Si       3.83958982       0.00000000      12.00000000  F        6       0.00693581       0.00000000       0.25738498
Si       7.67917964       0.00000000      12.00000000  F        6      -0.00693581       0.00000000       0.25738498
Si       0.00000000       3.83958982      12.00000000  F        6      -0.00000004      -0.00000000       0.25171925
Si       3.83958982       3.83958982      12.00000000  F        6       0.00627062      -0.00000000       0.25245460
Si       7.67917964       3.83958982      12.00000000  F        6      -0.00627061      -0.00000000       0.25245460
Si       1.91979491       0.00000000      13.35750000  F        5      -0.00244432      -0.00000002      -0.51739047
Si       5.75938473       0.00000000      13.35750000  F        5       0.00000000      -0.00000002      -0.52465210
Si       9.59897455       0.00000000      13.35750000  F        5       0.00244436      -0.00000002      -0.51739049
Si       1.91979491       3.83958982      13.35750000  F        5       0.00236398       0.00000000      -0.52058815
Si       5.75938473       3.83958982      13.35750000  F        5       0.00000000       0.00000000      -0.54723639
Si       9.59897455       3.83958982      13.35750000  F        5      -0.00236395       0.00000000      -0.52058818
Si       1.91979491       1.91979491      14.71500000  F        4       0.02816260      -0.00094950       0.17063812
Si       5.75938473       1.91979491      14.71500000  F        4       0.00000000      -0.25346855      -0.24083949
Si       9.59897455       1.91979491      14.71500000  F        4      -0.02816257      -0.00094950       0.17063814
Si       1.91979491       5.75938473      14.71500000  F        4       0.02816260       0.00094952       0.17063810
Si       5.75938473       5.75938473      14.71500000  F        4       0.00000000       0.25346857      -0.24083951
Si       9.59897455       5.75938473      14.71500000  F        4      -0.02816257       0.00094952       0.17063812
Si       0.00000000       1.91979491      16.07250000  F        3      -0.00000004       0.03092367      -0.11719013
Si       3.83958982       1.91979491      16.07250000  F        3      -0.16299886      -0.12865953      -0.57826531
Si       7.67917964       1.91979491      16.07250000  F        3       0.16299886      -0.12865953      -0.57826531
Si       0.00000000       5.75938473      16.07250000  F        3      -0.00000004      -0.03092365      -0.11719011
Si       3.83958982       5.75938473      16.07250000  F        3      -0.16299886       0.12865955      -0.57826530
Si       7.67917964       5.75938473      16.07250000  F        3       0.16299886       0.12865955      -0.57826529
Si       0.00000000       0.00000000      17.43000000  F        2      -0.00000003      -0.00000002       0.48758294
Si       3.83958982       0.00000000      17.43000000  F        2      -0.52613698      -0.00000003       0.11687587
Si       7.67917964       0.00000000      17.43000000  F        2       0.52613698      -0.00000003       0.11687587
Si       0.00000000       3.83958982      17.43000000  F        2      -0.00000003       0.00000000       0.53074992
Si       3.83958982       3.83958982      17.43000000  F        2       2.64047877      -0.00000000       1.64665299
Si       7.67917964       3.83958982      17.43000000  F        2      -2.64047877      -0.00000000       1.64665299
Si       1.91979491       0.00000000      18.78750000  F        1      -0.08050806       0.00000000      -0.21871081
Si       5.75938473       0.00000000      18.78750000  F        1       0.00000000       0.00000000       0.70125362
Si       9.59897455       0.00000000      18.78750000  F        1       0.08050809       0.00000000      -0.21871083
Si       1.91979491       3.83958982      18.78750000  F        1      -0.46621901      -0.00000000       0.05430637
Si       5.75938473       3.83958982      18.78750000  F        1       0.00000000       0.00000001    -107.31940372
Si       9.59897455       3.83958982      18.78750000  F        1       0.46621904      -0.00000000       0.05430635
Cl       5.75938473       3.83958982      20.08750000  T        0       0.00000000      -0.00000000     103.26165289
Cl       5.75938473       3.83958982      22.08609232  T        0       0.00000000      -0.00000000       3.10946223
