41
Lattice="11.518769465528859 0.0 0.0 3.839589821842953 6.650364651656328 0.0 0.0 0.0 32.62128289467409" Properties=species:S:1:pos:R:3:move_mask:L:1:tags:I:1 surface=Si111 species=SiF4 site=bridge_Si_Si orientation=flipped height_A=6.5 substrate_atoms=36 calculation_kind="Rigid evaluated approach scan; not NEB" energy=-195.13192998824383 pbc="T T F"
Si       1.91979491       1.10839411      12.00000000  F        6
Si       5.75938473       1.10839411      12.00000000  F        6
Si       9.59897455       1.10839411      12.00000000  F        6
Si       3.83958982       4.43357643      12.00000000  F        6
Si       7.67917964       4.43357643      12.00000000  F        6
Si      11.51876947       4.43357643      12.00000000  F        6
Si       1.91979491       1.10839411      14.35125897  F        5
Si       5.75938473       1.10839411      14.35125897  F        5
Si       9.59897455       1.10839411      14.35125897  F        5
Si       3.83958982       4.43357643      14.35125897  F        5
Si       7.67917964       4.43357643      14.35125897  F        5
Si      11.51876947       4.43357643      14.35125897  F        5
Si      -0.00000000       2.21678822      15.13501196  F        4
Si       3.83958982       2.21678822      15.13501196  F        4
Si       7.67917964       2.21678822      15.13501196  F        4
Si       1.91979491       5.54197054      15.13501196  F        4
Si       5.75938473       5.54197054      15.13501196  F        4
Si       9.59897455       5.54197054      15.13501196  F        4
Si      -0.00000000       2.21678822      17.48627093  F        3
Si       3.83958982       2.21678822      17.48627093  F        3
Si       7.67917964       2.21678822      17.48627093  F        3
Si       1.91979491       5.54197054      17.48627093  F        3
Si       5.75938473       5.54197054      17.48627093  F        3
Si       9.59897455       5.54197054      17.48627093  F        3
Si       0.00000000       0.00000000      18.27002392  F        2
Si       3.83958982       0.00000000      18.27002392  F        2
Si       7.67917964       0.00000000      18.27002392  F        2
Si       1.91979491       3.32518233      18.27002392  F        2
Si       5.75938473       3.32518233      18.27002392  F        2
Si       9.59897455       3.32518233      18.27002392  F        2
Si       0.00000000       0.00000000      20.62128289  F        1
Si       3.83958982       0.00000000      20.62128289  F        1
Si       7.67917964       0.00000000      20.62128289  F        1
Si       1.91979491       3.32518233      20.62128289  F        1
Si       5.75938473       3.32518233      20.62128289  F        1
Si       9.59897455       3.32518233      20.62128289  F        1
Si       8.63907710       4.98777349      27.64861684  T        0
F        8.63907710       4.98777349      29.23061869  T        0
F        7.14755145       4.98777349      27.12128289  T        0
F        9.38483992       6.27947259      27.12128289  T        0
F        9.38483992       3.69607439      27.12128289  T        0
41
Lattice="11.518769465528859 0.0 0.0 3.839589821842953 6.650364651656328 0.0 0.0 0.0 32.62128289467409" Properties=species:S:1:pos:R:3:move_mask:L:1:tags:I:1 surface=Si111 species=SiF4 site=bridge_Si_Si orientation=flipped height_A=5.0 substrate_atoms=36 calculation_kind="Rigid evaluated approach scan; not NEB" energy=-195.13192998824383 pbc="T T F"
Si       1.91979491       1.10839411      12.00000000  F        6
Si       5.75938473       1.10839411      12.00000000  F        6
Si       9.59897455       1.10839411      12.00000000  F        6
Si       3.83958982       4.43357643      12.00000000  F        6
Si       7.67917964       4.43357643      12.00000000  F        6
Si      11.51876947       4.43357643      12.00000000  F        6
Si       1.91979491       1.10839411      14.35125897  F        5
Si       5.75938473       1.10839411      14.35125897  F        5
Si       9.59897455       1.10839411      14.35125897  F        5
Si       3.83958982       4.43357643      14.35125897  F        5
Si       7.67917964       4.43357643      14.35125897  F        5
Si      11.51876947       4.43357643      14.35125897  F        5
Si      -0.00000000       2.21678822      15.13501196  F        4
Si       3.83958982       2.21678822      15.13501196  F        4
Si       7.67917964       2.21678822      15.13501196  F        4
Si       1.91979491       5.54197054      15.13501196  F        4
Si       5.75938473       5.54197054      15.13501196  F        4
Si       9.59897455       5.54197054      15.13501196  F        4
Si      -0.00000000       2.21678822      17.48627093  F        3
Si       3.83958982       2.21678822      17.48627093  F        3
Si       7.67917964       2.21678822      17.48627093  F        3
Si       1.91979491       5.54197054      17.48627093  F        3
Si       5.75938473       5.54197054      17.48627093  F        3
Si       9.59897455       5.54197054      17.48627093  F        3
Si       0.00000000       0.00000000      18.27002392  F        2
Si       3.83958982       0.00000000      18.27002392  F        2
Si       7.67917964       0.00000000      18.27002392  F        2
Si       1.91979491       3.32518233      18.27002392  F        2
Si       5.75938473       3.32518233      18.27002392  F        2
Si       9.59897455       3.32518233      18.27002392  F        2
Si       0.00000000       0.00000000      20.62128289  F        1
Si       3.83958982       0.00000000      20.62128289  F        1
Si       7.67917964       0.00000000      20.62128289  F        1
Si       1.91979491       3.32518233      20.62128289  F        1
Si       5.75938473       3.32518233      20.62128289  F        1
Si       9.59897455       3.32518233      20.62128289  F        1
Si       8.63907710       4.98777349      26.14861684  T        0
F        8.63907710       4.98777349      27.73061869  T        0
F        7.14755145       4.98777349      25.62128289  T        0
F        9.38483992       6.27947259      25.62128289  T        0
F        9.38483992       3.69607439      25.62128289  T        0
41
Lattice="11.518769465528859 0.0 0.0 3.839589821842953 6.650364651656328 0.0 0.0 0.0 32.62128289467409" Properties=species:S:1:pos:R:3:move_mask:L:1:tags:I:1 surface=Si111 species=SiF4 site=bridge_Si_Si orientation=flipped height_A=4.0 substrate_atoms=36 calculation_kind="Rigid evaluated approach scan; not NEB" energy=-195.23271454067276 pbc="T T F"
Si       1.91979491       1.10839411      12.00000000  F        6
Si       5.75938473       1.10839411      12.00000000  F        6
Si       9.59897455       1.10839411      12.00000000  F        6
Si       3.83958982       4.43357643      12.00000000  F        6
Si       7.67917964       4.43357643      12.00000000  F        6
Si      11.51876947       4.43357643      12.00000000  F        6
Si       1.91979491       1.10839411      14.35125897  F        5
Si       5.75938473       1.10839411      14.35125897  F        5
Si       9.59897455       1.10839411      14.35125897  F        5
Si       3.83958982       4.43357643      14.35125897  F        5
Si       7.67917964       4.43357643      14.35125897  F        5
Si      11.51876947       4.43357643      14.35125897  F        5
Si      -0.00000000       2.21678822      15.13501196  F        4
Si       3.83958982       2.21678822      15.13501196  F        4
Si       7.67917964       2.21678822      15.13501196  F        4
Si       1.91979491       5.54197054      15.13501196  F        4
Si       5.75938473       5.54197054      15.13501196  F        4
Si       9.59897455       5.54197054      15.13501196  F        4
Si      -0.00000000       2.21678822      17.48627093  F        3
Si       3.83958982       2.21678822      17.48627093  F        3
Si       7.67917964       2.21678822      17.48627093  F        3
Si       1.91979491       5.54197054      17.48627093  F        3
Si       5.75938473       5.54197054      17.48627093  F        3
Si       9.59897455       5.54197054      17.48627093  F        3
Si       0.00000000       0.00000000      18.27002392  F        2
Si       3.83958982       0.00000000      18.27002392  F        2
Si       7.67917964       0.00000000      18.27002392  F        2
Si       1.91979491       3.32518233      18.27002392  F        2
Si       5.75938473       3.32518233      18.27002392  F        2
Si       9.59897455       3.32518233      18.27002392  F        2
Si       0.00000000       0.00000000      20.62128289  F        1
Si       3.83958982       0.00000000      20.62128289  F        1
Si       7.67917964       0.00000000      20.62128289  F        1
Si       1.91979491       3.32518233      20.62128289  F        1
Si       5.75938473       3.32518233      20.62128289  F        1
Si       9.59897455       3.32518233      20.62128289  F        1
Si       8.63907710       4.98777349      25.14861684  T        0
F        8.63907710       4.98777349      26.73061869  T        0
F        7.14755145       4.98777349      24.62128289  T        0
F        9.38483992       6.27947259      24.62128289  T        0
F        9.38483992       3.69607439      24.62128289  T        0
41
Lattice="11.518769465528859 0.0 0.0 3.839589821842953 6.650364651656328 0.0 0.0 0.0 32.62128289467409" Properties=species:S:1:pos:R:3:move_mask:L:1:tags:I:1 surface=Si111 species=SiF4 site=bridge_Si_Si orientation=flipped height_A=3.25 substrate_atoms=36 calculation_kind="Rigid evaluated approach scan; not NEB" energy=-195.75512387853598 pbc="T T F"
Si       1.91979491       1.10839411      12.00000000  F        6
Si       5.75938473       1.10839411      12.00000000  F        6
Si       9.59897455       1.10839411      12.00000000  F        6
Si       3.83958982       4.43357643      12.00000000  F        6
Si       7.67917964       4.43357643      12.00000000  F        6
Si      11.51876947       4.43357643      12.00000000  F        6
Si       1.91979491       1.10839411      14.35125897  F        5
Si       5.75938473       1.10839411      14.35125897  F        5
Si       9.59897455       1.10839411      14.35125897  F        5
Si       3.83958982       4.43357643      14.35125897  F        5
Si       7.67917964       4.43357643      14.35125897  F        5
Si      11.51876947       4.43357643      14.35125897  F        5
Si      -0.00000000       2.21678822      15.13501196  F        4
Si       3.83958982       2.21678822      15.13501196  F        4
Si       7.67917964       2.21678822      15.13501196  F        4
Si       1.91979491       5.54197054      15.13501196  F        4
Si       5.75938473       5.54197054      15.13501196  F        4
Si       9.59897455       5.54197054      15.13501196  F        4
Si      -0.00000000       2.21678822      17.48627093  F        3
Si       3.83958982       2.21678822      17.48627093  F        3
Si       7.67917964       2.21678822      17.48627093  F        3
Si       1.91979491       5.54197054      17.48627093  F        3
Si       5.75938473       5.54197054      17.48627093  F        3
Si       9.59897455       5.54197054      17.48627093  F        3
Si       0.00000000       0.00000000      18.27002392  F        2
Si       3.83958982       0.00000000      18.27002392  F        2
Si       7.67917964       0.00000000      18.27002392  F        2
Si       1.91979491       3.32518233      18.27002392  F        2
Si       5.75938473       3.32518233      18.27002392  F        2
Si       9.59897455       3.32518233      18.27002392  F        2
Si       0.00000000       0.00000000      20.62128289  F        1
Si       3.83958982       0.00000000      20.62128289  F        1
Si       7.67917964       0.00000000      20.62128289  F        1
Si       1.91979491       3.32518233      20.62128289  F        1
Si       5.75938473       3.32518233      20.62128289  F        1
Si       9.59897455       3.32518233      20.62128289  F        1
Si       8.63907710       4.98777349      24.39861684  T        0
F        8.63907710       4.98777349      25.98061869  T        0
F        7.14755145       4.98777349      23.87128289  T        0
F        9.38483992       6.27947259      23.87128289  T        0
F        9.38483992       3.69607439      23.87128289  T        0
41
Lattice="11.518769465528859 0.0 0.0 3.839589821842953 6.650364651656328 0.0 0.0 0.0 32.62128289467409" Properties=species:S:1:pos:R:3:move_mask:L:1:tags:I:1 surface=Si111 species=SiF4 site=bridge_Si_Si orientation=flipped height_A=2.75 substrate_atoms=36 calculation_kind="Rigid evaluated approach scan; not NEB" energy=-196.19388677282893 pbc="T T F"
Si       1.91979491       1.10839411      12.00000000  F        6
Si       5.75938473       1.10839411      12.00000000  F        6
Si       9.59897455       1.10839411      12.00000000  F        6
Si       3.83958982       4.43357643      12.00000000  F        6
Si       7.67917964       4.43357643      12.00000000  F        6
Si      11.51876947       4.43357643      12.00000000  F        6
Si       1.91979491       1.10839411      14.35125897  F        5
Si       5.75938473       1.10839411      14.35125897  F        5
Si       9.59897455       1.10839411      14.35125897  F        5
Si       3.83958982       4.43357643      14.35125897  F        5
Si       7.67917964       4.43357643      14.35125897  F        5
Si      11.51876947       4.43357643      14.35125897  F        5
Si      -0.00000000       2.21678822      15.13501196  F        4
Si       3.83958982       2.21678822      15.13501196  F        4
Si       7.67917964       2.21678822      15.13501196  F        4
Si       1.91979491       5.54197054      15.13501196  F        4
Si       5.75938473       5.54197054      15.13501196  F        4
Si       9.59897455       5.54197054      15.13501196  F        4
Si      -0.00000000       2.21678822      17.48627093  F        3
Si       3.83958982       2.21678822      17.48627093  F        3
Si       7.67917964       2.21678822      17.48627093  F        3
Si       1.91979491       5.54197054      17.48627093  F        3
Si       5.75938473       5.54197054      17.48627093  F        3
Si       9.59897455       5.54197054      17.48627093  F        3
Si       0.00000000       0.00000000      18.27002392  F        2
Si       3.83958982       0.00000000      18.27002392  F        2
Si       7.67917964       0.00000000      18.27002392  F        2
Si       1.91979491       3.32518233      18.27002392  F        2
Si       5.75938473       3.32518233      18.27002392  F        2
Si       9.59897455       3.32518233      18.27002392  F        2
Si       0.00000000       0.00000000      20.62128289  F        1
Si       3.83958982       0.00000000      20.62128289  F        1
Si       7.67917964       0.00000000      20.62128289  F        1
Si       1.91979491       3.32518233      20.62128289  F        1
Si       5.75938473       3.32518233      20.62128289  F        1
Si       9.59897455       3.32518233      20.62128289  F        1
Si       8.63907710       4.98777349      23.89861684  T        0
F        8.63907710       4.98777349      25.48061869  T        0
F        7.14755145       4.98777349      23.37128289  T        0
F        9.38483992       6.27947259      23.37128289  T        0
F        9.38483992       3.69607439      23.37128289  T        0
41
Lattice="11.518769465528859 0.0 0.0 3.839589821842953 6.650364651656328 0.0 0.0 0.0 32.62128289467409" Properties=species:S:1:pos:R:3:move_mask:L:1:tags:I:1 surface=Si111 species=SiF4 site=bridge_Si_Si orientation=flipped height_A=2.25 substrate_atoms=36 calculation_kind="Rigid evaluated approach scan; not NEB" energy=-195.76181509190954 pbc="T T F"
Si       1.91979491       1.10839411      12.00000000  F        6
Si       5.75938473       1.10839411      12.00000000  F        6
Si       9.59897455       1.10839411      12.00000000  F        6
Si       3.83958982       4.43357643      12.00000000  F        6
Si       7.67917964       4.43357643      12.00000000  F        6
Si      11.51876947       4.43357643      12.00000000  F        6
Si       1.91979491       1.10839411      14.35125897  F        5
Si       5.75938473       1.10839411      14.35125897  F        5
Si       9.59897455       1.10839411      14.35125897  F        5
Si       3.83958982       4.43357643      14.35125897  F        5
Si       7.67917964       4.43357643      14.35125897  F        5
Si      11.51876947       4.43357643      14.35125897  F        5
Si      -0.00000000       2.21678822      15.13501196  F        4
Si       3.83958982       2.21678822      15.13501196  F        4
Si       7.67917964       2.21678822      15.13501196  F        4
Si       1.91979491       5.54197054      15.13501196  F        4
Si       5.75938473       5.54197054      15.13501196  F        4
Si       9.59897455       5.54197054      15.13501196  F        4
Si      -0.00000000       2.21678822      17.48627093  F        3
Si       3.83958982       2.21678822      17.48627093  F        3
Si       7.67917964       2.21678822      17.48627093  F        3
Si       1.91979491       5.54197054      17.48627093  F        3
Si       5.75938473       5.54197054      17.48627093  F        3
Si       9.59897455       5.54197054      17.48627093  F        3
Si       0.00000000       0.00000000      18.27002392  F        2
Si       3.83958982       0.00000000      18.27002392  F        2
Si       7.67917964       0.00000000      18.27002392  F        2
Si       1.91979491       3.32518233      18.27002392  F        2
Si       5.75938473       3.32518233      18.27002392  F        2
Si       9.59897455       3.32518233      18.27002392  F        2
Si       0.00000000       0.00000000      20.62128289  F        1
Si       3.83958982       0.00000000      20.62128289  F        1
Si       7.67917964       0.00000000      20.62128289  F        1
Si       1.91979491       3.32518233      20.62128289  F        1
Si       5.75938473       3.32518233      20.62128289  F        1
Si       9.59897455       3.32518233      20.62128289  F        1
Si       8.63907710       4.98777349      23.39861684  T        0
F        8.63907710       4.98777349      24.98061869  T        0
F        7.14755145       4.98777349      22.87128289  T        0
F        9.38483992       6.27947259      22.87128289  T        0
F        9.38483992       3.69607439      22.87128289  T        0
41
Lattice="11.518769465528859 0.0 0.0 3.839589821842953 6.650364651656328 0.0 0.0 0.0 32.62128289467409" Properties=species:S:1:pos:R:3:move_mask:L:1:tags:I:1 surface=Si111 species=SiF4 site=bridge_Si_Si orientation=flipped height_A=1.9 substrate_atoms=36 calculation_kind="Rigid evaluated approach scan; not NEB" energy=-194.7815779690498 pbc="T T F"
Si       1.91979491       1.10839411      12.00000000  F        6
Si       5.75938473       1.10839411      12.00000000  F        6
Si       9.59897455       1.10839411      12.00000000  F        6
Si       3.83958982       4.43357643      12.00000000  F        6
Si       7.67917964       4.43357643      12.00000000  F        6
Si      11.51876947       4.43357643      12.00000000  F        6
Si       1.91979491       1.10839411      14.35125897  F        5
Si       5.75938473       1.10839411      14.35125897  F        5
Si       9.59897455       1.10839411      14.35125897  F        5
Si       3.83958982       4.43357643      14.35125897  F        5
Si       7.67917964       4.43357643      14.35125897  F        5
Si      11.51876947       4.43357643      14.35125897  F        5
Si      -0.00000000       2.21678822      15.13501196  F        4
Si       3.83958982       2.21678822      15.13501196  F        4
Si       7.67917964       2.21678822      15.13501196  F        4
Si       1.91979491       5.54197054      15.13501196  F        4
Si       5.75938473       5.54197054      15.13501196  F        4
Si       9.59897455       5.54197054      15.13501196  F        4
Si      -0.00000000       2.21678822      17.48627093  F        3
Si       3.83958982       2.21678822      17.48627093  F        3
Si       7.67917964       2.21678822      17.48627093  F        3
Si       1.91979491       5.54197054      17.48627093  F        3
Si       5.75938473       5.54197054      17.48627093  F        3
Si       9.59897455       5.54197054      17.48627093  F        3
Si       0.00000000       0.00000000      18.27002392  F        2
Si       3.83958982       0.00000000      18.27002392  F        2
Si       7.67917964       0.00000000      18.27002392  F        2
Si       1.91979491       3.32518233      18.27002392  F        2
Si       5.75938473       3.32518233      18.27002392  F        2
Si       9.59897455       3.32518233      18.27002392  F        2
Si       0.00000000       0.00000000      20.62128289  F        1
Si       3.83958982       0.00000000      20.62128289  F        1
Si       7.67917964       0.00000000      20.62128289  F        1
Si       1.91979491       3.32518233      20.62128289  F        1
Si       5.75938473       3.32518233      20.62128289  F        1
Si       9.59897455       3.32518233      20.62128289  F        1
Si       8.63907710       4.98777349      23.04861684  T        0
F        8.63907710       4.98777349      24.63061869  T        0
F        7.14755145       4.98777349      22.52128289  T        0
F        9.38483992       6.27947259      22.52128289  T        0
F        9.38483992       3.69607439      22.52128289  T        0
41
Lattice="11.518769465528859 0.0 0.0 3.839589821842953 6.650364651656328 0.0 0.0 0.0 32.62128289467409" Properties=species:S:1:pos:R:3:move_mask:L:1:tags:I:1 surface=Si111 species=SiF4 site=bridge_Si_Si orientation=flipped height_A=1.6 substrate_atoms=36 calculation_kind="Rigid evaluated approach scan; not NEB" energy=-193.62165046616124 pbc="T T F"
Si       1.91979491       1.10839411      12.00000000  F        6
Si       5.75938473       1.10839411      12.00000000  F        6
Si       9.59897455       1.10839411      12.00000000  F        6
Si       3.83958982       4.43357643      12.00000000  F        6
Si       7.67917964       4.43357643      12.00000000  F        6
Si      11.51876947       4.43357643      12.00000000  F        6
Si       1.91979491       1.10839411      14.35125897  F        5
Si       5.75938473       1.10839411      14.35125897  F        5
Si       9.59897455       1.10839411      14.35125897  F        5
Si       3.83958982       4.43357643      14.35125897  F        5
Si       7.67917964       4.43357643      14.35125897  F        5
Si      11.51876947       4.43357643      14.35125897  F        5
Si      -0.00000000       2.21678822      15.13501196  F        4
Si       3.83958982       2.21678822      15.13501196  F        4
Si       7.67917964       2.21678822      15.13501196  F        4
Si       1.91979491       5.54197054      15.13501196  F        4
Si       5.75938473       5.54197054      15.13501196  F        4
Si       9.59897455       5.54197054      15.13501196  F        4
Si      -0.00000000       2.21678822      17.48627093  F        3
Si       3.83958982       2.21678822      17.48627093  F        3
Si       7.67917964       2.21678822      17.48627093  F        3
Si       1.91979491       5.54197054      17.48627093  F        3
Si       5.75938473       5.54197054      17.48627093  F        3
Si       9.59897455       5.54197054      17.48627093  F        3
Si       0.00000000       0.00000000      18.27002392  F        2
Si       3.83958982       0.00000000      18.27002392  F        2
Si       7.67917964       0.00000000      18.27002392  F        2
Si       1.91979491       3.32518233      18.27002392  F        2
Si       5.75938473       3.32518233      18.27002392  F        2
Si       9.59897455       3.32518233      18.27002392  F        2
Si       0.00000000       0.00000000      20.62128289  F        1
Si       3.83958982       0.00000000      20.62128289  F        1
Si       7.67917964       0.00000000      20.62128289  F        1
Si       1.91979491       3.32518233      20.62128289  F        1
Si       5.75938473       3.32518233      20.62128289  F        1
Si       9.59897455       3.32518233      20.62128289  F        1
Si       8.63907710       4.98777349      22.74861684  T        0
F        8.63907710       4.98777349      24.33061869  T        0
F        7.14755145       4.98777349      22.22128289  T        0
F        9.38483992       6.27947259      22.22128289  T        0
F        9.38483992       3.69607439      22.22128289  T        0
41
Lattice="11.518769465528859 0.0 0.0 3.839589821842953 6.650364651656328 0.0 0.0 0.0 32.62128289467409" Properties=species:S:1:pos:R:3:move_mask:L:1:tags:I:1 surface=Si111 species=SiF4 site=bridge_Si_Si orientation=flipped height_A=1.3 substrate_atoms=36 calculation_kind="Rigid evaluated approach scan; not NEB" energy=-190.51579410476623 pbc="T T F"
Si       1.91979491       1.10839411      12.00000000  F        6
Si       5.75938473       1.10839411      12.00000000  F        6
Si       9.59897455       1.10839411      12.00000000  F        6
Si       3.83958982       4.43357643      12.00000000  F        6
Si       7.67917964       4.43357643      12.00000000  F        6
Si      11.51876947       4.43357643      12.00000000  F        6
Si       1.91979491       1.10839411      14.35125897  F        5
Si       5.75938473       1.10839411      14.35125897  F        5
Si       9.59897455       1.10839411      14.35125897  F        5
Si       3.83958982       4.43357643      14.35125897  F        5
Si       7.67917964       4.43357643      14.35125897  F        5
Si      11.51876947       4.43357643      14.35125897  F        5
Si      -0.00000000       2.21678822      15.13501196  F        4
Si       3.83958982       2.21678822      15.13501196  F        4
Si       7.67917964       2.21678822      15.13501196  F        4
Si       1.91979491       5.54197054      15.13501196  F        4
Si       5.75938473       5.54197054      15.13501196  F        4
Si       9.59897455       5.54197054      15.13501196  F        4
Si      -0.00000000       2.21678822      17.48627093  F        3
Si       3.83958982       2.21678822      17.48627093  F        3
Si       7.67917964       2.21678822      17.48627093  F        3
Si       1.91979491       5.54197054      17.48627093  F        3
Si       5.75938473       5.54197054      17.48627093  F        3
Si       9.59897455       5.54197054      17.48627093  F        3
Si       0.00000000       0.00000000      18.27002392  F        2
Si       3.83958982       0.00000000      18.27002392  F        2
Si       7.67917964       0.00000000      18.27002392  F        2
Si       1.91979491       3.32518233      18.27002392  F        2
Si       5.75938473       3.32518233      18.27002392  F        2
Si       9.59897455       3.32518233      18.27002392  F        2
Si       0.00000000       0.00000000      20.62128289  F        1
Si       3.83958982       0.00000000      20.62128289  F        1
Si       7.67917964       0.00000000      20.62128289  F        1
Si       1.91979491       3.32518233      20.62128289  F        1
Si       5.75938473       3.32518233      20.62128289  F        1
Si       9.59897455       3.32518233      20.62128289  F        1
Si       8.63907710       4.98777349      22.44861684  T        0
F        8.63907710       4.98777349      24.03061869  T        0
F        7.14755145       4.98777349      21.92128289  T        0
F        9.38483992       6.27947259      21.92128289  T        0
F        9.38483992       3.69607439      21.92128289  T        0
